
     Program PWSCF v.7.4.1 starts on 17Nov2025 at 13:33:54 

     This program is part of the open-source Quantum ESPRESSO suite
     for quantum simulation of materials; please cite
         "P. Giannozzi et al., J. Phys.:Condens. Matter 21 395502 (2009);
         "P. Giannozzi et al., J. Phys.:Condens. Matter 29 465901 (2017);
         "P. Giannozzi et al., J. Chem. Phys. 152 154105 (2020);
          URL http://www.quantum-espresso.org", 
     in publications or presentations arising from this work. More details at
     http://www.quantum-espresso.org/quote

     Parallel version (MPI), running on     6 processors

     MPI processes distributed on     1 nodes
     6268 MiB available memory on the printing compute node when the environment starts

     Reading input from grap_SOC_scf.in

     Current dimensions of program PWSCF are:
     Max number of different atomic species (ntypx) = 10
     Max number of k-points (npk) =  40000
     Max angular momentum in pseudopotentials (lmaxx) =  4
     Presently stress not available with electric field and gates

     file C.rel-pbe-n-kjpaw_psl.0.1.UPF: wavefunction(s)  2P 2P renormalized

     R & G space division:  proc/nbgrp/npool/nimage =       6
     Subspace diagonalization in iterative solution of the eigenvalue problem:
     a serial algorithm will be used


     Parallelization info
     --------------------
     sticks:   dense  smooth     PW     G-vecs:    dense   smooth      PW
     Min         173      70     23                27803     7050    1361
     Max         175      71     24                27830     7077    1378
     Sum        1045     421    139               166859    42343    8205

     Using Slab Decomposition



     bravais-lattice index     =            0
     lattice parameter (alat)  =       4.6624  a.u.
     unit-cell volume          =     533.6317 (a.u.)^3
     number of atoms/cell      =            2
     number of atomic types    =            1
     number of electrons       =         8.00
     number of Kohn-Sham states=           16
     kinetic-energy cutoff     =      70.0000  Ry
     charge density cutoff     =     700.0000  Ry
     scf convergence threshold =      1.0E-08
     mixing beta               =       0.1000
     number of iterations used =            8  plain     mixing
     Exchange-correlation= SLA  PW   PBX  PBC
                           (   1   4   3   4   0   0   0)
     Non magnetic calculation with spin-orbit


     celldm(1)=   4.662410  celldm(2)=   0.000000  celldm(3)=   0.000000
     celldm(4)=   0.000000  celldm(5)=   0.000000  celldm(6)=   0.000000

     crystal axes: (cart. coord. in units of alat)
               a(1) = (   1.000000   0.000000  -0.000000 )  
               a(2) = (  -0.500000   0.866025   0.000000 )  
               a(3) = (  -0.000000   0.000000   6.079666 )  

     reciprocal axes: (cart. coord. in units 2 pi/alat)
               b(1) = (  1.000000  0.577350  0.000000 )  
               b(2) = ( -0.000000  1.154701 -0.000000 )  
               b(3) = (  0.000000  0.000000  0.164483 )  


     PseudoPot. # 1 for C  read from file:
     ../../../pseudos/C.rel-pbe-n-kjpaw_psl.0.1.UPF
     MD5 check sum: 5ef0b8f55ac4be3c3db5d31256eeff6b
     Pseudo is Projector augmented-wave + core cor, Zval =  4.0
     Generated using &quot;atomic&quot; code by A. Dal Corso  v.6.3
     Shape of augmentation charge: BESSEL
     Using radial grid of 1073 points,  6 beta functions with: 
                l(1) =   0
                l(2) =   0
                l(3) =   1
                l(4) =   1
                l(5) =   1
                l(6) =   1
     Q(r) pseudized with 0 coefficients 


     atomic species   valence    mass     pseudopotential
     C                 4.00    12.01100     C ( 1.00)

     No symmetry found



   Cartesian axes

     site n.     atom                  positions (alat units)
         1        C      tau(   1) = (   0.0000000   0.0000000   3.0398328  )
         2        C      tau(   2) = (   0.0000000   0.5773503   3.0398328  )

     number of k points=    74  Gaussian smearing, width (Ry)=  0.0020
                       cart. coord. in units 2pi/alat
        k(    1) = (   0.0000000   0.0000000   0.0000000), wk =   0.0069444
        k(    2) = (   0.0000000   0.0962250   0.0000000), wk =   0.0138889
        k(    3) = (   0.0000000   0.1924501   0.0000000), wk =   0.0138889
        k(    4) = (   0.0000000   0.2886751   0.0000000), wk =   0.0138889
        k(    5) = (   0.0000000   0.3849002   0.0000000), wk =   0.0138889
        k(    6) = (   0.0000000   0.4811252   0.0000000), wk =   0.0138889
        k(    7) = (   0.0000000  -0.5773503   0.0000000), wk =   0.0069444
        k(    8) = (   0.0833333   0.0481125   0.0000000), wk =   0.0138889
        k(    9) = (   0.0833333   0.1443376   0.0000000), wk =   0.0138889
        k(   10) = (   0.0833333   0.2405626   0.0000000), wk =   0.0138889
        k(   11) = (   0.0833333   0.3367877   0.0000000), wk =   0.0138889
        k(   12) = (   0.0833333   0.4330127   0.0000000), wk =   0.0138889
        k(   13) = (   0.0833333   0.5292377   0.0000000), wk =   0.0138889
        k(   14) = (   0.0833333  -0.5292377   0.0000000), wk =   0.0138889
        k(   15) = (   0.0833333  -0.4330127   0.0000000), wk =   0.0138889
        k(   16) = (   0.0833333  -0.3367877   0.0000000), wk =   0.0138889
        k(   17) = (   0.0833333  -0.2405626   0.0000000), wk =   0.0138889
        k(   18) = (   0.0833333  -0.1443376   0.0000000), wk =   0.0138889
        k(   19) = (   0.0833333  -0.0481125   0.0000000), wk =   0.0138889
        k(   20) = (   0.1666667   0.0962250   0.0000000), wk =   0.0138889
        k(   21) = (   0.1666667   0.1924501   0.0000000), wk =   0.0138889
        k(   22) = (   0.1666667   0.2886751   0.0000000), wk =   0.0138889
        k(   23) = (   0.1666667   0.3849002   0.0000000), wk =   0.0138889
        k(   24) = (   0.1666667   0.4811252   0.0000000), wk =   0.0138889
        k(   25) = (   0.1666667   0.5773503   0.0000000), wk =   0.0138889
        k(   26) = (   0.1666667  -0.4811252   0.0000000), wk =   0.0138889
        k(   27) = (   0.1666667  -0.3849002   0.0000000), wk =   0.0138889
        k(   28) = (   0.1666667  -0.2886751   0.0000000), wk =   0.0138889
        k(   29) = (   0.1666667  -0.1924501   0.0000000), wk =   0.0138889
        k(   30) = (   0.1666667  -0.0962250   0.0000000), wk =   0.0138889
        k(   31) = (   0.1666667  -0.0000000   0.0000000), wk =   0.0138889
        k(   32) = (   0.2500000   0.1443376   0.0000000), wk =   0.0138889
        k(   33) = (   0.2500000   0.2405626   0.0000000), wk =   0.0138889
        k(   34) = (   0.2500000   0.3367877   0.0000000), wk =   0.0138889
        k(   35) = (   0.2500000   0.4330127   0.0000000), wk =   0.0138889
        k(   36) = (   0.2500000   0.5292377   0.0000000), wk =   0.0138889
        k(   37) = (   0.2500000   0.6254628   0.0000000), wk =   0.0138889
        k(   38) = (   0.2500000  -0.4330127   0.0000000), wk =   0.0138889
        k(   39) = (   0.2500000  -0.3367877   0.0000000), wk =   0.0138889
        k(   40) = (   0.2500000  -0.2405626   0.0000000), wk =   0.0138889
        k(   41) = (   0.2500000  -0.1443376   0.0000000), wk =   0.0138889
        k(   42) = (   0.2500000  -0.0481125   0.0000000), wk =   0.0138889
        k(   43) = (   0.2500000   0.0481125   0.0000000), wk =   0.0138889
        k(   44) = (   0.3333333   0.1924501   0.0000000), wk =   0.0138889
        k(   45) = (   0.3333333   0.2886751   0.0000000), wk =   0.0138889
        k(   46) = (   0.3333333   0.3849002   0.0000000), wk =   0.0138889
        k(   47) = (   0.3333333   0.4811252   0.0000000), wk =   0.0138889
        k(   48) = (   0.3333333   0.5773503   0.0000000), wk =   0.0138889
        k(   49) = (   0.3333333   0.6735753   0.0000000), wk =   0.0138889
        k(   50) = (   0.3333333  -0.3849002   0.0000000), wk =   0.0138889
        k(   51) = (   0.3333333  -0.2886751   0.0000000), wk =   0.0138889
        k(   52) = (   0.3333333  -0.1924501   0.0000000), wk =   0.0138889
        k(   53) = (   0.3333333  -0.0962250   0.0000000), wk =   0.0138889
        k(   54) = (   0.3333333   0.0000000   0.0000000), wk =   0.0138889
        k(   55) = (   0.3333333   0.0962250   0.0000000), wk =   0.0138889
        k(   56) = (   0.4166667   0.2405626   0.0000000), wk =   0.0138889
        k(   57) = (   0.4166667   0.3367877   0.0000000), wk =   0.0138889
        k(   58) = (   0.4166667   0.4330127   0.0000000), wk =   0.0138889
        k(   59) = (   0.4166667   0.5292377   0.0000000), wk =   0.0138889
        k(   60) = (   0.4166667   0.6254628   0.0000000), wk =   0.0138889
        k(   61) = (   0.4166667   0.7216878   0.0000000), wk =   0.0138889
        k(   62) = (   0.4166667  -0.3367877   0.0000000), wk =   0.0138889
        k(   63) = (   0.4166667  -0.2405626   0.0000000), wk =   0.0138889
        k(   64) = (   0.4166667  -0.1443376   0.0000000), wk =   0.0138889
        k(   65) = (   0.4166667  -0.0481125   0.0000000), wk =   0.0138889
        k(   66) = (   0.4166667   0.0481125   0.0000000), wk =   0.0138889
        k(   67) = (   0.4166667   0.1443376   0.0000000), wk =   0.0138889
        k(   68) = (  -0.5000000  -0.2886751   0.0000000), wk =   0.0069444
        k(   69) = (  -0.5000000  -0.1924501   0.0000000), wk =   0.0138889
        k(   70) = (  -0.5000000  -0.0962250   0.0000000), wk =   0.0138889
        k(   71) = (  -0.5000000   0.0000000   0.0000000), wk =   0.0138889
        k(   72) = (  -0.5000000   0.0962250   0.0000000), wk =   0.0138889
        k(   73) = (  -0.5000000   0.1924501   0.0000000), wk =   0.0138889
        k(   74) = (  -0.5000000  -0.8660254   0.0000000), wk =   0.0069444

     Dense  grid:   166859 G-vectors     FFT dimensions: (  40,  40, 240)

     Smooth grid:    42343 G-vectors     FFT dimensions: (  25,  25, 160)

     Estimated max dynamical RAM per process >     131.86 MB

     Estimated total dynamical RAM >     791.13 MB

     Initial potential from superposition of free atoms

     starting charge       7.9999, renormalised to       8.0000

     negative rho (up, down):  2.781E-05 0.000E+00

     Adding external electric field

     Computed dipole along edir(3) : 
        Dipole                0.0140 Ry au,          0.0356 Debye
        Dipole field          0.0003 Ry au, 

        E field amplitude [Ha a.u.]:  1.9447E-03
        Potential amp.        0.0870 Ry
        Total length         26.9286 bohr

     Starting wfcs are random
     Checking if some PAW data can be deallocated... 

     total cpu time spent up to now is        4.2 secs

     Self-consistent Calculation

     iteration #  1     ecut=    70.00 Ry     beta= 0.10
     Davidson diagonalization with overlap
     ethr =  1.00E-02,  avg # of iterations =  8.9

     negative rho (up, down):  2.278E-05 0.000E+00

     Adding external electric field

     Computed dipole along edir(3) : 
        Dipole                0.0147 Ry au,          0.0375 Debye
        Dipole field          0.0003 Ry au, 

        E field amplitude [Ha a.u.]:  1.9447E-03
        Potential amp.        0.0860 Ry
        Total length         26.9286 bohr


     total cpu time spent up to now is       45.3 secs

     total energy              =     -36.95398956 Ry
     estimated scf accuracy    <       0.20219031 Ry

     iteration #  2     ecut=    70.00 Ry     beta= 0.10
     Davidson diagonalization with overlap
     ethr =  2.53E-03,  avg # of iterations =  1.0

     negative rho (up, down):  1.045E-04 0.000E+00

     Adding external electric field

     Computed dipole along edir(3) : 
        Dipole                0.0202 Ry au,          0.0515 Debye
        Dipole field          0.0005 Ry au, 

        E field amplitude [Ha a.u.]:  1.9447E-03
        Potential amp.        0.0791 Ry
        Total length         26.9286 bohr


     total cpu time spent up to now is       53.3 secs

     total energy              =     -36.85234362 Ry
     estimated scf accuracy    <       0.15648338 Ry

     iteration #  3     ecut=    70.00 Ry     beta= 0.10
     Davidson diagonalization with overlap
     ethr =  1.96E-03,  avg # of iterations =  4.2

     negative rho (up, down):  7.839E-05 0.000E+00

     Adding external electric field

     Computed dipole along edir(3) : 
        Dipole                0.0203 Ry au,          0.0517 Debye
        Dipole field          0.0005 Ry au, 

        E field amplitude [Ha a.u.]:  1.9447E-03
        Potential amp.        0.0790 Ry
        Total length         26.9286 bohr


     total cpu time spent up to now is       63.6 secs

     total energy              =     -36.87809823 Ry
     estimated scf accuracy    <       0.00323779 Ry

     iteration #  4     ecut=    70.00 Ry     beta= 0.10
     Davidson diagonalization with overlap
     ethr =  4.05E-05,  avg # of iterations =  7.2

     negative rho (up, down):  7.155E-05 0.000E+00

     Adding external electric field

     Computed dipole along edir(3) : 
        Dipole                0.0255 Ry au,          0.0648 Debye
        Dipole field          0.0006 Ry au, 

        E field amplitude [Ha a.u.]:  1.9447E-03
        Potential amp.        0.0724 Ry
        Total length         26.9286 bohr


     total cpu time spent up to now is       86.2 secs

     total energy              =     -36.90279315 Ry
     estimated scf accuracy    <       0.00837742 Ry

     iteration #  5     ecut=    70.00 Ry     beta= 0.10
     Davidson diagonalization with overlap
     ethr =  4.05E-05,  avg # of iterations =  4.7

     negative rho (up, down):  1.580E-04 0.000E+00

     Adding external electric field

     Computed dipole along edir(3) : 
        Dipole                0.0121 Ry au,          0.0308 Debye
        Dipole field          0.0003 Ry au, 

        E field amplitude [Ha a.u.]:  1.9447E-03
        Potential amp.        0.0894 Ry
        Total length         26.9286 bohr


     total cpu time spent up to now is       98.1 secs

     total energy              =     -36.89022244 Ry
     estimated scf accuracy    <       0.03214654 Ry

     iteration #  6     ecut=    70.00 Ry     beta= 0.10
     Davidson diagonalization with overlap
     ethr =  4.05E-05,  avg # of iterations =  4.0

     negative rho (up, down):  1.186E-03 0.000E+00

     Adding external electric field

     Computed dipole along edir(3) : 
        Dipole               -0.0132 Ry au,         -0.0337 Debye
        Dipole field         -0.0003 Ry au, 

        E field amplitude [Ha a.u.]:  1.9447E-03
        Potential amp.        0.1215 Ry
        Total length         26.9286 bohr


     total cpu time spent up to now is      109.7 secs

     total energy              =     -36.88702260 Ry
     estimated scf accuracy    <       0.00683859 Ry

     iteration #  7     ecut=    70.00 Ry     beta= 0.10
     Davidson diagonalization with overlap
     ethr =  4.05E-05,  avg # of iterations =  5.3

     negative rho (up, down):  9.904E-04 0.000E+00

     Adding external electric field

     Computed dipole along edir(3) : 
        Dipole               -0.0059 Ry au,         -0.0150 Debye
        Dipole field         -0.0001 Ry au, 

        E field amplitude [Ha a.u.]:  1.9447E-03
        Potential amp.        0.1122 Ry
        Total length         26.9286 bohr


     total cpu time spent up to now is      128.1 secs

     total energy              =     -36.88972537 Ry
     estimated scf accuracy    <       0.00557231 Ry

     iteration #  8     ecut=    70.00 Ry     beta= 0.10
     Davidson diagonalization with overlap
     ethr =  4.05E-05,  avg # of iterations =  1.0

     negative rho (up, down):  7.165E-04 0.000E+00

     Adding external electric field

     Computed dipole along edir(3) : 
        Dipole                0.0012 Ry au,          0.0030 Debye
        Dipole field          0.0000 Ry au, 

        E field amplitude [Ha a.u.]:  1.9447E-03
        Potential amp.        0.1032 Ry
        Total length         26.9286 bohr


     total cpu time spent up to now is      136.2 secs

     total energy              =     -36.88978013 Ry
     estimated scf accuracy    <       0.00283436 Ry

     iteration #  9     ecut=    70.00 Ry     beta= 0.10
     Davidson diagonalization with overlap
     ethr =  3.54E-05,  avg # of iterations =  1.6

     negative rho (up, down):  5.710E-04 0.000E+00

     Adding external electric field

     Computed dipole along edir(3) : 
        Dipole                0.0028 Ry au,          0.0072 Debye
        Dipole field          0.0001 Ry au, 

        E field amplitude [Ha a.u.]:  1.9447E-03
        Potential amp.        0.1012 Ry
        Total length         26.9286 bohr


     total cpu time spent up to now is      144.7 secs

     total energy              =     -36.88913250 Ry
     estimated scf accuracy    <       0.00261327 Ry

     iteration # 10     ecut=    70.00 Ry     beta= 0.10
     Davidson diagonalization with overlap
     ethr =  3.27E-05,  avg # of iterations =  1.0

     negative rho (up, down):  4.329E-04 0.000E+00

     Adding external electric field

     Computed dipole along edir(3) : 
        Dipole                0.0060 Ry au,          0.0153 Debye
        Dipole field          0.0001 Ry au, 

        E field amplitude [Ha a.u.]:  1.9447E-03
        Potential amp.        0.0971 Ry
        Total length         26.9286 bohr


     total cpu time spent up to now is      153.0 secs

     total energy              =     -36.88903863 Ry
     estimated scf accuracy    <       0.00142258 Ry

     iteration # 11     ecut=    70.00 Ry     beta= 0.10
     Davidson diagonalization with overlap
     ethr =  1.78E-05,  avg # of iterations =  1.5

     negative rho (up, down):  3.485E-04 0.000E+00

     Adding external electric field

     Computed dipole along edir(3) : 
        Dipole                0.0074 Ry au,          0.0189 Debye
        Dipole field          0.0002 Ry au, 

        E field amplitude [Ha a.u.]:  1.9447E-03
        Potential amp.        0.0953 Ry
        Total length         26.9286 bohr


     total cpu time spent up to now is      161.3 secs

     total energy              =     -36.88890960 Ry
     estimated scf accuracy    <       0.00106581 Ry

     iteration # 12     ecut=    70.00 Ry     beta= 0.10
     Davidson diagonalization with overlap
     ethr =  1.33E-05,  avg # of iterations =  1.6

     negative rho (up, down):  5.160E-05 0.000E+00

     Adding external electric field

     Computed dipole along edir(3) : 
        Dipole                0.0113 Ry au,          0.0288 Debye
        Dipole field          0.0003 Ry au, 

        E field amplitude [Ha a.u.]:  1.9447E-03
        Potential amp.        0.0904 Ry
        Total length         26.9286 bohr


     total cpu time spent up to now is      169.8 secs

     total energy              =     -36.88854457 Ry
     estimated scf accuracy    <       0.00067517 Ry

     iteration # 13     ecut=    70.00 Ry     beta= 0.10
     Davidson diagonalization with overlap
     ethr =  8.44E-06,  avg # of iterations =  5.2

     negative rho (up, down):  3.936E-05 0.000E+00

     Adding external electric field

     Computed dipole along edir(3) : 
        Dipole                0.0156 Ry au,          0.0398 Debye
        Dipole field          0.0004 Ry au, 

        E field amplitude [Ha a.u.]:  1.9447E-03
        Potential amp.        0.0849 Ry
        Total length         26.9286 bohr


     total cpu time spent up to now is      185.9 secs

     total energy              =     -36.88898427 Ry
     estimated scf accuracy    <       0.00010565 Ry

     iteration # 14     ecut=    70.00 Ry     beta= 0.10
     Davidson diagonalization with overlap
     ethr =  1.32E-06,  avg # of iterations =  3.1

     negative rho (up, down):  5.888E-05 0.000E+00

     Adding external electric field

     Computed dipole along edir(3) : 
        Dipole                0.0129 Ry au,          0.0328 Debye
        Dipole field          0.0003 Ry au, 

        E field amplitude [Ha a.u.]:  1.9447E-03
        Potential amp.        0.0884 Ry
        Total length         26.9286 bohr


     total cpu time spent up to now is      196.1 secs

     total energy              =     -36.88893393 Ry
     estimated scf accuracy    <       0.00013665 Ry

     iteration # 15     ecut=    70.00 Ry     beta= 0.10
     Davidson diagonalization with overlap
     ethr =  1.32E-06,  avg # of iterations =  2.4

     negative rho (up, down):  5.691E-05 0.000E+00

     Adding external electric field

     Computed dipole along edir(3) : 
        Dipole                0.0115 Ry au,          0.0291 Debye
        Dipole field          0.0003 Ry au, 

        E field amplitude [Ha a.u.]:  1.9447E-03
        Potential amp.        0.0902 Ry
        Total length         26.9286 bohr


     total cpu time spent up to now is      205.1 secs

     total energy              =     -36.88892712 Ry
     estimated scf accuracy    <       0.00002588 Ry

     iteration # 16     ecut=    70.00 Ry     beta= 0.10
     Davidson diagonalization with overlap
     ethr =  3.23E-07,  avg # of iterations =  3.7

     negative rho (up, down):  5.388E-05 0.000E+00

     Adding external electric field

     Computed dipole along edir(3) : 
        Dipole                0.0113 Ry au,          0.0287 Debye
        Dipole field          0.0003 Ry au, 

        E field amplitude [Ha a.u.]:  1.9447E-03
        Potential amp.        0.0904 Ry
        Total length         26.9286 bohr


     total cpu time spent up to now is      217.2 secs

     total energy              =     -36.88893964 Ry
     estimated scf accuracy    <       0.00000127 Ry

     iteration # 17     ecut=    70.00 Ry     beta= 0.10
     Davidson diagonalization with overlap
     ethr =  1.59E-08,  avg # of iterations =  3.5

     negative rho (up, down):  2.834E-05 0.000E+00

     Adding external electric field

     Computed dipole along edir(3) : 
        Dipole                0.0130 Ry au,          0.0331 Debye
        Dipole field          0.0003 Ry au, 

        E field amplitude [Ha a.u.]:  1.9447E-03
        Potential amp.        0.0882 Ry
        Total length         26.9286 bohr


     total cpu time spent up to now is      227.8 secs

     total energy              =     -36.88894425 Ry
     estimated scf accuracy    <       0.00000131 Ry

     iteration # 18     ecut=    70.00 Ry     beta= 0.10
     Davidson diagonalization with overlap
     ethr =  1.59E-08,  avg # of iterations =  4.3

     negative rho (up, down):  2.096E-05 0.000E+00

     Adding external electric field

     Computed dipole along edir(3) : 
        Dipole                0.0128 Ry au,          0.0327 Debye
        Dipole field          0.0003 Ry au, 

        E field amplitude [Ha a.u.]:  1.9447E-03
        Potential amp.        0.0884 Ry
        Total length         26.9286 bohr


     total cpu time spent up to now is      242.4 secs

     total energy              =     -36.88893959 Ry
     estimated scf accuracy    <       0.00001388 Ry

     iteration # 19     ecut=    70.00 Ry     beta= 0.10
     Davidson diagonalization with overlap
     ethr =  1.59E-08,  avg # of iterations =  4.2

     negative rho (up, down):  2.049E-05 0.000E+00

     Adding external electric field

     Computed dipole along edir(3) : 
        Dipole                0.0130 Ry au,          0.0330 Debye
        Dipole field          0.0003 Ry au, 

        E field amplitude [Ha a.u.]:  1.9447E-03
        Potential amp.        0.0883 Ry
        Total length         26.9286 bohr


     total cpu time spent up to now is      255.4 secs

     total energy              =     -36.88893958 Ry
     estimated scf accuracy    <       0.00000214 Ry

     iteration # 20     ecut=    70.00 Ry     beta= 0.10
     Davidson diagonalization with overlap
     ethr =  1.59E-08,  avg # of iterations =  2.2

     negative rho (up, down):  3.036E-05 0.000E+00

     Adding external electric field

     Computed dipole along edir(3) : 
        Dipole                0.0114 Ry au,          0.0289 Debye
        Dipole field          0.0003 Ry au, 

        E field amplitude [Ha a.u.]:  1.9447E-03
        Potential amp.        0.0903 Ry
        Total length         26.9286 bohr


     total cpu time spent up to now is      264.5 secs

     total energy              =     -36.88894521 Ry
     estimated scf accuracy    <       0.00000080 Ry

     iteration # 21     ecut=    70.00 Ry     beta= 0.10
     Davidson diagonalization with overlap
     ethr =  1.00E-08,  avg # of iterations =  4.8

     negative rho (up, down):  1.770E-05 0.000E+00

     Adding external electric field

     Computed dipole along edir(3) : 
        Dipole                0.0110 Ry au,          0.0281 Debye
        Dipole field          0.0003 Ry au, 

        E field amplitude [Ha a.u.]:  1.9447E-03
        Potential amp.        0.0907 Ry
        Total length         26.9286 bohr


     total cpu time spent up to now is      279.3 secs

     total energy              =     -36.88894198 Ry
     estimated scf accuracy    <       0.00002439 Ry

     iteration # 22     ecut=    70.00 Ry     beta= 0.10
     Davidson diagonalization with overlap
     ethr =  1.00E-08,  avg # of iterations =  3.8

     negative rho (up, down):  2.276E-05 0.000E+00

     Adding external electric field

     Computed dipole along edir(3) : 
        Dipole                0.0116 Ry au,          0.0294 Debye
        Dipole field          0.0003 Ry au, 

        E field amplitude [Ha a.u.]:  1.9447E-03
        Potential amp.        0.0900 Ry
        Total length         26.9286 bohr


     total cpu time spent up to now is      292.2 secs

     total energy              =     -36.88894644 Ry
     estimated scf accuracy    <       0.00001097 Ry

     iteration # 23     ecut=    70.00 Ry     beta= 0.10
     Davidson diagonalization with overlap
     ethr =  1.00E-08,  avg # of iterations =  3.7

     negative rho (up, down):  1.296E-05 0.000E+00

     Adding external electric field

     Computed dipole along edir(3) : 
        Dipole                0.0125 Ry au,          0.0318 Debye
        Dipole field          0.0003 Ry au, 

        E field amplitude [Ha a.u.]:  1.9447E-03
        Potential amp.        0.0889 Ry
        Total length         26.9286 bohr


     total cpu time spent up to now is      304.9 secs

     total energy              =     -36.88893782 Ry
     estimated scf accuracy    <       0.00001827 Ry

     iteration # 24     ecut=    70.00 Ry     beta= 0.10
     Davidson diagonalization with overlap
     ethr =  1.00E-08,  avg # of iterations =  3.9

     negative rho (up, down):  8.092E-06 0.000E+00

     Adding external electric field

     Computed dipole along edir(3) : 
        Dipole                0.0127 Ry au,          0.0322 Debye
        Dipole field          0.0003 Ry au, 

        E field amplitude [Ha a.u.]:  1.9447E-03
        Potential amp.        0.0887 Ry
        Total length         26.9286 bohr


     total cpu time spent up to now is      318.1 secs

     total energy              =     -36.88894160 Ry
     estimated scf accuracy    <       0.00000058 Ry

     iteration # 25     ecut=    70.00 Ry     beta= 0.10
     Davidson diagonalization with overlap
     ethr =  7.26E-09,  avg # of iterations =  3.9

     negative rho (up, down):  9.675E-06 0.000E+00

     Adding external electric field

     Computed dipole along edir(3) : 
        Dipole                0.0130 Ry au,          0.0330 Debye
        Dipole field          0.0003 Ry au, 

        E field amplitude [Ha a.u.]:  1.9447E-03
        Potential amp.        0.0883 Ry
        Total length         26.9286 bohr


     total cpu time spent up to now is      332.0 secs

     total energy              =     -36.88893989 Ry
     estimated scf accuracy    <       0.00000742 Ry

     iteration # 26     ecut=    70.00 Ry     beta= 0.10
     Davidson diagonalization with overlap
     ethr =  7.26E-09,  avg # of iterations =  4.5

     negative rho (up, down):  1.021E-05 0.000E+00

     Adding external electric field

     Computed dipole along edir(3) : 
        Dipole                0.0129 Ry au,          0.0328 Debye
        Dipole field          0.0003 Ry au, 

        E field amplitude [Ha a.u.]:  1.9447E-03
        Potential amp.        0.0884 Ry
        Total length         26.9286 bohr


     total cpu time spent up to now is      343.5 secs

     total energy              =     -36.88894022 Ry
     estimated scf accuracy    <       0.00000140 Ry

     iteration # 27     ecut=    70.00 Ry     beta= 0.10
     Davidson diagonalization with overlap
     ethr =  7.26E-09,  avg # of iterations =  2.3

     negative rho (up, down):  1.224E-05 0.000E+00

     Adding external electric field

     Computed dipole along edir(3) : 
        Dipole                0.0126 Ry au,          0.0321 Debye
        Dipole field          0.0003 Ry au, 

        E field amplitude [Ha a.u.]:  1.9447E-03
        Potential amp.        0.0887 Ry
        Total length         26.9286 bohr


     total cpu time spent up to now is      353.7 secs

     total energy              =     -36.88894014 Ry
     estimated scf accuracy    <       0.00000105 Ry

     iteration # 28     ecut=    70.00 Ry     beta= 0.10
     Davidson diagonalization with overlap
     ethr =  7.26E-09,  avg # of iterations =  1.1

     negative rho (up, down):  1.178E-05 0.000E+00

     Adding external electric field

     Computed dipole along edir(3) : 
        Dipole                0.0130 Ry au,          0.0330 Debye
        Dipole field          0.0003 Ry au, 

        E field amplitude [Ha a.u.]:  1.9447E-03
        Potential amp.        0.0883 Ry
        Total length         26.9286 bohr


     total cpu time spent up to now is      363.6 secs

     total energy              =     -36.88893966 Ry
     estimated scf accuracy    <       0.00000079 Ry

     iteration # 29     ecut=    70.00 Ry     beta= 0.10
     Davidson diagonalization with overlap
     ethr =  7.26E-09,  avg # of iterations =  3.4

     negative rho (up, down):  1.100E-05 0.000E+00

     Adding external electric field

     Computed dipole along edir(3) : 
        Dipole                0.0130 Ry au,          0.0330 Debye
        Dipole field          0.0003 Ry au, 

        E field amplitude [Ha a.u.]:  1.9447E-03
        Potential amp.        0.0883 Ry
        Total length         26.9286 bohr


     total cpu time spent up to now is      376.7 secs

     total energy              =     -36.88893988 Ry
     estimated scf accuracy    <       0.00000003 Ry

     iteration # 30     ecut=    70.00 Ry     beta= 0.10
     Davidson diagonalization with overlap
     ethr =  4.06E-10,  avg # of iterations =  4.1

     negative rho (up, down):  8.900E-06 0.000E+00

     Adding external electric field

     Computed dipole along edir(3) : 
        Dipole                0.0131 Ry au,          0.0332 Debye
        Dipole field          0.0003 Ry au, 

        E field amplitude [Ha a.u.]:  1.9447E-03
        Potential amp.        0.0882 Ry
        Total length         26.9286 bohr


     total cpu time spent up to now is      392.9 secs

     total energy              =     -36.88893992 Ry
     estimated scf accuracy    <       0.00000002 Ry

     iteration # 31     ecut=    70.00 Ry     beta= 0.10
     Davidson diagonalization with overlap
     ethr =  1.96E-10,  avg # of iterations =  4.2

     negative rho (up, down):  7.886E-06 0.000E+00

     Adding external electric field

     Computed dipole along edir(3) : 
        Dipole                0.0132 Ry au,          0.0335 Debye
        Dipole field          0.0003 Ry au, 

        E field amplitude [Ha a.u.]:  1.9447E-03
        Potential amp.        0.0880 Ry
        Total length         26.9286 bohr


     total cpu time spent up to now is      405.1 secs

     total energy              =     -36.88893991 Ry
     estimated scf accuracy    <       0.00000004 Ry

     iteration # 32     ecut=    70.00 Ry     beta= 0.10
     Davidson diagonalization with overlap
     ethr =  1.96E-10,  avg # of iterations =  4.2

     negative rho (up, down):  6.939E-06 0.000E+00

     Adding external electric field

     Computed dipole along edir(3) : 
        Dipole                0.0132 Ry au,          0.0336 Debye
        Dipole field          0.0003 Ry au, 

        E field amplitude [Ha a.u.]:  1.9447E-03
        Potential amp.        0.0880 Ry
        Total length         26.9286 bohr


     total cpu time spent up to now is      416.4 secs

     End of self-consistent calculation

          k = 0.0000 0.0000 0.0000 (  5307 PWs)   bands (ev):

   -20.8925 -20.8925  -8.9878  -8.9878  -4.4426  -4.4426  -4.4333  -4.4333
     1.6560   1.6560   2.4110   2.4110   2.7291   2.7291   4.7063   4.7063

          k = 0.0000 0.0962 0.0000 (  5285 PWs)   bands (ev):

   -20.7288 -20.7288  -8.7921  -8.7921  -5.0878  -5.0878  -4.7752  -4.7752
     1.8806   1.8806   2.6364   2.6364   2.9548   2.9549   4.9290   4.9290

          k = 0.0000 0.1925 0.0000 (  5253 PWs)   bands (ev):

   -20.2393 -20.2393  -8.2105  -8.2105  -6.7233  -6.7233  -5.5653  -5.5653
     2.5540   2.5540   3.3117   3.3117   3.6320   3.6320   5.5940   5.5940

          k = 0.0000 0.2887 0.0000 (  5269 PWs)   bands (ev):

   -19.4299 -19.4299  -8.8190  -8.8190  -7.2621  -7.2621  -6.4425  -6.4425
     3.6745   3.6745   4.4264   4.4265   4.7580   4.7581   5.8485   5.8485

          k = 0.0000 0.3849 0.0000 (  5285 PWs)   bands (ev):

   -18.3127 -18.3127 -11.0195 -11.0195  -7.1739  -7.1739  -5.9971  -5.9971
     3.5220   3.5220   5.2341   5.2341   6.0213   6.0216   6.2494   6.2499

          k = 0.0000 0.4811 0.0000 (  5290 PWs)   bands (ev):

   -16.9192 -16.9192 -13.1166 -13.1165  -7.6454  -7.6454  -4.5782  -4.5782
     1.3926   1.3927   6.0524   6.0524   7.2526   7.2526   8.0291   8.0292

          k = 0.0000-0.5774 0.0000 (  5288 PWs)   bands (ev):

   -15.6614 -15.6614 -14.6167 -14.6167  -7.8073  -7.8073  -3.7360  -3.7360
     0.2978   0.2978   5.9732   5.9732   9.5927   9.5927   9.7207   9.7207

          k = 0.0833 0.0481 0.0000 (  5285 PWs)   bands (ev):

   -20.7288 -20.7288  -8.7921  -8.7921  -5.0878  -5.0878  -4.7752  -4.7752
     1.8806   1.8806   2.6364   2.6364   2.9548   2.9549   4.9290   4.9290

          k = 0.0833 0.1443 0.0000 (  5269 PWs)   bands (ev):

   -20.4022 -20.4022  -8.4034  -8.4034  -6.1204  -6.1204  -5.4507  -5.4507
     2.3297   2.3297   3.0869   3.0869   3.4064   3.4065   5.3733   5.3734

          k = 0.0833 0.2406 0.0000 (  5261 PWs)   bands (ev):

   -19.7527 -19.7527  -7.8281  -7.8281  -7.6372  -7.6372  -6.4461  -6.4461
     3.2272   3.2272   3.9853   3.9854   4.3092   4.3093   6.2480   6.2480

          k = 0.0833 0.3368 0.0000 (  5275 PWs)   bands (ev):

   -18.7893 -18.7893  -9.8984  -9.8983  -7.3303  -7.3303  -6.5241  -6.5241
     4.5284   4.5284   4.5698   4.5698   5.3536   5.3537   5.6632   5.6633

          k = 0.0833 0.4330 0.0000 (  5284 PWs)   bands (ev):

   -17.5307 -17.5307 -12.0183 -12.0183  -7.9636  -7.9636  -5.1480  -5.1480
     2.3371   2.3371   6.3403   6.3403   6.8864   6.8866   7.1296   7.1297

          k = 0.0833 0.5292 0.0000 (  5302 PWs)   bands (ev):

   -16.0546 -16.0546 -13.9558 -13.9558  -8.2912  -8.2912  -3.8423  -3.8423
     0.5731   0.5731   6.7112   6.7112   8.5655   8.5655   9.3174   9.3176

          k = 0.0833-0.5292 0.0000 (  5302 PWs)   bands (ev):

   -16.0546 -16.0546 -13.9558 -13.9558  -8.2912  -8.2912  -3.8423  -3.8423
     0.5731   0.5731   6.7112   6.7112   8.5655   8.5655   9.3175   9.3176

          k = 0.0833-0.4330 0.0000 (  5284 PWs)   bands (ev):

   -17.5307 -17.5307 -12.0183 -12.0183  -7.9636  -7.9636  -5.1480  -5.1480
     2.3371   2.3371   6.3403   6.3403   6.8864   6.8866   7.1296   7.1297

          k = 0.0833-0.3368 0.0000 (  5275 PWs)   bands (ev):

   -18.7893 -18.7893  -9.8983  -9.8983  -7.3303  -7.3303  -6.5241  -6.5241
     4.5284   4.5284   4.5698   4.5698   5.3536   5.3537   5.6632   5.6633

          k = 0.0833-0.2406 0.0000 (  5261 PWs)   bands (ev):

   -19.7527 -19.7527  -7.8281  -7.8281  -7.6372  -7.6372  -6.4461  -6.4461
     3.2272   3.2272   3.9853   3.9854   4.3092   4.3093   6.2480   6.2481

          k = 0.0833-0.1443 0.0000 (  5269 PWs)   bands (ev):

   -20.4022 -20.4022  -8.4034  -8.4034  -6.1204  -6.1204  -5.4507  -5.4507
     2.3297   2.3297   3.0869   3.0869   3.4064   3.4065   5.3733   5.3734

          k = 0.0833-0.0481 0.0000 (  5285 PWs)   bands (ev):

   -20.7288 -20.7288  -8.7921  -8.7921  -5.0878  -5.0878  -4.7752  -4.7752
     1.8806   1.8806   2.6364   2.6364   2.9548   2.9549   4.9290   4.9290

          k = 0.1667 0.0962 0.0000 (  5253 PWs)   bands (ev):

   -20.2393 -20.2393  -8.2105  -8.2105  -6.7234  -6.7234  -5.5653  -5.5653
     2.5540   2.5540   3.3117   3.3117   3.6320   3.6320   5.5940   5.5940

          k = 0.1667 0.1925 0.0000 (  5261 PWs)   bands (ev):

   -19.7527 -19.7527  -7.8281  -7.8281  -7.6372  -7.6372  -6.4461  -6.4461
     3.2272   3.2272   3.9853   3.9854   4.3092   4.3093   6.2480   6.2480

          k = 0.1667 0.2887 0.0000 (  5288 PWs)   bands (ev):

   -18.9492 -18.9492  -9.1576  -9.1576  -7.8048  -7.8048  -6.7024  -6.7024
     4.3474   4.3474   4.9872   4.9872   5.1039   5.1040   5.4372   5.4373

          k = 0.1667 0.3849 0.0000 (  5285 PWs)   bands (ev):

   -17.8429 -17.8429 -10.8826 -10.8826  -8.8593  -8.8593  -5.4525  -5.4525
     3.0440   3.0440   5.9084   5.9084   6.6549   6.6550   7.0112   7.0113

          k = 0.1667 0.4811 0.0000 (  5283 PWs)   bands (ev):

   -16.4693 -16.4693 -12.7901 -12.7901  -9.4346  -9.4346  -4.0295  -4.0295
     1.1365   1.1365   7.8894   7.8895   8.5768   8.5777   8.6179   8.6188

          k = 0.1667 0.5774 0.0000 (  5264 PWs)   bands (ev):

   -15.2401 -15.2401 -14.2194 -14.2194  -9.6192  -9.6192  -3.1392  -3.1392
     0.0712   0.0712   8.5180   8.5180  10.1611  10.1613  10.1742  10.1742

          k = 0.1667-0.4811 0.0000 (  5283 PWs)   bands (ev):

   -16.4693 -16.4693 -12.7901 -12.7901  -9.4346  -9.4346  -4.0295  -4.0295
     1.1365   1.1365   7.8895   7.8895   8.5768   8.5777   8.6179   8.6188

          k = 0.1667-0.3849 0.0000 (  5285 PWs)   bands (ev):

   -17.8429 -17.8429 -10.8826 -10.8826  -8.8593  -8.8593  -5.4525  -5.4525
     3.0440   3.0440   5.9084   5.9084   6.6549   6.6550   7.0112   7.0113

          k = 0.1667-0.2887 0.0000 (  5288 PWs)   bands (ev):

   -18.9492 -18.9492  -9.1576  -9.1576  -7.8048  -7.8048  -6.7024  -6.7024
     4.3474   4.3474   4.9872   4.9872   5.1039   5.1040   5.4372   5.4373

          k = 0.1667-0.1925 0.0000 (  5261 PWs)   bands (ev):

   -19.7527 -19.7527  -7.8281  -7.8281  -7.6372  -7.6372  -6.4461  -6.4461
     3.2272   3.2272   3.9853   3.9854   4.3092   4.3093   6.2480   6.2480

          k = 0.1667-0.0962 0.0000 (  5253 PWs)   bands (ev):

   -20.2393 -20.2393  -8.2105  -8.2105  -6.7234  -6.7233  -5.5653  -5.5653
     2.5540   2.5540   3.3117   3.3117   3.6320   3.6320   5.5940   5.5940

          k = 0.1667-0.0000 0.0000 (  5269 PWs)   bands (ev):

   -20.4022 -20.4022  -8.4034  -8.4034  -6.1204  -6.1204  -5.4507  -5.4507
     2.3297   2.3297   3.0869   3.0869   3.4064   3.4065   5.3733   5.3734

          k = 0.2500 0.1443 0.0000 (  5269 PWs)   bands (ev):

   -19.4299 -19.4299  -8.8191  -8.8190  -7.2621  -7.2621  -6.4425  -6.4425
     3.6745   3.6745   4.4264   4.4265   4.7580   4.7581   5.8485   5.8485

          k = 0.2500 0.2406 0.0000 (  5275 PWs)   bands (ev):

   -18.7893 -18.7893  -9.8984  -9.8983  -7.3303  -7.3303  -6.5241  -6.5241
     4.5284   4.5284   4.5698   4.5698   5.3536   5.3537   5.6632   5.6633

          k = 0.2500 0.3368 0.0000 (  5285 PWs)   bands (ev):

   -17.8429 -17.8429 -10.8826 -10.8826  -8.8593  -8.8593  -5.4525  -5.4525
     3.0440   3.0440   5.9084   5.9084   6.6549   6.6550   7.0112   7.0113

          k = 0.2500 0.4330 0.0000 (  5268 PWs)   bands (ev):

   -16.6165 -16.6165 -11.9186 -11.9186 -10.3386 -10.3386  -4.1133  -4.1133
     1.4331   1.4331   7.6744   7.6744   8.3126   8.3127   8.7939   8.7941

          k = 0.2500 0.5292 0.0000 (  5282 PWs)   bands (ev):

   -15.1973 -15.1973 -13.3368 -13.3368 -11.0455 -11.0455  -2.7312  -2.7311
    -0.0834  -0.0834   9.4557   9.4558   9.8058   9.8058  10.7629  10.7629

          k = 0.2500 0.6255 0.0000 (  5282 PWs)   bands (ev):

   -15.1973 -15.1973 -13.3368 -13.3368 -11.0455 -11.0455  -2.7312  -2.7311
    -0.0834  -0.0834   9.4557   9.4558   9.8058   9.8058  10.7629  10.7629

          k = 0.2500-0.4330 0.0000 (  5268 PWs)   bands (ev):

   -16.6165 -16.6165 -11.9186 -11.9186 -10.3386 -10.3386  -4.1133  -4.1133
     1.4331   1.4331   7.6744   7.6744   8.3126   8.3127   8.7939   8.7941

          k = 0.2500-0.3368 0.0000 (  5285 PWs)   bands (ev):

   -17.8429 -17.8429 -10.8826 -10.8826  -8.8593  -8.8593  -5.4525  -5.4525
     3.0440   3.0440   5.9084   5.9084   6.6549   6.6550   7.0112   7.0113

          k = 0.2500-0.2406 0.0000 (  5275 PWs)   bands (ev):

   -18.7893 -18.7893  -9.8983  -9.8983  -7.3303  -7.3303  -6.5241  -6.5241
     4.5284   4.5284   4.5698   4.5698   5.3536   5.3537   5.6632   5.6633

          k = 0.2500-0.1443 0.0000 (  5269 PWs)   bands (ev):

   -19.4299 -19.4299  -8.8190  -8.8190  -7.2621  -7.2621  -6.4425  -6.4425
     3.6745   3.6745   4.4264   4.4265   4.7580   4.7581   5.8485   5.8485

          k = 0.2500-0.0481 0.0000 (  5261 PWs)   bands (ev):

   -19.7527 -19.7527  -7.8281  -7.8281  -7.6372  -7.6372  -6.4461  -6.4461
     3.2272   3.2272   3.9853   3.9854   4.3092   4.3093   6.2480   6.2481

          k = 0.2500 0.0481 0.0000 (  5261 PWs)   bands (ev):

   -19.7527 -19.7527  -7.8281  -7.8281  -7.6372  -7.6372  -6.4461  -6.4461
     3.2272   3.2272   3.9853   3.9854   4.3092   4.3093   6.2480   6.2480

          k = 0.3333 0.1925 0.0000 (  5285 PWs)   bands (ev):

   -18.3127 -18.3127 -11.0195 -11.0195  -7.1739  -7.1739  -5.9971  -5.9971
     3.5220   3.5220   5.2341   5.2341   6.0213   6.0216   6.2488   6.2494

          k = 0.3333 0.2887 0.0000 (  5284 PWs)   bands (ev):

   -17.5307 -17.5307 -12.0183 -12.0183  -7.9636  -7.9636  -5.1480  -5.1480
     2.3371   2.3371   6.3403   6.3403   6.8865   6.8866   7.1296   7.1298

          k = 0.3333 0.3849 0.0000 (  5283 PWs)   bands (ev):

   -16.4693 -16.4693 -12.7901 -12.7901  -9.4346  -9.4346  -4.0295  -4.0295
     1.1365   1.1365   7.8894   7.8895   8.5768   8.5777   8.6179   8.6188

          k = 0.3333 0.4811 0.0000 (  5282 PWs)   bands (ev):

   -15.1973 -15.1973 -13.3368 -13.3368 -11.0455 -11.0455  -2.7312  -2.7311
    -0.0834  -0.0834   9.4557   9.4558   9.8058   9.8058  10.7629  10.7629

          k = 0.3333 0.5774 0.0000 (  5292 PWs)   bands (ev):

   -13.9836 -13.9836 -13.9815 -13.9815 -11.9358 -11.9358  -1.3785  -1.3785
    -1.3785  -1.3785   9.2193   9.2193  11.4519  11.4520  11.4558  11.4559

          k = 0.3333 0.6736 0.0000 (  5282 PWs)   bands (ev):

   -15.1973 -15.1973 -13.3368 -13.3368 -11.0455 -11.0455  -2.7312  -2.7311
    -0.0834  -0.0834   9.4557   9.4558   9.8058   9.8058  10.7629  10.7629

          k = 0.3333-0.3849 0.0000 (  5283 PWs)   bands (ev):

   -16.4693 -16.4693 -12.7901 -12.7901  -9.4346  -9.4346  -4.0295  -4.0295
     1.1365   1.1365   7.8895   7.8895   8.5768   8.5777   8.6179   8.6188

          k = 0.3333-0.2887 0.0000 (  5284 PWs)   bands (ev):

   -17.5307 -17.5307 -12.0183 -12.0183  -7.9636  -7.9636  -5.1480  -5.1480
     2.3371   2.3371   6.3403   6.3403   6.8865   6.8866   7.1296   7.1297

          k = 0.3333-0.1925 0.0000 (  5285 PWs)   bands (ev):

   -18.3127 -18.3127 -11.0195 -11.0195  -7.1739  -7.1739  -5.9971  -5.9971
     3.5220   3.5220   5.2341   5.2341   6.0213   6.0216   6.2494   6.2499

          k = 0.3333-0.0962 0.0000 (  5275 PWs)   bands (ev):

   -18.7893 -18.7893  -9.8984  -9.8983  -7.3303  -7.3303  -6.5241  -6.5241
     4.5284   4.5284   4.5698   4.5698   5.3536   5.3537   5.6632   5.6633

          k = 0.3333 0.0000 0.0000 (  5288 PWs)   bands (ev):

   -18.9492 -18.9492  -9.1576  -9.1576  -7.8048  -7.8048  -6.7024  -6.7024
     4.3474   4.3474   4.9872   4.9872   5.1039   5.1040   5.4372   5.4373

          k = 0.3333 0.0962 0.0000 (  5275 PWs)   bands (ev):

   -18.7893 -18.7893  -9.8984  -9.8984  -7.3303  -7.3303  -6.5241  -6.5241
     4.5284   4.5284   4.5698   4.5698   5.3536   5.3537   5.6632   5.6633

          k = 0.4167 0.2406 0.0000 (  5290 PWs)   bands (ev):

   -16.9192 -16.9192 -13.1166 -13.1166  -7.6454  -7.6454  -4.5782  -4.5782
     1.3926   1.3927   6.0524   6.0524   7.2526   7.2526   8.0290   8.0291

          k = 0.4167 0.3368 0.0000 (  5302 PWs)   bands (ev):

   -16.0546 -16.0546 -13.9558 -13.9558  -8.2912  -8.2912  -3.8423  -3.8423
     0.5731   0.5731   6.7112   6.7112   8.5655   8.5655   9.3174   9.3176

          k = 0.4167 0.4330 0.0000 (  5264 PWs)   bands (ev):

   -15.2401 -15.2401 -14.2194 -14.2194  -9.6192  -9.6192  -3.1392  -3.1392
     0.0712   0.0712   8.5180   8.5180  10.1613  10.1613  10.1742  10.1742

          k = 0.4167 0.5292 0.0000 (  5282 PWs)   bands (ev):

   -15.1973 -15.1973 -13.3368 -13.3368 -11.0455 -11.0455  -2.7312  -2.7311
    -0.0834  -0.0834   9.4557   9.4558   9.8058   9.8058  10.7629  10.7629

          k = 0.4167 0.6255 0.0000 (  5282 PWs)   bands (ev):

   -15.1973 -15.1973 -13.3368 -13.3368 -11.0455 -11.0455  -2.7312  -2.7311
    -0.0834  -0.0834   9.4557   9.4558   9.8058   9.8058  10.7629  10.7629

          k = 0.4167 0.7217 0.0000 (  5264 PWs)   bands (ev):

   -15.2401 -15.2401 -14.2194 -14.2194  -9.6192  -9.6192  -3.1392  -3.1392
     0.0712   0.0712   8.5180   8.5180  10.1611  10.1612  10.1742  10.1742

          k = 0.4167-0.3368 0.0000 (  5302 PWs)   bands (ev):

   -16.0546 -16.0546 -13.9558 -13.9558  -8.2912  -8.2912  -3.8423  -3.8423
     0.5731   0.5731   6.7112   6.7112   8.5655   8.5655   9.3175   9.3176

          k = 0.4167-0.2406 0.0000 (  5290 PWs)   bands (ev):

   -16.9192 -16.9192 -13.1166 -13.1165  -7.6454  -7.6454  -4.5782  -4.5782
     1.3926   1.3927   6.0524   6.0524   7.2526   7.2526   8.0290   8.0291

          k = 0.4167-0.1443 0.0000 (  5284 PWs)   bands (ev):

   -17.5307 -17.5307 -12.0183 -12.0183  -7.9636  -7.9636  -5.1480  -5.1480
     2.3371   2.3371   6.3403   6.3403   6.8865   6.8866   7.1296   7.1298

          k = 0.4167-0.0481 0.0000 (  5285 PWs)   bands (ev):

   -17.8429 -17.8429 -10.8826 -10.8826  -8.8593  -8.8593  -5.4525  -5.4525
     3.0440   3.0440   5.9084   5.9084   6.6549   6.6550   7.0112   7.0113

          k = 0.4167 0.0481 0.0000 (  5285 PWs)   bands (ev):

   -17.8429 -17.8429 -10.8826 -10.8826  -8.8593  -8.8593  -5.4525  -5.4525
     3.0440   3.0440   5.9084   5.9084   6.6549   6.6550   7.0112   7.0113

          k = 0.4167 0.1443 0.0000 (  5284 PWs)   bands (ev):

   -17.5307 -17.5307 -12.0183 -12.0183  -7.9636  -7.9636  -5.1480  -5.1480
     2.3371   2.3371   6.3403   6.3403   6.8865   6.8866   7.1296   7.1298

          k =-0.5000-0.2887 0.0000 (  5288 PWs)   bands (ev):

   -15.6614 -15.6614 -14.6167 -14.6167  -7.8073  -7.8073  -3.7360  -3.7360
     0.2978   0.2978   5.9732   5.9732   9.5927   9.5927   9.7207   9.7207

          k =-0.5000-0.1925 0.0000 (  5302 PWs)   bands (ev):

   -16.0546 -16.0546 -13.9558 -13.9558  -8.2912  -8.2912  -3.8423  -3.8423
     0.5731   0.5731   6.7112   6.7112   8.5655   8.5655   9.3175   9.3176

          k =-0.5000-0.0962 0.0000 (  5283 PWs)   bands (ev):

   -16.4693 -16.4693 -12.7901 -12.7901  -9.4346  -9.4346  -4.0295  -4.0295
     1.1365   1.1365   7.8894   7.8895   8.5767   8.5776   8.6179   8.6188

          k =-0.5000 0.0000 0.0000 (  5268 PWs)   bands (ev):

   -16.6165 -16.6165 -11.9186 -11.9186 -10.3386 -10.3386  -4.1133  -4.1133
     1.4331   1.4331   7.6744   7.6744   8.3126   8.3127   8.7939   8.7941

          k =-0.5000 0.0962 0.0000 (  5283 PWs)   bands (ev):

   -16.4693 -16.4693 -12.7901 -12.7901  -9.4346  -9.4346  -4.0295  -4.0295
     1.1365   1.1365   7.8894   7.8895   8.5768   8.5777   8.6179   8.6188

          k =-0.5000 0.1925 0.0000 (  5302 PWs)   bands (ev):

   -16.0546 -16.0546 -13.9558 -13.9558  -8.2912  -8.2912  -3.8423  -3.8423
     0.5731   0.5731   6.7112   6.7112   8.5655   8.5655   9.3174   9.3176

          k =-0.5000-0.8660 0.0000 (  5288 PWs)   bands (ev):

   -15.6614 -15.6614 -14.6167 -14.6167  -7.8073  -7.8073  -3.7360  -3.7360
     0.2978   0.2978   5.9732   5.9732   9.5927   9.5927   9.7207   9.7207

     the Fermi energy is  -1.378501 ev

!    total energy              =     -36.88893993 Ry
     total all-electron energy =      -152.417230 Ry
     estimated scf accuracy    <          4.3E-09 Ry
     smearing contrib. (-TS)   =      -0.00003134 Ry
     internal energy E=F+TS    =     -36.88890858 Ry

     The total energy is F=E-TS. E is the sum of the following terms:
     one-electron contribution =    -156.62304696 Ry
     hartree contribution      =      79.91823298 Ry
     xc contribution           =      -8.28626002 Ry
     ewald contribution        =      61.40972547 Ry
     electric field correction =      -0.00004729 Ry
     one-center paw contrib.   =     -13.30751277 Ry

     convergence has been achieved in  32 iterations

     negative rho (up, down):  6.939E-06 0.000E+00

     Forces acting on atoms (cartesian axes, Ry/au):

     atom    1 type  1   force =     0.00000277    0.00000267   -0.00000062
     atom    2 type  1   force =    -0.00000277   -0.00000267    0.00000062

     Total force =     0.000006     Total SCF correction =     0.000015
     SCF correction compared to forces is large: reduce conv_thr to get better values

     Writing all to output data dir ./tmp/graphene.save/ :
     XML data file, charge density, pseudopotentials, collected wavefunctions

     init_run     :      3.73s CPU      3.96s WALL (       1 calls)
     electrons    :    393.47s CPU    412.19s WALL (       1 calls)
     forces       :      1.26s CPU      1.30s WALL (       1 calls)

     Called by init_run:
     wfcinit      :      2.90s CPU      3.08s WALL (       1 calls)
     potinit      :      0.26s CPU      0.27s WALL (       1 calls)
     hinit0       :      0.45s CPU      0.46s WALL (       1 calls)

     Called by electrons:
     c_bands      :    346.26s CPU    360.60s WALL (      32 calls)
     sum_band     :     40.63s CPU     43.83s WALL (      32 calls)
     v_of_rho     :      1.71s CPU      1.77s WALL (      33 calls)
     newd         :      2.37s CPU      3.41s WALL (      33 calls)
     PAW_pot      :      0.96s CPU      1.00s WALL (      33 calls)
     mix_rho      :      1.18s CPU      1.23s WALL (      32 calls)

     Called by c_bands:
     init_us_2    :      1.86s CPU      1.90s WALL (    4884 calls)
     cegterg      :    338.80s CPU    353.08s WALL (    2368 calls)

     Called by *egterg:
     cdiaghg      :     14.87s CPU     14.91s WALL (   10822 calls)
     h_psi        :    223.97s CPU    237.75s WALL (   10896 calls)
     s_psi        :     16.06s CPU     16.22s WALL (   10896 calls)
     g_psi        :      0.72s CPU      0.72s WALL (    8454 calls)

     Called by h_psi:
     h_psi:calbec :     19.20s CPU     19.83s WALL (   10896 calls)
     vloc_psi     :    186.66s CPU    199.66s WALL (   10896 calls)
     add_vuspsi   :     16.76s CPU     16.83s WALL (   10896 calls)

     General routines
     calbec       :     26.46s CPU     27.23s WALL (   13560 calls)
     fft          :      2.00s CPU      2.13s WALL (     822 calls)
     ffts         :      0.21s CPU      0.22s WALL (     260 calls)
     fftw         :    110.89s CPU    119.37s WALL (  521156 calls)
     interpolate  :      0.41s CPU      0.43s WALL (     132 calls)

     Parallel routines

     PWSCF        :   6m38.90s CPU   6m58.12s WALL


   This run was terminated on:  13:40:52  17Nov2025            

=------------------------------------------------------------------------------=
   JOB DONE.
=------------------------------------------------------------------------------=
