
     Program PWSCF v.7.4.1 starts on  5Jan2026 at 16:21:52 

     This program is part of the open-source Quantum ESPRESSO suite
     for quantum simulation of materials; please cite
         "P. Giannozzi et al., J. Phys.:Condens. Matter 21 395502 (2009);
         "P. Giannozzi et al., J. Phys.:Condens. Matter 29 465901 (2017);
         "P. Giannozzi et al., J. Chem. Phys. 152 154105 (2020);
          URL http://www.quantum-espresso.org", 
     in publications or presentations arising from this work. More details at
     http://www.quantum-espresso.org/quote

     Parallel version (MPI), running on    20 processors

     MPI processes distributed on     1 nodes
     65300 MiB available memory on the printing compute node when the environment starts
 
     Reading input from 1-zgnr_scf.in

     Current dimensions of program PWSCF are:
     Max number of different atomic species (ntypx) = 10
     Max number of k-points (npk) =  40000
     Max angular momentum in pseudopotentials (lmaxx) =  4
     file C.pbe-n-kjpaw_psl.1.0.0.UPF: wavefunction(s)  2S 2P renormalized
     file H.pbe-kjpaw_psl.1.0.0.UPF: wavefunction(s)  1S renormalized
 
     R & G space division:  proc/nbgrp/npool/nimage =      20
     Subspace diagonalization in iterative solution of the eigenvalue problem:
     a serial algorithm will be used

 
     Parallelization info
     --------------------
     sticks:   dense  smooth     PW     G-vecs:    dense   smooth      PW
     Min         812     325     94               259231    65609   10338
     Max         815     326     95               259240    65620   10345
     Sum       16243    6517   1887              5184713  1312331  206813
 
     Using Slab Decomposition
 


     bravais-lattice index     =            0
     lattice parameter (alat)  =       4.6761  a.u.
     unit-cell volume          =   16574.9478 (a.u.)^3
     number of atoms/cell      =            4
     number of atomic types    =            2
     number of electrons       =        10.00
     number of Kohn-Sham states=            9
     kinetic-energy cutoff     =      70.0000  Ry
     charge density cutoff     =     700.0000  Ry
     scf convergence threshold =      1.0E-06
     mixing beta               =       0.5000
     number of iterations used =            8  plain     mixing
     Exchange-correlation= SLA  PW   PBX  PBC
                           (   1   4   3   4   0   0   0)

     celldm(1)=   4.676134  celldm(2)=   0.000000  celldm(3)=   0.000000
     celldm(4)=   0.000000  celldm(5)=   0.000000  celldm(6)=   0.000000

     crystal axes: (cart. coord. in units of alat)
               a(1) = (   0.000000   0.000000   1.000000 )  
               a(2) = (  13.331584   0.000000   0.000000 )  
               a(3) = (   0.000000  12.159330   0.000000 )  

     reciprocal axes: (cart. coord. in units 2 pi/alat)
               b(1) = (  0.000000  0.000000  1.000000 )  
               b(2) = (  0.075010  0.000000  0.000000 )  
               b(3) = (  0.000000  0.082241  0.000000 )  


     PseudoPot. # 1 for C  read from file:
     ../../../PP_C/C.pbe-n-kjpaw_psl.1.0.0.UPF
     MD5 check sum: 5f16ad9a65e90284d1d834d4ab3b0f7d
     Pseudo is Projector augmented-wave + core cor, Zval =  4.0
     Generated using &quot;atomic&quot; code by A. Dal Corso  v.6.3
     Shape of augmentation charge: PSQ
     Using radial grid of 1073 points,  4 beta functions with: 
                l(1) =   0
                l(2) =   0
                l(3) =   1
                l(4) =   1
     Q(r) pseudized with 0 coefficients 


     PseudoPot. # 2 for H  read from file:
     ../../../PP_C/H.pbe-kjpaw_psl.1.0.0.UPF
     MD5 check sum: d81a744832360e4a8af0b0b5b123bc2a
     Pseudo is Projector augmented-wave, Zval =  1.0
     Generated using &quot;atomic&quot; code by A. Dal Corso  v.6.3MaX
     Shape of augmentation charge: PSQ
     Using radial grid of  929 points,  2 beta functions with: 
                l(1) =   0
                l(2) =   0
     Q(r) pseudized with 0 coefficients 


     atomic species   valence    mass     pseudopotential
     C                 4.00    12.01100     C ( 1.00)
     H                 1.00     1.00790     H ( 1.00)

     No symmetry found


                                    s                        frac. trans.

      isym =  1     identity                                     

 cryst.   s( 1) = (     1          0          0      )
                  (     0          1          0      )
                  (     0          0          1      )

 cart.    s( 1) = (  1.0000000  0.0000000  0.0000000 )
                  (  0.0000000  1.0000000  0.0000000 )
                  (  0.0000000  0.0000000  1.0000000 )


   Cartesian axes

     site n.     atom                  positions (alat units)
         1        C      tau(   1) = (   6.5023148   6.0618223   0.0000000  )
         2        C      tau(   2) = (   6.7901427   6.0618223   0.4985326  )
         3        H      tau(   3) = (   6.0618223   6.0618223   0.0000000  )
         4        H      tau(   4) = (   7.2306351   6.0618223   0.4985326  )

   Crystallographic axes

     site n.     atom                  positions (cryst. coord.)
         1        C      tau(   1) = (  0.0000000  0.4877376  0.4985326  )
         2        C      tau(   2) = (  0.4985326  0.5093275  0.4985326  )
         3        H      tau(   3) = (  0.0000000  0.4546963  0.4985326  )
         4        H      tau(   4) = (  0.4985326  0.5423688  0.4985326  )

     number of k points=     7  Gaussian smearing, width (Ry)=  0.0020
                       cart. coord. in units 2pi/alat
        k(    1) = (   0.0000000   0.0000000   0.0000000), wk =   0.1666667
        k(    2) = (   0.0000000   0.0000000   0.0833333), wk =   0.3333333
        k(    3) = (   0.0000000   0.0000000   0.1666667), wk =   0.3333333
        k(    4) = (   0.0000000   0.0000000   0.2500000), wk =   0.3333333
        k(    5) = (   0.0000000   0.0000000   0.3333333), wk =   0.3333333
        k(    6) = (   0.0000000   0.0000000   0.4166667), wk =   0.3333333
        k(    7) = (   0.0000000   0.0000000  -0.5000000), wk =   0.1666667

                       cryst. coord.
        k(    1) = (   0.0000000   0.0000000   0.0000000), wk =   0.1666667
        k(    2) = (   0.0833333   0.0000000   0.0000000), wk =   0.3333333
        k(    3) = (   0.1666667   0.0000000   0.0000000), wk =   0.3333333
        k(    4) = (   0.2500000   0.0000000   0.0000000), wk =   0.3333333
        k(    5) = (   0.3333333   0.0000000   0.0000000), wk =   0.3333333
        k(    6) = (   0.4166667   0.0000000   0.0000000), wk =   0.3333333
        k(    7) = (  -0.5000000   0.0000000   0.0000000), wk =   0.1666667

     Dense  grid:  5184713 G-vectors     FFT dimensions: (  40, 540, 480)

     Smooth grid:  1312331 G-vectors     FFT dimensions: (  25, 360, 320)

     Dynamical RAM for                 wfc:       1.13 MB

     Dynamical RAM for     wfc (w. buffer):       9.00 MB

     Dynamical RAM for           str. fact:       7.91 MB

     Dynamical RAM for           local pot:       0.00 MB

     Dynamical RAM for          nlocal pot:       2.50 MB

     Dynamical RAM for                qrad:       1.21 MB

     Dynamical RAM for          rho,v,vnew:      23.73 MB

     Dynamical RAM for               rhoin:       7.91 MB

     Dynamical RAM for            rho*nmix:      63.29 MB

     Dynamical RAM for           G-vectors:      15.33 MB

     Dynamical RAM for          h,s,v(r/c):       0.24 MB

     Dynamical RAM for          <psi|beta>:       0.00 MB

     Dynamical RAM for                 psi:       9.00 MB

     Dynamical RAM for                hpsi:       9.00 MB

     Dynamical RAM for                spsi:       9.00 MB

     Dynamical RAM for      wfcinit/wfcrot:       2.25 MB

     Dynamical RAM for           addusdens:     178.01 MB

     Dynamical RAM for          addusforce:     187.90 MB

     Dynamical RAM for         addusstress:     197.78 MB

     Estimated static dynamical RAM per process >      99.25 MB

     Estimated max dynamical RAM per process >     360.33 MB

     Estimated total dynamical RAM >       7.04 GB

     Initial potential from superposition of free atoms

     starting charge       9.9999, renormalised to      10.0000

     negative rho (up, down):  2.957E-04 0.000E+00
     Starting wfcs are random
     Checking if some PAW data can be deallocated... 
       PAW data deallocated on   10 nodes for type:  1
       PAW data deallocated on   10 nodes for type:  2

     total cpu time spent up to now is        5.9 secs

     per-process dynamical memory:   150.6 Mb

     Self-consistent Calculation

     iteration #  1     ecut=    70.00 Ry     beta= 0.50
     Davidson diagonalization with overlap

---- Real-time Memory Report at c_bands before calling an iterative solver
           369 MiB given to the printing process from OS
           147 MiB allocation reported by mallinfo(arena+hblkhd)
         61506 MiB available memory on the node where the printing process lives
------------------
     ethr =  1.00E-02,  avg # of iterations = 11.4

     negative rho (up, down):  2.908E-04 0.000E+00

     total cpu time spent up to now is       16.8 secs

     total energy              =     -39.15199754 Ry
     estimated scf accuracy    <       0.43044469 Ry

     iteration #  2     ecut=    70.00 Ry     beta= 0.50
     Davidson diagonalization with overlap

---- Real-time Memory Report at c_bands before calling an iterative solver
           438 MiB given to the printing process from OS
           190 MiB allocation reported by mallinfo(arena+hblkhd)
         60851 MiB available memory on the node where the printing process lives
------------------
     ethr =  4.30E-03,  avg # of iterations =  2.0

     negative rho (up, down):  3.282E-04 0.000E+00

     total cpu time spent up to now is       21.1 secs

     total energy              =     -39.20619393 Ry
     estimated scf accuracy    <       0.02749023 Ry

     iteration #  3     ecut=    70.00 Ry     beta= 0.50
     Davidson diagonalization with overlap

---- Real-time Memory Report at c_bands before calling an iterative solver
           446 MiB given to the printing process from OS
           194 MiB allocation reported by mallinfo(arena+hblkhd)
         60870 MiB available memory on the node where the printing process lives
------------------
     ethr =  2.75E-04,  avg # of iterations =  5.3

     negative rho (up, down):  3.432E-04 0.000E+00

     total cpu time spent up to now is       26.4 secs

     total energy              =     -39.20538051 Ry
     estimated scf accuracy    <       0.02032164 Ry

     iteration #  4     ecut=    70.00 Ry     beta= 0.50
     Davidson diagonalization with overlap

---- Real-time Memory Report at c_bands before calling an iterative solver
           452 MiB given to the printing process from OS
           194 MiB allocation reported by mallinfo(arena+hblkhd)
         60829 MiB available memory on the node where the printing process lives
------------------
     ethr =  2.03E-04,  avg # of iterations =  1.0

     negative rho (up, down):  3.685E-04 0.000E+00

     total cpu time spent up to now is       30.5 secs

     total energy              =     -39.20740883 Ry
     estimated scf accuracy    <       0.00721163 Ry

     iteration #  5     ecut=    70.00 Ry     beta= 0.50
     Davidson diagonalization with overlap

---- Real-time Memory Report at c_bands before calling an iterative solver
           456 MiB given to the printing process from OS
           202 MiB allocation reported by mallinfo(arena+hblkhd)
         60749 MiB available memory on the node where the printing process lives
------------------
     ethr =  7.21E-05,  avg # of iterations =  1.0

     negative rho (up, down):  3.708E-04 0.000E+00

     total cpu time spent up to now is       34.6 secs

     total energy              =     -39.20809877 Ry
     estimated scf accuracy    <       0.00046011 Ry

     iteration #  6     ecut=    70.00 Ry     beta= 0.50
     Davidson diagonalization with overlap

---- Real-time Memory Report at c_bands before calling an iterative solver
           462 MiB given to the printing process from OS
           204 MiB allocation reported by mallinfo(arena+hblkhd)
         60715 MiB available memory on the node where the printing process lives
------------------
     c_bands:  1 eigenvalues not converged
     c_bands:  1 eigenvalues not converged
     c_bands:  1 eigenvalues not converged
     c_bands:  1 eigenvalues not converged
     ethr =  4.60E-06,  avg # of iterations = 17.3

     negative rho (up, down):  3.756E-04 0.000E+00

     total cpu time spent up to now is       42.3 secs

     total energy              =     -39.20810613 Ry
     estimated scf accuracy    <       0.00010129 Ry

     iteration #  7     ecut=    70.00 Ry     beta= 0.50
     Davidson diagonalization with overlap

---- Real-time Memory Report at c_bands before calling an iterative solver
           465 MiB given to the printing process from OS
           206 MiB allocation reported by mallinfo(arena+hblkhd)
         60654 MiB available memory on the node where the printing process lives
------------------
     ethr =  1.01E-06,  avg # of iterations =  6.3

     negative rho (up, down):  3.775E-04 0.000E+00

     total cpu time spent up to now is       47.5 secs

     total energy              =     -39.20804999 Ry
     estimated scf accuracy    <       0.00065144 Ry

     iteration #  8     ecut=    70.00 Ry     beta= 0.50
     Davidson diagonalization with overlap

---- Real-time Memory Report at c_bands before calling an iterative solver
           468 MiB given to the printing process from OS
           208 MiB allocation reported by mallinfo(arena+hblkhd)
         60633 MiB available memory on the node where the printing process lives
------------------
     ethr =  1.01E-06,  avg # of iterations =  1.1

     negative rho (up, down):  3.778E-04 0.000E+00

     total cpu time spent up to now is       51.6 secs

     total energy              =     -39.20808760 Ry
     estimated scf accuracy    <       0.00017405 Ry

     iteration #  9     ecut=    70.00 Ry     beta= 0.50
     Davidson diagonalization with overlap

---- Real-time Memory Report at c_bands before calling an iterative solver
           471 MiB given to the printing process from OS
           210 MiB allocation reported by mallinfo(arena+hblkhd)
         60543 MiB available memory on the node where the printing process lives
------------------
     ethr =  1.01E-06,  avg # of iterations =  1.0

     negative rho (up, down):  3.782E-04 0.000E+00

     total cpu time spent up to now is       55.7 secs

     total energy              =     -39.20810559 Ry
     estimated scf accuracy    <       0.00010238 Ry

     iteration # 10     ecut=    70.00 Ry     beta= 0.50
     Davidson diagonalization with overlap

---- Real-time Memory Report at c_bands before calling an iterative solver
           474 MiB given to the printing process from OS
           212 MiB allocation reported by mallinfo(arena+hblkhd)
         60488 MiB available memory on the node where the printing process lives
------------------
     ethr =  1.01E-06,  avg # of iterations =  1.0

     negative rho (up, down):  3.783E-04 0.000E+00

     total cpu time spent up to now is       59.8 secs

     total energy              =     -39.20810954 Ry
     estimated scf accuracy    <       0.00000155 Ry

     iteration # 11     ecut=    70.00 Ry     beta= 0.50
     Davidson diagonalization with overlap

---- Real-time Memory Report at c_bands before calling an iterative solver
           476 MiB given to the printing process from OS
           212 MiB allocation reported by mallinfo(arena+hblkhd)
         60504 MiB available memory on the node where the printing process lives
------------------
     ethr =  1.55E-08,  avg # of iterations =  1.3

     negative rho (up, down):  3.783E-04 0.000E+00

     total cpu time spent up to now is       64.0 secs

     total energy              =     -39.20810970 Ry
     estimated scf accuracy    <       0.00000443 Ry

     iteration # 12     ecut=    70.00 Ry     beta= 0.50
     Davidson diagonalization with overlap

---- Real-time Memory Report at c_bands before calling an iterative solver
           477 MiB given to the printing process from OS
           212 MiB allocation reported by mallinfo(arena+hblkhd)
         60552 MiB available memory on the node where the printing process lives
------------------
     ethr =  1.55E-08,  avg # of iterations =  1.0

     negative rho (up, down):  3.784E-04 0.000E+00

     total cpu time spent up to now is       67.9 secs

     End of self-consistent calculation

          k = 0.0000 0.0000 0.0000 (163993 PWs)   bands (ev):

   -20.4408 -14.0267  -8.8200  -8.6473  -7.9706  -0.5058  -0.3191  -0.0139
     0.0040

     occupation numbers 
     1.0000   1.0000   1.0000   1.0000   1.0000   0.0000   0.0000   0.0000
     0.0000

          k = 0.0000 0.0000 0.0833 (163901 PWs)   bands (ev):

   -20.3224 -13.9270  -8.8175  -8.4989  -8.4780  -0.3399  -0.1722   0.0871
     0.1731

     occupation numbers 
     1.0000   1.0000   1.0000   1.0000   1.0000   0.0000   0.0000   0.0000
     0.0000

          k = 0.0000 0.0000 0.1667 (163891 PWs)   bands (ev):

   -19.9680 -13.6443  -9.7243  -8.8382  -8.0560   0.1515   0.2479   0.2812
     0.6804

     occupation numbers 
     1.0000   1.0000   1.0000   1.0000   1.0000   0.0000   0.0000   0.0000
     0.0000

          k = 0.0000 0.0000 0.2500 (163716 PWs)   bands (ev):

   -19.3806 -13.2808 -11.1889  -8.9623  -7.3264   0.1519   0.8554   0.9599
     1.5256

     occupation numbers 
     1.0000   1.0000   1.0000   1.0000   1.0000   0.0000   0.0000   0.0000
     0.0000

          k = 0.0000 0.0000 0.3333 (163924 PWs)   bands (ev):

   -18.5661 -13.5852 -11.8778  -9.2833  -6.3251  -0.7259   1.5040   2.0772
     2.7093

     occupation numbers 
     1.0000   1.0000   1.0000   1.0000   1.0000   0.0000   0.0000   0.0000
     0.0000

          k = 0.0000 0.0000 0.4167 (164068 PWs)   bands (ev):

   -17.5344 -14.9222 -11.3391  -9.8394  -5.0803  -2.1208   2.2557   3.4856
     4.2300

     occupation numbers 
     1.0000   1.0000   1.0000   1.0000   1.0000   0.0000   0.0000   0.0000
     0.0000

          k = 0.0000 0.0000-0.5000 (164080 PWs)   bands (ev):

   -16.3106 -16.2989 -10.5728 -10.5666  -3.6637  -3.6247   3.3127   3.3328
     5.1275

     occupation numbers 
     1.0000   1.0000   1.0000   1.0000   0.8444   0.1556   0.0000   0.0000
     0.0000

     the Fermi energy is    -3.6442 ev

!    total energy              =     -39.20810948 Ry
     total all-electron energy =      -154.736295 Ry
     estimated scf accuracy    <       0.00000045 Ry
     smearing contrib. (-TS)   =      -0.00011263 Ry
     internal energy E=F+TS    =     -39.20799684 Ry

     The total energy is F=E-TS. E is the sum of the following terms:
     one-electron contribution =    -181.09976970 Ry
     hartree contribution      =      91.82184153 Ry
     xc contribution           =     -10.57627346 Ry
     ewald contribution        =      72.98047300 Ry
     one-center paw contrib.   =     -12.33426821 Ry
      -> PAW hartree energy AE =       8.91217146 Ry
      -> PAW hartree energy PS =      -8.90365160 Ry
      -> PAW xc energy AE      =     -10.53560309 Ry
      -> PAW xc energy PS      =       4.36009450 Ry
      -> total E_H with PAW    =      91.83036139 Ry
      -> total E_XC with PAW   =     -16.75178205 Ry

     convergence has been achieved in  12 iterations

     negative rho (up, down):  3.784E-04 0.000E+00

     Forces acting on atoms (cartesian axes, Ry/au):

     atom    1 type  1   force =     0.09423794   -0.00000677    0.02909457
     atom    2 type  1   force =    -0.09403750   -0.00000775   -0.02909848
     atom    3 type  2   force =    -0.00174845    0.00000761    0.00029280
     atom    4 type  2   force =     0.00154801    0.00000691   -0.00028889
     The non-local contrib.  to forces
     atom    1 type  1   force =     0.05428965   -0.00000256    0.00071216
     atom    2 type  1   force =    -0.05414534   -0.00000516   -0.00077714
     atom    3 type  2   force =     0.07692457    0.00000003   -0.00009289
     atom    4 type  2   force =    -0.07691191   -0.00000003    0.00009250
     The ionic contribution  to forces
     atom    1 type  1   force =    -3.45511951    0.00000000   -0.03178596
     atom    2 type  1   force =     3.45511951    0.00000000    0.03178596
     atom    3 type  2   force =    -3.27767602    0.00000000   -0.00049057
     atom    4 type  2   force =     3.27767602    0.00000000    0.00049057
     The local contribution  to forces
     atom    1 type  1   force =     3.49540123    0.00000319    0.06000133
     atom    2 type  1   force =    -3.49385152    0.00000505   -0.05994791
     atom    3 type  2   force =     3.19896328    0.00000030    0.00087690
     atom    4 type  2   force =    -3.19927093   -0.00000039   -0.00087989
     The core correction contribution to forces
     atom    1 type  1   force =     0.00044442   -0.00001490    0.00022323
     atom    2 type  1   force =    -0.00043925   -0.00001483   -0.00022082
     atom    3 type  2   force =     0.00000000    0.00000000    0.00000000
     atom    4 type  2   force =     0.00000000    0.00000000    0.00000000
     The Hubbard contrib.    to forces
     atom    1 type  1   force =     0.00000000    0.00000000    0.00000000
     atom    2 type  1   force =     0.00000000    0.00000000    0.00000000
     atom    3 type  2   force =     0.00000000    0.00000000    0.00000000
     atom    4 type  2   force =     0.00000000    0.00000000    0.00000000
     The SCF correction term to forces
     atom    1 type  1   force =    -0.00075808    0.00000017   -0.00005931
     atom    2 type  1   force =    -0.00070113   -0.00000012    0.00005830
     atom    3 type  2   force =     0.00005949   -0.00000003   -0.00000378
     atom    4 type  2   force =     0.00007460    0.00000001    0.00000479

     Total force =     0.139365     Total SCF correction =     0.001040


     Computing stress (Cartesian axis) and pressure


     negative rho (up, down):  3.784E-04 0.000E+00
          total   stress  (Ry/bohr**3)                   (kbar)     P=       -0.64
  -0.00000715  -0.00000000  -0.00000246           -1.05       -0.00       -0.36
  -0.00000000  -0.00000004   0.00000000           -0.00       -0.01        0.00
  -0.00000246   0.00000000  -0.00000589           -0.36        0.00       -0.87

     kinetic stress (kbar)     91.59     -0.00     -0.29
                               -0.00    106.17      0.00
                               -0.29      0.00     95.56

     local   stress (kbar)   -108.30      0.00     -0.61
                                0.00     89.14      0.00
                               -0.61      0.00  -1722.24

     nonloc. stress (kbar)     20.27     -0.00      0.00
                               -0.00     18.78     -0.00
                                0.00     -0.00     20.57

     hartree stress (kbar)     31.53     -0.00      0.13
                               -0.00    -21.05     -0.00
                                0.13     -0.00    804.45

     exc-cor stress (kbar)     -5.24     -0.00      0.01
                               -0.00     -6.13     -0.00
                                0.01     -0.00     -5.14

     corecor stress (kbar)    -19.97     -0.00     -0.00
                               -0.00    -19.63      0.00
                               -0.00      0.00    -20.01

     ewald   stress (kbar)    -10.94     -0.00      0.40
                               -0.00   -167.29      0.00
                                0.40      0.00    825.94

     hubbard stress (kbar)      0.00      0.00      0.00
                                0.00      0.00      0.00
                                0.00      0.00      0.00

     DFT-D   stress (kbar)      0.00      0.00      0.00
                                0.00      0.00      0.00
                                0.00      0.00      0.00

     XDM     stress (kbar)      0.00      0.00      0.00
                                0.00      0.00      0.00
                                0.00      0.00      0.00

     dft-nl  stress (kbar)      0.00      0.00      0.00
                                0.00      0.00      0.00
                                0.00      0.00      0.00

     TS-vdW  stress (kbar)      0.00      0.00      0.00
                                0.00      0.00      0.00
                                0.00      0.00      0.00

     MDB     stress (kbar)      0.00      0.00      0.00
                                0.00      0.00      0.00
                                0.00      0.00      0.00

     3D-RISM stress (kbar)      0.00      0.00      0.00
                                0.00      0.00      0.00
                                0.00      0.00      0.00


     Writing all to output data dir ../tmp/ZGNR.save/ :
     XML data file, charge density, pseudopotentials, collected wavefunctions
 
     init_run     :      5.49s CPU      5.80s WALL (       1 calls)
     electrons    :     58.92s CPU     64.17s WALL (       1 calls)
     forces       :      1.34s CPU      1.51s WALL (       1 calls)
     stress       :      3.55s CPU      3.85s WALL (       1 calls)

     Called by init_run:
     wfcinit      :      0.84s CPU      0.86s WALL (       1 calls)
     wfcinit:wfcr :      0.79s CPU      0.80s WALL (       7 calls)
     potinit      :      0.70s CPU      0.81s WALL (       1 calls)
     hinit0       :      0.16s CPU      0.19s WALL (       1 calls)

     Called by electrons:
     c_bands      :     32.93s CPU     33.37s WALL (      12 calls)
     sum_band     :     11.75s CPU     12.64s WALL (      12 calls)
     v_of_rho     :      7.57s CPU      8.49s WALL (      13 calls)
     v_h          :      0.92s CPU      1.04s WALL (      13 calls)
     v_xc         :      7.70s CPU      8.62s WALL (      15 calls)
     newd         :      4.63s CPU      5.60s WALL (      13 calls)
     PAW_pot      :      0.16s CPU      0.17s WALL (      13 calls)
     mix_rho      :      1.78s CPU      1.90s WALL (      12 calls)

     Called by c_bands:
     init_us_2    :      0.83s CPU      0.84s WALL (     189 calls)
     cegterg      :     32.20s CPU     32.62s WALL (      84 calls)

     Called by sum_band:
     sum_band:wei :      0.00s CPU      0.00s WALL (      12 calls)
     sum_band:loo :      4.20s CPU      4.27s WALL (      12 calls)
     sum_band:buf :      0.09s CPU      0.09s WALL (      84 calls)
     sum_band:ini :      0.37s CPU      0.38s WALL (      84 calls)
     sum_band:cal :      0.13s CPU      0.14s WALL (      84 calls)
     sum_band:bec :      0.00s CPU      0.00s WALL (      84 calls)
     addusdens    :      6.39s CPU      7.15s WALL (      12 calls)
                                        0.00s GPU  (      12 calls)
     addusd:skk   :      0.15s CPU      0.15s WALL (      24 calls)
                                        0.00s GPU  (      24 calls)

     Called by *egterg:
     cdiaghg      :      0.18s CPU      0.19s WALL (     432 calls)
     cegterg:over :      1.36s CPU      1.37s WALL (     348 calls)
     cegterg:upda :      0.98s CPU      0.99s WALL (     348 calls)
     cegterg:last :      0.23s CPU      0.23s WALL (      91 calls)
     h_psi        :     29.20s CPU     29.59s WALL (     439 calls)
     s_psi        :      0.44s CPU      0.45s WALL (     439 calls)
     g_psi        :      0.06s CPU      0.06s WALL (     348 calls)

     Called by h_psi:
     h_psi:calbec :      0.61s CPU      0.62s WALL (     439 calls)
     vloc_psi     :     27.76s CPU     28.13s WALL (     439 calls)
     add_vuspsi   :      0.64s CPU      0.65s WALL (     439 calls)

     General routines
     calbec       :      0.89s CPU      0.90s WALL (     642 calls)
     fft          :      7.60s CPU      8.72s WALL (     192 calls)
     ffts         :      0.19s CPU      0.19s WALL (      25 calls)
     fftw         :     15.80s CPU     15.99s WALL (    5542 calls)
     interpolate  :      0.63s CPU      0.69s WALL (      13 calls)
 
     Parallel routines

     PAW routines
     PAW_pot      :      0.16s CPU      0.17s WALL (      13 calls)
 
     PWSCF        :   1m 9.68s CPU   1m18.91s WALL

 
   This run was terminated on:  16:23:11   5Jan2026            

=------------------------------------------------------------------------------=
   JOB DONE.
=------------------------------------------------------------------------------=
