
     Program PWSCF v.7.4.1 starts on  1Oct2025 at  7: 4:48 

     This program is part of the open-source Quantum ESPRESSO suite
     for quantum simulation of materials; please cite
         "P. Giannozzi et al., J. Phys.:Condens. Matter 21 395502 (2009);
         "P. Giannozzi et al., J. Phys.:Condens. Matter 29 465901 (2017);
         "P. Giannozzi et al., J. Chem. Phys. 152 154105 (2020);
          URL http://www.quantum-espresso.org", 
     in publications or presentations arising from this work. More details at
     http://www.quantum-espresso.org/quote

     Serial version
     16856 MiB available memory on the printing compute node when the environment starts

     Reading input from graphene_scf.in

     Current dimensions of program PWSCF are:
     Max number of different atomic species (ntypx) = 10
     Max number of k-points (npk) =  40000
     Max angular momentum in pseudopotentials (lmaxx) =  4
     file C.pbe-n-kjpaw_psl.1.0.0.UPF: wavefunction(s)  2S 2P renormalized
     Message from routine setup:
     using ibrav=0 with symmetry is DISCOURAGED, use correct ibrav instead


     G-vector sticks info
     --------------------
     sticks:   dense  smooth     PW     G-vecs:    dense   smooth      PW
     Sum         439     187     61                46495    11733    2349

     Using Slab Decomposition



     bravais-lattice index     =            0
     lattice parameter (alat)  =       4.6540  a.u.
     unit-cell volume          =     531.7080 (a.u.)^3
     number of atoms/cell      =            2
     number of atomic types    =            1
     number of electrons       =         8.00
     number of Kohn-Sham states=            8
     kinetic-energy cutoff     =      30.0000  Ry
     charge density cutoff     =     300.0000  Ry
     scf convergence threshold =      1.0E-08
     mixing beta               =       0.7000
     number of iterations used =            8  plain     mixing
     Exchange-correlation= SLA  PW   PBX  PBC
                           (   1   4   3   4   0   0   0)

     celldm(1)=   4.653998  celldm(2)=   0.000000  celldm(3)=   0.000000
     celldm(4)=   0.000000  celldm(5)=   0.000000  celldm(6)=   0.000000

     crystal axes: (cart. coord. in units of alat)
               a(1) = (   1.000000   0.000000   0.000000 )  
               a(2) = (  -0.500000   0.866025   0.000000 )  
               a(3) = (   0.000000   0.000000   6.090654 )  

     reciprocal axes: (cart. coord. in units 2 pi/alat)
               b(1) = (  1.000000  0.577350 -0.000000 )  
               b(2) = (  0.000000  1.154701  0.000000 )  
               b(3) = (  0.000000 -0.000000  0.164186 )  


     PseudoPot. # 1 for C  read from file:
     ../../../../pseudos/C.pbe-n-kjpaw_psl.1.0.0.UPF
     MD5 check sum: 5d2aebdfa2cae82b50a7e79e9516da0f
     Pseudo is Projector augmented-wave + core cor, Zval =  4.0
     Generated using "atomic" code by A. Dal Corso  v.5.1
     Shape of augmentation charge: PSQ
     Using radial grid of 1073 points,  4 beta functions with: 
                l(1) =   0
                l(2) =   0
                l(3) =   1
                l(4) =   1
     Q(r) pseudized with 0 coefficients 


     atomic species   valence    mass     pseudopotential
     C                 4.00    12.01070     C ( 1.00)

     24 Sym. Ops., with inversion, found (12 have fractional translation)



   Cartesian axes

     site n.     atom                  positions (alat units)
         1        C      tau(   1) = (   0.0000000   0.0000000   0.0000000  )
         2        C      tau(   2) = (   0.0000000   0.5773503   0.0000000  )

     number of k points=    12  Gaussian smearing, width (Ry)=  0.0100
                       cart. coord. in units 2pi/alat
        k(    1) = (   0.0000000   0.0000000   0.0000000), wk =   0.0246914
        k(    2) = (   0.0000000   0.1283001   0.0000000), wk =   0.1481481
        k(    3) = (   0.0000000   0.2566001   0.0000000), wk =   0.1481481
        k(    4) = (   0.0000000   0.3849002   0.0000000), wk =   0.1481481
        k(    5) = (   0.0000000   0.5132002   0.0000000), wk =   0.1481481
        k(    6) = (   0.1111111   0.1924501   0.0000000), wk =   0.1481481
        k(    7) = (   0.1111111   0.3207501   0.0000000), wk =   0.2962963
        k(    8) = (   0.1111111   0.4490502   0.0000000), wk =   0.2962963
        k(    9) = (   0.1111111   0.5773503   0.0000000), wk =   0.1481481
        k(   10) = (   0.2222222   0.3849002   0.0000000), wk =   0.1481481
        k(   11) = (   0.2222222   0.5132002   0.0000000), wk =   0.2962963
        k(   12) = (   0.3333333   0.5773503   0.0000000), wk =   0.0493827

     Dense  grid:    46495 G-vectors     FFT dimensions: (  27,  27, 160)

     Smooth grid:    11733 G-vectors     FFT dimensions: (  18,  18, 100)

     Estimated max dynamical RAM per process >      65.65 MB

     Check: negative core charge=   -0.000003

     Initial potential from superposition of free atoms

     starting charge       7.9999, renormalised to       8.0000

     negative rho (up, down):  4.797E-05 0.000E+00
     Starting wfcs are    8 randomized atomic wfcs

     total cpu time spent up to now is        1.1 secs

     Self-consistent Calculation

     iteration #  1     ecut=    30.00 Ry     beta= 0.70
     Davidson diagonalization with overlap
     ethr =  1.00E-02,  avg # of iterations =  5.5

     negative rho (up, down):  1.377E-05 0.000E+00

     total cpu time spent up to now is        1.7 secs

     total energy              =     -36.84119371 Ry
     estimated scf accuracy    <       0.19675916 Ry

     iteration #  2     ecut=    30.00 Ry     beta= 0.70
     Davidson diagonalization with overlap
     ethr =  2.46E-03,  avg # of iterations =  3.4

     negative rho (up, down):  1.305E-05 0.000E+00

     total cpu time spent up to now is        2.1 secs

     total energy              =     -36.87063497 Ry
     estimated scf accuracy    <       0.00238593 Ry

     iteration #  3     ecut=    30.00 Ry     beta= 0.70
     Davidson diagonalization with overlap
     ethr =  2.98E-05,  avg # of iterations =  8.1

     negative rho (up, down):  5.235E-05 0.000E+00

     total cpu time spent up to now is        2.7 secs

     total energy              =     -36.87084234 Ry
     estimated scf accuracy    <       0.00016696 Ry

     iteration #  4     ecut=    30.00 Ry     beta= 0.70
     Davidson diagonalization with overlap
     ethr =  2.09E-06,  avg # of iterations =  4.5

     negative rho (up, down):  1.952E-05 0.000E+00

     total cpu time spent up to now is        3.2 secs

     total energy              =     -36.87085024 Ry
     estimated scf accuracy    <       0.00000057 Ry

     iteration #  5     ecut=    30.00 Ry     beta= 0.70
     Davidson diagonalization with overlap
     ethr =  7.07E-09,  avg # of iterations =  3.1

     negative rho (up, down):  1.376E-05 0.000E+00

     total cpu time spent up to now is        3.6 secs

     total energy              =     -36.87085085 Ry
     estimated scf accuracy    <       0.00000002 Ry

     iteration #  6     ecut=    30.00 Ry     beta= 0.70
     Davidson diagonalization with overlap
     ethr =  3.09E-10,  avg # of iterations =  2.0

     negative rho (up, down):  1.307E-05 0.000E+00

     total cpu time spent up to now is        4.0 secs

     End of self-consistent calculation

          k = 0.0000 0.0000 0.0000 (  1435 PWs)   bands (ev):

   -21.2908  -9.3491  -4.7269  -4.7269   1.4430   2.2808   2.5589   4.5206

          k = 0.0000 0.1283 0.0000 (  1439 PWs)   bands (ev):

   -20.9984  -9.0005  -5.8541  -5.3032   1.8419   2.6825   2.9623   4.9178

          k = 0.0000 0.2566 0.0000 (  1459 PWs)   bands (ev):

   -20.1274  -8.4265  -7.9699  -6.4683   3.0376   3.8813   4.1724   6.0555

          k = 0.0000 0.3849 0.0000 (  1477 PWs)   bands (ev):

   -18.6992 -11.3711  -7.4970  -6.3404   3.2450   5.0171   5.9064   6.0140

          k = 0.0000 0.5132 0.0000 (  1481 PWs)   bands (ev):

   -16.7897 -14.1236  -8.0642  -4.4887   0.5336   5.7444   7.7911   8.6661

          k = 0.1111 0.1925 0.0000 (  1454 PWs)   bands (ev):

   -20.4168  -8.3097  -7.4272  -6.4579   2.6399   3.4842   3.7697   5.7090

          k = 0.1111 0.3208 0.0000 (  1481 PWs)   bands (ev):

   -19.2671  -9.8911  -7.8533  -6.9708   4.2317   4.4986   5.0987   5.3831

          k = 0.1111 0.4491 0.0000 (  1481 PWs)   bands (ev):

   -17.5871 -12.6611  -8.7393  -5.1346   1.6482   6.5893   7.1182   7.4522

          k = 0.1111 0.5774 0.0000 (  1496 PWs)   bands (ev):

   -15.8424 -14.8094  -9.0423  -3.7945  -0.0873   6.9508   9.6257   9.7792

          k = 0.2222 0.3849 0.0000 (  1476 PWs)   bands (ev):

   -17.8629 -11.4133  -9.8740  -5.3824   2.2805   6.2096   7.0137   7.3982

          k = 0.2222 0.5132 0.0000 (  1497 PWs)   bands (ev):

   -16.0090 -13.5343 -10.8825  -3.5005   0.0285   8.9092   9.1548   9.8311

          k = 0.3333 0.5774 0.0000 (  1470 PWs)   bands (ev):

   -14.3433 -14.3433 -12.2960  -1.6886  -1.6886   8.9122  11.2054  11.2056

     the Fermi energy is    -1.6886 ev

!    total energy              =     -36.87085086 Ry
     total all-electron energy =      -152.399047 Ry
     estimated scf accuracy    <          1.1E-09 Ry
     smearing contrib. (-TS)   =      -0.00027861 Ry
     internal energy E=F+TS    =     -36.87057224 Ry

     The total energy is F=E-TS. E is the sum of the following terms:
     one-electron contribution =    -157.16741512 Ry
     hartree contribution      =      80.20527580 Ry
     xc contribution           =      -9.27642344 Ry
     ewald contribution        =      61.70343446 Ry
     one-center paw contrib.   =     -12.33544395 Ry

     convergence has been achieved in   6 iterations

     negative rho (up, down):  1.307E-05 0.000E+00

     Forces acting on atoms (cartesian axes, Ry/au):

     atom    1 type  1   force =     0.00000000    0.00000000    0.00000000
     atom    2 type  1   force =     0.00000000   -0.00000000    0.00000000

     Total force =     0.000000     Total SCF correction =     0.000000


     Computing stress (Cartesian axis) and pressure


     negative rho (up, down):  1.307E-05 0.000E+00
          total   stress  (Ry/bohr**3)                   (kbar)     P=      -16.03
  -0.00009180  -0.00000000   0.00000000          -13.50       -0.00        0.00
  -0.00000000  -0.00009180   0.00000000           -0.00      -13.50        0.00
   0.00000000   0.00000000  -0.00014331            0.00        0.00      -21.08


     Writing all to output data dir ./tmp/graphene.save/ :
     XML data file, charge density, pseudopotentials, collected wavefunctions

     init_run     :      1.07s CPU      1.00s WALL (       1 calls)
     electrons    :      5.13s CPU      2.89s WALL (       1 calls)
     forces       :      0.09s CPU      0.07s WALL (       1 calls)
     stress       :      0.52s CPU      0.33s WALL (       1 calls)

     Called by init_run:
     wfcinit      :      0.31s CPU      0.21s WALL (       1 calls)
     potinit      :      0.31s CPU      0.33s WALL (       1 calls)
     hinit0       :      0.42s CPU      0.42s WALL (       1 calls)

     Called by electrons:
     c_bands      :      2.97s CPU      1.57s WALL (       6 calls)
     sum_band     :      0.87s CPU      0.43s WALL (       6 calls)
     v_of_rho     :      0.66s CPU      0.39s WALL (       7 calls)
     newd         :      0.13s CPU      0.13s WALL (       7 calls)
     PAW_pot      :      0.53s CPU      0.44s WALL (       7 calls)
     mix_rho      :      0.05s CPU      0.03s WALL (       6 calls)

     Called by c_bands:
     init_us_2    :      0.11s CPU      0.06s WALL (     180 calls)
     cegterg      :      2.83s CPU      1.51s WALL (      72 calls)

     Called by *egterg:
     cdiaghg      :      0.10s CPU      0.05s WALL (     391 calls)
     h_psi        :      2.69s CPU      1.48s WALL (     403 calls)
     s_psi        :      0.05s CPU      0.04s WALL (     403 calls)
     g_psi        :      0.02s CPU      0.01s WALL (     319 calls)

     Called by h_psi:
     h_psi:calbec :      0.07s CPU      0.03s WALL (     403 calls)
     vloc_psi     :      2.53s CPU      1.40s WALL (     403 calls)
     add_vuspsi   :      0.07s CPU      0.04s WALL (     403 calls)

     General routines
     calbec       :      0.09s CPU      0.05s WALL (     679 calls)
     fft          :      0.63s CPU      0.52s WALL (     114 calls)
     ffts         :      0.23s CPU      0.23s WALL (      13 calls)
     fftw         :      2.31s CPU      1.30s WALL (    4232 calls)
     interpolate  :      0.23s CPU      0.23s WALL (       7 calls)


     PWSCF        :      6.98s CPU      4.43s WALL


   This run was terminated on:   7: 4:52   1Oct2025            

=------------------------------------------------------------------------------=
   JOB DONE.
=------------------------------------------------------------------------------=
