
     Program PWSCF v.7.4.1 starts on 14Nov2025 at 10:11:52 

     This program is part of the open-source Quantum ESPRESSO suite
     for quantum simulation of materials; please cite
         "P. Giannozzi et al., J. Phys.:Condens. Matter 21 395502 (2009);
         "P. Giannozzi et al., J. Phys.:Condens. Matter 29 465901 (2017);
         "P. Giannozzi et al., J. Chem. Phys. 152 154105 (2020);
          URL http://www.quantum-espresso.org", 
     in publications or presentations arising from this work. More details at
     http://www.quantum-espresso.org/quote

     Parallel version (MPI), running on     6 processors

     MPI processes distributed on     1 nodes
     10515 MiB available memory on the printing compute node when the environment starts

     Reading input from grap_SOC_scf.in

     Current dimensions of program PWSCF are:
     Max number of different atomic species (ntypx) = 10
     Max number of k-points (npk) =  40000
     Max angular momentum in pseudopotentials (lmaxx) =  4
     Presently stress not available with electric field and gates

     file C.rel-pbe-n-kjpaw_psl.0.1.UPF: wavefunction(s)  2P 2P renormalized

     R & G space division:  proc/nbgrp/npool/nimage =       6
     Subspace diagonalization in iterative solution of the eigenvalue problem:
     a serial algorithm will be used


     Parallelization info
     --------------------
     sticks:   dense  smooth     PW     G-vecs:    dense   smooth      PW
     Min         173      70     23                27803     7050    1361
     Max         175      71     24                27830     7077    1378
     Sum        1045     421    139               166859    42343    8205

     Using Slab Decomposition



     bravais-lattice index     =            0
     lattice parameter (alat)  =       4.6624  a.u.
     unit-cell volume          =     533.6317 (a.u.)^3
     number of atoms/cell      =            2
     number of atomic types    =            1
     number of electrons       =         8.00
     number of Kohn-Sham states=           16
     kinetic-energy cutoff     =      70.0000  Ry
     charge density cutoff     =     700.0000  Ry
     scf convergence threshold =      1.0E-08
     mixing beta               =       0.1000
     number of iterations used =            8  plain     mixing
     Exchange-correlation= SLA  PW   PBX  PBC
                           (   1   4   3   4   0   0   0)
     Non magnetic calculation with spin-orbit


     celldm(1)=   4.662410  celldm(2)=   0.000000  celldm(3)=   0.000000
     celldm(4)=   0.000000  celldm(5)=   0.000000  celldm(6)=   0.000000

     crystal axes: (cart. coord. in units of alat)
               a(1) = (   1.000000   0.000000  -0.000000 )  
               a(2) = (  -0.500000   0.866025   0.000000 )  
               a(3) = (  -0.000000   0.000000   6.079666 )  

     reciprocal axes: (cart. coord. in units 2 pi/alat)
               b(1) = (  1.000000  0.577350  0.000000 )  
               b(2) = ( -0.000000  1.154701 -0.000000 )  
               b(3) = (  0.000000  0.000000  0.164483 )  


     PseudoPot. # 1 for C  read from file:
     ../../../pseudos/C.rel-pbe-n-kjpaw_psl.0.1.UPF
     MD5 check sum: 5ef0b8f55ac4be3c3db5d31256eeff6b
     Pseudo is Projector augmented-wave + core cor, Zval =  4.0
     Generated using &quot;atomic&quot; code by A. Dal Corso  v.6.3
     Shape of augmentation charge: BESSEL
     Using radial grid of 1073 points,  6 beta functions with: 
                l(1) =   0
                l(2) =   0
                l(3) =   1
                l(4) =   1
                l(5) =   1
                l(6) =   1
     Q(r) pseudized with 0 coefficients 


     atomic species   valence    mass     pseudopotential
     C                 4.00    12.01100     C ( 1.00)

     No symmetry found



   Cartesian axes

     site n.     atom                  positions (alat units)
         1        C      tau(   1) = (   0.0000000   0.0000000   3.0398328  )
         2        C      tau(   2) = (   0.0000000   0.5773503   3.0398328  )

     number of k points=    74  Gaussian smearing, width (Ry)=  0.0020
                       cart. coord. in units 2pi/alat
        k(    1) = (   0.0000000   0.0000000   0.0000000), wk =   0.0069444
        k(    2) = (   0.0000000   0.0962250   0.0000000), wk =   0.0138889
        k(    3) = (   0.0000000   0.1924501   0.0000000), wk =   0.0138889
        k(    4) = (   0.0000000   0.2886751   0.0000000), wk =   0.0138889
        k(    5) = (   0.0000000   0.3849002   0.0000000), wk =   0.0138889
        k(    6) = (   0.0000000   0.4811252   0.0000000), wk =   0.0138889
        k(    7) = (   0.0000000  -0.5773503   0.0000000), wk =   0.0069444
        k(    8) = (   0.0833333   0.0481125   0.0000000), wk =   0.0138889
        k(    9) = (   0.0833333   0.1443376   0.0000000), wk =   0.0138889
        k(   10) = (   0.0833333   0.2405626   0.0000000), wk =   0.0138889
        k(   11) = (   0.0833333   0.3367877   0.0000000), wk =   0.0138889
        k(   12) = (   0.0833333   0.4330127   0.0000000), wk =   0.0138889
        k(   13) = (   0.0833333   0.5292377   0.0000000), wk =   0.0138889
        k(   14) = (   0.0833333  -0.5292377   0.0000000), wk =   0.0138889
        k(   15) = (   0.0833333  -0.4330127   0.0000000), wk =   0.0138889
        k(   16) = (   0.0833333  -0.3367877   0.0000000), wk =   0.0138889
        k(   17) = (   0.0833333  -0.2405626   0.0000000), wk =   0.0138889
        k(   18) = (   0.0833333  -0.1443376   0.0000000), wk =   0.0138889
        k(   19) = (   0.0833333  -0.0481125   0.0000000), wk =   0.0138889
        k(   20) = (   0.1666667   0.0962250   0.0000000), wk =   0.0138889
        k(   21) = (   0.1666667   0.1924501   0.0000000), wk =   0.0138889
        k(   22) = (   0.1666667   0.2886751   0.0000000), wk =   0.0138889
        k(   23) = (   0.1666667   0.3849002   0.0000000), wk =   0.0138889
        k(   24) = (   0.1666667   0.4811252   0.0000000), wk =   0.0138889
        k(   25) = (   0.1666667   0.5773503   0.0000000), wk =   0.0138889
        k(   26) = (   0.1666667  -0.4811252   0.0000000), wk =   0.0138889
        k(   27) = (   0.1666667  -0.3849002   0.0000000), wk =   0.0138889
        k(   28) = (   0.1666667  -0.2886751   0.0000000), wk =   0.0138889
        k(   29) = (   0.1666667  -0.1924501   0.0000000), wk =   0.0138889
        k(   30) = (   0.1666667  -0.0962250   0.0000000), wk =   0.0138889
        k(   31) = (   0.1666667  -0.0000000   0.0000000), wk =   0.0138889
        k(   32) = (   0.2500000   0.1443376   0.0000000), wk =   0.0138889
        k(   33) = (   0.2500000   0.2405626   0.0000000), wk =   0.0138889
        k(   34) = (   0.2500000   0.3367877   0.0000000), wk =   0.0138889
        k(   35) = (   0.2500000   0.4330127   0.0000000), wk =   0.0138889
        k(   36) = (   0.2500000   0.5292377   0.0000000), wk =   0.0138889
        k(   37) = (   0.2500000   0.6254628   0.0000000), wk =   0.0138889
        k(   38) = (   0.2500000  -0.4330127   0.0000000), wk =   0.0138889
        k(   39) = (   0.2500000  -0.3367877   0.0000000), wk =   0.0138889
        k(   40) = (   0.2500000  -0.2405626   0.0000000), wk =   0.0138889
        k(   41) = (   0.2500000  -0.1443376   0.0000000), wk =   0.0138889
        k(   42) = (   0.2500000  -0.0481125   0.0000000), wk =   0.0138889
        k(   43) = (   0.2500000   0.0481125   0.0000000), wk =   0.0138889
        k(   44) = (   0.3333333   0.1924501   0.0000000), wk =   0.0138889
        k(   45) = (   0.3333333   0.2886751   0.0000000), wk =   0.0138889
        k(   46) = (   0.3333333   0.3849002   0.0000000), wk =   0.0138889
        k(   47) = (   0.3333333   0.4811252   0.0000000), wk =   0.0138889
        k(   48) = (   0.3333333   0.5773503   0.0000000), wk =   0.0138889
        k(   49) = (   0.3333333   0.6735753   0.0000000), wk =   0.0138889
        k(   50) = (   0.3333333  -0.3849002   0.0000000), wk =   0.0138889
        k(   51) = (   0.3333333  -0.2886751   0.0000000), wk =   0.0138889
        k(   52) = (   0.3333333  -0.1924501   0.0000000), wk =   0.0138889
        k(   53) = (   0.3333333  -0.0962250   0.0000000), wk =   0.0138889
        k(   54) = (   0.3333333   0.0000000   0.0000000), wk =   0.0138889
        k(   55) = (   0.3333333   0.0962250   0.0000000), wk =   0.0138889
        k(   56) = (   0.4166667   0.2405626   0.0000000), wk =   0.0138889
        k(   57) = (   0.4166667   0.3367877   0.0000000), wk =   0.0138889
        k(   58) = (   0.4166667   0.4330127   0.0000000), wk =   0.0138889
        k(   59) = (   0.4166667   0.5292377   0.0000000), wk =   0.0138889
        k(   60) = (   0.4166667   0.6254628   0.0000000), wk =   0.0138889
        k(   61) = (   0.4166667   0.7216878   0.0000000), wk =   0.0138889
        k(   62) = (   0.4166667  -0.3367877   0.0000000), wk =   0.0138889
        k(   63) = (   0.4166667  -0.2405626   0.0000000), wk =   0.0138889
        k(   64) = (   0.4166667  -0.1443376   0.0000000), wk =   0.0138889
        k(   65) = (   0.4166667  -0.0481125   0.0000000), wk =   0.0138889
        k(   66) = (   0.4166667   0.0481125   0.0000000), wk =   0.0138889
        k(   67) = (   0.4166667   0.1443376   0.0000000), wk =   0.0138889
        k(   68) = (  -0.5000000  -0.2886751   0.0000000), wk =   0.0069444
        k(   69) = (  -0.5000000  -0.1924501   0.0000000), wk =   0.0138889
        k(   70) = (  -0.5000000  -0.0962250   0.0000000), wk =   0.0138889
        k(   71) = (  -0.5000000   0.0000000   0.0000000), wk =   0.0138889
        k(   72) = (  -0.5000000   0.0962250   0.0000000), wk =   0.0138889
        k(   73) = (  -0.5000000   0.1924501   0.0000000), wk =   0.0138889
        k(   74) = (  -0.5000000  -0.8660254   0.0000000), wk =   0.0069444

     Dense  grid:   166859 G-vectors     FFT dimensions: (  40,  40, 240)

     Smooth grid:    42343 G-vectors     FFT dimensions: (  25,  25, 160)

     Estimated max dynamical RAM per process >     131.86 MB

     Estimated total dynamical RAM >     791.13 MB

     Initial potential from superposition of free atoms

     starting charge       7.9999, renormalised to       8.0000

     negative rho (up, down):  2.781E-05 0.000E+00

     Adding external electric field

     Computed dipole along edir(3) : 
        Dipole               -0.0000 Ry au,         -0.0000 Debye
        Dipole field         -0.0000 Ry au, 

        E field amplitude [Ha a.u.]:  1.9447E-03
        Potential amp.        0.1047 Ry
        Total length         26.9286 bohr

     Starting wfcs are random
     Checking if some PAW data can be deallocated... 

     total cpu time spent up to now is        4.0 secs

     Self-consistent Calculation

     iteration #  1     ecut=    70.00 Ry     beta= 0.10
     Davidson diagonalization with overlap
     ethr =  1.00E-02,  avg # of iterations =  8.9

     negative rho (up, down):  2.272E-05 0.000E+00

     Adding external electric field

     Computed dipole along edir(3) : 
        Dipole                0.0024 Ry au,          0.0062 Debye
        Dipole field          0.0001 Ry au, 

        E field amplitude [Ha a.u.]:  1.9447E-03
        Potential amp.        0.1016 Ry
        Total length         26.9286 bohr


     total cpu time spent up to now is       49.7 secs

     total energy              =     -36.95398433 Ry
     estimated scf accuracy    <       0.20222547 Ry

     iteration #  2     ecut=    70.00 Ry     beta= 0.10
     Davidson diagonalization with overlap
     ethr =  2.53E-03,  avg # of iterations =  1.0

     negative rho (up, down):  1.046E-04 0.000E+00

     Adding external electric field

     Computed dipole along edir(3) : 
        Dipole                0.0184 Ry au,          0.0469 Debye
        Dipole field          0.0004 Ry au, 

        E field amplitude [Ha a.u.]:  1.9447E-03
        Potential amp.        0.0814 Ry
        Total length         26.9286 bohr


     total cpu time spent up to now is       57.6 secs

     total energy              =     -36.85253982 Ry
     estimated scf accuracy    <       0.15637814 Ry

     iteration #  3     ecut=    70.00 Ry     beta= 0.10
     Davidson diagonalization with overlap
     ethr =  1.95E-03,  avg # of iterations =  3.7

     negative rho (up, down):  7.769E-05 0.000E+00

     Adding external electric field

     Computed dipole along edir(3) : 
        Dipole                0.0170 Ry au,          0.0431 Debye
        Dipole field          0.0004 Ry au, 

        E field amplitude [Ha a.u.]:  1.9447E-03
        Potential amp.        0.0832 Ry
        Total length         26.9286 bohr


     total cpu time spent up to now is       67.3 secs

     total energy              =     -36.87734471 Ry
     estimated scf accuracy    <       0.00289848 Ry

     iteration #  4     ecut=    70.00 Ry     beta= 0.10
     Davidson diagonalization with overlap
     ethr =  3.62E-05,  avg # of iterations =  7.4

     negative rho (up, down):  7.960E-05 0.000E+00

     Adding external electric field

     Computed dipole along edir(3) : 
        Dipole                0.0223 Ry au,          0.0566 Debye
        Dipole field          0.0005 Ry au, 

        E field amplitude [Ha a.u.]:  1.9447E-03
        Potential amp.        0.0765 Ry
        Total length         26.9286 bohr


     total cpu time spent up to now is       90.6 secs

     total energy              =     -36.90402330 Ry
     estimated scf accuracy    <       0.00766544 Ry

     iteration #  5     ecut=    70.00 Ry     beta= 0.10
     Davidson diagonalization with overlap
     ethr =  3.62E-05,  avg # of iterations =  5.1

     negative rho (up, down):  1.469E-04 0.000E+00

     Adding external electric field

     Computed dipole along edir(3) : 
        Dipole                0.0135 Ry au,          0.0344 Debye
        Dipole field          0.0003 Ry au, 

        E field amplitude [Ha a.u.]:  1.9447E-03
        Potential amp.        0.0876 Ry
        Total length         26.9286 bohr


     total cpu time spent up to now is      105.1 secs

     total energy              =     -36.89016862 Ry
     estimated scf accuracy    <       0.03725668 Ry

     iteration #  6     ecut=    70.00 Ry     beta= 0.10
     Davidson diagonalization with overlap
     ethr =  3.62E-05,  avg # of iterations =  5.3

     negative rho (up, down):  5.486E-04 0.000E+00

     Adding external electric field

     Computed dipole along edir(3) : 
        Dipole                0.0056 Ry au,          0.0143 Debye
        Dipole field          0.0001 Ry au, 

        E field amplitude [Ha a.u.]:  1.9447E-03
        Potential amp.        0.0976 Ry
        Total length         26.9286 bohr


     total cpu time spent up to now is      120.3 secs

     total energy              =     -36.88700468 Ry
     estimated scf accuracy    <       0.00715946 Ry

     iteration #  7     ecut=    70.00 Ry     beta= 0.10
     Davidson diagonalization with overlap
     ethr =  3.62E-05,  avg # of iterations =  6.0

     negative rho (up, down):  4.598E-04 0.000E+00

     Adding external electric field

     Computed dipole along edir(3) : 
        Dipole                0.0098 Ry au,          0.0250 Debye
        Dipole field          0.0002 Ry au, 

        E field amplitude [Ha a.u.]:  1.9447E-03
        Potential amp.        0.0923 Ry
        Total length         26.9286 bohr


     total cpu time spent up to now is      137.9 secs

     total energy              =     -36.88917542 Ry
     estimated scf accuracy    <       0.00135650 Ry

     iteration #  8     ecut=    70.00 Ry     beta= 0.10
     Davidson diagonalization with overlap
     ethr =  1.70E-05,  avg # of iterations =  1.8

     negative rho (up, down):  4.404E-04 0.000E+00

     Adding external electric field

     Computed dipole along edir(3) : 
        Dipole                0.0100 Ry au,          0.0254 Debye
        Dipole field          0.0002 Ry au, 

        E field amplitude [Ha a.u.]:  1.9447E-03
        Potential amp.        0.0920 Ry
        Total length         26.9286 bohr


     total cpu time spent up to now is      146.4 secs

     total energy              =     -36.88923117 Ry
     estimated scf accuracy    <       0.00090550 Ry

     iteration #  9     ecut=    70.00 Ry     beta= 0.10
     Davidson diagonalization with overlap
     ethr =  1.13E-05,  avg # of iterations =  1.1

     negative rho (up, down):  2.857E-04 0.000E+00

     Adding external electric field

     Computed dipole along edir(3) : 
        Dipole                0.0108 Ry au,          0.0274 Debye
        Dipole field          0.0003 Ry au, 

        E field amplitude [Ha a.u.]:  1.9447E-03
        Potential amp.        0.0911 Ry
        Total length         26.9286 bohr


     total cpu time spent up to now is      154.4 secs

     total energy              =     -36.88875488 Ry
     estimated scf accuracy    <       0.00086131 Ry

     iteration # 10     ecut=    70.00 Ry     beta= 0.10
     Davidson diagonalization with overlap
     ethr =  1.08E-05,  avg # of iterations =  1.3

     negative rho (up, down):  1.189E-04 0.000E+00

     Adding external electric field

     Computed dipole along edir(3) : 
        Dipole                0.0119 Ry au,          0.0303 Debye
        Dipole field          0.0003 Ry au, 

        E field amplitude [Ha a.u.]:  1.9447E-03
        Potential amp.        0.0896 Ry
        Total length         26.9286 bohr


     total cpu time spent up to now is      162.6 secs

     total energy              =     -36.88879118 Ry
     estimated scf accuracy    <       0.00007035 Ry

     iteration # 11     ecut=    70.00 Ry     beta= 0.10
     Davidson diagonalization with overlap
     ethr =  8.79E-07,  avg # of iterations =  5.6

     negative rho (up, down):  1.793E-04 0.000E+00

     Adding external electric field

     Computed dipole along edir(3) : 
        Dipole                0.0106 Ry au,          0.0270 Debye
        Dipole field          0.0003 Ry au, 

        E field amplitude [Ha a.u.]:  1.9447E-03
        Potential amp.        0.0912 Ry
        Total length         26.9286 bohr


     total cpu time spent up to now is      180.6 secs

     total energy              =     -36.88895099 Ry
     estimated scf accuracy    <       0.00004325 Ry

     iteration # 12     ecut=    70.00 Ry     beta= 0.10
     Davidson diagonalization with overlap
     ethr =  5.41E-07,  avg # of iterations =  4.2

     negative rho (up, down):  1.022E-04 0.000E+00

     Adding external electric field

     Computed dipole along edir(3) : 
        Dipole                0.0115 Ry au,          0.0293 Debye
        Dipole field          0.0003 Ry au, 

        E field amplitude [Ha a.u.]:  1.9447E-03
        Potential amp.        0.0901 Ry
        Total length         26.9286 bohr


     total cpu time spent up to now is      195.4 secs

     total energy              =     -36.88888301 Ry
     estimated scf accuracy    <       0.00021405 Ry

     iteration # 13     ecut=    70.00 Ry     beta= 0.10
     Davidson diagonalization with overlap
     ethr =  5.41E-07,  avg # of iterations =  4.0

     negative rho (up, down):  4.668E-05 0.000E+00

     Adding external electric field

     Computed dipole along edir(3) : 
        Dipole                0.0113 Ry au,          0.0286 Debye
        Dipole field          0.0003 Ry au, 

        E field amplitude [Ha a.u.]:  1.9447E-03
        Potential amp.        0.0904 Ry
        Total length         26.9286 bohr


     total cpu time spent up to now is      209.6 secs

     total energy              =     -36.88892697 Ry
     estimated scf accuracy    <       0.00004511 Ry

     iteration # 14     ecut=    70.00 Ry     beta= 0.10
     Davidson diagonalization with overlap
     ethr =  5.41E-07,  avg # of iterations =  2.3

     negative rho (up, down):  3.786E-05 0.000E+00

     Adding external electric field

     Computed dipole along edir(3) : 
        Dipole                0.0113 Ry au,          0.0287 Debye
        Dipole field          0.0003 Ry au, 

        E field amplitude [Ha a.u.]:  1.9447E-03
        Potential amp.        0.0904 Ry
        Total length         26.9286 bohr


     total cpu time spent up to now is      218.5 secs

     total energy              =     -36.88892893 Ry
     estimated scf accuracy    <       0.00000451 Ry

     iteration # 15     ecut=    70.00 Ry     beta= 0.10
     Davidson diagonalization with overlap
     ethr =  5.63E-08,  avg # of iterations =  3.7

     negative rho (up, down):  3.234E-05 0.000E+00

     Adding external electric field

     Computed dipole along edir(3) : 
        Dipole                0.0113 Ry au,          0.0287 Debye
        Dipole field          0.0003 Ry au, 

        E field amplitude [Ha a.u.]:  1.9447E-03
        Potential amp.        0.0904 Ry
        Total length         26.9286 bohr


     total cpu time spent up to now is      230.8 secs

     total energy              =     -36.88893382 Ry
     estimated scf accuracy    <       0.00000054 Ry

     iteration # 16     ecut=    70.00 Ry     beta= 0.10
     Davidson diagonalization with overlap
     ethr =  6.69E-09,  avg # of iterations =  1.8

     negative rho (up, down):  2.751E-05 0.000E+00

     Adding external electric field

     Computed dipole along edir(3) : 
        Dipole                0.0114 Ry au,          0.0289 Debye
        Dipole field          0.0003 Ry au, 

        E field amplitude [Ha a.u.]:  1.9447E-03
        Potential amp.        0.0903 Ry
        Total length         26.9286 bohr


     total cpu time spent up to now is      239.2 secs

     total energy              =     -36.88893263 Ry
     estimated scf accuracy    <       0.00000188 Ry

     iteration # 17     ecut=    70.00 Ry     beta= 0.10
     Davidson diagonalization with overlap
     ethr =  6.69E-09,  avg # of iterations =  3.2

     negative rho (up, down):  2.428E-05 0.000E+00

     Adding external electric field

     Computed dipole along edir(3) : 
        Dipole                0.0115 Ry au,          0.0291 Debye
        Dipole field          0.0003 Ry au, 

        E field amplitude [Ha a.u.]:  1.9447E-03
        Potential amp.        0.0902 Ry
        Total length         26.9286 bohr


     total cpu time spent up to now is      250.0 secs

     total energy              =     -36.88893317 Ry
     estimated scf accuracy    <       0.00000012 Ry

     iteration # 18     ecut=    70.00 Ry     beta= 0.10
     Davidson diagonalization with overlap
     ethr =  1.55E-09,  avg # of iterations =  4.8

     negative rho (up, down):  1.974E-05 0.000E+00

     Adding external electric field

     Computed dipole along edir(3) : 
        Dipole                0.0115 Ry au,          0.0293 Debye
        Dipole field          0.0003 Ry au, 

        E field amplitude [Ha a.u.]:  1.9447E-03
        Potential amp.        0.0901 Ry
        Total length         26.9286 bohr


     total cpu time spent up to now is      262.6 secs

     total energy              =     -36.88893271 Ry
     estimated scf accuracy    <       0.00000088 Ry

     iteration # 19     ecut=    70.00 Ry     beta= 0.10
     Davidson diagonalization with overlap
     ethr =  1.55E-09,  avg # of iterations =  3.6

     negative rho (up, down):  1.893E-05 0.000E+00

     Adding external electric field

     Computed dipole along edir(3) : 
        Dipole                0.0114 Ry au,          0.0291 Debye
        Dipole field          0.0003 Ry au, 

        E field amplitude [Ha a.u.]:  1.9447E-03
        Potential amp.        0.0902 Ry
        Total length         26.9286 bohr


     total cpu time spent up to now is      275.0 secs

     total energy              =     -36.88893290 Ry
     estimated scf accuracy    <       0.00000008 Ry

     iteration # 20     ecut=    70.00 Ry     beta= 0.10
     Davidson diagonalization with overlap
     ethr =  9.67E-10,  avg # of iterations =  4.2

     negative rho (up, down):  1.709E-05 0.000E+00

     Adding external electric field

     Computed dipole along edir(3) : 
        Dipole                0.0114 Ry au,          0.0291 Debye
        Dipole field          0.0003 Ry au, 

        E field amplitude [Ha a.u.]:  1.9447E-03
        Potential amp.        0.0902 Ry
        Total length         26.9286 bohr


     total cpu time spent up to now is      286.3 secs

     total energy              =     -36.88893295 Ry
     estimated scf accuracy    <       0.00000012 Ry

     iteration # 21     ecut=    70.00 Ry     beta= 0.10
     Davidson diagonalization with overlap
     ethr =  9.67E-10,  avg # of iterations =  1.0

     negative rho (up, down):  1.555E-05 0.000E+00

     Adding external electric field

     Computed dipole along edir(3) : 
        Dipole                0.0114 Ry au,          0.0291 Debye
        Dipole field          0.0003 Ry au, 

        E field amplitude [Ha a.u.]:  1.9447E-03
        Potential amp.        0.0902 Ry
        Total length         26.9286 bohr


     total cpu time spent up to now is      294.5 secs

     total energy              =     -36.88893296 Ry
     estimated scf accuracy    <       0.00000007 Ry

     iteration # 22     ecut=    70.00 Ry     beta= 0.10
     Davidson diagonalization with overlap
     ethr =  8.56E-10,  avg # of iterations =  1.0

     negative rho (up, down):  1.373E-05 0.000E+00

     Adding external electric field

     Computed dipole along edir(3) : 
        Dipole                0.0114 Ry au,          0.0291 Debye
        Dipole field          0.0003 Ry au, 

        E field amplitude [Ha a.u.]:  1.9447E-03
        Potential amp.        0.0902 Ry
        Total length         26.9286 bohr


     total cpu time spent up to now is      302.5 secs

     total energy              =     -36.88893292 Ry
     estimated scf accuracy    <       0.00000006 Ry

     iteration # 23     ecut=    70.00 Ry     beta= 0.10
     Davidson diagonalization with overlap
     ethr =  7.72E-10,  avg # of iterations =  1.3

     negative rho (up, down):  7.057E-06 0.000E+00

     Adding external electric field

     Computed dipole along edir(3) : 
        Dipole                0.0115 Ry au,          0.0291 Debye
        Dipole field          0.0003 Ry au, 

        E field amplitude [Ha a.u.]:  1.9447E-03
        Potential amp.        0.0902 Ry
        Total length         26.9286 bohr


     total cpu time spent up to now is      310.6 secs

     End of self-consistent calculation

          k = 0.0000 0.0000 0.0000 (  5307 PWs)   bands (ev):

   -21.2054 -21.2054  -9.3009  -9.3009  -4.7552  -4.7552  -4.7459  -4.7459
     1.5006   1.5006   2.4387   2.4387   2.7715   2.7715   4.8114   4.8114

          k = 0.0000 0.0962 0.0000 (  5285 PWs)   bands (ev):

   -21.0416 -21.0416  -9.1053  -9.1053  -5.4004  -5.4004  -5.0879  -5.0879
     1.7238   1.7238   2.6630   2.6631   2.9979   2.9980   5.0345   5.0345

          k = 0.0000 0.1925 0.0000 (  5253 PWs)   bands (ev):

   -20.5521 -20.5521  -8.5237  -8.5237  -7.0360  -7.0360  -5.8779  -5.8779
     2.3933   2.3933   3.3349   3.3350   3.6768   3.6769   5.7007   5.7008

          k = 0.0000 0.2887 0.0000 (  5269 PWs)   bands (ev):

   -19.7427 -19.7427  -9.1318  -9.1318  -7.5752  -7.5752  -6.7552  -6.7552
     3.5067   3.5068   4.4385   4.4387   4.8015   4.8016   5.5580   5.5581

          k = 0.0000 0.3849 0.0000 (  5285 PWs)   bands (ev):

   -18.6255 -18.6255 -11.3322 -11.3322  -7.4865  -7.4865  -6.3102  -6.3102
     3.2094   3.2094   5.0553   5.0554   5.9574   5.9582   6.0711   6.0718

          k = 0.0000 0.4811 0.0000 (  5290 PWs)   bands (ev):

   -17.2320 -17.2320 -13.4293 -13.4293  -7.9581  -7.9581  -4.8913  -4.8913
     1.0796   1.0796   5.7397   5.7397   7.0644   7.0645   8.0223   8.0226

          k = 0.0000-0.5774 0.0000 (  5288 PWs)   bands (ev):

   -15.9742 -15.9742 -14.9295 -14.9295  -8.1200  -8.1200  -4.0490  -4.0490
    -0.0152  -0.0152   5.6603   5.6603   9.3768   9.3768   9.5157   9.5157

          k = 0.0833 0.0481 0.0000 (  5285 PWs)   bands (ev):

   -21.0416 -21.0416  -9.1053  -9.1053  -5.4004  -5.4004  -5.0879  -5.0879
     1.7238   1.7238   2.6630   2.6631   2.9979   2.9980   5.0345   5.0345

          k = 0.0833 0.1443 0.0000 (  5269 PWs)   bands (ev):

   -20.7150 -20.7150  -8.7165  -8.7165  -6.4330  -6.4330  -5.7633  -5.7633
     2.1703   2.1704   3.1113   3.1114   3.4507   3.4507   5.4798   5.4798

          k = 0.0833 0.2406 0.0000 (  5261 PWs)   bands (ev):

   -20.0656 -20.0656  -8.1408  -8.1407  -7.9504  -7.9503  -6.7588  -6.7588
     3.0627   3.0627   4.0047   4.0048   4.3552   4.3553   6.3132   6.3133

          k = 0.0833 0.3368 0.0000 (  5275 PWs)   bands (ev):

   -19.1021 -19.1021 -10.2111 -10.2111  -7.6430  -7.6430  -6.8372  -6.8372
     4.2157   4.2158   4.4015   4.4017   5.3603   5.3605   5.7142   5.7143

          k = 0.0833 0.4330 0.0000 (  5284 PWs)   bands (ev):

   -17.8435 -17.8435 -12.3310 -12.3310  -8.2763  -8.2763  -5.4611  -5.4611
     2.0241   2.0241   6.1474   6.1475   6.5893   6.5895   7.1283   7.1285

          k = 0.0833 0.5292 0.0000 (  5302 PWs)   bands (ev):

   -16.3674 -16.3674 -14.2686 -14.2685  -8.6039  -8.6039  -4.1554  -4.1554
     0.2600   0.2600   6.3983   6.3983   8.3640   8.3642   9.2800   9.2805

          k = 0.0833-0.5292 0.0000 (  5302 PWs)   bands (ev):

   -16.3674 -16.3674 -14.2686 -14.2685  -8.6039  -8.6039  -4.1554  -4.1554
     0.2600   0.2600   6.3983   6.3983   8.3640   8.3642   9.2802   9.2804

          k = 0.0833-0.4330 0.0000 (  5284 PWs)   bands (ev):

   -17.8435 -17.8435 -12.3310 -12.3310  -8.2763  -8.2763  -5.4611  -5.4611
     2.0241   2.0241   6.1474   6.1475   6.5893   6.5895   7.1283   7.1284

          k = 0.0833-0.3368 0.0000 (  5275 PWs)   bands (ev):

   -19.1021 -19.1021 -10.2111 -10.2111  -7.6430  -7.6430  -6.8372  -6.8372
     4.2157   4.2158   4.4016   4.4017   5.3603   5.3605   5.7142   5.7143

          k = 0.0833-0.2406 0.0000 (  5261 PWs)   bands (ev):

   -20.0656 -20.0656  -8.1408  -8.1407  -7.9504  -7.9503  -6.7588  -6.7588
     3.0627   3.0627   4.0047   4.0048   4.3552   4.3553   6.3132   6.3133

          k = 0.0833-0.1443 0.0000 (  5269 PWs)   bands (ev):

   -20.7150 -20.7150  -8.7165  -8.7165  -6.4330  -6.4330  -5.7633  -5.7633
     2.1703   2.1704   3.1113   3.1114   3.4507   3.4507   5.4798   5.4798

          k = 0.0833-0.0481 0.0000 (  5285 PWs)   bands (ev):

   -21.0416 -21.0416  -9.1053  -9.1053  -5.4004  -5.4004  -5.0879  -5.0879
     1.7238   1.7238   2.6630   2.6631   2.9979   2.9980   5.0345   5.0345

          k = 0.1667 0.0962 0.0000 (  5253 PWs)   bands (ev):

   -20.5521 -20.5521  -8.5237  -8.5237  -7.0360  -7.0360  -5.8779  -5.8779
     2.3933   2.3933   3.3349   3.3350   3.6768   3.6769   5.7007   5.7007

          k = 0.1667 0.1925 0.0000 (  5261 PWs)   bands (ev):

   -20.0656 -20.0656  -8.1408  -8.1407  -7.9504  -7.9503  -6.7588  -6.7588
     3.0627   3.0627   4.0047   4.0048   4.3552   4.3553   6.3132   6.3133

          k = 0.1667 0.2887 0.0000 (  5288 PWs)   bands (ev):

   -19.2620 -19.2620  -9.4703  -9.4703  -8.1175  -8.1175  -7.0155  -7.0155
     4.1762   4.1762   4.6742   4.6742   5.1159   5.1161   5.4848   5.4849

          k = 0.1667 0.3849 0.0000 (  5285 PWs)   bands (ev):

   -18.1557 -18.1557 -11.1953 -11.1953  -9.1720  -9.1720  -5.7656  -5.7656
     2.7310   2.7310   5.7261   5.7262   6.6503   6.6506   7.0600   7.0602

          k = 0.1667 0.4811 0.0000 (  5283 PWs)   bands (ev):

   -16.7821 -16.7821 -13.1028 -13.1028  -9.7473  -9.7473  -4.3426  -4.3426
     0.8234   0.8234   7.6859   7.6860   8.3037   8.3041   8.5387   8.5391

          k = 0.1667 0.5774 0.0000 (  5264 PWs)   bands (ev):

   -15.5529 -15.5529 -14.5321 -14.5321  -9.9319  -9.9319  -3.4523  -3.4523
    -0.2419  -0.2419   8.2051   8.2052   9.8660   9.8660   9.9434   9.9435

          k = 0.1667-0.4811 0.0000 (  5283 PWs)   bands (ev):

   -16.7821 -16.7821 -13.1028 -13.1028  -9.7473  -9.7473  -4.3426  -4.3426
     0.8234   0.8234   7.6859   7.6860   8.3037   8.3041   8.5387   8.5391

          k = 0.1667-0.3849 0.0000 (  5285 PWs)   bands (ev):

   -18.1557 -18.1557 -11.1953 -11.1953  -9.1720  -9.1720  -5.7656  -5.7656
     2.7310   2.7310   5.7261   5.7262   6.6503   6.6506   7.0600   7.0602

          k = 0.1667-0.2887 0.0000 (  5288 PWs)   bands (ev):

   -19.2620 -19.2620  -9.4703  -9.4703  -8.1175  -8.1175  -7.0155  -7.0155
     4.1762   4.1762   4.6742   4.6742   5.1159   5.1161   5.4848   5.4849

          k = 0.1667-0.1925 0.0000 (  5261 PWs)   bands (ev):

   -20.0656 -20.0656  -8.1408  -8.1407  -7.9504  -7.9503  -6.7588  -6.7588
     3.0627   3.0627   4.0047   4.0048   4.3552   4.3553   6.3132   6.3133

          k = 0.1667-0.0962 0.0000 (  5253 PWs)   bands (ev):

   -20.5521 -20.5521  -8.5237  -8.5237  -7.0360  -7.0360  -5.8779  -5.8779
     2.3933   2.3933   3.3349   3.3350   3.6768   3.6769   5.7007   5.7007

          k = 0.1667-0.0000 0.0000 (  5269 PWs)   bands (ev):

   -20.7150 -20.7150  -8.7165  -8.7165  -6.4330  -6.4330  -5.7633  -5.7633
     2.1703   2.1704   3.1113   3.1114   3.4507   3.4507   5.4798   5.4798

          k = 0.2500 0.1443 0.0000 (  5269 PWs)   bands (ev):

   -19.7427 -19.7427  -9.1318  -9.1318  -7.5752  -7.5752  -6.7552  -6.7552
     3.5067   3.5068   4.4385   4.4387   4.8015   4.8016   5.5580   5.5581

          k = 0.2500 0.2406 0.0000 (  5275 PWs)   bands (ev):

   -19.1021 -19.1021 -10.2111 -10.2111  -7.6430  -7.6430  -6.8372  -6.8372
     4.2157   4.2158   4.4016   4.4017   5.3603   5.3605   5.7142   5.7143

          k = 0.2500 0.3368 0.0000 (  5285 PWs)   bands (ev):

   -18.1557 -18.1557 -11.1953 -11.1953  -9.1720  -9.1720  -5.7656  -5.7656
     2.7310   2.7310   5.7261   5.7262   6.6503   6.6506   7.0600   7.0602

          k = 0.2500 0.4330 0.0000 (  5268 PWs)   bands (ev):

   -16.9293 -16.9293 -12.2313 -12.2313 -10.6513 -10.6513  -4.4264  -4.4264
     1.1201   1.1201   7.4735   7.4737   8.2469   8.2472   8.8362   8.8363

          k = 0.2500 0.5292 0.0000 (  5282 PWs)   bands (ev):

   -15.5101 -15.5101 -13.6496 -13.6496 -11.3582 -11.3582  -3.0442  -3.0442
    -0.3965  -0.3965   9.1585   9.1587   9.6041   9.6043  10.4711  10.4711

          k = 0.2500 0.6255 0.0000 (  5282 PWs)   bands (ev):

   -15.5101 -15.5101 -13.6496 -13.6496 -11.3582 -11.3582  -3.0442  -3.0442
    -0.3965  -0.3965   9.1585   9.1587   9.6041   9.6043  10.4711  10.4712

          k = 0.2500-0.4330 0.0000 (  5268 PWs)   bands (ev):

   -16.9293 -16.9293 -12.2313 -12.2313 -10.6513 -10.6513  -4.4264  -4.4264
     1.1201   1.1201   7.4735   7.4737   8.2469   8.2472   8.8362   8.8363

          k = 0.2500-0.3368 0.0000 (  5285 PWs)   bands (ev):

   -18.1557 -18.1557 -11.1953 -11.1953  -9.1720  -9.1720  -5.7656  -5.7656
     2.7310   2.7310   5.7261   5.7262   6.6503   6.6506   7.0600   7.0602

          k = 0.2500-0.2406 0.0000 (  5275 PWs)   bands (ev):

   -19.1021 -19.1021 -10.2111 -10.2111  -7.6430  -7.6430  -6.8372  -6.8372
     4.2157   4.2158   4.4016   4.4017   5.3603   5.3605   5.7142   5.7143

          k = 0.2500-0.1443 0.0000 (  5269 PWs)   bands (ev):

   -19.7427 -19.7427  -9.1318  -9.1318  -7.5752  -7.5752  -6.7552  -6.7552
     3.5067   3.5068   4.4385   4.4387   4.8015   4.8016   5.5580   5.5581

          k = 0.2500-0.0481 0.0000 (  5261 PWs)   bands (ev):

   -20.0656 -20.0656  -8.1408  -8.1407  -7.9504  -7.9503  -6.7588  -6.7588
     3.0627   3.0627   4.0047   4.0048   4.3552   4.3553   6.3132   6.3133

          k = 0.2500 0.0481 0.0000 (  5261 PWs)   bands (ev):

   -20.0656 -20.0656  -8.1408  -8.1407  -7.9504  -7.9503  -6.7588  -6.7588
     3.0627   3.0627   4.0047   4.0048   4.3552   4.3553   6.3132   6.3133

          k = 0.3333 0.1925 0.0000 (  5285 PWs)   bands (ev):

   -18.6255 -18.6255 -11.3322 -11.3322  -7.4865  -7.4865  -6.3102  -6.3102
     3.2094   3.2094   5.0553   5.0554   5.9574   5.9582   6.0711   6.0718

          k = 0.3333 0.2887 0.0000 (  5284 PWs)   bands (ev):

   -17.8435 -17.8435 -12.3310 -12.3310  -8.2763  -8.2763  -5.4611  -5.4611
     2.0241   2.0241   6.1474   6.1475   6.5893   6.5895   7.1283   7.1284

          k = 0.3333 0.3849 0.0000 (  5283 PWs)   bands (ev):

   -16.7821 -16.7821 -13.1028 -13.1028  -9.7473  -9.7473  -4.3426  -4.3426
     0.8234   0.8234   7.6859   7.6860   8.3037   8.3041   8.5387   8.5391

          k = 0.3333 0.4811 0.0000 (  5282 PWs)   bands (ev):

   -15.5101 -15.5101 -13.6496 -13.6496 -11.3582 -11.3582  -3.0442  -3.0442
    -0.3965  -0.3965   9.1585   9.1587   9.6041   9.6043  10.4711  10.4712

          k = 0.3333 0.5774 0.0000 (  5292 PWs)   bands (ev):

   -14.2964 -14.2963 -14.2942 -14.2942 -12.2486 -12.2486  -1.6916  -1.6916
    -1.6916  -1.6916   8.9100   8.9100  11.1630  11.1632  11.1671  11.1671

          k = 0.3333 0.6736 0.0000 (  5282 PWs)   bands (ev):

   -15.5101 -15.5101 -13.6496 -13.6496 -11.3582 -11.3582  -3.0442  -3.0442
    -0.3965  -0.3965   9.1585   9.1587   9.6041   9.6043  10.4711  10.4712

          k = 0.3333-0.3849 0.0000 (  5283 PWs)   bands (ev):

   -16.7821 -16.7821 -13.1028 -13.1028  -9.7473  -9.7473  -4.3426  -4.3426
     0.8234   0.8234   7.6859   7.6860   8.3037   8.3041   8.5387   8.5391

          k = 0.3333-0.2887 0.0000 (  5284 PWs)   bands (ev):

   -17.8435 -17.8435 -12.3310 -12.3310  -8.2763  -8.2763  -5.4611  -5.4611
     2.0241   2.0241   6.1474   6.1475   6.5893   6.5895   7.1283   7.1284

          k = 0.3333-0.1925 0.0000 (  5285 PWs)   bands (ev):

   -18.6255 -18.6255 -11.3323 -11.3322  -7.4865  -7.4865  -6.3102  -6.3102
     3.2094   3.2094   5.0553   5.0554   5.9574   5.9582   6.0710   6.0718

          k = 0.3333-0.0962 0.0000 (  5275 PWs)   bands (ev):

   -19.1021 -19.1021 -10.2111 -10.2111  -7.6430  -7.6430  -6.8372  -6.8372
     4.2157   4.2158   4.4016   4.4017   5.3603   5.3605   5.7142   5.7143

          k = 0.3333 0.0000 0.0000 (  5288 PWs)   bands (ev):

   -19.2620 -19.2620  -9.4703  -9.4703  -8.1175  -8.1175  -7.0155  -7.0155
     4.1762   4.1762   4.6742   4.6742   5.1159   5.1161   5.4848   5.4849

          k = 0.3333 0.0962 0.0000 (  5275 PWs)   bands (ev):

   -19.1021 -19.1021 -10.2111 -10.2111  -7.6430  -7.6430  -6.8372  -6.8372
     4.2157   4.2158   4.4016   4.4017   5.3603   5.3605   5.7142   5.7143

          k = 0.4167 0.2406 0.0000 (  5290 PWs)   bands (ev):

   -17.2320 -17.2320 -13.4293 -13.4293  -7.9581  -7.9581  -4.8913  -4.8913
     1.0796   1.0796   5.7397   5.7397   7.0644   7.0645   8.0224   8.0226

          k = 0.4167 0.3368 0.0000 (  5302 PWs)   bands (ev):

   -16.3675 -16.3674 -14.2686 -14.2685  -8.6039  -8.6039  -4.1554  -4.1554
     0.2600   0.2600   6.3983   6.3983   8.3640   8.3642   9.2802   9.2805

          k = 0.4167 0.4330 0.0000 (  5264 PWs)   bands (ev):

   -15.5529 -15.5529 -14.5321 -14.5321  -9.9319  -9.9319  -3.4523  -3.4523
    -0.2419  -0.2419   8.2051   8.2051   9.8660   9.8660   9.9434   9.9435

          k = 0.4167 0.5292 0.0000 (  5282 PWs)   bands (ev):

   -15.5101 -15.5101 -13.6496 -13.6496 -11.3582 -11.3582  -3.0442  -3.0442
    -0.3965  -0.3965   9.1585   9.1587   9.6041   9.6043  10.4711  10.4712

          k = 0.4167 0.6255 0.0000 (  5282 PWs)   bands (ev):

   -15.5101 -15.5101 -13.6496 -13.6496 -11.3582 -11.3582  -3.0442  -3.0442
    -0.3965  -0.3965   9.1585   9.1587   9.6041   9.6043  10.4711  10.4711

          k = 0.4167 0.7217 0.0000 (  5264 PWs)   bands (ev):

   -15.5529 -15.5529 -14.5322 -14.5322  -9.9319  -9.9319  -3.4523  -3.4523
    -0.2419  -0.2419   8.2051   8.2052   9.8660   9.8660   9.9434   9.9435

          k = 0.4167-0.3368 0.0000 (  5302 PWs)   bands (ev):

   -16.3674 -16.3674 -14.2686 -14.2686  -8.6039  -8.6039  -4.1554  -4.1554
     0.2600   0.2600   6.3983   6.3983   8.3640   8.3641   9.2798   9.2801

          k = 0.4167-0.2406 0.0000 (  5290 PWs)   bands (ev):

   -17.2320 -17.2320 -13.4293 -13.4293  -7.9581  -7.9581  -4.8913  -4.8913
     1.0796   1.0796   5.7397   5.7397   7.0644   7.0645   8.0223   8.0226

          k = 0.4167-0.1443 0.0000 (  5284 PWs)   bands (ev):

   -17.8435 -17.8435 -12.3310 -12.3310  -8.2763  -8.2763  -5.4611  -5.4611
     2.0241   2.0241   6.1474   6.1475   6.5893   6.5895   7.1284   7.1285

          k = 0.4167-0.0481 0.0000 (  5285 PWs)   bands (ev):

   -18.1557 -18.1557 -11.1953 -11.1953  -9.1720  -9.1720  -5.7656  -5.7656
     2.7310   2.7310   5.7261   5.7262   6.6503   6.6506   7.0600   7.0602

          k = 0.4167 0.0481 0.0000 (  5285 PWs)   bands (ev):

   -18.1557 -18.1557 -11.1953 -11.1953  -9.1720  -9.1720  -5.7656  -5.7656
     2.7310   2.7310   5.7261   5.7262   6.6503   6.6506   7.0600   7.0602

          k = 0.4167 0.1443 0.0000 (  5284 PWs)   bands (ev):

   -17.8435 -17.8435 -12.3310 -12.3310  -8.2763  -8.2763  -5.4611  -5.4611
     2.0241   2.0241   6.1474   6.1475   6.5893   6.5895   7.1284   7.1285

          k =-0.5000-0.2887 0.0000 (  5288 PWs)   bands (ev):

   -15.9742 -15.9742 -14.9295 -14.9295  -8.1200  -8.1200  -4.0490  -4.0490
    -0.0152  -0.0152   5.6603   5.6603   9.3768   9.3768   9.5156   9.5157

          k =-0.5000-0.1925 0.0000 (  5302 PWs)   bands (ev):

   -16.3675 -16.3674 -14.2686 -14.2685  -8.6039  -8.6039  -4.1554  -4.1554
     0.2600   0.2600   6.3983   6.3983   8.3640   8.3641   9.2798   9.2801

          k =-0.5000-0.0962 0.0000 (  5283 PWs)   bands (ev):

   -16.7821 -16.7821 -13.1028 -13.1028  -9.7473  -9.7473  -4.3426  -4.3426
     0.8234   0.8234   7.6859   7.6860   8.3037   8.3041   8.5387   8.5391

          k =-0.5000 0.0000 0.0000 (  5268 PWs)   bands (ev):

   -16.9293 -16.9293 -12.2313 -12.2313 -10.6513 -10.6513  -4.4264  -4.4264
     1.1201   1.1201   7.4735   7.4737   8.2469   8.2472   8.8362   8.8363

          k =-0.5000 0.0962 0.0000 (  5283 PWs)   bands (ev):

   -16.7821 -16.7821 -13.1028 -13.1028  -9.7473  -9.7473  -4.3426  -4.3426
     0.8234   0.8234   7.6859   7.6860   8.3037   8.3041   8.5387   8.5391

          k =-0.5000 0.1925 0.0000 (  5302 PWs)   bands (ev):

   -16.3674 -16.3674 -14.2686 -14.2686  -8.6039  -8.6039  -4.1554  -4.1554
     0.2600   0.2600   6.3983   6.3983   8.3640   8.3641   9.2798   9.2801

          k =-0.5000-0.8660 0.0000 (  5288 PWs)   bands (ev):

   -15.9742 -15.9742 -14.9295 -14.9295  -8.1200  -8.1200  -4.0490  -4.0490
    -0.0152  -0.0152   5.6603   5.6603   9.3768   9.3768   9.5156   9.5157

     the Fermi energy is  -1.691562 ev

!    total energy              =     -36.88893298 Ry
     total all-electron energy =      -152.417223 Ry
     estimated scf accuracy    <          5.5E-10 Ry
     smearing contrib. (-TS)   =      -0.00003134 Ry
     internal energy E=F+TS    =     -36.88890164 Ry

     The total energy is F=E-TS. E is the sum of the following terms:
     one-electron contribution =    -156.62370545 Ry
     hartree contribution      =      79.91895942 Ry
     xc contribution           =      -8.28632498 Ry
     ewald contribution        =      61.40972547 Ry
     electric field correction =      -0.00004150 Ry
     one-center paw contrib.   =     -13.30751459 Ry

     convergence has been achieved in  23 iterations

     negative rho (up, down):  7.057E-06 0.000E+00

     Forces acting on atoms (cartesian axes, Ry/au):

     atom    1 type  1   force =    -0.00000013   -0.00000073    0.00000125
     atom    2 type  1   force =     0.00000013    0.00000073   -0.00000125

     Total force =     0.000002     Total SCF correction =     0.000026
     SCF correction compared to forces is large: reduce conv_thr to get better values

     Writing all to output data dir ./tmp/graphene.save/ :
     XML data file, charge density, pseudopotentials, collected wavefunctions

     init_run     :      3.69s CPU      3.89s WALL (       1 calls)
     electrons    :    293.07s CPU    306.59s WALL (       1 calls)
     forces       :      1.10s CPU      1.14s WALL (       1 calls)

     Called by init_run:
     wfcinit      :      2.87s CPU      3.03s WALL (       1 calls)
     potinit      :      0.25s CPU      0.27s WALL (       1 calls)
     hinit0       :      0.44s CPU      0.45s WALL (       1 calls)

     Called by electrons:
     c_bands      :    260.91s CPU    271.34s WALL (      23 calls)
     sum_band     :     27.58s CPU     29.77s WALL (      23 calls)
     v_of_rho     :      1.21s CPU      1.25s WALL (      24 calls)
     newd         :      1.69s CPU      2.47s WALL (      24 calls)
     PAW_pot      :      0.68s CPU      0.70s WALL (      24 calls)
     mix_rho      :      0.81s CPU      0.85s WALL (      23 calls)

     Called by c_bands:
     init_us_2    :      1.29s CPU      1.31s WALL (    3552 calls)
     cegterg      :    255.67s CPU    266.06s WALL (    1702 calls)

     Called by *egterg:
     cdiaghg      :     13.15s CPU     13.19s WALL (    7793 calls)
     h_psi        :    160.31s CPU    170.27s WALL (    7867 calls)
     s_psi        :     12.81s CPU     12.96s WALL (    7867 calls)
     g_psi        :      0.58s CPU      0.59s WALL (    6091 calls)

     Called by h_psi:
     h_psi:calbec :     14.24s CPU     14.68s WALL (    7867 calls)
     vloc_psi     :    131.89s CPU    141.26s WALL (    7867 calls)
     add_vuspsi   :     13.12s CPU     13.17s WALL (    7867 calls)

     General routines
     calbec       :     19.37s CPU     19.90s WALL (    9865 calls)
     fft          :      1.52s CPU      1.61s WALL (     597 calls)
     ffts         :      0.19s CPU      0.20s WALL (     188 calls)
     fftw         :     77.47s CPU     83.46s WALL (  395556 calls)
     interpolate  :      0.34s CPU      0.35s WALL (      96 calls)

     Parallel routines

     PWSCF        :   4m58.18s CPU   5m12.21s WALL


   This run was terminated on:  10:17: 4  14Nov2025            

=------------------------------------------------------------------------------=
   JOB DONE.
=------------------------------------------------------------------------------=
