
     Program PWSCF v.7.4.1 starts on 29Jan2026 at  2:23:39 

     This program is part of the open-source Quantum ESPRESSO suite
     for quantum simulation of materials; please cite
         "P. Giannozzi et al., J. Phys.:Condens. Matter 21 395502 (2009);
         "P. Giannozzi et al., J. Phys.:Condens. Matter 29 465901 (2017);
         "P. Giannozzi et al., J. Chem. Phys. 152 154105 (2020);
          URL http://www.quantum-espresso.org", 
     in publications or presentations arising from this work. More details at
     http://www.quantum-espresso.org/quote

     Parallel version (MPI), running on    20 processors

     MPI processes distributed on     1 nodes
     124343 MiB available memory on the printing compute node when the environment starts
 
     Reading input from grap_SOC_scf.in

     Current dimensions of program PWSCF are:
     Max number of different atomic species (ntypx) = 10
     Max number of k-points (npk) =  40000
     Max angular momentum in pseudopotentials (lmaxx) =  4
     Presently stress not available with electric field and gates

     file C.rel-pbe-n-kjpaw_psl.1.0.0.UPF: wavefunction(s)  2S 2P 2P renormalized
 
     R & G space division:  proc/nbgrp/npool/nimage =      20
     Subspace diagonalization in iterative solution of the eigenvalue problem:
     a serial algorithm will be used

 
     Parallelization info
     --------------------
     sticks:   dense  smooth     PW     G-vecs:    dense   smooth      PW
     Min          52      21      6                 8339     2113     392
     Max          57      22      7                 8350     2140     425
     Sum        1045     421    139               166859    42343    8205
 
     Using Slab Decomposition
 


     bravais-lattice index     =            0
     lattice parameter (alat)  =       4.6624  a.u.
     unit-cell volume          =     533.6317 (a.u.)^3
     number of atoms/cell      =            2
     number of atomic types    =            1
     number of electrons       =         8.00
     number of Kohn-Sham states=           16
     kinetic-energy cutoff     =      70.0000  Ry
     charge density cutoff     =     700.0000  Ry
     scf convergence threshold =      1.0E-08
     mixing beta               =       0.1000
     number of iterations used =            8  plain     mixing
     Exchange-correlation= SLA  PW   PBX  PBC
                           (   1   4   3   4   0   0   0)
     Non magnetic calculation with spin-orbit


     celldm(1)=   4.662410  celldm(2)=   0.000000  celldm(3)=   0.000000
     celldm(4)=   0.000000  celldm(5)=   0.000000  celldm(6)=   0.000000

     crystal axes: (cart. coord. in units of alat)
               a(1) = (   1.000000   0.000000   0.000000 )  
               a(2) = (  -0.500000   0.866025   0.000000 )  
               a(3) = (   0.000000   0.000000   6.079666 )  

     reciprocal axes: (cart. coord. in units 2 pi/alat)
               b(1) = (  1.000000  0.577350  0.000000 )  
               b(2) = (  0.000000  1.154701  0.000000 )  
               b(3) = (  0.000000  0.000000  0.164483 )  


     PseudoPot. # 1 for C  read from file:
     ../../../PP_C/C.rel-pbe-n-kjpaw_psl.1.0.0.UPF
     MD5 check sum: dd2b8f743de1f3a10095e4114fb28074
     Pseudo is Projector augmented-wave + core cor, Zval =  4.0
     Generated using &quot;atomic&quot; code by A. Dal Corso  v.6.3
     Shape of augmentation charge: PSQ
     Using radial grid of 1073 points,  6 beta functions with: 
                l(1) =   0
                l(2) =   0
                l(3) =   1
                l(4) =   1
                l(5) =   1
                l(6) =   1
     Q(r) pseudized with 0 coefficients 


     atomic species   valence    mass     pseudopotential
     C                 4.00    12.01100     C ( 1.00)

     No symmetry found



   Cartesian axes

     site n.     atom                  positions (alat units)
         1        C      tau(   1) = (   0.0000000   0.0000000   3.0398328  )
         2        C      tau(   2) = (   0.0000000   0.5773503   3.0398328  )

     number of k points=    74  Gaussian smearing, width (Ry)=  0.0020
                       cart. coord. in units 2pi/alat
        k(    1) = (   0.0000000   0.0000000   0.0000000), wk =   0.0069444
        k(    2) = (   0.0000000   0.0962250   0.0000000), wk =   0.0138889
        k(    3) = (   0.0000000   0.1924501   0.0000000), wk =   0.0138889
        k(    4) = (   0.0000000   0.2886751   0.0000000), wk =   0.0138889
        k(    5) = (   0.0000000   0.3849002   0.0000000), wk =   0.0138889
        k(    6) = (   0.0000000   0.4811252   0.0000000), wk =   0.0138889
        k(    7) = (   0.0000000  -0.5773503   0.0000000), wk =   0.0069444
        k(    8) = (   0.0833333   0.0481125   0.0000000), wk =   0.0138889
        k(    9) = (   0.0833333   0.1443376   0.0000000), wk =   0.0138889
        k(   10) = (   0.0833333   0.2405626   0.0000000), wk =   0.0138889
        k(   11) = (   0.0833333   0.3367877   0.0000000), wk =   0.0138889
        k(   12) = (   0.0833333   0.4330127   0.0000000), wk =   0.0138889
        k(   13) = (   0.0833333   0.5292377   0.0000000), wk =   0.0138889
        k(   14) = (   0.0833333  -0.5292377   0.0000000), wk =   0.0138889
        k(   15) = (   0.0833333  -0.4330127   0.0000000), wk =   0.0138889
        k(   16) = (   0.0833333  -0.3367877   0.0000000), wk =   0.0138889
        k(   17) = (   0.0833333  -0.2405626   0.0000000), wk =   0.0138889
        k(   18) = (   0.0833333  -0.1443376   0.0000000), wk =   0.0138889
        k(   19) = (   0.0833333  -0.0481125   0.0000000), wk =   0.0138889
        k(   20) = (   0.1666667   0.0962250   0.0000000), wk =   0.0138889
        k(   21) = (   0.1666667   0.1924501   0.0000000), wk =   0.0138889
        k(   22) = (   0.1666667   0.2886751   0.0000000), wk =   0.0138889
        k(   23) = (   0.1666667   0.3849002   0.0000000), wk =   0.0138889
        k(   24) = (   0.1666667   0.4811252   0.0000000), wk =   0.0138889
        k(   25) = (   0.1666667   0.5773503   0.0000000), wk =   0.0138889
        k(   26) = (   0.1666667  -0.4811252   0.0000000), wk =   0.0138889
        k(   27) = (   0.1666667  -0.3849002   0.0000000), wk =   0.0138889
        k(   28) = (   0.1666667  -0.2886751   0.0000000), wk =   0.0138889
        k(   29) = (   0.1666667  -0.1924501   0.0000000), wk =   0.0138889
        k(   30) = (   0.1666667  -0.0962250   0.0000000), wk =   0.0138889
        k(   31) = (   0.1666667  -0.0000000   0.0000000), wk =   0.0138889
        k(   32) = (   0.2500000   0.1443376   0.0000000), wk =   0.0138889
        k(   33) = (   0.2500000   0.2405626   0.0000000), wk =   0.0138889
        k(   34) = (   0.2500000   0.3367877   0.0000000), wk =   0.0138889
        k(   35) = (   0.2500000   0.4330127   0.0000000), wk =   0.0138889
        k(   36) = (   0.2500000   0.5292377   0.0000000), wk =   0.0138889
        k(   37) = (   0.2500000   0.6254628   0.0000000), wk =   0.0138889
        k(   38) = (   0.2500000  -0.4330127   0.0000000), wk =   0.0138889
        k(   39) = (   0.2500000  -0.3367877   0.0000000), wk =   0.0138889
        k(   40) = (   0.2500000  -0.2405626   0.0000000), wk =   0.0138889
        k(   41) = (   0.2500000  -0.1443376   0.0000000), wk =   0.0138889
        k(   42) = (   0.2500000  -0.0481125   0.0000000), wk =   0.0138889
        k(   43) = (   0.2500000   0.0481125   0.0000000), wk =   0.0138889
        k(   44) = (   0.3333333   0.1924501   0.0000000), wk =   0.0138889
        k(   45) = (   0.3333333   0.2886751   0.0000000), wk =   0.0138889
        k(   46) = (   0.3333333   0.3849002   0.0000000), wk =   0.0138889
        k(   47) = (   0.3333333   0.4811252   0.0000000), wk =   0.0138889
        k(   48) = (   0.3333333   0.5773503   0.0000000), wk =   0.0138889
        k(   49) = (   0.3333333   0.6735753   0.0000000), wk =   0.0138889
        k(   50) = (   0.3333333  -0.3849002   0.0000000), wk =   0.0138889
        k(   51) = (   0.3333333  -0.2886751   0.0000000), wk =   0.0138889
        k(   52) = (   0.3333333  -0.1924501   0.0000000), wk =   0.0138889
        k(   53) = (   0.3333333  -0.0962250   0.0000000), wk =   0.0138889
        k(   54) = (   0.3333333  -0.0000000   0.0000000), wk =   0.0138889
        k(   55) = (   0.3333333   0.0962250   0.0000000), wk =   0.0138889
        k(   56) = (   0.4166667   0.2405626   0.0000000), wk =   0.0138889
        k(   57) = (   0.4166667   0.3367877   0.0000000), wk =   0.0138889
        k(   58) = (   0.4166667   0.4330127   0.0000000), wk =   0.0138889
        k(   59) = (   0.4166667   0.5292377   0.0000000), wk =   0.0138889
        k(   60) = (   0.4166667   0.6254628   0.0000000), wk =   0.0138889
        k(   61) = (   0.4166667   0.7216878   0.0000000), wk =   0.0138889
        k(   62) = (   0.4166667  -0.3367877   0.0000000), wk =   0.0138889
        k(   63) = (   0.4166667  -0.2405626   0.0000000), wk =   0.0138889
        k(   64) = (   0.4166667  -0.1443376   0.0000000), wk =   0.0138889
        k(   65) = (   0.4166667  -0.0481125   0.0000000), wk =   0.0138889
        k(   66) = (   0.4166667   0.0481125   0.0000000), wk =   0.0138889
        k(   67) = (   0.4166667   0.1443376   0.0000000), wk =   0.0138889
        k(   68) = (  -0.5000000  -0.2886751   0.0000000), wk =   0.0069444
        k(   69) = (  -0.5000000  -0.1924501   0.0000000), wk =   0.0138889
        k(   70) = (  -0.5000000  -0.0962250   0.0000000), wk =   0.0138889
        k(   71) = (  -0.5000000   0.0000000   0.0000000), wk =   0.0138889
        k(   72) = (  -0.5000000   0.0962250   0.0000000), wk =   0.0138889
        k(   73) = (  -0.5000000   0.1924501   0.0000000), wk =   0.0138889
        k(   74) = (  -0.5000000  -0.8660254   0.0000000), wk =   0.0069444

     Dense  grid:   166859 G-vectors     FFT dimensions: (  40,  40, 240)

     Smooth grid:    42343 G-vectors     FFT dimensions: (  25,  25, 160)

     Estimated max dynamical RAM per process >      40.42 MB

     Estimated total dynamical RAM >     808.50 MB

     Initial potential from superposition of free atoms

     starting charge       7.9999, renormalised to       8.0000

     negative rho (up, down):  2.223E-05 0.000E+00
 
     Adding external electric field

     Computed dipole along edir(3) : 
        Dipole               -0.0000 Ry au,         -0.0000 Debye
        Dipole field         -0.0000 Ry au, 
 
        E field amplitude [Ha a.u.]:  1.0696E-02
        Potential amp.        0.5760 Ry
        Total length         26.9286 bohr
 
     Starting wfcs are random
     Checking if some PAW data can be deallocated... 

     total cpu time spent up to now is        0.9 secs

     per-process dynamical memory:    53.7 Mb

     Self-consistent Calculation

     iteration #  1     ecut=    70.00 Ry     beta= 0.10
     Davidson diagonalization with overlap
     ethr =  1.00E-02,  avg # of iterations =  8.6

     negative rho (up, down):  2.126E-05 0.000E+00
 
     Adding external electric field

     Computed dipole along edir(3) : 
        Dipole                0.0134 Ry au,          0.0341 Debye
        Dipole field          0.0003 Ry au, 
 
        E field amplitude [Ha a.u.]:  1.0696E-02
        Potential amp.        0.5590 Ry
        Total length         26.9286 bohr
 

     total cpu time spent up to now is        8.5 secs

     total energy              =     -36.95216945 Ry
     estimated scf accuracy    <       0.20513257 Ry

     iteration #  2     ecut=    70.00 Ry     beta= 0.10
     Davidson diagonalization with overlap
     ethr =  2.56E-03,  avg # of iterations =  1.0

     negative rho (up, down):  2.643E-05 0.000E+00
 
     Adding external electric field

     Computed dipole along edir(3) : 
        Dipole                0.0858 Ry au,          0.2182 Debye
        Dipole field          0.0020 Ry au, 
 
        E field amplitude [Ha a.u.]:  1.0696E-02
        Potential amp.        0.4672 Ry
        Total length         26.9286 bohr
 

     total cpu time spent up to now is       10.3 secs

     total energy              =     -36.86240366 Ry
     estimated scf accuracy    <       0.15100809 Ry

     iteration #  3     ecut=    70.00 Ry     beta= 0.10
     Davidson diagonalization with overlap
     ethr =  1.89E-03,  avg # of iterations =  3.0

     negative rho (up, down):  2.625E-05 0.000E+00
 
     Adding external electric field

     Computed dipole along edir(3) : 
        Dipole                0.0686 Ry au,          0.1745 Debye
        Dipole field          0.0016 Ry au, 
 
        E field amplitude [Ha a.u.]:  1.0696E-02
        Potential amp.        0.4890 Ry
        Total length         26.9286 bohr
 

     total cpu time spent up to now is       12.6 secs

     total energy              =     -36.88761924 Ry
     estimated scf accuracy    <       0.00356176 Ry

     iteration #  4     ecut=    70.00 Ry     beta= 0.10
     Davidson diagonalization with overlap
     ethr =  4.45E-05,  avg # of iterations =  5.5

     negative rho (up, down):  2.846E-05 0.000E+00
 
     Adding external electric field

     Computed dipole along edir(3) : 
        Dipole                0.0422 Ry au,          0.1073 Debye
        Dipole field          0.0010 Ry au, 
 
        E field amplitude [Ha a.u.]:  1.0696E-02
        Potential amp.        0.5225 Ry
        Total length         26.9286 bohr
 

     total cpu time spent up to now is       15.7 secs

     total energy              =     -36.88782938 Ry
     estimated scf accuracy    <       0.00192778 Ry

     iteration #  5     ecut=    70.00 Ry     beta= 0.10
     Davidson diagonalization with overlap
     ethr =  2.41E-05,  avg # of iterations =  2.8

     negative rho (up, down):  2.848E-05 0.000E+00
 
     Adding external electric field

     Computed dipole along edir(3) : 
        Dipole                0.0407 Ry au,          0.1035 Debye
        Dipole field          0.0010 Ry au, 
 
        E field amplitude [Ha a.u.]:  1.0696E-02
        Potential amp.        0.5244 Ry
        Total length         26.9286 bohr
 

     total cpu time spent up to now is       17.9 secs

     total energy              =     -36.88817879 Ry
     estimated scf accuracy    <       0.00096102 Ry

     iteration #  6     ecut=    70.00 Ry     beta= 0.10
     Davidson diagonalization with overlap
     ethr =  1.20E-05,  avg # of iterations =  1.0

     negative rho (up, down):  3.136E-05 0.000E+00
 
     Adding external electric field

     Computed dipole along edir(3) : 
        Dipole                0.0548 Ry au,          0.1394 Debye
        Dipole field          0.0013 Ry au, 
 
        E field amplitude [Ha a.u.]:  1.0696E-02
        Potential amp.        0.5065 Ry
        Total length         26.9286 bohr
 

     total cpu time spent up to now is       19.7 secs

     total energy              =     -36.88799669 Ry
     estimated scf accuracy    <       0.00108526 Ry

     iteration #  7     ecut=    70.00 Ry     beta= 0.10
     Davidson diagonalization with overlap
     ethr =  1.20E-05,  avg # of iterations =  1.9

     negative rho (up, down):  3.274E-05 0.000E+00
 
     Adding external electric field

     Computed dipole along edir(3) : 
        Dipole                0.0645 Ry au,          0.1639 Debye
        Dipole field          0.0015 Ry au, 
 
        E field amplitude [Ha a.u.]:  1.0696E-02
        Potential amp.        0.4942 Ry
        Total length         26.9286 bohr
 

     total cpu time spent up to now is       21.6 secs

     total energy              =     -36.88791559 Ry
     estimated scf accuracy    <       0.00023541 Ry

     iteration #  8     ecut=    70.00 Ry     beta= 0.10
     Davidson diagonalization with overlap
     ethr =  2.94E-06,  avg # of iterations =  3.1

     negative rho (up, down):  3.295E-05 0.000E+00
 
     Adding external electric field

     Computed dipole along edir(3) : 
        Dipole                0.0627 Ry au,          0.1593 Debye
        Dipole field          0.0015 Ry au, 
 
        E field amplitude [Ha a.u.]:  1.0696E-02
        Potential amp.        0.4965 Ry
        Total length         26.9286 bohr
 

     total cpu time spent up to now is       24.0 secs

     total energy              =     -36.88796051 Ry
     estimated scf accuracy    <       0.00000439 Ry

     iteration #  9     ecut=    70.00 Ry     beta= 0.10
     Davidson diagonalization with overlap
     ethr =  5.49E-08,  avg # of iterations =  2.0

     negative rho (up, down):  3.306E-05 0.000E+00
 
     Adding external electric field

     Computed dipole along edir(3) : 
        Dipole                0.0627 Ry au,          0.1593 Debye
        Dipole field          0.0015 Ry au, 
 
        E field amplitude [Ha a.u.]:  1.0696E-02
        Potential amp.        0.4965 Ry
        Total length         26.9286 bohr
 

     total cpu time spent up to now is       26.1 secs

     total energy              =     -36.88796208 Ry
     estimated scf accuracy    <       0.00000153 Ry

     iteration # 10     ecut=    70.00 Ry     beta= 0.10
     Davidson diagonalization with overlap
     ethr =  1.91E-08,  avg # of iterations =  1.0

     negative rho (up, down):  3.317E-05 0.000E+00
 
     Adding external electric field

     Computed dipole along edir(3) : 
        Dipole                0.0630 Ry au,          0.1601 Debye
        Dipole field          0.0015 Ry au, 
 
        E field amplitude [Ha a.u.]:  1.0696E-02
        Potential amp.        0.4961 Ry
        Total length         26.9286 bohr
 

     total cpu time spent up to now is       27.9 secs

     total energy              =     -36.88796188 Ry
     estimated scf accuracy    <       0.00000148 Ry

     iteration # 11     ecut=    70.00 Ry     beta= 0.10
     Davidson diagonalization with overlap
     ethr =  1.85E-08,  avg # of iterations =  1.0

     negative rho (up, down):  3.392E-05 0.000E+00
 
     Adding external electric field

     Computed dipole along edir(3) : 
        Dipole                0.0628 Ry au,          0.1597 Debye
        Dipole field          0.0015 Ry au, 
 
        E field amplitude [Ha a.u.]:  1.0696E-02
        Potential amp.        0.4964 Ry
        Total length         26.9286 bohr
 

     total cpu time spent up to now is       29.6 secs

     total energy              =     -36.88796240 Ry
     estimated scf accuracy    <       0.00000099 Ry

     iteration # 12     ecut=    70.00 Ry     beta= 0.10
     Davidson diagonalization with overlap
     ethr =  1.24E-08,  avg # of iterations =  1.7

     negative rho (up, down):  3.406E-05 0.000E+00
 
     Adding external electric field

     Computed dipole along edir(3) : 
        Dipole                0.0628 Ry au,          0.1595 Debye
        Dipole field          0.0015 Ry au, 
 
        E field amplitude [Ha a.u.]:  1.0696E-02
        Potential amp.        0.4964 Ry
        Total length         26.9286 bohr
 

     total cpu time spent up to now is       31.5 secs

     total energy              =     -36.88796246 Ry
     estimated scf accuracy    <       0.00000046 Ry

     iteration # 13     ecut=    70.00 Ry     beta= 0.10
     Davidson diagonalization with overlap
     ethr =  5.73E-09,  avg # of iterations =  1.0

     negative rho (up, down):  3.417E-05 0.000E+00
 
     Adding external electric field

     Computed dipole along edir(3) : 
        Dipole                0.0628 Ry au,          0.1597 Debye
        Dipole field          0.0015 Ry au, 
 
        E field amplitude [Ha a.u.]:  1.0696E-02
        Potential amp.        0.4963 Ry
        Total length         26.9286 bohr
 

     total cpu time spent up to now is       33.2 secs

     total energy              =     -36.88796246 Ry
     estimated scf accuracy    <       0.00000039 Ry

     iteration # 14     ecut=    70.00 Ry     beta= 0.10
     Davidson diagonalization with overlap
     ethr =  4.92E-09,  avg # of iterations =  1.0

     negative rho (up, down):  3.428E-05 0.000E+00
 
     Adding external electric field

     Computed dipole along edir(3) : 
        Dipole                0.0628 Ry au,          0.1597 Debye
        Dipole field          0.0015 Ry au, 
 
        E field amplitude [Ha a.u.]:  1.0696E-02
        Potential amp.        0.4963 Ry
        Total length         26.9286 bohr
 

     total cpu time spent up to now is       35.0 secs

     total energy              =     -36.88796246 Ry
     estimated scf accuracy    <       0.00000036 Ry

     iteration # 15     ecut=    70.00 Ry     beta= 0.10
     Davidson diagonalization with overlap
     ethr =  4.47E-09,  avg # of iterations =  1.0

     negative rho (up, down):  3.436E-05 0.000E+00
 
     Adding external electric field

     Computed dipole along edir(3) : 
        Dipole                0.0629 Ry au,          0.1598 Debye
        Dipole field          0.0015 Ry au, 
 
        E field amplitude [Ha a.u.]:  1.0696E-02
        Potential amp.        0.4963 Ry
        Total length         26.9286 bohr
 

     total cpu time spent up to now is       36.7 secs

     total energy              =     -36.88796247 Ry
     estimated scf accuracy    <       0.00000031 Ry

     iteration # 16     ecut=    70.00 Ry     beta= 0.10
     Davidson diagonalization with overlap
     ethr =  3.90E-09,  avg # of iterations =  1.0

     negative rho (up, down):  3.445E-05 0.000E+00
 
     Adding external electric field

     Computed dipole along edir(3) : 
        Dipole                0.0629 Ry au,          0.1598 Debye
        Dipole field          0.0015 Ry au, 
 
        E field amplitude [Ha a.u.]:  1.0696E-02
        Potential amp.        0.4963 Ry
        Total length         26.9286 bohr
 

     total cpu time spent up to now is       38.5 secs

     total energy              =     -36.88796247 Ry
     estimated scf accuracy    <       0.00000029 Ry

     iteration # 17     ecut=    70.00 Ry     beta= 0.10
     Davidson diagonalization with overlap
     ethr =  3.68E-09,  avg # of iterations =  1.0

     negative rho (up, down):  3.452E-05 0.000E+00
 
     Adding external electric field

     Computed dipole along edir(3) : 
        Dipole                0.0629 Ry au,          0.1598 Debye
        Dipole field          0.0015 Ry au, 
 
        E field amplitude [Ha a.u.]:  1.0696E-02
        Potential amp.        0.4963 Ry
        Total length         26.9286 bohr
 

     total cpu time spent up to now is       40.3 secs

     total energy              =     -36.88796247 Ry
     estimated scf accuracy    <       0.00000029 Ry

     iteration # 18     ecut=    70.00 Ry     beta= 0.10
     Davidson diagonalization with overlap
     ethr =  3.62E-09,  avg # of iterations =  1.0

     negative rho (up, down):  3.453E-05 0.000E+00
 
     Adding external electric field

     Computed dipole along edir(3) : 
        Dipole                0.0631 Ry au,          0.1604 Debye
        Dipole field          0.0015 Ry au, 
 
        E field amplitude [Ha a.u.]:  1.0696E-02
        Potential amp.        0.4960 Ry
        Total length         26.9286 bohr
 

     total cpu time spent up to now is       42.0 secs

     total energy              =     -36.88796231 Ry
     estimated scf accuracy    <       0.00000030 Ry

     iteration # 19     ecut=    70.00 Ry     beta= 0.10
     Davidson diagonalization with overlap
     ethr =  3.62E-09,  avg # of iterations =  2.0

     negative rho (up, down):  3.463E-05 0.000E+00
 
     Adding external electric field

     Computed dipole along edir(3) : 
        Dipole                0.0630 Ry au,          0.1600 Debye
        Dipole field          0.0015 Ry au, 
 
        E field amplitude [Ha a.u.]:  1.0696E-02
        Potential amp.        0.4962 Ry
        Total length         26.9286 bohr
 

     total cpu time spent up to now is       44.0 secs

     total energy              =     -36.88796238 Ry
     estimated scf accuracy    <       0.00000007 Ry

     iteration # 20     ecut=    70.00 Ry     beta= 0.10
     Davidson diagonalization with overlap
     ethr =  8.45E-10,  avg # of iterations =  2.0

     negative rho (up, down):  3.468E-05 0.000E+00
 
     Adding external electric field

     Computed dipole along edir(3) : 
        Dipole                0.0630 Ry au,          0.1602 Debye
        Dipole field          0.0015 Ry au, 
 
        E field amplitude [Ha a.u.]:  1.0696E-02
        Potential amp.        0.4961 Ry
        Total length         26.9286 bohr
 

     total cpu time spent up to now is       46.1 secs

     total energy              =     -36.88796239 Ry
     estimated scf accuracy    <       0.00000001 Ry

     iteration # 21     ecut=    70.00 Ry     beta= 0.10
     Davidson diagonalization with overlap
     ethr =  1.61E-10,  avg # of iterations =  2.0

     negative rho (up, down):  3.529E-05 0.000E+00
 
     Adding external electric field

     Computed dipole along edir(3) : 
        Dipole                0.0630 Ry au,          0.1600 Debye
        Dipole field          0.0015 Ry au, 
 
        E field amplitude [Ha a.u.]:  1.0696E-02
        Potential amp.        0.4962 Ry
        Total length         26.9286 bohr
 

     total cpu time spent up to now is       48.1 secs

     End of self-consistent calculation

          k = 0.0000 0.0000 0.0000 (  5307 PWs)   bands (ev):

   -21.0701 -21.0701  -9.1669  -9.1669  -4.6131  -4.6131  -4.6039  -4.6039
     0.5437   0.5437   1.6964   1.6964   3.0907   3.0907   4.7046   4.7046

          k = 0.0000 0.0962 0.0000 (  5285 PWs)   bands (ev):

   -20.9064 -20.9063  -8.9711  -8.9711  -5.2592  -5.2592  -4.9464  -4.9464
     0.7714   0.7714   1.9203   1.9203   3.3127   3.3128   4.9268   4.9268

          k = 0.0000 0.1925 0.0000 (  5253 PWs)   bands (ev):

   -20.4168 -20.4168  -8.3892  -8.3892  -6.8965  -6.8965  -5.7380  -5.7380
     1.4542   1.4543   2.5918   2.5919   3.9776   3.9778   5.5901   5.5903

          k = 0.0000 0.2887 0.0000 (  5269 PWs)   bands (ev):

   -19.6074 -19.6074  -8.9941  -8.9940  -7.4402  -7.4402  -6.6170  -6.6170
     2.5913   2.5913   3.7076   3.7077   5.0606   5.0609   5.6945   5.6946

          k = 0.0000 0.3849 0.0000 (  5285 PWs)   bands (ev):

   -18.4901 -18.4901 -11.1959 -11.1959  -7.3498  -7.3498  -6.1744  -6.1744
     3.3448   3.3448   4.1916   4.1917   5.2712   5.2714   6.1362   6.1366

          k = 0.0000 0.4811 0.0000 (  5290 PWs)   bands (ev):

   -17.0964 -17.0964 -13.2938 -13.2938  -7.8223  -7.8223  -4.7548  -4.7547
     1.2197   1.2198   5.8949   5.8949   6.2330   6.2330   7.2835   7.2837

          k = 0.0000-0.5774 0.0000 (  5288 PWs)   bands (ev):

   -15.8377 -15.8377 -14.7951 -14.7951  -7.9846  -7.9846  -3.9123  -3.9123
     0.1250   0.1250   5.8169   5.8169   8.7002   8.7002   8.7271   8.7271

          k = 0.0833 0.0481 0.0000 (  5285 PWs)   bands (ev):

   -20.9064 -20.9063  -8.9711  -8.9711  -5.2592  -5.2591  -4.9464  -4.9464
     0.7714   0.7714   1.9203   1.9203   3.3127   3.3128   4.9268   4.9268

          k = 0.0833 0.1443 0.0000 (  5269 PWs)   bands (ev):

   -20.5797 -20.5797  -8.5822  -8.5822  -6.2930  -6.2930  -5.6230  -5.6230
     1.2267   1.2267   2.3681   2.3682   3.7566   3.7567   5.3703   5.3704

          k = 0.0833 0.2406 0.0000 (  5261 PWs)   bands (ev):

   -19.9302 -19.9302  -8.0024  -8.0023  -7.8155  -7.8155  -6.6201  -6.6201
     2.1369   2.1369   3.2629   3.2630   4.6409   4.6412   6.2386   6.2388

          k = 0.0833 0.3368 0.0000 (  5275 PWs)   bands (ev):

   -18.9667 -18.9667 -10.0742 -10.0741  -7.5058  -7.5058  -6.7017  -6.7017
     3.4981   3.4981   4.3552   4.3553   4.6212   4.6214   5.9707   5.9712

          k = 0.0833 0.4330 0.0000 (  5284 PWs)   bands (ev):

   -17.7080 -17.7080 -12.1951 -12.1951  -8.1402  -8.1402  -5.3249  -5.3248
     2.1640   2.1640   5.3200   5.3201   6.3671   6.3675   6.7401   6.7404

          k = 0.0833 0.5292 0.0000 (  5302 PWs)   bands (ev):

   -16.2316 -16.2316 -14.1335 -14.1335  -8.4684  -8.4684  -4.0186  -4.0186
     0.4001   0.4002   6.5549   6.5549   7.5837   7.5838   8.5933   8.5936

          k = 0.0833-0.5292 0.0000 (  5302 PWs)   bands (ev):

   -16.2316 -16.2316 -14.1335 -14.1335  -8.4684  -8.4684  -4.0186  -4.0186
     0.4001   0.4002   6.5549   6.5549   7.5837   7.5838   8.5933   8.5936

          k = 0.0833-0.4330 0.0000 (  5284 PWs)   bands (ev):

   -17.7080 -17.7080 -12.1951 -12.1951  -8.1402  -8.1402  -5.3249  -5.3248
     2.1640   2.1640   5.3200   5.3201   6.3671   6.3675   6.7401   6.7404

          k = 0.0833-0.3368 0.0000 (  5275 PWs)   bands (ev):

   -18.9667 -18.9667 -10.0742 -10.0741  -7.5058  -7.5058  -6.7017  -6.7017
     3.4981   3.4981   4.3552   4.3553   4.6212   4.6214   5.9707   5.9712

          k = 0.0833-0.2406 0.0000 (  5261 PWs)   bands (ev):

   -19.9302 -19.9302  -8.0024  -8.0023  -7.8155  -7.8155  -6.6201  -6.6201
     2.1369   2.1369   3.2629   3.2630   4.6409   4.6412   6.2386   6.2388

          k = 0.0833-0.1443 0.0000 (  5269 PWs)   bands (ev):

   -20.5797 -20.5797  -8.5822  -8.5822  -6.2930  -6.2930  -5.6230  -5.6230
     1.2267   1.2267   2.3681   2.3682   3.7566   3.7567   5.3703   5.3704

          k = 0.0833-0.0481 0.0000 (  5285 PWs)   bands (ev):

   -20.9064 -20.9063  -8.9711  -8.9711  -5.2592  -5.2592  -4.9464  -4.9464
     0.7714   0.7714   1.9203   1.9203   3.3127   3.3128   4.9268   4.9269

          k = 0.1667 0.0962 0.0000 (  5253 PWs)   bands (ev):

   -20.4168 -20.4168  -8.3892  -8.3892  -6.8965  -6.8965  -5.7380  -5.7380
     1.4542   1.4543   2.5918   2.5919   3.9776   3.9778   5.5901   5.5903

          k = 0.1667 0.1925 0.0000 (  5261 PWs)   bands (ev):

   -19.9302 -19.9302  -8.0024  -8.0023  -7.8155  -7.8155  -6.6201  -6.6201
     2.1369   2.1369   3.2629   3.2630   4.6409   4.6412   6.2386   6.2388

          k = 0.1667 0.2887 0.0000 (  5288 PWs)   bands (ev):

   -19.1267 -19.1266  -9.3330  -9.3330  -7.9803  -7.9803  -6.8801  -6.8801
     3.2736   3.2737   4.3795   4.3797   4.8142   4.8143   5.7418   5.7421

          k = 0.1667 0.3849 0.0000 (  5285 PWs)   bands (ev):

   -18.0203 -18.0202 -11.0590 -11.0590  -9.0360  -9.0360  -5.6295  -5.6295
     2.8710   2.8711   4.8628   4.8628   5.9349   5.9351   7.2563   7.2567

          k = 0.1667 0.4811 0.0000 (  5283 PWs)   bands (ev):

   -16.6465 -16.6465 -12.9673 -12.9673  -9.6119  -9.6119  -4.2057  -4.2057
     0.9633   0.9634   6.8963   6.8964   7.9059   7.9063   8.4524   8.4528

          k = 0.1667 0.5774 0.0000 (  5264 PWs)   bands (ev):

   -15.4166 -15.4166 -14.3975 -14.3975  -9.7968  -9.7967  -3.3151  -3.3151
    -0.1021  -0.1021   8.3610   8.3610   9.2921   9.2922   9.3624   9.3625

          k = 0.1667-0.4811 0.0000 (  5283 PWs)   bands (ev):

   -16.6465 -16.6465 -12.9673 -12.9673  -9.6119  -9.6119  -4.2057  -4.2057
     0.9633   0.9634   6.8963   6.8964   7.9059   7.9063   8.4524   8.4528

          k = 0.1667-0.3849 0.0000 (  5285 PWs)   bands (ev):

   -18.0203 -18.0202 -11.0590 -11.0590  -9.0360  -9.0359  -5.6295  -5.6295
     2.8710   2.8711   4.8628   4.8628   5.9349   5.9351   7.2563   7.2567

          k = 0.1667-0.2887 0.0000 (  5288 PWs)   bands (ev):

   -19.1267 -19.1266  -9.3330  -9.3330  -7.9803  -7.9803  -6.8801  -6.8801
     3.2736   3.2737   4.3795   4.3797   4.8142   4.8143   5.7418   5.7421

          k = 0.1667-0.1925 0.0000 (  5261 PWs)   bands (ev):

   -19.9302 -19.9302  -8.0024  -8.0023  -7.8155  -7.8155  -6.6201  -6.6201
     2.1369   2.1369   3.2629   3.2630   4.6409   4.6412   6.2386   6.2388

          k = 0.1667-0.0962 0.0000 (  5253 PWs)   bands (ev):

   -20.4168 -20.4168  -8.3892  -8.3892  -6.8965  -6.8965  -5.7380  -5.7380
     1.4542   1.4543   2.5918   2.5919   3.9776   3.9778   5.5901   5.5903

          k = 0.1667-0.0000 0.0000 (  5269 PWs)   bands (ev):

   -20.5797 -20.5797  -8.5822  -8.5822  -6.2930  -6.2930  -5.6230  -5.6230
     1.2267   1.2267   2.3681   2.3682   3.7566   3.7567   5.3703   5.3704

          k = 0.2500 0.1443 0.0000 (  5269 PWs)   bands (ev):

   -19.6074 -19.6074  -8.9940  -8.9940  -7.4402  -7.4402  -6.6170  -6.6170
     2.5913   2.5913   3.7076   3.7077   5.0606   5.0609   5.6945   5.6946

          k = 0.2500 0.2406 0.0000 (  5275 PWs)   bands (ev):

   -18.9667 -18.9667 -10.0742 -10.0741  -7.5058  -7.5058  -6.7017  -6.7017
     3.4981   3.4981   4.3552   4.3553   4.6212   4.6214   5.9707   5.9712

          k = 0.2500 0.3368 0.0000 (  5285 PWs)   bands (ev):

   -18.0203 -18.0202 -11.0590 -11.0590  -9.0360  -9.0360  -5.6295  -5.6295
     2.8710   2.8711   4.8628   4.8628   5.9349   5.9351   7.2563   7.2567

          k = 0.2500 0.4330 0.0000 (  5268 PWs)   bands (ev):

   -16.7938 -16.7938 -12.0952 -12.0952 -10.5164 -10.5164  -4.2895  -4.2894
     1.2599   1.2599   6.6651   6.6652   7.6817   7.6820   8.8202   8.8208

          k = 0.2500 0.5292 0.0000 (  5282 PWs)   bands (ev):

   -15.3743 -15.3743 -13.5140 -13.5140 -11.2237 -11.2237  -2.9066  -2.9066
    -0.2572  -0.2572   8.8026   8.8029   9.4579   9.4579   9.9695   9.9697

          k = 0.2500 0.6255 0.0000 (  5282 PWs)   bands (ev):

   -15.3743 -15.3743 -13.5140 -13.5140 -11.2237 -11.2237  -2.9066  -2.9066
    -0.2572  -0.2572   8.8026   8.8029   9.4579   9.4579   9.9695   9.9697

          k = 0.2500-0.4330 0.0000 (  5268 PWs)   bands (ev):

   -16.7938 -16.7938 -12.0952 -12.0952 -10.5164 -10.5163  -4.2895  -4.2894
     1.2599   1.2599   6.6651   6.6652   7.6817   7.6820   8.8202   8.8208

          k = 0.2500-0.3368 0.0000 (  5285 PWs)   bands (ev):

   -18.0203 -18.0202 -11.0590 -11.0590  -9.0360  -9.0360  -5.6295  -5.6295
     2.8710   2.8711   4.8628   4.8628   5.9349   5.9351   7.2563   7.2567

          k = 0.2500-0.2406 0.0000 (  5275 PWs)   bands (ev):

   -18.9667 -18.9667 -10.0742 -10.0741  -7.5058  -7.5058  -6.7017  -6.7017
     3.4981   3.4981   4.3552   4.3553   4.6212   4.6214   5.9707   5.9712

          k = 0.2500-0.1443 0.0000 (  5269 PWs)   bands (ev):

   -19.6074 -19.6074  -8.9941  -8.9940  -7.4402  -7.4402  -6.6170  -6.6170
     2.5913   2.5913   3.7076   3.7077   5.0606   5.0609   5.6945   5.6946

          k = 0.2500-0.0481 0.0000 (  5261 PWs)   bands (ev):

   -19.9302 -19.9302  -8.0024  -8.0023  -7.8155  -7.8155  -6.6201  -6.6201
     2.1369   2.1369   3.2629   3.2630   4.6409   4.6412   6.2387   6.2389

          k = 0.2500 0.0481 0.0000 (  5261 PWs)   bands (ev):

   -19.9302 -19.9302  -8.0024  -8.0023  -7.8155  -7.8155  -6.6201  -6.6201
     2.1369   2.1369   3.2629   3.2630   4.6409   4.6412   6.2386   6.2388

          k = 0.3333 0.1925 0.0000 (  5285 PWs)   bands (ev):

   -18.4901 -18.4901 -11.1959 -11.1958  -7.3498  -7.3498  -6.1744  -6.1744
     3.3448   3.3448   4.1916   4.1917   5.2712   5.2714   6.1362   6.1366

          k = 0.3333 0.2887 0.0000 (  5284 PWs)   bands (ev):

   -17.7080 -17.7080 -12.1951 -12.1951  -8.1402  -8.1402  -5.3249  -5.3248
     2.1640   2.1640   5.3200   5.3201   6.3671   6.3675   6.7401   6.7404

          k = 0.3333 0.3849 0.0000 (  5283 PWs)   bands (ev):

   -16.6465 -16.6465 -12.9673 -12.9673  -9.6119  -9.6119  -4.2057  -4.2057
     0.9633   0.9634   6.8963   6.8964   7.9059   7.9063   8.4524   8.4528

          k = 0.3333 0.4811 0.0000 (  5282 PWs)   bands (ev):

   -15.3743 -15.3743 -13.5140 -13.5140 -11.2237 -11.2237  -2.9066  -2.9066
    -0.2572  -0.2572   8.8026   8.8029   9.4579   9.4579   9.9695   9.9697

          k = 0.3333 0.5774 0.0000 (  5292 PWs)   bands (ev):

   -14.1603 -14.1603 -14.1582 -14.1582 -12.1149 -12.1149  -1.5532  -1.5532
    -1.5531  -1.5531   9.0189   9.0189  11.0991  11.1000  11.1020  11.1021

          k = 0.3333 0.6736 0.0000 (  5282 PWs)   bands (ev):

   -15.3743 -15.3743 -13.5140 -13.5140 -11.2237 -11.2237  -2.9066  -2.9066
    -0.2572  -0.2572   8.8026   8.8029   9.4579   9.4579   9.9695   9.9697

          k = 0.3333-0.3849 0.0000 (  5283 PWs)   bands (ev):

   -16.6465 -16.6465 -12.9673 -12.9673  -9.6119  -9.6119  -4.2057  -4.2057
     0.9633   0.9634   6.8963   6.8964   7.9059   7.9063   8.4524   8.4528

          k = 0.3333-0.2887 0.0000 (  5284 PWs)   bands (ev):

   -17.7080 -17.7080 -12.1951 -12.1951  -8.1402  -8.1402  -5.3249  -5.3248
     2.1640   2.1640   5.3200   5.3201   6.3671   6.3675   6.7401   6.7404

          k = 0.3333-0.1925 0.0000 (  5285 PWs)   bands (ev):

   -18.4901 -18.4901 -11.1959 -11.1959  -7.3498  -7.3498  -6.1744  -6.1744
     3.3448   3.3448   4.1916   4.1917   5.2712   5.2714   6.1362   6.1366

          k = 0.3333-0.0962 0.0000 (  5275 PWs)   bands (ev):

   -18.9667 -18.9667 -10.0742 -10.0741  -7.5058  -7.5058  -6.7017  -6.7017
     3.4981   3.4981   4.3552   4.3553   4.6212   4.6214   5.9707   5.9712

          k = 0.3333-0.0000 0.0000 (  5288 PWs)   bands (ev):

   -19.1267 -19.1266  -9.3330  -9.3330  -7.9803  -7.9803  -6.8801  -6.8801
     3.2736   3.2737   4.3795   4.3797   4.8142   4.8143   5.7418   5.7421

          k = 0.3333 0.0962 0.0000 (  5275 PWs)   bands (ev):

   -18.9667 -18.9667 -10.0742 -10.0741  -7.5058  -7.5058  -6.7017  -6.7017
     3.4981   3.4981   4.3552   4.3553   4.6212   4.6214   5.9707   5.9712

          k = 0.4167 0.2406 0.0000 (  5290 PWs)   bands (ev):

   -17.0964 -17.0964 -13.2938 -13.2938  -7.8223  -7.8223  -4.7548  -4.7547
     1.2197   1.2198   5.8949   5.8949   6.2330   6.2330   7.2835   7.2837

          k = 0.4167 0.3368 0.0000 (  5302 PWs)   bands (ev):

   -16.2316 -16.2316 -14.1335 -14.1335  -8.4684  -8.4684  -4.0186  -4.0186
     0.4001   0.4002   6.5549   6.5549   7.5837   7.5838   8.5933   8.5936

          k = 0.4167 0.4330 0.0000 (  5264 PWs)   bands (ev):

   -15.4166 -15.4166 -14.3975 -14.3975  -9.7968  -9.7967  -3.3151  -3.3151
    -0.1021  -0.1021   8.3610   8.3610   9.2921   9.2922   9.3624   9.3625

          k = 0.4167 0.5292 0.0000 (  5282 PWs)   bands (ev):

   -15.3743 -15.3743 -13.5140 -13.5140 -11.2237 -11.2237  -2.9066  -2.9066
    -0.2572  -0.2572   8.8026   8.8029   9.4579   9.4579   9.9695   9.9697

          k = 0.4167 0.6255 0.0000 (  5282 PWs)   bands (ev):

   -15.3743 -15.3743 -13.5140 -13.5140 -11.2237 -11.2237  -2.9066  -2.9066
    -0.2572  -0.2572   8.8026   8.8029   9.4579   9.4579   9.9695   9.9697

          k = 0.4167 0.7217 0.0000 (  5264 PWs)   bands (ev):

   -15.4166 -15.4166 -14.3975 -14.3975  -9.7968  -9.7967  -3.3151  -3.3151
    -0.1021  -0.1021   8.3610   8.3610   9.2921   9.2922   9.3624   9.3625

          k = 0.4167-0.3368 0.0000 (  5302 PWs)   bands (ev):

   -16.2316 -16.2316 -14.1335 -14.1335  -8.4684  -8.4684  -4.0186  -4.0186
     0.4001   0.4002   6.5549   6.5549   7.5837   7.5838   8.5933   8.5936

          k = 0.4167-0.2406 0.0000 (  5290 PWs)   bands (ev):

   -17.0964 -17.0964 -13.2938 -13.2938  -7.8223  -7.8223  -4.7548  -4.7547
     1.2197   1.2198   5.8949   5.8949   6.2330   6.2330   7.2835   7.2837

          k = 0.4167-0.1443 0.0000 (  5284 PWs)   bands (ev):

   -17.7080 -17.7080 -12.1951 -12.1951  -8.1402  -8.1402  -5.3249  -5.3248
     2.1640   2.1640   5.3200   5.3201   6.3671   6.3675   6.7401   6.7404

          k = 0.4167-0.0481 0.0000 (  5285 PWs)   bands (ev):

   -18.0203 -18.0202 -11.0590 -11.0590  -9.0360  -9.0360  -5.6295  -5.6295
     2.8710   2.8711   4.8628   4.8628   5.9349   5.9351   7.2563   7.2567

          k = 0.4167 0.0481 0.0000 (  5285 PWs)   bands (ev):

   -18.0203 -18.0202 -11.0590 -11.0590  -9.0360  -9.0360  -5.6295  -5.6295
     2.8710   2.8711   4.8628   4.8628   5.9349   5.9351   7.2563   7.2567

          k = 0.4167 0.1443 0.0000 (  5284 PWs)   bands (ev):

   -17.7080 -17.7080 -12.1951 -12.1951  -8.1402  -8.1402  -5.3249  -5.3248
     2.1640   2.1640   5.3200   5.3201   6.3671   6.3675   6.7401   6.7404

          k =-0.5000-0.2887 0.0000 (  5288 PWs)   bands (ev):

   -15.8377 -15.8377 -14.7951 -14.7951  -7.9846  -7.9846  -3.9123  -3.9123
     0.1250   0.1250   5.8169   5.8169   8.7002   8.7002   8.7271   8.7271

          k =-0.5000-0.1925 0.0000 (  5302 PWs)   bands (ev):

   -16.2316 -16.2316 -14.1335 -14.1335  -8.4684  -8.4684  -4.0186  -4.0186
     0.4001   0.4002   6.5549   6.5549   7.5837   7.5838   8.5933   8.5936

          k =-0.5000-0.0962 0.0000 (  5283 PWs)   bands (ev):

   -16.6465 -16.6465 -12.9673 -12.9673  -9.6119  -9.6119  -4.2057  -4.2057
     0.9633   0.9634   6.8963   6.8964   7.9059   7.9063   8.4524   8.4528

          k =-0.5000 0.0000 0.0000 (  5268 PWs)   bands (ev):

   -16.7938 -16.7938 -12.0952 -12.0952 -10.5164 -10.5164  -4.2895  -4.2894
     1.2599   1.2599   6.6651   6.6652   7.6817   7.6820   8.8202   8.8208

          k =-0.5000 0.0962 0.0000 (  5283 PWs)   bands (ev):

   -16.6465 -16.6465 -12.9673 -12.9673  -9.6119  -9.6119  -4.2057  -4.2057
     0.9633   0.9634   6.8963   6.8964   7.9059   7.9063   8.4524   8.4528

          k =-0.5000 0.1925 0.0000 (  5302 PWs)   bands (ev):

   -16.2316 -16.2316 -14.1335 -14.1335  -8.4684  -8.4684  -4.0186  -4.0186
     0.4001   0.4002   6.5549   6.5549   7.5837   7.5838   8.5933   8.5936

          k =-0.5000-0.8660 0.0000 (  5288 PWs)   bands (ev):

   -15.8377 -15.8377 -14.7951 -14.7951  -7.9846  -7.9846  -3.9123  -3.9123
     0.1250   0.1250   5.8169   5.8169   8.7002   8.7002   8.7271   8.7271

     the Fermi energy is    -1.55313842 ev

!    total energy              =     -36.88796240 Ry
     total all-electron energy =      -152.416235 Ry
     estimated scf accuracy    <          2.7E-09 Ry
     smearing contrib. (-TS)   =      -0.00003134 Ry
     internal energy E=F+TS    =     -36.88793105 Ry

     The total energy is F=E-TS. E is the sum of the following terms:
     one-electron contribution =    -156.61430680 Ry
     hartree contribution      =      79.92403514 Ry
     xc contribution           =      -9.27182842 Ry
     ewald contribution        =      61.40972547 Ry
     electric field correction =      -0.00125342 Ry
     one-center paw contrib.   =     -12.33430303 Ry

     convergence has been achieved in  21 iterations

     negative rho (up, down):  3.529E-05 0.000E+00

     Forces acting on atoms (cartesian axes, Ry/au):

     atom    1 type  1   force =     0.00000064    0.00000080   -0.00000064
     atom    2 type  1   force =    -0.00000064   -0.00000080    0.00000064

     Total force =     0.000002     Total SCF correction =     0.000161
     SCF correction compared to forces is large: reduce conv_thr to get better values

     Writing all to output data dir ../tmp/graphene.save/ :
     XML data file, charge density, pseudopotentials, collected wavefunctions
 
     init_run     :      0.74s CPU      0.80s WALL (       1 calls)
     electrons    :     45.32s CPU     47.30s WALL (       1 calls)
     forces       :      0.10s CPU      0.11s WALL (       1 calls)

     Called by init_run:
     wfcinit      :      0.65s CPU      0.68s WALL (       1 calls)
     potinit      :      0.02s CPU      0.04s WALL (       1 calls)
     hinit0       :      0.02s CPU      0.02s WALL (       1 calls)

     Called by electrons:
     c_bands      :     37.66s CPU     39.22s WALL (      21 calls)
     sum_band     :      6.61s CPU      6.87s WALL (      21 calls)
     v_of_rho     :      0.23s CPU      0.26s WALL (      22 calls)
     newd         :      0.38s CPU      0.39s WALL (      22 calls)
     PAW_pot      :      0.23s CPU      0.24s WALL (      22 calls)
     mix_rho      :      0.16s CPU      0.16s WALL (      21 calls)

     Called by c_bands:
     init_us_2    :      0.28s CPU      0.30s WALL (    3256 calls)
     cegterg      :     36.44s CPU     37.91s WALL (    1554 calls)

     Called by *egterg:
     cdiaghg      :      4.06s CPU      4.13s WALL (    4855 calls)
     h_psi        :     29.07s CPU     30.38s WALL (    4929 calls)
     s_psi        :      0.63s CPU      0.65s WALL (    4929 calls)
     g_psi        :      0.10s CPU      0.10s WALL (    3301 calls)

     Called by h_psi:
     h_psi:calbec :      0.77s CPU      0.80s WALL (    4929 calls)
     vloc_psi     :     27.45s CPU     28.70s WALL (    4929 calls)
     add_vuspsi   :      0.64s CPU      0.67s WALL (    4929 calls)

     General routines
     calbec       :      1.00s CPU      1.05s WALL (    6779 calls)
     fft          :      0.27s CPU      0.28s WALL (     547 calls)
     ffts         :      0.02s CPU      0.02s WALL (     172 calls)
     fftw         :     24.55s CPU     25.65s WALL (  300992 calls)
     interpolate  :      0.04s CPU      0.04s WALL (      88 calls)
 
     Parallel routines
 
     PWSCF        :     46.51s CPU     51.24s WALL

 
   This run was terminated on:   2:24:30  29Jan2026            

=------------------------------------------------------------------------------=
   JOB DONE.
=------------------------------------------------------------------------------=
