
     Program PWSCF v.7.4.1 starts on 31Oct2025 at 17:20: 4 

     This program is part of the open-source Quantum ESPRESSO suite
     for quantum simulation of materials; please cite
         "P. Giannozzi et al., J. Phys.:Condens. Matter 21 395502 (2009);
         "P. Giannozzi et al., J. Phys.:Condens. Matter 29 465901 (2017);
         "P. Giannozzi et al., J. Chem. Phys. 152 154105 (2020);
          URL http://www.quantum-espresso.org", 
     in publications or presentations arising from this work. More details at
     http://www.quantum-espresso.org/quote

     Serial version
     10763 MiB available memory on the printing compute node when the environment starts

     Reading input from grap_SOC_scf.in

     Current dimensions of program PWSCF are:
     Max number of different atomic species (ntypx) = 10
     Max number of k-points (npk) =  40000
     Max angular momentum in pseudopotentials (lmaxx) =  4
     Presently stress not available with electric field and gates

     file C.rel-pbe-n-kjpaw_psl.0.1.UPF: wavefunction(s)  2P 2P renormalized


     G-vector sticks info
     --------------------
     sticks:   dense  smooth     PW     G-vecs:    dense   smooth      PW
     Sum        1045     421    139               166859    42343    8205

     Using Slab Decomposition



     bravais-lattice index     =            0
     lattice parameter (alat)  =       4.6624  a.u.
     unit-cell volume          =     533.6317 (a.u.)^3
     number of atoms/cell      =            2
     number of atomic types    =            1
     number of electrons       =         8.00
     number of Kohn-Sham states=           16
     kinetic-energy cutoff     =      70.0000  Ry
     charge density cutoff     =     700.0000  Ry
     scf convergence threshold =      1.0E-08
     mixing beta               =       0.1000
     number of iterations used =            8  plain     mixing
     Exchange-correlation= SLA  PW   PBX  PBC
                           (   1   4   3   4   0   0   0)
     Non magnetic calculation with spin-orbit


     celldm(1)=   4.662410  celldm(2)=   0.000000  celldm(3)=   0.000000
     celldm(4)=   0.000000  celldm(5)=   0.000000  celldm(6)=   0.000000

     crystal axes: (cart. coord. in units of alat)
               a(1) = (   1.000000   0.000000  -0.000000 )  
               a(2) = (  -0.500000   0.866025   0.000000 )  
               a(3) = (  -0.000000   0.000000   6.079666 )  

     reciprocal axes: (cart. coord. in units 2 pi/alat)
               b(1) = (  1.000000  0.577350  0.000000 )  
               b(2) = ( -0.000000  1.154701 -0.000000 )  
               b(3) = (  0.000000  0.000000  0.164483 )  


     PseudoPot. # 1 for C  read from file:
     ../../../pseudos/C.rel-pbe-n-kjpaw_psl.0.1.UPF
     MD5 check sum: 5ef0b8f55ac4be3c3db5d31256eeff6b
     Pseudo is Projector augmented-wave + core cor, Zval =  4.0
     Generated using &quot;atomic&quot; code by A. Dal Corso  v.6.3
     Shape of augmentation charge: BESSEL
     Using radial grid of 1073 points,  6 beta functions with: 
                l(1) =   0
                l(2) =   0
                l(3) =   1
                l(4) =   1
                l(5) =   1
                l(6) =   1
     Q(r) pseudized with 0 coefficients 


     atomic species   valence    mass     pseudopotential
     C                 4.00    12.01100     C ( 1.00)

     No symmetry found



   Cartesian axes

     site n.     atom                  positions (alat units)
         1        C      tau(   1) = (   0.0000000   0.0000000   3.0398328  )
         2        C      tau(   2) = (   0.0000000   0.5773503   3.0398328  )

     number of k points=    74  Gaussian smearing, width (Ry)=  0.0020
                       cart. coord. in units 2pi/alat
        k(    1) = (   0.0000000   0.0000000   0.0000000), wk =   0.0069444
        k(    2) = (   0.0000000   0.0962250   0.0000000), wk =   0.0138889
        k(    3) = (   0.0000000   0.1924501   0.0000000), wk =   0.0138889
        k(    4) = (   0.0000000   0.2886751   0.0000000), wk =   0.0138889
        k(    5) = (   0.0000000   0.3849002   0.0000000), wk =   0.0138889
        k(    6) = (   0.0000000   0.4811252   0.0000000), wk =   0.0138889
        k(    7) = (   0.0000000  -0.5773503   0.0000000), wk =   0.0069444
        k(    8) = (   0.0833333   0.0481125   0.0000000), wk =   0.0138889
        k(    9) = (   0.0833333   0.1443376   0.0000000), wk =   0.0138889
        k(   10) = (   0.0833333   0.2405626   0.0000000), wk =   0.0138889
        k(   11) = (   0.0833333   0.3367877   0.0000000), wk =   0.0138889
        k(   12) = (   0.0833333   0.4330127   0.0000000), wk =   0.0138889
        k(   13) = (   0.0833333   0.5292377   0.0000000), wk =   0.0138889
        k(   14) = (   0.0833333  -0.5292377   0.0000000), wk =   0.0138889
        k(   15) = (   0.0833333  -0.4330127   0.0000000), wk =   0.0138889
        k(   16) = (   0.0833333  -0.3367877   0.0000000), wk =   0.0138889
        k(   17) = (   0.0833333  -0.2405626   0.0000000), wk =   0.0138889
        k(   18) = (   0.0833333  -0.1443376   0.0000000), wk =   0.0138889
        k(   19) = (   0.0833333  -0.0481125   0.0000000), wk =   0.0138889
        k(   20) = (   0.1666667   0.0962250   0.0000000), wk =   0.0138889
        k(   21) = (   0.1666667   0.1924501   0.0000000), wk =   0.0138889
        k(   22) = (   0.1666667   0.2886751   0.0000000), wk =   0.0138889
        k(   23) = (   0.1666667   0.3849002   0.0000000), wk =   0.0138889
        k(   24) = (   0.1666667   0.4811252   0.0000000), wk =   0.0138889
        k(   25) = (   0.1666667   0.5773503   0.0000000), wk =   0.0138889
        k(   26) = (   0.1666667  -0.4811252   0.0000000), wk =   0.0138889
        k(   27) = (   0.1666667  -0.3849002   0.0000000), wk =   0.0138889
        k(   28) = (   0.1666667  -0.2886751   0.0000000), wk =   0.0138889
        k(   29) = (   0.1666667  -0.1924501   0.0000000), wk =   0.0138889
        k(   30) = (   0.1666667  -0.0962250   0.0000000), wk =   0.0138889
        k(   31) = (   0.1666667  -0.0000000   0.0000000), wk =   0.0138889
        k(   32) = (   0.2500000   0.1443376   0.0000000), wk =   0.0138889
        k(   33) = (   0.2500000   0.2405626   0.0000000), wk =   0.0138889
        k(   34) = (   0.2500000   0.3367877   0.0000000), wk =   0.0138889
        k(   35) = (   0.2500000   0.4330127   0.0000000), wk =   0.0138889
        k(   36) = (   0.2500000   0.5292377   0.0000000), wk =   0.0138889
        k(   37) = (   0.2500000   0.6254628   0.0000000), wk =   0.0138889
        k(   38) = (   0.2500000  -0.4330127   0.0000000), wk =   0.0138889
        k(   39) = (   0.2500000  -0.3367877   0.0000000), wk =   0.0138889
        k(   40) = (   0.2500000  -0.2405626   0.0000000), wk =   0.0138889
        k(   41) = (   0.2500000  -0.1443376   0.0000000), wk =   0.0138889
        k(   42) = (   0.2500000  -0.0481125   0.0000000), wk =   0.0138889
        k(   43) = (   0.2500000   0.0481125   0.0000000), wk =   0.0138889
        k(   44) = (   0.3333333   0.1924501   0.0000000), wk =   0.0138889
        k(   45) = (   0.3333333   0.2886751   0.0000000), wk =   0.0138889
        k(   46) = (   0.3333333   0.3849002   0.0000000), wk =   0.0138889
        k(   47) = (   0.3333333   0.4811252   0.0000000), wk =   0.0138889
        k(   48) = (   0.3333333   0.5773503   0.0000000), wk =   0.0138889
        k(   49) = (   0.3333333   0.6735753   0.0000000), wk =   0.0138889
        k(   50) = (   0.3333333  -0.3849002   0.0000000), wk =   0.0138889
        k(   51) = (   0.3333333  -0.2886751   0.0000000), wk =   0.0138889
        k(   52) = (   0.3333333  -0.1924501   0.0000000), wk =   0.0138889
        k(   53) = (   0.3333333  -0.0962250   0.0000000), wk =   0.0138889
        k(   54) = (   0.3333333   0.0000000   0.0000000), wk =   0.0138889
        k(   55) = (   0.3333333   0.0962250   0.0000000), wk =   0.0138889
        k(   56) = (   0.4166667   0.2405626   0.0000000), wk =   0.0138889
        k(   57) = (   0.4166667   0.3367877   0.0000000), wk =   0.0138889
        k(   58) = (   0.4166667   0.4330127   0.0000000), wk =   0.0138889
        k(   59) = (   0.4166667   0.5292377   0.0000000), wk =   0.0138889
        k(   60) = (   0.4166667   0.6254628   0.0000000), wk =   0.0138889
        k(   61) = (   0.4166667   0.7216878   0.0000000), wk =   0.0138889
        k(   62) = (   0.4166667  -0.3367877   0.0000000), wk =   0.0138889
        k(   63) = (   0.4166667  -0.2405626   0.0000000), wk =   0.0138889
        k(   64) = (   0.4166667  -0.1443376   0.0000000), wk =   0.0138889
        k(   65) = (   0.4166667  -0.0481125   0.0000000), wk =   0.0138889
        k(   66) = (   0.4166667   0.0481125   0.0000000), wk =   0.0138889
        k(   67) = (   0.4166667   0.1443376   0.0000000), wk =   0.0138889
        k(   68) = (  -0.5000000  -0.2886751   0.0000000), wk =   0.0069444
        k(   69) = (  -0.5000000  -0.1924501   0.0000000), wk =   0.0138889
        k(   70) = (  -0.5000000  -0.0962250   0.0000000), wk =   0.0138889
        k(   71) = (  -0.5000000   0.0000000   0.0000000), wk =   0.0138889
        k(   72) = (  -0.5000000   0.0962250   0.0000000), wk =   0.0138889
        k(   73) = (  -0.5000000   0.1924501   0.0000000), wk =   0.0138889
        k(   74) = (  -0.5000000  -0.8660254   0.0000000), wk =   0.0069444

     Dense  grid:   166859 G-vectors     FFT dimensions: (  40,  40, 240)

     Smooth grid:    42343 G-vectors     FFT dimensions: (  25,  25, 160)

     Estimated max dynamical RAM per process >     784.94 MB

     Initial potential from superposition of free atoms

     starting charge       7.9999, renormalised to       8.0000

     negative rho (up, down):  2.781E-05 0.000E+00

     Adding external electric field

     Computed dipole along edir(3) : 
        Dipole               -0.0000 Ry au,         -0.0000 Debye
        Dipole field         -0.0000 Ry au, 

        E field amplitude [Ha a.u.]:  1.9447E-03
        Potential amp.        0.0992 Ry
        Total length         25.5113 bohr

     Starting wfcs are random

     total cpu time spent up to now is        9.6 secs

     Self-consistent Calculation

     iteration #  1     ecut=    70.00 Ry     beta= 0.10
     Davidson diagonalization with overlap
     ethr =  1.00E-02,  avg # of iterations =  8.9

     negative rho (up, down):  2.271E-05 0.000E+00

     Adding external electric field

     Computed dipole along edir(3) : 
        Dipole                0.0024 Ry au,          0.0062 Debye
        Dipole field          0.0001 Ry au, 

        E field amplitude [Ha a.u.]:  1.9447E-03
        Potential amp.        0.0963 Ry
        Total length         25.5113 bohr


     total cpu time spent up to now is       97.6 secs

     total energy              =     -36.95392696 Ry
     estimated scf accuracy    <       0.20221968 Ry

     iteration #  2     ecut=    70.00 Ry     beta= 0.10
     Davidson diagonalization with overlap
     ethr =  2.53E-03,  avg # of iterations =  1.0

     negative rho (up, down):  1.043E-04 0.000E+00

     Adding external electric field

     Computed dipole along edir(3) : 
        Dipole                0.0185 Ry au,          0.0471 Debye
        Dipole field          0.0004 Ry au, 

        E field amplitude [Ha a.u.]:  1.9447E-03
        Potential amp.        0.0769 Ry
        Total length         25.5113 bohr


     total cpu time spent up to now is      114.3 secs

     total energy              =     -36.85262538 Ry
     estimated scf accuracy    <       0.15629965 Ry

     iteration #  3     ecut=    70.00 Ry     beta= 0.10
     Davidson diagonalization with overlap
     ethr =  1.95E-03,  avg # of iterations =  4.3

     negative rho (up, down):  7.584E-05 0.000E+00

     Adding external electric field

     Computed dipole along edir(3) : 
        Dipole                0.0169 Ry au,          0.0429 Debye
        Dipole field          0.0004 Ry au, 

        E field amplitude [Ha a.u.]:  1.9447E-03
        Potential amp.        0.0789 Ry
        Total length         25.5113 bohr


     total cpu time spent up to now is      134.8 secs

     total energy              =     -36.87788824 Ry
     estimated scf accuracy    <       0.00305367 Ry

     iteration #  4     ecut=    70.00 Ry     beta= 0.10
     Davidson diagonalization with overlap
     ethr =  3.82E-05,  avg # of iterations =  7.4

     negative rho (up, down):  7.575E-05 0.000E+00

     Adding external electric field

     Computed dipole along edir(3) : 
        Dipole                0.0225 Ry au,          0.0571 Debye
        Dipole field          0.0005 Ry au, 

        E field amplitude [Ha a.u.]:  1.9447E-03
        Potential amp.        0.0722 Ry
        Total length         25.5113 bohr


     total cpu time spent up to now is      182.2 secs

     total energy              =     -36.90352338 Ry
     estimated scf accuracy    <       0.00699203 Ry

     iteration #  5     ecut=    70.00 Ry     beta= 0.10
     Davidson diagonalization with overlap
     ethr =  3.82E-05,  avg # of iterations =  5.0

     negative rho (up, down):  1.461E-04 0.000E+00

     Adding external electric field

     Computed dipole along edir(3) : 
        Dipole                0.0130 Ry au,          0.0330 Debye
        Dipole field          0.0003 Ry au, 

        E field amplitude [Ha a.u.]:  1.9447E-03
        Potential amp.        0.0836 Ry
        Total length         25.5113 bohr


     total cpu time spent up to now is      211.4 secs

     total energy              =     -36.88932832 Ry
     estimated scf accuracy    <       0.03621992 Ry

     iteration #  6     ecut=    70.00 Ry     beta= 0.10
     Davidson diagonalization with overlap
     ethr =  3.82E-05,  avg # of iterations =  5.1

     negative rho (up, down):  4.654E-04 0.000E+00

     Adding external electric field

     Computed dipole along edir(3) : 
        Dipole                0.0059 Ry au,          0.0150 Debye
        Dipole field          0.0001 Ry au, 

        E field amplitude [Ha a.u.]:  1.9447E-03
        Potential amp.        0.0921 Ry
        Total length         25.5113 bohr


     total cpu time spent up to now is      242.6 secs

     total energy              =     -36.88736135 Ry
     estimated scf accuracy    <       0.00583263 Ry

     iteration #  7     ecut=    70.00 Ry     beta= 0.10
     Davidson diagonalization with overlap
     ethr =  3.82E-05,  avg # of iterations =  6.2

     negative rho (up, down):  3.470E-04 0.000E+00

     Adding external electric field

     Computed dipole along edir(3) : 
        Dipole                0.0100 Ry au,          0.0254 Debye
        Dipole field          0.0002 Ry au, 

        E field amplitude [Ha a.u.]:  1.9447E-03
        Potential amp.        0.0872 Ry
        Total length         25.5113 bohr


     total cpu time spent up to now is      274.5 secs

     total energy              =     -36.88901227 Ry
     estimated scf accuracy    <       0.00073952 Ry

     iteration #  8     ecut=    70.00 Ry     beta= 0.10
     Davidson diagonalization with overlap
     ethr =  9.24E-06,  avg # of iterations =  3.2

     negative rho (up, down):  3.427E-04 0.000E+00

     Adding external electric field

     Computed dipole along edir(3) : 
        Dipole                0.0100 Ry au,          0.0253 Debye
        Dipole field          0.0002 Ry au, 

        E field amplitude [Ha a.u.]:  1.9447E-03
        Potential amp.        0.0873 Ry
        Total length         25.5113 bohr


     total cpu time spent up to now is      295.5 secs

     total energy              =     -36.88918719 Ry
     estimated scf accuracy    <       0.00062684 Ry

     iteration #  9     ecut=    70.00 Ry     beta= 0.10
     Davidson diagonalization with overlap
     ethr =  7.84E-06,  avg # of iterations =  1.0

     negative rho (up, down):  3.349E-04 0.000E+00

     Adding external electric field

     Computed dipole along edir(3) : 
        Dipole                0.0096 Ry au,          0.0245 Debye
        Dipole field          0.0002 Ry au, 

        E field amplitude [Ha a.u.]:  1.9447E-03
        Potential amp.        0.0876 Ry
        Total length         25.5113 bohr


     total cpu time spent up to now is      312.2 secs

     total energy              =     -36.88900294 Ry
     estimated scf accuracy    <       0.00063756 Ry

     iteration # 10     ecut=    70.00 Ry     beta= 0.10
     Davidson diagonalization with overlap
     ethr =  7.84E-06,  avg # of iterations =  1.0

     negative rho (up, down):  3.006E-04 0.000E+00

     Adding external electric field

     Computed dipole along edir(3) : 
        Dipole                0.0108 Ry au,          0.0276 Debye
        Dipole field          0.0003 Ry au, 

        E field amplitude [Ha a.u.]:  1.9447E-03
        Potential amp.        0.0862 Ry
        Total length         25.5113 bohr


     total cpu time spent up to now is      329.7 secs

     total energy              =     -36.88913156 Ry
     estimated scf accuracy    <       0.00032098 Ry

     iteration # 11     ecut=    70.00 Ry     beta= 0.10
     Davidson diagonalization with overlap
     ethr =  4.01E-06,  avg # of iterations =  2.1

     negative rho (up, down):  1.305E-04 0.000E+00

     Adding external electric field

     Computed dipole along edir(3) : 
        Dipole                0.0150 Ry au,          0.0383 Debye
        Dipole field          0.0004 Ry au, 

        E field amplitude [Ha a.u.]:  1.9447E-03
        Potential amp.        0.0811 Ry
        Total length         25.5113 bohr


     total cpu time spent up to now is      347.4 secs

     total energy              =     -36.88903544 Ry
     estimated scf accuracy    <       0.00051072 Ry

     iteration # 12     ecut=    70.00 Ry     beta= 0.10
     Davidson diagonalization with overlap
     ethr =  4.01E-06,  avg # of iterations =  5.2

     negative rho (up, down):  8.703E-05 0.000E+00

     Adding external electric field

     Computed dipole along edir(3) : 
        Dipole                0.0163 Ry au,          0.0415 Debye
        Dipole field          0.0004 Ry au, 

        E field amplitude [Ha a.u.]:  1.9447E-03
        Potential amp.        0.0796 Ry
        Total length         25.5113 bohr


     total cpu time spent up to now is      369.1 secs

     total energy              =     -36.88898680 Ry
     estimated scf accuracy    <       0.00029909 Ry

     iteration # 13     ecut=    70.00 Ry     beta= 0.10
     Davidson diagonalization with overlap
     ethr =  3.74E-06,  avg # of iterations =  1.0

     negative rho (up, down):  5.767E-05 0.000E+00

     Adding external electric field

     Computed dipole along edir(3) : 
        Dipole                0.0147 Ry au,          0.0373 Debye
        Dipole field          0.0003 Ry au, 

        E field amplitude [Ha a.u.]:  1.9447E-03
        Potential amp.        0.0816 Ry
        Total length         25.5113 bohr


     total cpu time spent up to now is      385.6 secs

     total energy              =     -36.88894972 Ry
     estimated scf accuracy    <       0.00019466 Ry

     iteration # 14     ecut=    70.00 Ry     beta= 0.10
     Davidson diagonalization with overlap
     ethr =  2.43E-06,  avg # of iterations =  3.1

     negative rho (up, down):  5.172E-05 0.000E+00

     Adding external electric field

     Computed dipole along edir(3) : 
        Dipole                0.0122 Ry au,          0.0309 Debye
        Dipole field          0.0003 Ry au, 

        E field amplitude [Ha a.u.]:  1.9447E-03
        Potential amp.        0.0846 Ry
        Total length         25.5113 bohr


     total cpu time spent up to now is      405.8 secs

     total energy              =     -36.88889975 Ry
     estimated scf accuracy    <       0.00010423 Ry

     iteration # 15     ecut=    70.00 Ry     beta= 0.10
     Davidson diagonalization with overlap
     ethr =  1.30E-06,  avg # of iterations =  4.1

     negative rho (up, down):  5.072E-05 0.000E+00

     Adding external electric field

     Computed dipole along edir(3) : 
        Dipole                0.0119 Ry au,          0.0302 Debye
        Dipole field          0.0003 Ry au, 

        E field amplitude [Ha a.u.]:  1.9447E-03
        Potential amp.        0.0849 Ry
        Total length         25.5113 bohr


     total cpu time spent up to now is      428.8 secs

     total energy              =     -36.88894250 Ry
     estimated scf accuracy    <       0.00000390 Ry

     iteration # 16     ecut=    70.00 Ry     beta= 0.10
     Davidson diagonalization with overlap
     ethr =  4.87E-08,  avg # of iterations =  4.4

     negative rho (up, down):  4.589E-05 0.000E+00

     Adding external electric field

     Computed dipole along edir(3) : 
        Dipole                0.0110 Ry au,          0.0280 Debye
        Dipole field          0.0003 Ry au, 

        E field amplitude [Ha a.u.]:  1.9447E-03
        Potential amp.        0.0860 Ry
        Total length         25.5113 bohr


     total cpu time spent up to now is      456.6 secs

     total energy              =     -36.88893368 Ry
     estimated scf accuracy    <       0.00003788 Ry

     iteration # 17     ecut=    70.00 Ry     beta= 0.10
     Davidson diagonalization with overlap
     ethr =  4.87E-08,  avg # of iterations =  3.6

     negative rho (up, down):  2.431E-05 0.000E+00

     Adding external electric field

     Computed dipole along edir(3) : 
        Dipole                0.0110 Ry au,          0.0279 Debye
        Dipole field          0.0003 Ry au, 

        E field amplitude [Ha a.u.]:  1.9447E-03
        Potential amp.        0.0860 Ry
        Total length         25.5113 bohr


     total cpu time spent up to now is      477.1 secs

     total energy              =     -36.88893010 Ry
     estimated scf accuracy    <       0.00000924 Ry

     iteration # 18     ecut=    70.00 Ry     beta= 0.10
     Davidson diagonalization with overlap
     ethr =  4.87E-08,  avg # of iterations =  4.1

     negative rho (up, down):  2.014E-05 0.000E+00

     Adding external electric field

     Computed dipole along edir(3) : 
        Dipole                0.0116 Ry au,          0.0295 Debye
        Dipole field          0.0003 Ry au, 

        E field amplitude [Ha a.u.]:  1.9447E-03
        Potential amp.        0.0853 Ry
        Total length         25.5113 bohr


     total cpu time spent up to now is      505.3 secs

     total energy              =     -36.88893469 Ry
     estimated scf accuracy    <       0.00001287 Ry

     iteration # 19     ecut=    70.00 Ry     beta= 0.10
     Davidson diagonalization with overlap
     ethr =  4.87E-08,  avg # of iterations =  1.0

     negative rho (up, down):  2.059E-05 0.000E+00

     Adding external electric field

     Computed dipole along edir(3) : 
        Dipole                0.0115 Ry au,          0.0293 Debye
        Dipole field          0.0003 Ry au, 

        E field amplitude [Ha a.u.]:  1.9447E-03
        Potential amp.        0.0854 Ry
        Total length         25.5113 bohr


     total cpu time spent up to now is      522.2 secs

     total energy              =     -36.88893044 Ry
     estimated scf accuracy    <       0.00000638 Ry

     iteration # 20     ecut=    70.00 Ry     beta= 0.10
     Davidson diagonalization with overlap
     ethr =  4.87E-08,  avg # of iterations =  3.7

     negative rho (up, down):  1.728E-05 0.000E+00

     Adding external electric field

     Computed dipole along edir(3) : 
        Dipole                0.0115 Ry au,          0.0293 Debye
        Dipole field          0.0003 Ry au, 

        E field amplitude [Ha a.u.]:  1.9447E-03
        Potential amp.        0.0854 Ry
        Total length         25.5113 bohr


     total cpu time spent up to now is      547.8 secs

     total energy              =     -36.88893302 Ry
     estimated scf accuracy    <       0.00000379 Ry

     iteration # 21     ecut=    70.00 Ry     beta= 0.10
     Davidson diagonalization with overlap
     ethr =  4.73E-08,  avg # of iterations =  1.0

     negative rho (up, down):  1.583E-05 0.000E+00

     Adding external electric field

     Computed dipole along edir(3) : 
        Dipole                0.0114 Ry au,          0.0291 Debye
        Dipole field          0.0003 Ry au, 

        E field amplitude [Ha a.u.]:  1.9447E-03
        Potential amp.        0.0855 Ry
        Total length         25.5113 bohr


     total cpu time spent up to now is      564.7 secs

     total energy              =     -36.88893318 Ry
     estimated scf accuracy    <       0.00000114 Ry

     iteration # 22     ecut=    70.00 Ry     beta= 0.10
     Davidson diagonalization with overlap
     ethr =  1.42E-08,  avg # of iterations =  1.2

     negative rho (up, down):  1.376E-05 0.000E+00

     Adding external electric field

     Computed dipole along edir(3) : 
        Dipole                0.0114 Ry au,          0.0289 Debye
        Dipole field          0.0003 Ry au, 

        E field amplitude [Ha a.u.]:  1.9447E-03
        Potential amp.        0.0855 Ry
        Total length         25.5113 bohr


     total cpu time spent up to now is      581.7 secs

     total energy              =     -36.88893245 Ry
     estimated scf accuracy    <       0.00000129 Ry

     iteration # 23     ecut=    70.00 Ry     beta= 0.10
     Davidson diagonalization with overlap
     ethr =  1.42E-08,  avg # of iterations =  3.5

     negative rho (up, down):  1.226E-05 0.000E+00

     Adding external electric field

     Computed dipole along edir(3) : 
        Dipole                0.0115 Ry au,          0.0291 Debye
        Dipole field          0.0003 Ry au, 

        E field amplitude [Ha a.u.]:  1.9447E-03
        Potential amp.        0.0855 Ry
        Total length         25.5113 bohr


     total cpu time spent up to now is      605.4 secs

     total energy              =     -36.88893279 Ry
     estimated scf accuracy    <       0.00000003 Ry

     iteration # 24     ecut=    70.00 Ry     beta= 0.10
     Davidson diagonalization with overlap
     ethr =  3.70E-10,  avg # of iterations =  4.9

     negative rho (up, down):  1.141E-05 0.000E+00

     Adding external electric field

     Computed dipole along edir(3) : 
        Dipole                0.0115 Ry au,          0.0291 Debye
        Dipole field          0.0003 Ry au, 

        E field amplitude [Ha a.u.]:  1.9447E-03
        Potential amp.        0.0855 Ry
        Total length         25.5113 bohr


     total cpu time spent up to now is      635.2 secs

     total energy              =     -36.88893295 Ry
     estimated scf accuracy    <       0.00000015 Ry

     iteration # 25     ecut=    70.00 Ry     beta= 0.10
     Davidson diagonalization with overlap
     ethr =  3.70E-10,  avg # of iterations =  3.3

     negative rho (up, down):  1.053E-05 0.000E+00

     Adding external electric field

     Computed dipole along edir(3) : 
        Dipole                0.0115 Ry au,          0.0292 Debye
        Dipole field          0.0003 Ry au, 

        E field amplitude [Ha a.u.]:  1.9447E-03
        Potential amp.        0.0854 Ry
        Total length         25.5113 bohr


     total cpu time spent up to now is      655.2 secs

     total energy              =     -36.88893295 Ry
     estimated scf accuracy    <       0.00000002 Ry

     iteration # 26     ecut=    70.00 Ry     beta= 0.10
     Davidson diagonalization with overlap
     ethr =  2.60E-10,  avg # of iterations =  3.2

     negative rho (up, down):  7.070E-06 0.000E+00

     Adding external electric field

     Computed dipole along edir(3) : 
        Dipole                0.0114 Ry au,          0.0290 Debye
        Dipole field          0.0003 Ry au, 

        E field amplitude [Ha a.u.]:  1.9447E-03
        Potential amp.        0.0855 Ry
        Total length         25.5113 bohr


     total cpu time spent up to now is      676.7 secs

     End of self-consistent calculation

          k = 0.0000 0.0000 0.0000 (  5307 PWs)   bands (ev):

   -21.1090 -21.1090  -9.2044  -9.2044  -4.6588  -4.6588  -4.6496  -4.6496
     1.5825   1.5825   2.5326   2.5326   2.6341   2.6341   4.7351   4.7351

          k = 0.0000 0.0962 0.0000 (  5285 PWs)   bands (ev):

   -20.9452 -20.9452  -9.0088  -9.0088  -5.3041  -5.3041  -4.9915  -4.9915
     1.8059   1.8059   2.7570   2.7570   2.8606   2.8606   4.9583   4.9583

          k = 0.0000 0.1925 0.0000 (  5253 PWs)   bands (ev):

   -20.4558 -20.4558  -8.4272  -8.4272  -6.9397  -6.9397  -5.7815  -5.7815
     2.4762   2.4762   3.4291   3.4292   3.5398   3.5399   5.6249   5.6249

          k = 0.0000 0.2887 0.0000 (  5269 PWs)   bands (ev):

   -19.6464 -19.6464  -9.0354  -9.0354  -7.4788  -7.4788  -6.6588  -6.6588
     3.5909   3.5909   4.5336   4.5337   4.6673   4.6674   5.6487   5.6488

          k = 0.0000 0.3849 0.0000 (  5285 PWs)   bands (ev):

   -18.5292 -18.5292 -11.2359 -11.2359  -7.3902  -7.3902  -6.2137  -6.2137
     3.3059   3.3059   5.1414   5.1415   6.0448   6.0455   6.1627   6.1634

          k = 0.0000 0.4811 0.0000 (  5290 PWs)   bands (ev):

   -17.1357 -17.1357 -13.3330 -13.3330  -7.8618  -7.8618  -4.7948  -4.7948
     1.1761   1.1761   5.8361   5.8361   7.1519   7.1520   8.1195   8.1198

          k = 0.0000-0.5774 0.0000 (  5288 PWs)   bands (ev):

   -15.8778 -15.8778 -14.8332 -14.8332  -8.0237  -8.0237  -3.9526  -3.9526
     0.0812   0.0812   5.7567   5.7567   9.4682   9.4682   9.6052   9.6054

          k = 0.0833 0.0481 0.0000 (  5285 PWs)   bands (ev):

   -20.9452 -20.9452  -9.0088  -9.0088  -5.3041  -5.3041  -4.9915  -4.9915
     1.8059   1.8059   2.7570   2.7570   2.8606   2.8606   4.9583   4.9583

          k = 0.0833 0.1443 0.0000 (  5269 PWs)   bands (ev):

   -20.6186 -20.6186  -8.6201  -8.6201  -6.3367  -6.3367  -5.6670  -5.6670
     2.2530   2.2530   3.2054   3.2055   3.3136   3.3136   5.4037   5.4037

          k = 0.0833 0.2406 0.0000 (  5261 PWs)   bands (ev):

   -19.9692 -19.9692  -8.0444  -8.0444  -7.8539  -7.8539  -6.6624  -6.6624
     3.1463   3.1463   4.0992   4.0994   4.2187   4.2188   6.2719   6.2720

          k = 0.0833 0.3368 0.0000 (  5275 PWs)   bands (ev):

   -19.0057 -19.0057 -10.1147 -10.1147  -7.5466  -7.5466  -6.7407  -6.7407
     4.3122   4.3123   4.4864   4.4865   5.4544   5.4546   5.5796   5.5797

          k = 0.0833 0.4330 0.0000 (  5284 PWs)   bands (ev):

   -17.7472 -17.7472 -12.2347 -12.2347  -8.1799  -8.1799  -5.3647  -5.3647
     2.1206   2.1206   6.2354   6.2356   6.6833   6.6835   7.2246   7.2254

          k = 0.0833 0.5292 0.0000 (  5302 PWs)   bands (ev):

   -16.2711 -16.2711 -14.1722 -14.1722  -8.5076  -8.5076  -4.0589  -4.0589
     0.3565   0.3565   6.4947   6.4947   8.4534   8.4535   9.3753   9.3756

          k = 0.0833-0.5292 0.0000 (  5302 PWs)   bands (ev):

   -16.2711 -16.2711 -14.1722 -14.1722  -8.5076  -8.5075  -4.0589  -4.0589
     0.3565   0.3565   6.4947   6.4947   8.4534   8.4535   9.3752   9.3755

          k = 0.0833-0.4330 0.0000 (  5284 PWs)   bands (ev):

   -17.7472 -17.7472 -12.2347 -12.2347  -8.1799  -8.1799  -5.3647  -5.3647
     2.1206   2.1206   6.2354   6.2356   6.6833   6.6835   7.2240   7.2241

          k = 0.0833-0.3368 0.0000 (  5275 PWs)   bands (ev):

   -19.0057 -19.0057 -10.1147 -10.1147  -7.5466  -7.5466  -6.7407  -6.7407
     4.3122   4.3122   4.4864   4.4865   5.4544   5.4546   5.5796   5.5797

          k = 0.0833-0.2406 0.0000 (  5261 PWs)   bands (ev):

   -19.9692 -19.9692  -8.0444  -8.0444  -7.8539  -7.8539  -6.6624  -6.6624
     3.1463   3.1463   4.0992   4.0994   4.2187   4.2188   6.2721   6.2722

          k = 0.0833-0.1443 0.0000 (  5269 PWs)   bands (ev):

   -20.6186 -20.6186  -8.6201  -8.6201  -6.3367  -6.3367  -5.6670  -5.6670
     2.2530   2.2530   3.2054   3.2055   3.3136   3.3136   5.4037   5.4037

          k = 0.0833-0.0481 0.0000 (  5285 PWs)   bands (ev):

   -20.9452 -20.9452  -9.0088  -9.0088  -5.3041  -5.3041  -4.9915  -4.9915
     1.8059   1.8059   2.7570   2.7570   2.8606   2.8606   4.9583   4.9583

          k = 0.1667 0.0962 0.0000 (  5253 PWs)   bands (ev):

   -20.4558 -20.4558  -8.4272  -8.4272  -6.9397  -6.9397  -5.7816  -5.7816
     2.4762   2.4762   3.4291   3.4292   3.5398   3.5399   5.6249   5.6249

          k = 0.1667 0.1925 0.0000 (  5261 PWs)   bands (ev):

   -19.9692 -19.9692  -8.0444  -8.0444  -7.8539  -7.8539  -6.6625  -6.6625
     3.1463   3.1463   4.0992   4.0994   4.2187   4.2188   6.2720   6.2720

          k = 0.1667 0.2887 0.0000 (  5288 PWs)   bands (ev):

   -19.1657 -19.1657  -9.3739  -9.3739  -8.0212  -8.0212  -6.9190  -6.9190
     4.2609   4.2610   4.7706   4.7707   5.2110   5.2112   5.3493   5.3494

          k = 0.1667 0.3849 0.0000 (  5285 PWs)   bands (ev):

   -18.0593 -18.0593 -11.0990 -11.0990  -9.0757  -9.0757  -5.6692  -5.6692
     2.8274   2.8274   5.8127   5.8128   6.7458   6.7460   6.9284   6.9285

          k = 0.1667 0.4811 0.0000 (  5283 PWs)   bands (ev):

   -16.6857 -16.6857 -13.0065 -13.0065  -9.6510  -9.6510  -4.2461  -4.2461
     0.9199   0.9199   7.7753   7.7755   8.3988   8.3991   8.6316   8.6320

          k = 0.1667 0.5774 0.0000 (  5264 PWs)   bands (ev):

   -15.4565 -15.4565 -14.4358 -14.4358  -9.8356  -9.8356  -3.3559  -3.3559
    -0.1454  -0.1454   8.3015   8.3016   9.9634   9.9635  10.0363  10.0364

          k = 0.1667-0.4811 0.0000 (  5283 PWs)   bands (ev):

   -16.6857 -16.6857 -13.0065 -13.0065  -9.6509  -9.6509  -4.2461  -4.2461
     0.9199   0.9199   7.7753   7.7755   8.3988   8.3992   8.6316   8.6319

          k = 0.1667-0.3849 0.0000 (  5285 PWs)   bands (ev):

   -18.0593 -18.0593 -11.0990 -11.0990  -9.0757  -9.0756  -5.6692  -5.6691
     2.8274   2.8274   5.8127   5.8128   6.7458   6.7460   6.9284   6.9285

          k = 0.1667-0.2887 0.0000 (  5288 PWs)   bands (ev):

   -19.1657 -19.1657  -9.3740  -9.3740  -8.0211  -8.0211  -6.9190  -6.9190
     4.2609   4.2610   4.7706   4.7707   5.2110   5.2112   5.3493   5.3494

          k = 0.1667-0.1925 0.0000 (  5261 PWs)   bands (ev):

   -19.9692 -19.9692  -8.0444  -8.0444  -7.8539  -7.8539  -6.6624  -6.6624
     3.1463   3.1463   4.0992   4.0994   4.2187   4.2188   6.2722   6.2722

          k = 0.1667-0.0962 0.0000 (  5253 PWs)   bands (ev):

   -20.4558 -20.4558  -8.4272  -8.4272  -6.9397  -6.9397  -5.7816  -5.7816
     2.4762   2.4762   3.4291   3.4292   3.5398   3.5399   5.6249   5.6249

          k = 0.1667-0.0000 0.0000 (  5269 PWs)   bands (ev):

   -20.6186 -20.6186  -8.6201  -8.6201  -6.3367  -6.3367  -5.6670  -5.6670
     2.2530   2.2530   3.2054   3.2055   3.3136   3.3136   5.4037   5.4037

          k = 0.2500 0.1443 0.0000 (  5269 PWs)   bands (ev):

   -19.6464 -19.6464  -9.0354  -9.0354  -7.4788  -7.4788  -6.6588  -6.6588
     3.5909   3.5909   4.5336   4.5337   4.6673   4.6674   5.6487   5.6489

          k = 0.2500 0.2406 0.0000 (  5275 PWs)   bands (ev):

   -19.0057 -19.0057 -10.1147 -10.1147  -7.5466  -7.5466  -6.7407  -6.7407
     4.3122   4.3123   4.4864   4.4865   5.4544   5.4546   5.5796   5.5797

          k = 0.2500 0.3368 0.0000 (  5285 PWs)   bands (ev):

   -18.0593 -18.0593 -11.0990 -11.0990  -9.0757  -9.0757  -5.6692  -5.6692
     2.8274   2.8274   5.8127   5.8128   6.7458   6.7460   6.9284   6.9285

          k = 0.2500 0.4330 0.0000 (  5268 PWs)   bands (ev):

   -16.8330 -16.8330 -12.1350 -12.1350 -10.5550 -10.5550  -4.3299  -4.3299
     1.2165   1.2165   7.5626   7.5628   8.3401   8.3404   8.7224   8.7225

          k = 0.2500 0.5292 0.0000 (  5282 PWs)   bands (ev):

   -15.4137 -15.4137 -13.5532 -13.5532 -11.2619 -11.2619  -2.9478  -2.9478
    -0.3000  -0.3000   9.2556   9.2557   9.6951   9.6953  10.5647  10.5648

          k = 0.2500 0.6255 0.0000 (  5282 PWs)   bands (ev):

   -15.4137 -15.4137 -13.5533 -13.5532 -11.2619 -11.2619  -2.9478  -2.9478
    -0.3000  -0.3000   9.2556   9.2557   9.6951   9.6953  10.5647  10.5648

          k = 0.2500-0.4330 0.0000 (  5268 PWs)   bands (ev):

   -16.8330 -16.8330 -12.1350 -12.1350 -10.5550 -10.5550  -4.3299  -4.3299
     1.2165   1.2165   7.5626   7.5628   8.3401   8.3404   8.7224   8.7225

          k = 0.2500-0.3368 0.0000 (  5285 PWs)   bands (ev):

   -18.0593 -18.0593 -11.0990 -11.0990  -9.0757  -9.0757  -5.6692  -5.6691
     2.8274   2.8274   5.8127   5.8128   6.7458   6.7460   6.9284   6.9285

          k = 0.2500-0.2406 0.0000 (  5275 PWs)   bands (ev):

   -19.0057 -19.0057 -10.1147 -10.1147  -7.5466  -7.5466  -6.7407  -6.7407
     4.3122   4.3123   4.4864   4.4865   5.4544   5.4546   5.5796   5.5797

          k = 0.2500-0.1443 0.0000 (  5269 PWs)   bands (ev):

   -19.6464 -19.6464  -9.0354  -9.0354  -7.4788  -7.4788  -6.6588  -6.6588
     3.5909   3.5909   4.5336   4.5337   4.6673   4.6674   5.6488   5.6489

          k = 0.2500-0.0481 0.0000 (  5261 PWs)   bands (ev):

   -19.9692 -19.9692  -8.0444  -8.0444  -7.8539  -7.8539  -6.6625  -6.6625
     3.1463   3.1463   4.0992   4.0994   4.2187   4.2188   6.2721   6.2723

          k = 0.2500 0.0481 0.0000 (  5261 PWs)   bands (ev):

   -19.9692 -19.9692  -8.0444  -8.0444  -7.8539  -7.8539  -6.6625  -6.6625
     3.1463   3.1463   4.0992   4.0994   4.2187   4.2188   6.2719   6.2719

          k = 0.3333 0.1925 0.0000 (  5285 PWs)   bands (ev):

   -18.5292 -18.5292 -11.2359 -11.2359  -7.3902  -7.3902  -6.2137  -6.2137
     3.3059   3.3059   5.1414   5.1415   6.0458   6.0465   6.1630   6.1638

          k = 0.3333 0.2887 0.0000 (  5284 PWs)   bands (ev):

   -17.7472 -17.7472 -12.2346 -12.2346  -8.1799  -8.1799  -5.3647  -5.3647
     2.1206   2.1206   6.2354   6.2356   6.6833   6.6834   7.2241   7.2252

          k = 0.3333 0.3849 0.0000 (  5283 PWs)   bands (ev):

   -16.6857 -16.6857 -13.0065 -13.0065  -9.6510  -9.6510  -4.2461  -4.2461
     0.9199   0.9199   7.7753   7.7755   8.3987   8.3991   8.6316   8.6320

          k = 0.3333 0.4811 0.0000 (  5282 PWs)   bands (ev):

   -15.4137 -15.4137 -13.5532 -13.5532 -11.2619 -11.2619  -2.9478  -2.9478
    -0.3000  -0.3000   9.2556   9.2557   9.6951   9.6953  10.5647  10.5648

          k = 0.3333 0.5774 0.0000 (  5292 PWs)   bands (ev):

   -14.2000 -14.2000 -14.1979 -14.1979 -12.1522 -12.1522  -1.5951  -1.5951
    -1.5951  -1.5951   9.0068   9.0068  11.2592  11.2594  11.2633  11.2633

          k = 0.3333 0.6736 0.0000 (  5282 PWs)   bands (ev):

   -15.4137 -15.4137 -13.5532 -13.5532 -11.2619 -11.2619  -2.9478  -2.9478
    -0.3000  -0.3000   9.2556   9.2557   9.6951   9.6953  10.5647  10.5648

          k = 0.3333-0.3849 0.0000 (  5283 PWs)   bands (ev):

   -16.6857 -16.6857 -13.0065 -13.0065  -9.6510  -9.6510  -4.2461  -4.2461
     0.9199   0.9199   7.7753   7.7755   8.3987   8.3991   8.6316   8.6320

          k = 0.3333-0.2887 0.0000 (  5284 PWs)   bands (ev):

   -17.7472 -17.7472 -12.2347 -12.2347  -8.1799  -8.1799  -5.3647  -5.3647
     2.1206   2.1206   6.2354   6.2356   6.6833   6.6834   7.2240   7.2241

          k = 0.3333-0.1925 0.0000 (  5285 PWs)   bands (ev):

   -18.5292 -18.5292 -11.2359 -11.2359  -7.3902  -7.3902  -6.2137  -6.2137
     3.3059   3.3059   5.1414   5.1415   6.0459   6.0465   6.1631   6.1638

          k = 0.3333-0.0962 0.0000 (  5275 PWs)   bands (ev):

   -19.0057 -19.0057 -10.1147 -10.1147  -7.5466  -7.5466  -6.7407  -6.7407
     4.3122   4.3123   4.4864   4.4865   5.4544   5.4546   5.5796   5.5797

          k = 0.3333 0.0000 0.0000 (  5288 PWs)   bands (ev):

   -19.1657 -19.1657  -9.3739  -9.3739  -8.0212  -8.0212  -6.9190  -6.9190
     4.2609   4.2610   4.7706   4.7707   5.2110   5.2112   5.3493   5.3494

          k = 0.3333 0.0962 0.0000 (  5275 PWs)   bands (ev):

   -19.0057 -19.0057 -10.1147 -10.1147  -7.5466  -7.5466  -6.7407  -6.7407
     4.3122   4.3123   4.4864   4.4865   5.4544   5.4546   5.5796   5.5797

          k = 0.4167 0.2406 0.0000 (  5290 PWs)   bands (ev):

   -17.1357 -17.1357 -13.3330 -13.3329  -7.8618  -7.8618  -4.7948  -4.7948
     1.1761   1.1761   5.8361   5.8361   7.1519   7.1520   8.1177   8.1178

          k = 0.4167 0.3368 0.0000 (  5302 PWs)   bands (ev):

   -16.2711 -16.2711 -14.1722 -14.1722  -8.5076  -8.5076  -4.0589  -4.0589
     0.3565   0.3565   6.4946   6.4946   8.4534   8.4535   9.3753   9.3756

          k = 0.4167 0.4330 0.0000 (  5264 PWs)   bands (ev):

   -15.4566 -15.4566 -14.4358 -14.4357  -9.8356  -9.8356  -3.3559  -3.3559
    -0.1454  -0.1454   8.3015   8.3015   9.9634   9.9635  10.0363  10.0364

          k = 0.4167 0.5292 0.0000 (  5282 PWs)   bands (ev):

   -15.4137 -15.4137 -13.5532 -13.5532 -11.2619 -11.2619  -2.9478  -2.9478
    -0.3000  -0.3000   9.2556   9.2557   9.6951   9.6953  10.5647  10.5648

          k = 0.4167 0.6255 0.0000 (  5282 PWs)   bands (ev):

   -15.4137 -15.4137 -13.5532 -13.5532 -11.2619 -11.2619  -2.9478  -2.9478
    -0.3000  -0.3000   9.2556   9.2557   9.6951   9.6953  10.5647  10.5648

          k = 0.4167 0.7217 0.0000 (  5264 PWs)   bands (ev):

   -15.4566 -15.4566 -14.4358 -14.4358  -9.8356  -9.8356  -3.3559  -3.3559
    -0.1454  -0.1454   8.3015   8.3015   9.9634   9.9635  10.0363  10.0364

          k = 0.4167-0.3368 0.0000 (  5302 PWs)   bands (ev):

   -16.2711 -16.2711 -14.1722 -14.1722  -8.5076  -8.5076  -4.0589  -4.0589
     0.3565   0.3565   6.4947   6.4947   8.4534   8.4535   9.3753   9.3756

          k = 0.4167-0.2406 0.0000 (  5290 PWs)   bands (ev):

   -17.1357 -17.1357 -13.3330 -13.3330  -7.8618  -7.8618  -4.7948  -4.7948
     1.1761   1.1761   5.8361   5.8361   7.1519   7.1520   8.1177   8.1198

          k = 0.4167-0.1443 0.0000 (  5284 PWs)   bands (ev):

   -17.7472 -17.7472 -12.2347 -12.2346  -8.1799  -8.1799  -5.3647  -5.3647
     2.1206   2.1206   6.2354   6.2356   6.6833   6.6834   7.2238   7.2240

          k = 0.4167-0.0481 0.0000 (  5285 PWs)   bands (ev):

   -18.0593 -18.0593 -11.0990 -11.0990  -9.0757  -9.0757  -5.6692  -5.6692
     2.8274   2.8274   5.8127   5.8128   6.7458   6.7460   6.9284   6.9285

          k = 0.4167 0.0481 0.0000 (  5285 PWs)   bands (ev):

   -18.0593 -18.0593 -11.0990 -11.0989  -9.0757  -9.0757  -5.6692  -5.6692
     2.8274   2.8274   5.8127   5.8128   6.7458   6.7460   6.9284   6.9285

          k = 0.4167 0.1443 0.0000 (  5284 PWs)   bands (ev):

   -17.7472 -17.7472 -12.2346 -12.2346  -8.1799  -8.1799  -5.3647  -5.3647
     2.1206   2.1206   6.2354   6.2356   6.6833   6.6834   7.2240   7.2241

          k =-0.5000-0.2887 0.0000 (  5288 PWs)   bands (ev):

   -15.8779 -15.8779 -14.8331 -14.8331  -8.0237  -8.0237  -3.9526  -3.9526
     0.0813   0.0813   5.7566   5.7566   9.4682   9.4682   9.6053   9.6054

          k =-0.5000-0.1925 0.0000 (  5302 PWs)   bands (ev):

   -16.2711 -16.2711 -14.1722 -14.1722  -8.5076  -8.5076  -4.0589  -4.0589
     0.3565   0.3565   6.4946   6.4946   8.4534   8.4535   9.3754   9.3756

          k =-0.5000-0.0962 0.0000 (  5283 PWs)   bands (ev):

   -16.6857 -16.6857 -13.0065 -13.0065  -9.6510  -9.6510  -4.2461  -4.2461
     0.9199   0.9199   7.7753   7.7755   8.3987   8.3991   8.6316   8.6320

          k =-0.5000 0.0000 0.0000 (  5268 PWs)   bands (ev):

   -16.8330 -16.8330 -12.1349 -12.1349 -10.5550 -10.5550  -4.3299  -4.3299
     1.2165   1.2165   7.5626   7.5628   8.3401   8.3404   8.7224   8.7225

          k =-0.5000 0.0962 0.0000 (  5283 PWs)   bands (ev):

   -16.6857 -16.6857 -13.0065 -13.0065  -9.6510  -9.6510  -4.2461  -4.2461
     0.9199   0.9199   7.7753   7.7755   8.3988   8.3991   8.6316   8.6320

          k =-0.5000 0.1925 0.0000 (  5302 PWs)   bands (ev):

   -16.2711 -16.2711 -14.1722 -14.1722  -8.5076  -8.5076  -4.0589  -4.0589
     0.3565   0.3565   6.4947   6.4947   8.4534   8.4535   9.3752   9.3754

          k =-0.5000-0.8660 0.0000 (  5288 PWs)   bands (ev):

   -15.8779 -15.8779 -14.8332 -14.8332  -8.0237  -8.0237  -3.9526  -3.9526
     0.0813   0.0813   5.7566   5.7566   9.4682   9.4682   9.6053   9.6053

     the Fermi energy is  -1.595115 ev

!    total energy              =     -36.88893299 Ry
     total all-electron energy =      -152.417223 Ry
     estimated scf accuracy    <          7.2E-09 Ry
     smearing contrib. (-TS)   =      -0.00003134 Ry
     internal energy E=F+TS    =     -36.88890165 Ry

     The total energy is F=E-TS. E is the sum of the following terms:
     one-electron contribution =    -156.62320135 Ry
     hartree contribution      =      79.91836404 Ry
     xc contribution           =      -8.28624048 Ry
     ewald contribution        =      61.40972547 Ry
     electric field correction =      -0.00004127 Ry
     one-center paw contrib.   =     -13.30750805 Ry

     convergence has been achieved in  26 iterations

     negative rho (up, down):  7.070E-06 0.000E+00

     Forces acting on atoms (cartesian axes, Ry/au):

     atom    1 type  1   force =     0.00000428    0.00000595    0.00000012
     atom    2 type  1   force =    -0.00000428   -0.00000595   -0.00000012

     Total force =     0.000010     Total SCF correction =     0.000113
     SCF correction compared to forces is large: reduce conv_thr to get better values

     Writing all to output data dir ./tmp/graphene.save/ :
     XML data file, charge density, pseudopotentials, collected wavefunctions

     init_run     :      9.10s CPU      9.33s WALL (       1 calls)
     electrons    :    660.88s CPU    667.15s WALL (       1 calls)
     forces       :      2.54s CPU      2.64s WALL (       1 calls)

     Called by init_run:
     wfcinit      :      7.51s CPU      7.58s WALL (       1 calls)
     potinit      :      0.56s CPU      0.59s WALL (       1 calls)
     hinit0       :      0.75s CPU      0.78s WALL (       1 calls)

     Called by electrons:
     c_bands      :    584.30s CPU    586.04s WALL (      26 calls)
     sum_band     :     64.86s CPU     67.28s WALL (      26 calls)
     v_of_rho     :      2.65s CPU      2.69s WALL (      27 calls)
     newd         :      5.74s CPU      7.89s WALL (      27 calls)
     PAW_pot      :      1.50s CPU      1.51s WALL (      27 calls)
     mix_rho      :      1.57s CPU      1.58s WALL (      26 calls)

     Called by c_bands:
     init_us_2    :      3.30s CPU      3.32s WALL (    3996 calls)
     cegterg      :    571.16s CPU    572.86s WALL (    1924 calls)

     Called by *egterg:
     cdiaghg      :      6.40s CPU      6.42s WALL (    8759 calls)
     h_psi        :    353.53s CPU    354.59s WALL (    8833 calls)
     s_psi        :     37.55s CPU     37.61s WALL (    8833 calls)
     g_psi        :      1.73s CPU      1.73s WALL (    6835 calls)

     Called by h_psi:
     h_psi:calbec :     37.15s CPU     37.18s WALL (    8833 calls)
     vloc_psi     :    277.31s CPU    277.97s WALL (    8833 calls)
     add_vuspsi   :     37.69s CPU     37.71s WALL (    8833 calls)

     General routines
     calbec       :     51.47s CPU     51.52s WALL (   11053 calls)
     fft          :      2.40s CPU      2.41s WALL (     672 calls)
     ffts         :      0.43s CPU      0.43s WALL (     212 calls)
     fftw         :    168.63s CPU    168.97s WALL (  420068 calls)
     interpolate  :      0.75s CPU      0.75s WALL (     108 calls)


     PWSCF        :  11m12.77s CPU  11m19.52s WALL


   This run was terminated on:  17:31:24  31Oct2025            

=------------------------------------------------------------------------------=
   JOB DONE.
=------------------------------------------------------------------------------=
