
     Program PWSCF v.7.4.1 starts on  5Jan2026 at 22:11:51 

     This program is part of the open-source Quantum ESPRESSO suite
     for quantum simulation of materials; please cite
         "P. Giannozzi et al., J. Phys.:Condens. Matter 21 395502 (2009);
         "P. Giannozzi et al., J. Phys.:Condens. Matter 29 465901 (2017);
         "P. Giannozzi et al., J. Chem. Phys. 152 154105 (2020);
          URL http://www.quantum-espresso.org", 
     in publications or presentations arising from this work. More details at
     http://www.quantum-espresso.org/quote

     Parallel version (MPI), running on    20 processors

     MPI processes distributed on     1 nodes
     32627 MiB available memory on the printing compute node when the environment starts
 
     Reading input from 10-zgnr_scf.in

     Current dimensions of program PWSCF are:
     Max number of different atomic species (ntypx) = 10
     Max number of k-points (npk) =  40000
     Max angular momentum in pseudopotentials (lmaxx) =  4
     file C.pbe-n-kjpaw_psl.1.0.0.UPF: wavefunction(s)  2S 2P renormalized
     file H.pbe-kjpaw_psl.1.0.0.UPF: wavefunction(s)  1S renormalized
 
     R & G space division:  proc/nbgrp/npool/nimage =      20
     Subspace diagonalization in iterative solution of the eigenvalue problem:
     a serial algorithm will be used

 
     Parallelization info
     --------------------
     sticks:   dense  smooth     PW     G-vecs:    dense   smooth      PW
     Min        1286     516    149               410790   103978   16385
     Max        1287     517    150               410798   103985   16392
     Sum       25725   10323   2997              8215887  2079633  327787
 
     Using Slab Decomposition
 


     bravais-lattice index     =            0
     lattice parameter (alat)  =       4.6761  a.u.
     unit-cell volume          =   26265.3894 (a.u.)^3
     number of atoms/cell      =           22
     number of atomic types    =            2
     number of electrons       =        82.00
     number of Kohn-Sham states=           49
     kinetic-energy cutoff     =      70.0000  Ry
     charge density cutoff     =     700.0000  Ry
     scf convergence threshold =      1.0E-06
     mixing beta               =       0.5000
     number of iterations used =            8  plain     mixing
     Exchange-correlation= SLA  PW   PBX  PBC
                           (   1   4   3   4   0   0   0)

     celldm(1)=   4.676134  celldm(2)=   0.000000  celldm(3)=   0.000000
     celldm(4)=   0.000000  celldm(5)=   0.000000  celldm(6)=   0.000000

     crystal axes: (cart. coord. in units of alat)
               a(1) = (   0.000000   0.000000   1.000000 )  
               a(2) = (  21.125812   0.000000   0.000000 )  
               a(3) = (   0.000000  12.159330   0.000000 )  

     reciprocal axes: (cart. coord. in units 2 pi/alat)
               b(1) = (  0.000000  0.000000  1.000000 )  
               b(2) = (  0.047335  0.000000  0.000000 )  
               b(3) = (  0.000000  0.082241  0.000000 )  


     PseudoPot. # 1 for C  read from file:
     ../../../PP_C/C.pbe-n-kjpaw_psl.1.0.0.UPF
     MD5 check sum: 5f16ad9a65e90284d1d834d4ab3b0f7d
     Pseudo is Projector augmented-wave + core cor, Zval =  4.0
     Generated using &quot;atomic&quot; code by A. Dal Corso  v.6.3
     Shape of augmentation charge: PSQ
     Using radial grid of 1073 points,  4 beta functions with: 
                l(1) =   0
                l(2) =   0
                l(3) =   1
                l(4) =   1
     Q(r) pseudized with 0 coefficients 


     PseudoPot. # 2 for H  read from file:
     ../../../PP_C/H.pbe-kjpaw_psl.1.0.0.UPF
     MD5 check sum: d81a744832360e4a8af0b0b5b123bc2a
     Pseudo is Projector augmented-wave, Zval =  1.0
     Generated using &quot;atomic&quot; code by A. Dal Corso  v.6.3MaX
     Shape of augmentation charge: PSQ
     Using radial grid of  929 points,  2 beta functions with: 
                l(1) =   0
                l(2) =   0
     Q(r) pseudized with 0 coefficients 


     atomic species   valence    mass     pseudopotential
     C                 4.00    12.01100     C ( 1.00)
     H                 1.00     1.00790     H ( 1.00)

     No symmetry found


                                    s                        frac. trans.

      isym =  1     identity                                     

 cryst.   s( 1) = (     1          0          0      )
                  (     0          1          0      )
                  (     0          0          1      )

 cart.    s( 1) = (  1.0000000  0.0000000  0.0000000 )
                  (  0.0000000  1.0000000  0.0000000 )
                  (  0.0000000  0.0000000  1.0000000 )


   Cartesian axes

     site n.     atom                  positions (alat units)
         1        C      tau(   1) = (   6.5023148   6.0618223   0.0000000  )
         2        C      tau(   2) = (   6.7901427   6.0618223   0.4985326  )
         3        C      tau(   3) = (   7.3657985   6.0618223   0.4985326  )
         4        C      tau(   4) = (   7.6536264   6.0618223   0.0000000  )
         5        C      tau(   5) = (   8.2292823   6.0618223   0.0000000  )
         6        C      tau(   6) = (   8.5171102   6.0618223   0.4985326  )
         7        C      tau(   7) = (   9.0927660   6.0618223   0.4985326  )
         8        C      tau(   8) = (   9.3805939   6.0618223   0.0000000  )
         9        C      tau(   9) = (   9.9562498   6.0618223   0.0000000  )
        10        C      tau(  10) = (  10.2440777   6.0618223   0.4985326  )
        11        C      tau(  11) = (  10.8197335   6.0618223   0.4985326  )
        12        C      tau(  12) = (  11.1075614   6.0618223   0.0000000  )
        13        C      tau(  13) = (  11.6832173   6.0618223   0.0000000  )
        14        C      tau(  14) = (  11.9710452   6.0618223   0.4985326  )
        15        C      tau(  15) = (  12.5467010   6.0618223   0.4985326  )
        16        C      tau(  16) = (  12.8345289   6.0618223   0.0000000  )
        17        C      tau(  17) = (  13.4101848   6.0618223   0.0000000  )
        18        C      tau(  18) = (  13.6980127   6.0618223   0.4985326  )
        19        C      tau(  19) = (  14.2736685   6.0618223   0.4985326  )
        20        C      tau(  20) = (  14.5614964   6.0618223   0.0000000  )
        21        H      tau(  21) = (   6.0618223   6.0618223   0.0000000  )
        22        H      tau(  22) = (  15.0019889   6.0618223   0.0000000  )

   Crystallographic axes

     site n.     atom                  positions (cryst. coord.)
         1        C      tau(   1) = (  0.0000000  0.3077900  0.4985326  )
         2        C      tau(   2) = (  0.4985326  0.3214145  0.4985326  )
         3        C      tau(   3) = (  0.4985326  0.3486634  0.4985326  )
         4        C      tau(   4) = (  0.0000000  0.3622879  0.4985326  )
         5        C      tau(   5) = (  0.0000000  0.3895368  0.4985326  )
         6        C      tau(   6) = (  0.4985326  0.4031613  0.4985326  )
         7        C      tau(   7) = (  0.4985326  0.4304102  0.4985326  )
         8        C      tau(   8) = (  0.0000000  0.4440347  0.4985326  )
         9        C      tau(   9) = (  0.0000000  0.4712836  0.4985326  )
        10        C      tau(  10) = (  0.4985326  0.4849081  0.4985326  )
        11        C      tau(  11) = (  0.4985326  0.5121570  0.4985326  )
        12        C      tau(  12) = (  0.0000000  0.5257815  0.4985326  )
        13        C      tau(  13) = (  0.0000000  0.5530304  0.4985326  )
        14        C      tau(  14) = (  0.4985326  0.5666549  0.4985326  )
        15        C      tau(  15) = (  0.4985326  0.5939038  0.4985326  )
        16        C      tau(  16) = (  0.0000000  0.6075283  0.4985326  )
        17        C      tau(  17) = (  0.0000000  0.6347772  0.4985326  )
        18        C      tau(  18) = (  0.4985326  0.6484017  0.4985326  )
        19        C      tau(  19) = (  0.4985326  0.6756506  0.4985326  )
        20        C      tau(  20) = (  0.0000000  0.6892751  0.4985326  )
        21        H      tau(  21) = (  0.0000000  0.2869391  0.4985326  )
        22        H      tau(  22) = (  0.0000000  0.7101260  0.4985326  )

     number of k points=     7  Gaussian smearing, width (Ry)=  0.0020
                       cart. coord. in units 2pi/alat
        k(    1) = (   0.0000000   0.0000000   0.0000000), wk =   0.1666667
        k(    2) = (   0.0000000   0.0000000   0.0833333), wk =   0.3333333
        k(    3) = (   0.0000000   0.0000000   0.1666667), wk =   0.3333333
        k(    4) = (   0.0000000   0.0000000   0.2500000), wk =   0.3333333
        k(    5) = (   0.0000000   0.0000000   0.3333333), wk =   0.3333333
        k(    6) = (   0.0000000   0.0000000   0.4166667), wk =   0.3333333
        k(    7) = (   0.0000000   0.0000000  -0.5000000), wk =   0.1666667

                       cryst. coord.
        k(    1) = (   0.0000000   0.0000000   0.0000000), wk =   0.1666667
        k(    2) = (   0.0833333   0.0000000   0.0000000), wk =   0.3333333
        k(    3) = (   0.1666667   0.0000000   0.0000000), wk =   0.3333333
        k(    4) = (   0.2500000   0.0000000   0.0000000), wk =   0.3333333
        k(    5) = (   0.3333333   0.0000000   0.0000000), wk =   0.3333333
        k(    6) = (   0.4166667   0.0000000   0.0000000), wk =   0.3333333
        k(    7) = (  -0.5000000   0.0000000   0.0000000), wk =   0.1666667

     Dense  grid:  8215887 G-vectors     FFT dimensions: (  40, 864, 480)

     Smooth grid:  2079633 G-vectors     FFT dimensions: (  25, 540, 320)

     Dynamical RAM for                 wfc:       9.71 MB

     Dynamical RAM for     wfc (w. buffer):      77.69 MB

     Dynamical RAM for           str. fact:      12.54 MB

     Dynamical RAM for           local pot:       0.00 MB

     Dynamical RAM for          nlocal pot:      32.50 MB

     Dynamical RAM for                qrad:       1.21 MB

     Dynamical RAM for          rho,v,vnew:      37.79 MB

     Dynamical RAM for               rhoin:      12.60 MB

     Dynamical RAM for            rho*nmix:     100.29 MB

     Dynamical RAM for           G-vectors:      24.30 MB

     Dynamical RAM for          h,s,v(r/c):       7.03 MB

     Dynamical RAM for          <psi|beta>:       0.12 MB

     Dynamical RAM for                 psi:      77.69 MB

     Dynamical RAM for                hpsi:      77.69 MB

     Dynamical RAM for                spsi:      77.69 MB

     Dynamical RAM for      wfcinit/wfcrot:      19.48 MB

     Dynamical RAM for           addusdens:     394.90 MB

     Dynamical RAM for          addusforce:     636.25 MB

     Dynamical RAM for         addusstress:     313.41 MB

     Estimated static dynamical RAM per process >     249.07 MB

     Estimated max dynamical RAM per process >     985.61 MB

     Estimated total dynamical RAM >      19.25 GB

     Initial potential from superposition of free atoms

     starting charge      81.9991, renormalised to      82.0000

     negative rho (up, down):  9.679E-04 0.000E+00
     Starting wfcs are random
     Checking if some PAW data can be deallocated... 
       PAW data deallocated on    2 nodes for type:  1
       PAW data deallocated on   18 nodes for type:  2

     total cpu time spent up to now is       18.2 secs

     per-process dynamical memory:   294.7 Mb

     Self-consistent Calculation

     iteration #  1     ecut=    70.00 Ry     beta= 0.50
     Davidson diagonalization with overlap

---- Real-time Memory Report at c_bands before calling an iterative solver
           631 MiB given to the printing process from OS
           290 MiB allocation reported by mallinfo(arena+hblkhd)
         27324 MiB available memory on the node where the printing process lives
------------------
     ethr =  1.00E-02,  avg # of iterations = 12.4

     negative rho (up, down):  7.156E-04 0.000E+00

     total cpu time spent up to now is      113.5 secs

     total energy              =    -370.97769121 Ry
     estimated scf accuracy    <       2.23997215 Ry

     iteration #  2     ecut=    70.00 Ry     beta= 0.50
     Davidson diagonalization with overlap

---- Real-time Memory Report at c_bands before calling an iterative solver
           825 MiB given to the printing process from OS
           387 MiB allocation reported by mallinfo(arena+hblkhd)
         24679 MiB available memory on the node where the printing process lives
------------------
     ethr =  2.73E-03,  avg # of iterations =  2.1

     negative rho (up, down):  9.706E-04 0.000E+00

     total cpu time spent up to now is      142.3 secs

     total energy              =    -371.02004027 Ry
     estimated scf accuracy    <       0.34020408 Ry

     iteration #  3     ecut=    70.00 Ry     beta= 0.50
     Davidson diagonalization with overlap

---- Real-time Memory Report at c_bands before calling an iterative solver
           834 MiB given to the printing process from OS
           390 MiB allocation reported by mallinfo(arena+hblkhd)
         24782 MiB available memory on the node where the printing process lives
------------------
     ethr =  4.15E-04,  avg # of iterations = 10.4

     negative rho (up, down):  1.023E-03 0.000E+00

     total cpu time spent up to now is      186.5 secs

     total energy              =    -370.18936066 Ry
     estimated scf accuracy    <      18.36458982 Ry

     iteration #  4     ecut=    70.00 Ry     beta= 0.50
     Davidson diagonalization with overlap

---- Real-time Memory Report at c_bands before calling an iterative solver
           839 MiB given to the printing process from OS
           393 MiB allocation reported by mallinfo(arena+hblkhd)
         24807 MiB available memory on the node where the printing process lives
------------------
     ethr =  4.15E-04,  avg # of iterations = 10.3

     negative rho (up, down):  1.064E-03 0.000E+00

     total cpu time spent up to now is      226.3 secs

     total energy              =    -371.15771852 Ry
     estimated scf accuracy    <       0.36380720 Ry

     iteration #  5     ecut=    70.00 Ry     beta= 0.50
     Davidson diagonalization with overlap

---- Real-time Memory Report at c_bands before calling an iterative solver
           843 MiB given to the printing process from OS
           396 MiB allocation reported by mallinfo(arena+hblkhd)
         24564 MiB available memory on the node where the printing process lives
------------------
     ethr =  4.15E-04,  avg # of iterations =  2.6

     negative rho (up, down):  1.210E-03 0.000E+00

     total cpu time spent up to now is      253.6 secs

     total energy              =    -371.15162023 Ry
     estimated scf accuracy    <       0.18378363 Ry

     iteration #  6     ecut=    70.00 Ry     beta= 0.50
     Davidson diagonalization with overlap

---- Real-time Memory Report at c_bands before calling an iterative solver
           847 MiB given to the printing process from OS
           399 MiB allocation reported by mallinfo(arena+hblkhd)
         24550 MiB available memory on the node where the printing process lives
------------------
     ethr =  2.24E-04,  avg # of iterations =  7.7

     negative rho (up, down):  1.236E-03 0.000E+00

     total cpu time spent up to now is      286.3 secs

     total energy              =    -371.18008483 Ry
     estimated scf accuracy    <       0.23850394 Ry

     iteration #  7     ecut=    70.00 Ry     beta= 0.50
     Davidson diagonalization with overlap

---- Real-time Memory Report at c_bands before calling an iterative solver
           850 MiB given to the printing process from OS
           402 MiB allocation reported by mallinfo(arena+hblkhd)
         24421 MiB available memory on the node where the printing process lives
------------------
     ethr =  2.24E-04,  avg # of iterations =  1.0

     negative rho (up, down):  1.234E-03 0.000E+00

     total cpu time spent up to now is      312.3 secs

     total energy              =    -371.16874279 Ry
     estimated scf accuracy    <       0.19570137 Ry

     iteration #  8     ecut=    70.00 Ry     beta= 0.50
     Davidson diagonalization with overlap

---- Real-time Memory Report at c_bands before calling an iterative solver
           854 MiB given to the printing process from OS
           406 MiB allocation reported by mallinfo(arena+hblkhd)
         24246 MiB available memory on the node where the printing process lives
------------------
     ethr =  2.24E-04,  avg # of iterations =  1.0

     negative rho (up, down):  1.246E-03 0.000E+00

     total cpu time spent up to now is      338.2 secs

     total energy              =    -371.17155094 Ry
     estimated scf accuracy    <       0.00949617 Ry

     iteration #  9     ecut=    70.00 Ry     beta= 0.50
     Davidson diagonalization with overlap

---- Real-time Memory Report at c_bands before calling an iterative solver
           858 MiB given to the printing process from OS
           409 MiB allocation reported by mallinfo(arena+hblkhd)
         24178 MiB available memory on the node where the printing process lives
------------------
     ethr =  1.16E-05,  avg # of iterations =  9.0

     negative rho (up, down):  1.255E-03 0.000E+00

     total cpu time spent up to now is      371.9 secs

     total energy              =    -371.17167501 Ry
     estimated scf accuracy    <       0.00139291 Ry

     iteration # 10     ecut=    70.00 Ry     beta= 0.50
     Davidson diagonalization with overlap

---- Real-time Memory Report at c_bands before calling an iterative solver
           862 MiB given to the printing process from OS
           412 MiB allocation reported by mallinfo(arena+hblkhd)
         24181 MiB available memory on the node where the printing process lives
------------------
     ethr =  1.70E-06,  avg # of iterations =  5.9

     negative rho (up, down):  1.260E-03 0.000E+00

     total cpu time spent up to now is      403.7 secs

     total energy              =    -371.17099979 Ry
     estimated scf accuracy    <       0.15035279 Ry

     iteration # 11     ecut=    70.00 Ry     beta= 0.50
     Davidson diagonalization with overlap

---- Real-time Memory Report at c_bands before calling an iterative solver
           865 MiB given to the printing process from OS
           412 MiB allocation reported by mallinfo(arena+hblkhd)
         24263 MiB available memory on the node where the printing process lives
------------------
     ethr =  1.70E-06,  avg # of iterations =  1.6

     negative rho (up, down):  1.264E-03 0.000E+00

     total cpu time spent up to now is      430.2 secs

     total energy              =    -371.17182309 Ry
     estimated scf accuracy    <       0.00282730 Ry

     iteration # 12     ecut=    70.00 Ry     beta= 0.50
     Davidson diagonalization with overlap

---- Real-time Memory Report at c_bands before calling an iterative solver
           866 MiB given to the printing process from OS
           412 MiB allocation reported by mallinfo(arena+hblkhd)
         24174 MiB available memory on the node where the printing process lives
------------------
     ethr =  1.70E-06,  avg # of iterations =  1.0

     negative rho (up, down):  1.269E-03 0.000E+00

     total cpu time spent up to now is      456.1 secs

     total energy              =    -371.17179049 Ry
     estimated scf accuracy    <       0.00026097 Ry

     iteration # 13     ecut=    70.00 Ry     beta= 0.50
     Davidson diagonalization with overlap

---- Real-time Memory Report at c_bands before calling an iterative solver
           866 MiB given to the printing process from OS
           412 MiB allocation reported by mallinfo(arena+hblkhd)
         24163 MiB available memory on the node where the printing process lives
------------------
     ethr =  3.18E-07,  avg # of iterations =  1.7

     negative rho (up, down):  1.268E-03 0.000E+00

     total cpu time spent up to now is      483.0 secs

     total energy              =    -371.17181448 Ry
     estimated scf accuracy    <       0.07763504 Ry

     iteration # 14     ecut=    70.00 Ry     beta= 0.50
     Davidson diagonalization with overlap

---- Real-time Memory Report at c_bands before calling an iterative solver
           867 MiB given to the printing process from OS
           412 MiB allocation reported by mallinfo(arena+hblkhd)
         24198 MiB available memory on the node where the printing process lives
------------------
     ethr =  3.18E-07,  avg # of iterations =  1.0

     negative rho (up, down):  1.270E-03 0.000E+00

     total cpu time spent up to now is      509.0 secs

     total energy              =    -371.17172117 Ry
     estimated scf accuracy    <       0.01729094 Ry

     iteration # 15     ecut=    70.00 Ry     beta= 0.50
     Davidson diagonalization with overlap

---- Real-time Memory Report at c_bands before calling an iterative solver
           867 MiB given to the printing process from OS
           412 MiB allocation reported by mallinfo(arena+hblkhd)
         24200 MiB available memory on the node where the printing process lives
------------------
     ethr =  3.18E-07,  avg # of iterations =  1.0

     negative rho (up, down):  1.271E-03 0.000E+00

     total cpu time spent up to now is      535.0 secs

     total energy              =    -371.17184964 Ry
     estimated scf accuracy    <       0.00322159 Ry

     iteration # 16     ecut=    70.00 Ry     beta= 0.50
     Davidson diagonalization with overlap

---- Real-time Memory Report at c_bands before calling an iterative solver
           867 MiB given to the printing process from OS
           412 MiB allocation reported by mallinfo(arena+hblkhd)
         24214 MiB available memory on the node where the printing process lives
------------------
     ethr =  3.18E-07,  avg # of iterations =  1.0

     negative rho (up, down):  1.272E-03 0.000E+00

     total cpu time spent up to now is      560.9 secs

     total energy              =    -371.17183182 Ry
     estimated scf accuracy    <       0.00214394 Ry

     iteration # 17     ecut=    70.00 Ry     beta= 0.50
     Davidson diagonalization with overlap

---- Real-time Memory Report at c_bands before calling an iterative solver
           867 MiB given to the printing process from OS
           412 MiB allocation reported by mallinfo(arena+hblkhd)
         24234 MiB available memory on the node where the printing process lives
------------------
     ethr =  3.18E-07,  avg # of iterations =  1.0

     negative rho (up, down):  1.272E-03 0.000E+00

     total cpu time spent up to now is      586.9 secs

     total energy              =    -371.17183968 Ry
     estimated scf accuracy    <       0.00000472 Ry

     iteration # 18     ecut=    70.00 Ry     beta= 0.50
     Davidson diagonalization with overlap

---- Real-time Memory Report at c_bands before calling an iterative solver
           868 MiB given to the printing process from OS
           412 MiB allocation reported by mallinfo(arena+hblkhd)
         24218 MiB available memory on the node where the printing process lives
------------------
     ethr =  5.76E-09,  avg # of iterations =  1.6

     negative rho (up, down):  1.272E-03 0.000E+00

     total cpu time spent up to now is      613.2 secs

     total energy              =    -371.17183936 Ry
     estimated scf accuracy    <       0.00008979 Ry

     iteration # 19     ecut=    70.00 Ry     beta= 0.50
     Davidson diagonalization with overlap

---- Real-time Memory Report at c_bands before calling an iterative solver
           868 MiB given to the printing process from OS
           412 MiB allocation reported by mallinfo(arena+hblkhd)
         24196 MiB available memory on the node where the printing process lives
------------------
     ethr =  5.76E-09,  avg # of iterations =  1.0

     negative rho (up, down):  1.272E-03 0.000E+00

     total cpu time spent up to now is      639.2 secs

     total energy              =    -371.17183990 Ry
     estimated scf accuracy    <       0.00001306 Ry

     iteration # 20     ecut=    70.00 Ry     beta= 0.50
     Davidson diagonalization with overlap

---- Real-time Memory Report at c_bands before calling an iterative solver
           868 MiB given to the printing process from OS
           412 MiB allocation reported by mallinfo(arena+hblkhd)
         24174 MiB available memory on the node where the printing process lives
------------------
     ethr =  5.76E-09,  avg # of iterations =  1.0

     negative rho (up, down):  1.272E-03 0.000E+00

     total cpu time spent up to now is      665.1 secs

     total energy              =    -371.17183992 Ry
     estimated scf accuracy    <       0.00000261 Ry

     iteration # 21     ecut=    70.00 Ry     beta= 0.50
     Davidson diagonalization with overlap

---- Real-time Memory Report at c_bands before calling an iterative solver
           868 MiB given to the printing process from OS
           412 MiB allocation reported by mallinfo(arena+hblkhd)
         24178 MiB available memory on the node where the printing process lives
------------------
     ethr =  3.18E-09,  avg # of iterations =  1.0

     negative rho (up, down):  1.272E-03 0.000E+00

     total cpu time spent up to now is      690.7 secs

     End of self-consistent calculation

          k = 0.0000 0.0000 0.0000 (259805 PWs)   bands (ev):

   -22.9744 -22.7973 -22.5159 -22.1321 -21.6486 -21.0702 -20.4033 -19.6583
   -18.8624 -18.1209 -16.3896 -15.4947 -14.4268 -13.2865 -12.1165 -11.0680
   -10.9523 -10.8637 -10.5392 -10.0993  -9.9419  -9.8331  -9.7671  -9.5511
    -9.4952  -9.1378  -8.9067  -8.7997  -8.7044  -8.2256  -8.1851  -7.9082
    -7.7338  -7.4202  -7.2755  -7.2077  -6.9073  -6.7603  -6.6840  -6.6803
    -6.1035  -1.6245  -0.9412  -0.2561  -0.1841  -0.1073  -0.0437   0.0512
     0.3085

     occupation numbers 
     1.0000   1.0000   1.0000   1.0000   1.0000   1.0000   1.0000   1.0000
     1.0000   1.0000   1.0000   1.0000   1.0000   1.0000   1.0000   1.0000
     1.0000   1.0000   1.0000   1.0000   1.0000   1.0000   1.0000   1.0000
     1.0000   1.0000   1.0000   1.0000   1.0000   1.0000   1.0000   1.0000
     1.0000   1.0000   1.0000   1.0000   1.0000   1.0000   1.0000   1.0000
     1.0000   0.0000   0.0000   0.0000   0.0000   0.0000   0.0000   0.0000
     0.0000

          k = 0.0000 0.0000 0.0833 (259757 PWs)   bands (ev):

   -22.8523 -22.6754 -22.3945 -22.0112 -21.5285 -20.9513 -20.2859 -19.5432
   -18.7504 -18.0131 -16.2897 -15.4024 -14.3465 -13.2236 -12.0797 -10.9571
   -10.9223 -10.7186 -10.4631 -10.3950 -10.2832 -10.0284  -9.9562  -9.8813
    -9.6375  -9.4094  -9.1661  -9.0074  -8.7663  -8.5833  -8.3470  -8.0458
    -7.9084  -7.8141  -7.3892  -7.3423  -7.2807  -7.1265  -6.9671  -6.5385
    -5.9573  -1.6641  -0.9752  -0.0926  -0.0570  -0.0293   0.0438   0.2081
     0.4757

     occupation numbers 
     1.0000   1.0000   1.0000   1.0000   1.0000   1.0000   1.0000   1.0000
     1.0000   1.0000   1.0000   1.0000   1.0000   1.0000   1.0000   1.0000
     1.0000   1.0000   1.0000   1.0000   1.0000   1.0000   1.0000   1.0000
     1.0000   1.0000   1.0000   1.0000   1.0000   1.0000   1.0000   1.0000
     1.0000   1.0000   1.0000   1.0000   1.0000   1.0000   1.0000   1.0000
     1.0000   0.0000   0.0000   0.0000   0.0000   0.0000   0.0000   0.0000
     0.0000

          k = 0.0000 0.0000 0.1667 (259603 PWs)   bands (ev):

   -22.4871 -22.3109 -22.0311 -21.6496 -21.1694 -20.5958 -19.9354 -19.1995
   -18.4160 -17.6907 -16.0078 -15.1476 -14.1396 -13.0960 -12.0953 -11.7312
   -11.5520 -11.2227 -11.2181 -10.7023 -10.5655 -10.4881 -10.2863 -10.0113
    -9.9658  -9.9260  -9.5311  -9.3368  -9.2462  -8.9892  -8.7687  -8.5940
    -8.3790  -8.3513  -8.0375  -7.7325  -7.6347  -7.6285  -6.8698  -6.1198
    -5.5224  -1.8496  -1.1541  -0.2297   0.3886   0.4213   0.4947   0.6807
     0.7430

     occupation numbers 
     1.0000   1.0000   1.0000   1.0000   1.0000   1.0000   1.0000   1.0000
     1.0000   1.0000   1.0000   1.0000   1.0000   1.0000   1.0000   1.0000
     1.0000   1.0000   1.0000   1.0000   1.0000   1.0000   1.0000   1.0000
     1.0000   1.0000   1.0000   1.0000   1.0000   1.0000   1.0000   1.0000
     1.0000   1.0000   1.0000   1.0000   1.0000   1.0000   1.0000   1.0000
     1.0000   0.0000   0.0000   0.0000   0.0000   0.0000   0.0000   0.0000
     0.0000

          k = 0.0000 0.0000 0.2500 (259452 PWs)   bands (ev):

   -21.8820 -21.7070 -21.4292 -21.0509 -20.5753 -20.0081 -19.3569 -18.6338
   -17.8667 -17.1577 -15.6575 -14.8964 -14.1092 -13.4480 -13.2021 -12.9055
   -12.8644 -12.4078 -12.2376 -11.7506 -11.5736 -10.9671 -10.9280 -10.3441
   -10.1534  -9.9148  -9.7751  -9.5774  -9.4072  -9.2637  -8.8636  -8.8386
    -8.6286  -8.5646  -8.5145  -8.3085  -7.6840  -6.9796  -6.2198  -5.4552
    -4.8152  -2.3419  -1.6460  -0.7833   0.1219   1.0115   1.1180   1.1219
     1.2789

     occupation numbers 
     1.0000   1.0000   1.0000   1.0000   1.0000   1.0000   1.0000   1.0000
     1.0000   1.0000   1.0000   1.0000   1.0000   1.0000   1.0000   1.0000
     1.0000   1.0000   1.0000   1.0000   1.0000   1.0000   1.0000   1.0000
     1.0000   1.0000   1.0000   1.0000   1.0000   1.0000   1.0000   1.0000
     1.0000   1.0000   1.0000   1.0000   1.0000   1.0000   1.0000   1.0000
     1.0000   0.0000   0.0000   0.0000   0.0000   0.0000   0.0000   0.0000
     0.0000

          k = 0.0000 0.0000 0.3333 (259816 PWs)   bands (ev):

   -21.0436 -20.8705 -20.5961 -20.2230 -19.7554 -19.2003 -18.5674 -17.8723
   -17.1449 -16.4410 -15.9150 -15.5053 -15.1617 -14.7680 -14.3121 -13.8595
   -13.7839 -13.2661 -13.1793 -12.5462 -12.4752 -11.9396 -11.6176 -11.4685
   -10.7638 -10.0414  -9.8182  -9.5199  -9.5053  -9.2580  -9.2438  -8.8024
    -8.6139  -8.3158  -7.9134  -7.4141  -6.8286  -6.1702  -5.4545  -4.7004
    -3.9228  -3.1789  -2.4146  -1.6777  -0.9592  -0.2513   0.4476   1.1269
     1.7586

     occupation numbers 
     1.0000   1.0000   1.0000   1.0000   1.0000   1.0000   1.0000   1.0000
     1.0000   1.0000   1.0000   1.0000   1.0000   1.0000   1.0000   1.0000
     1.0000   1.0000   1.0000   1.0000   1.0000   1.0000   1.0000   1.0000
     1.0000   1.0000   1.0000   1.0000   1.0000   1.0000   1.0000   1.0000
     1.0000   1.0000   1.0000   1.0000   1.0000   1.0000   1.0000   1.0000
     1.0000   0.0000   0.0000   0.0000   0.0000   0.0000   0.0000   0.0000
     0.0000

          k = 0.0000 0.0000 0.4167 (259960 PWs)   bands (ev):

   -19.9843 -19.8147 -19.5469 -19.1855 -18.7389 -18.2262 -17.7042 -17.3816
   -17.3716 -16.6009 -16.5631 -16.1980 -15.9824 -15.7694 -15.4353 -15.2799
   -14.7212 -14.0877 -13.4655 -13.2545 -12.9573 -12.6053 -11.8272 -11.0609
   -11.0541 -10.5884 -10.3900 -10.1140  -9.9396  -9.7315  -9.6729  -7.6067
    -7.4412  -7.1842  -6.8469  -6.4465  -6.0099  -5.5770  -5.2035  -4.9551
    -3.5709  -3.5708  -2.2246  -2.0985  -1.8399  -1.4562  -0.9804  -0.4534
     0.0746

     occupation numbers 
     1.0000   1.0000   1.0000   1.0000   1.0000   1.0000   1.0000   1.0000
     1.0000   1.0000   1.0000   1.0000   1.0000   1.0000   1.0000   1.0000
     1.0000   1.0000   1.0000   1.0000   1.0000   1.0000   1.0000   1.0000
     1.0000   1.0000   1.0000   1.0000   1.0000   1.0000   1.0000   1.0000
     1.0000   1.0000   1.0000   1.0000   1.0000   1.0000   1.0000   1.0000
     0.3652   0.3621   0.0000   0.0000   0.0000   0.0000   0.0000   0.0000
     0.0000

          k = 0.0000 0.0000-0.5000 (260096 PWs)   bands (ev):

   -18.7540 -18.7066 -18.5959 -18.5487 -18.3565 -18.3083 -18.0731 -18.0198
   -17.8749 -16.9288 -16.7796 -16.5225 -16.1872 -16.0028 -15.5424 -15.3804
   -14.8765 -14.7428 -14.3162 -14.2307 -12.2624 -12.2272 -11.6760 -11.6386
   -11.0123 -10.9842 -10.4535 -10.3775 -10.0853  -9.8911  -9.8186  -6.2853
    -6.2351  -6.1912  -6.1459  -6.0708  -6.0351  -5.9631  -5.9415  -5.9115
    -3.5921  -3.5918  -1.7797  -1.7543  -1.5351  -1.4562  -1.2298  -1.1124
    -0.9518

     occupation numbers 
     1.0000   1.0000   1.0000   1.0000   1.0000   1.0000   1.0000   1.0000
     1.0000   1.0000   1.0000   1.0000   1.0000   1.0000   1.0000   1.0000
     1.0000   1.0000   1.0000   1.0000   1.0000   1.0000   1.0000   1.0000
     1.0000   1.0000   1.0000   1.0000   1.0000   1.0000   1.0000   1.0000
     1.0000   1.0000   1.0000   1.0000   1.0000   1.0000   1.0000   1.0000
     0.7746   0.7708   0.0000   0.0000   0.0000   0.0000   0.0000   0.0000
     0.0000

     the Fermi energy is    -3.5775 ev

!    total energy              =    -371.17183943 Ry
     total all-electron energy =     -1526.453775 Ry
     estimated scf accuracy    <       0.00000052 Ry
     smearing contrib. (-TS)   =      -0.00049614 Ry
     internal energy E=F+TS    =    -371.17134330 Ry

     The total energy is F=E-TS. E is the sum of the following terms:
     one-electron contribution =   -4793.89412128 Ry
     hartree contribution      =    2408.07669134 Ry
     xc contribution           =     -93.96251976 Ry
     ewald contribution        =    2231.94596537 Ry
     one-center paw contrib.   =    -123.33735896 Ry
      -> PAW hartree energy AE =      18.28477815 Ry
      -> PAW hartree energy PS =     -18.26763740 Ry
      -> PAW xc energy AE      =     -21.18187524 Ry
      -> PAW xc energy PS      =       8.83095739 Ry
      -> total E_H with PAW    =    2408.09383209 Ry
      -> total E_XC with PAW   =    -106.31343762 Ry

     convergence has been achieved in  21 iterations

     negative rho (up, down):  1.272E-03 0.000E+00

     Forces acting on atoms (cartesian axes, Ry/au):

     atom    1 type  1   force =     0.04704435   -0.00000085   -0.00505056
     atom    2 type  1   force =    -0.06625666   -0.00000240    0.00502822
     atom    3 type  1   force =     0.02465308   -0.00000116    0.00579803
     atom    4 type  1   force =    -0.01250616   -0.00000110   -0.00574859
     atom    5 type  1   force =     0.01036698   -0.00000093   -0.00579801
     atom    6 type  1   force =    -0.00749010   -0.00000106    0.00580361
     atom    7 type  1   force =     0.00692815   -0.00000101    0.00583966
     atom    8 type  1   force =    -0.00615963   -0.00000115   -0.00583597
     atom    9 type  1   force =     0.00599751   -0.00000103   -0.00584100
     atom   10 type  1   force =    -0.00579524   -0.00000095    0.00584112
     atom   11 type  1   force =     0.00580515   -0.00000102    0.00584097
     atom   12 type  1   force =    -0.00601873   -0.00000094   -0.00584094
     atom   13 type  1   force =     0.00615983   -0.00000099   -0.00583569
     atom   14 type  1   force =    -0.00693335   -0.00000111    0.00583931
     atom   15 type  1   force =     0.00747017   -0.00000108    0.00580295
     atom   16 type  1   force =    -0.01035022   -0.00000095   -0.00579771
     atom   17 type  1   force =     0.01253326   -0.00000119   -0.00574791
     atom   18 type  1   force =    -0.02467436   -0.00000055    0.00579760
     atom   19 type  1   force =     0.06634247   -0.00000222    0.00502579
     atom   20 type  1   force =    -0.04707077   -0.00000078   -0.00504921
     atom   21 type  2   force =    -0.00003671    0.00001122   -0.00003582
     atom   22 type  2   force =    -0.00000902    0.00001123   -0.00003587
     The non-local contrib.  to forces
     atom    1 type  1   force =     0.05194951   -0.00000220   -0.00682121
     atom    2 type  1   force =    -0.00795013   -0.00000276    0.00715377
     atom    3 type  1   force =     0.01672025   -0.00000168    0.00717608
     atom    4 type  1   force =    -0.00269908   -0.00000245   -0.00714853
     atom    5 type  1   force =     0.00759844   -0.00000240   -0.00717368
     atom    6 type  1   force =    -0.00420298   -0.00000258    0.00717280
     atom    7 type  1   force =     0.00574027   -0.00000243    0.00718331
     atom    8 type  1   force =    -0.00466441   -0.00000254   -0.00718095
     atom    9 type  1   force =     0.00510992   -0.00000248   -0.00718330
     atom   10 type  1   force =    -0.00484212   -0.00000238    0.00718253
     atom   11 type  1   force =     0.00484784   -0.00000248    0.00718236
     atom   12 type  1   force =    -0.00510867   -0.00000242   -0.00718332
     atom   13 type  1   force =     0.00466052   -0.00000244   -0.00718088
     atom   14 type  1   force =    -0.00574644   -0.00000253    0.00718300
     atom   15 type  1   force =     0.00419764   -0.00000249    0.00717236
     atom   16 type  1   force =    -0.00759745   -0.00000251   -0.00717341
     atom   17 type  1   force =     0.00269673   -0.00000217   -0.00714850
     atom   18 type  1   force =    -0.01672584   -0.00000259    0.00717489
     atom   19 type  1   force =     0.00794682   -0.00000281    0.00715313
     atom   20 type  1   force =    -0.05194575   -0.00000251   -0.00682028
     atom   21 type  2   force =     0.07697405   -0.00000000    0.00000050
     atom   22 type  2   force =    -0.07694792   -0.00000001    0.00000049
     The ionic contribution  to forces
     atom    1 type  1   force =   -19.11264522    0.00000000   -0.03207874
     atom    2 type  1   force =   -15.54671383    0.00000000    0.03257921
     atom    3 type  1   force =   -11.22668320    0.00000000    0.03286560
     atom    4 type  1   force =    -9.73668802    0.00000000   -0.03287161
     atom    5 type  1   force =    -7.18474152    0.00000000   -0.03287198
     atom    6 type  1   force =    -6.16455733    0.00000000    0.03287199
     atom    7 type  1   force =    -4.19080821    0.00000000    0.03287199
     atom    8 type  1   force =    -3.35140426    0.00000000   -0.03287199
     atom    9 type  1   force =    -1.60953302    0.00000000   -0.03287199
     atom   10 type  1   force =    -0.83861237    0.00000000    0.03287199
     atom   11 type  1   force =     0.83861237    0.00000000    0.03287199
     atom   12 type  1   force =     1.60953302    0.00000000   -0.03287199
     atom   13 type  1   force =     3.35140426    0.00000000   -0.03287199
     atom   14 type  1   force =     4.19080821    0.00000000    0.03287199
     atom   15 type  1   force =     6.16455733    0.00000000    0.03287199
     atom   16 type  1   force =     7.18474152    0.00000000   -0.03287198
     atom   17 type  1   force =     9.73668802    0.00000000   -0.03287161
     atom   18 type  1   force =    11.22668320    0.00000000    0.03286560
     atom   19 type  1   force =    15.54671383    0.00000000    0.03257921
     atom   20 type  1   force =    19.11264522    0.00000000   -0.03207874
     atom   21 type  2   force =    -6.43508965    0.00000000   -0.00049446
     atom   22 type  2   force =     6.43508965    0.00000000   -0.00049446
     The local contribution  to forces
     atom    1 type  1   force =    19.10709690    0.00000283    0.03361313
     atom    2 type  1   force =    15.48822766    0.00000350   -0.03446099
     atom    3 type  1   force =    11.23511047    0.00000213   -0.03400398
     atom    4 type  1   force =     9.72703967    0.00000324    0.03403180
     atom    5 type  1   force =     7.18794213    0.00000321    0.03400796
     atom    6 type  1   force =     6.16137248    0.00000328   -0.03400148
     atom    7 type  1   force =     4.19237268    0.00000314   -0.03397588
     atom    8 type  1   force =     3.34995279    0.00000335    0.03397723
     atom    9 type  1   force =     1.61078579    0.00000335    0.03397455
     atom   10 type  1   force =     0.83767591    0.00000324   -0.03397362
     atom   11 type  1   force =    -0.83731956    0.00000339   -0.03397359
     atom   12 type  1   force =    -1.61041102    0.00000334    0.03397456
     atom   13 type  1   force =    -3.34956207    0.00000329    0.03397745
     atom   14 type  1   force =    -4.19195935    0.00000338   -0.03397589
     atom   15 type  1   force =    -6.16089118    0.00000348   -0.03400173
     atom   16 type  1   force =    -7.18743885    0.00000346    0.03400793
     atom   17 type  1   force =    -9.72641745    0.00000336    0.03403246
     atom   18 type  1   force =   -11.23454309    0.00000424   -0.03400311
     atom   19 type  1   force =   -15.48773641    0.00000450   -0.03446428
     atom   20 type  1   force =   -19.10720732    0.00000393    0.03361358
     atom   21 type  2   force =     6.35798951   -0.00000001    0.00045854
     atom   22 type  2   force =    -6.35826878    0.00000008    0.00045850
     The core correction contribution to forces
     atom    1 type  1   force =     0.00054716   -0.00001283    0.00023660
     atom    2 type  1   force =     0.00024363   -0.00001460   -0.00024279
     atom    3 type  1   force =    -0.00030570   -0.00001317   -0.00023934
     atom    4 type  1   force =     0.00011366   -0.00001322    0.00024001
     atom    5 type  1   force =    -0.00018015   -0.00001302    0.00024016
     atom    6 type  1   force =     0.00013224   -0.00001311   -0.00023927
     atom    7 type  1   force =    -0.00016990   -0.00001298   -0.00023934
     atom    8 type  1   force =     0.00015695   -0.00001313    0.00024013
     atom    9 type  1   force =    -0.00017388   -0.00001304    0.00024015
     atom   10 type  1   force =     0.00016923   -0.00001302   -0.00023933
     atom   11 type  1   force =    -0.00015074   -0.00001309   -0.00023935
     atom   12 type  1   force =     0.00015324   -0.00001303    0.00024017
     atom   13 type  1   force =    -0.00015081   -0.00001302    0.00024015
     atom   14 type  1   force =     0.00016781   -0.00001309   -0.00023939
     atom   15 type  1   force =    -0.00015559   -0.00001315   -0.00023930
     atom   16 type  1   force =     0.00020252   -0.00001296    0.00024015
     atom   17 type  1   force =    -0.00010140   -0.00001334    0.00024003
     atom   18 type  1   force =     0.00029025   -0.00001296   -0.00023924
     atom   19 type  1   force =    -0.00022944   -0.00001453   -0.00024274
     atom   20 type  1   force =    -0.00055475   -0.00001293    0.00023657
     atom   21 type  2   force =     0.00000000    0.00000000    0.00000000
     atom   22 type  2   force =     0.00000000    0.00000000    0.00000000
     The Hubbard contrib.    to forces
     atom    1 type  1   force =     0.00000000    0.00000000    0.00000000
     atom    2 type  1   force =     0.00000000    0.00000000    0.00000000
     atom    3 type  1   force =     0.00000000    0.00000000    0.00000000
     atom    4 type  1   force =     0.00000000    0.00000000    0.00000000
     atom    5 type  1   force =     0.00000000    0.00000000    0.00000000
     atom    6 type  1   force =     0.00000000    0.00000000    0.00000000
     atom    7 type  1   force =     0.00000000    0.00000000    0.00000000
     atom    8 type  1   force =     0.00000000    0.00000000    0.00000000
     atom    9 type  1   force =     0.00000000    0.00000000    0.00000000
     atom   10 type  1   force =     0.00000000    0.00000000    0.00000000
     atom   11 type  1   force =     0.00000000    0.00000000    0.00000000
     atom   12 type  1   force =     0.00000000    0.00000000    0.00000000
     atom   13 type  1   force =     0.00000000    0.00000000    0.00000000
     atom   14 type  1   force =     0.00000000    0.00000000    0.00000000
     atom   15 type  1   force =     0.00000000    0.00000000    0.00000000
     atom   16 type  1   force =     0.00000000    0.00000000    0.00000000
     atom   17 type  1   force =     0.00000000    0.00000000    0.00000000
     atom   18 type  1   force =     0.00000000    0.00000000    0.00000000
     atom   19 type  1   force =     0.00000000    0.00000000    0.00000000
     atom   20 type  1   force =     0.00000000    0.00000000    0.00000000
     atom   21 type  2   force =     0.00000000    0.00000000    0.00000000
     atom   22 type  2   force =     0.00000000    0.00000000    0.00000000
     The SCF correction term to forces
     atom    1 type  1   force =     0.00009754    0.00000013    0.00000005
     atom    2 type  1   force =    -0.00006246    0.00000024   -0.00000058
     atom    3 type  1   force =    -0.00018720    0.00000034    0.00000007
     atom    4 type  1   force =    -0.00027086    0.00000011    0.00000014
     atom    5 type  1   force =    -0.00025039    0.00000004   -0.00000006
     atom    6 type  1   force =    -0.00023297    0.00000012   -0.00000003
     atom    7 type  1   force =    -0.00020514    0.00000003   -0.00000003
     atom    8 type  1   force =    -0.00019915   -0.00000005    0.00000002
     atom    9 type  1   force =    -0.00018975   -0.00000009    0.00000000
     atom   10 type  1   force =    -0.00018435   -0.00000002   -0.00000006
     atom   11 type  1   force =    -0.00018322   -0.00000007   -0.00000005
     atom   12 type  1   force =    -0.00018376   -0.00000006    0.00000005
     atom   13 type  1   force =    -0.00019052   -0.00000006   -0.00000001
     atom   14 type  1   force =    -0.00020204   -0.00000009   -0.00000001
     atom   15 type  1   force =    -0.00023649   -0.00000015    0.00000003
     atom   16 type  1   force =    -0.00025641   -0.00000017    0.00000001
     atom   17 type  1   force =    -0.00033109   -0.00000026    0.00000012
     atom   18 type  1   force =    -0.00037733   -0.00000046   -0.00000014
     atom   19 type  1   force =    -0.00035079   -0.00000061    0.00000087
     atom   20 type  1   force =    -0.00000662   -0.00000050    0.00000007
     atom   21 type  2   force =     0.00009092    0.00000001    0.00000000
     atom   22 type  2   force =     0.00011956   -0.00000006   -0.00000000

     Total force =     0.126611     Total SCF correction =     0.001027


     Computing stress (Cartesian axis) and pressure


     negative rho (up, down):  1.272E-03 0.000E+00
          total   stress  (Ry/bohr**3)                   (kbar)     P=       -0.83
   0.00000052   0.00000000   0.00000000            0.08        0.00        0.00
   0.00000000  -0.00000033   0.00000000            0.00       -0.05        0.00
   0.00000000   0.00000000  -0.00001707            0.00        0.00       -2.51

     kinetic stress (kbar)    529.75      0.00     -0.00
                                0.00    601.91      0.00
                               -0.00      0.00    530.15

     local   stress (kbar)  -4366.97     -0.00      0.00
                               -0.00   4319.14     -0.00
                                0.00     -0.00 -27571.65

     nonloc. stress (kbar)    132.22     -0.00     -0.00
                               -0.00    120.89      0.00
                               -0.00      0.00    132.36

     hartree stress (kbar)   1888.77      0.00     -0.00
                                0.00  -1840.02      0.00
                               -0.00      0.00  13438.21

     exc-cor stress (kbar)    -11.65      0.00     -0.00
                                0.00    -17.56      0.00
                               -0.00      0.00    -11.58

     corecor stress (kbar)   -126.37      0.00      0.00
                                0.00   -124.20      0.00
                                0.00      0.00   -126.38

     ewald   stress (kbar)   1954.33     -0.00      0.00
                               -0.00  -3060.21      0.00
                                0.00      0.00  13606.38

     hubbard stress (kbar)      0.00      0.00      0.00
                                0.00      0.00      0.00
                                0.00      0.00      0.00

     DFT-D   stress (kbar)      0.00      0.00      0.00
                                0.00      0.00      0.00
                                0.00      0.00      0.00

     XDM     stress (kbar)      0.00      0.00      0.00
                                0.00      0.00      0.00
                                0.00      0.00      0.00

     dft-nl  stress (kbar)      0.00      0.00      0.00
                                0.00      0.00      0.00
                                0.00      0.00      0.00

     TS-vdW  stress (kbar)      0.00      0.00      0.00
                                0.00      0.00      0.00
                                0.00      0.00      0.00

     MDB     stress (kbar)      0.00      0.00      0.00
                                0.00      0.00      0.00
                                0.00      0.00      0.00

     3D-RISM stress (kbar)      0.00      0.00      0.00
                                0.00      0.00      0.00
                                0.00      0.00      0.00


     Writing all to output data dir ../tmp/ZGNR.save/ :
     XML data file, charge density, pseudopotentials, collected wavefunctions
 
     init_run     :     17.35s CPU     17.99s WALL (       1 calls)
     electrons    :    651.58s CPU    675.30s WALL (       1 calls)
     forces       :      4.98s CPU      5.49s WALL (       1 calls)
     stress       :     20.50s CPU     21.13s WALL (       1 calls)

     Called by init_run:
     wfcinit      :      8.73s CPU      8.90s WALL (       1 calls)
     wfcinit:wfcr :      8.21s CPU      8.36s WALL (       7 calls)
     potinit      :      1.37s CPU      1.53s WALL (       1 calls)
     hinit0       :      0.32s CPU      0.37s WALL (       1 calls)

     Called by electrons:
     c_bands      :    497.49s CPU    507.90s WALL (      21 calls)
     sum_band     :    105.02s CPU    109.41s WALL (      21 calls)
     v_of_rho     :     23.45s CPU     25.93s WALL (      22 calls)
     v_h          :      2.78s CPU      3.25s WALL (      22 calls)
     v_xc         :     22.53s CPU     24.79s WALL (      24 calls)
     newd         :     16.08s CPU     19.72s WALL (      22 calls)
     PAW_pot      :      1.98s CPU      1.99s WALL (      22 calls)
     mix_rho      :      6.53s CPU      6.88s WALL (      21 calls)

     Called by c_bands:
     init_us_2    :     14.43s CPU     14.60s WALL (     315 calls)
     cegterg      :    483.47s CPU    493.66s WALL (     147 calls)

     Called by sum_band:
     sum_band:wei :      0.01s CPU      0.01s WALL (      21 calls)
     sum_band:loo :     80.12s CPU     81.05s WALL (      21 calls)
     sum_band:buf :      1.34s CPU      1.36s WALL (     147 calls)
     sum_band:ini :      6.71s CPU      6.78s WALL (     147 calls)
     sum_band:cal :      5.82s CPU      5.85s WALL (     147 calls)
     sum_band:bec :      0.01s CPU      0.01s WALL (     147 calls)
     addusdens    :     22.27s CPU     25.49s WALL (      21 calls)
                                        0.00s GPU  (      21 calls)
     addusd:skk   :      1.88s CPU      2.95s WALL (      42 calls)
                                        0.00s GPU  (      42 calls)

     Called by *egterg:
     cdiaghg      :      4.80s CPU      4.86s WALL (     674 calls)
     cegterg:over :     21.09s CPU     21.23s WALL (     527 calls)
     cegterg:upda :     17.09s CPU     18.03s WALL (     527 calls)
     cegterg:last :      5.99s CPU      6.03s WALL (     154 calls)
     h_psi        :    412.76s CPU    419.30s WALL (     681 calls)
     s_psi        :     18.96s CPU     19.08s WALL (     681 calls)
     g_psi        :      1.07s CPU      1.08s WALL (     527 calls)

     Called by h_psi:
     h_psi:calbec :     17.68s CPU     17.79s WALL (     681 calls)
     vloc_psi     :    373.65s CPU    378.32s WALL (     681 calls)
     add_vuspsi   :     18.89s CPU     18.99s WALL (     681 calls)

     General routines
     calbec       :     28.19s CPU     28.36s WALL (     947 calls)
     fft          :     23.16s CPU     26.08s WALL (     309 calls)
     ffts         :      0.52s CPU      0.62s WALL (      43 calls)
     fftw         :    219.22s CPU    221.88s WALL (   43843 calls)
     interpolate  :      1.88s CPU      2.12s WALL (      22 calls)
 
     Parallel routines

     PAW routines
     PAW_pot      :      1.98s CPU      1.99s WALL (      22 calls)
 
     PWSCF        :  11m35.73s CPU  12m17.59s WALL

 
   This run was terminated on:  22:24: 8   5Jan2026            

=------------------------------------------------------------------------------=
   JOB DONE.
=------------------------------------------------------------------------------=
