
     Program PWSCF v.7.4.1 starts on  1Oct2025 at  7: 9:58 

     This program is part of the open-source Quantum ESPRESSO suite
     for quantum simulation of materials; please cite
         "P. Giannozzi et al., J. Phys.:Condens. Matter 21 395502 (2009);
         "P. Giannozzi et al., J. Phys.:Condens. Matter 29 465901 (2017);
         "P. Giannozzi et al., J. Chem. Phys. 152 154105 (2020);
          URL http://www.quantum-espresso.org", 
     in publications or presentations arising from this work. More details at
     http://www.quantum-espresso.org/quote

     Serial version
     16267 MiB available memory on the printing compute node when the environment starts

     Reading input from graphene_scf.in

     Current dimensions of program PWSCF are:
     Max number of different atomic species (ntypx) = 10
     Max number of k-points (npk) =  40000
     Max angular momentum in pseudopotentials (lmaxx) =  4
     file C.pbe-n-kjpaw_psl.1.0.0.UPF: wavefunction(s)  2S 2P renormalized
     Message from routine setup:
     using ibrav=0 with symmetry is DISCOURAGED, use correct ibrav instead


     G-vector sticks info
     --------------------
     sticks:   dense  smooth     PW     G-vecs:    dense   smooth      PW
     Sum        1189     475    151               203031    51251    8639

     Using Slab Decomposition



     bravais-lattice index     =            0
     lattice parameter (alat)  =       4.6540  a.u.
     unit-cell volume          =     531.7080 (a.u.)^3
     number of atoms/cell      =            2
     number of atomic types    =            1
     number of electrons       =         8.00
     number of Kohn-Sham states=            8
     kinetic-energy cutoff     =      80.0000  Ry
     charge density cutoff     =     800.0000  Ry
     scf convergence threshold =      1.0E-08
     mixing beta               =       0.7000
     number of iterations used =            8  plain     mixing
     Exchange-correlation= SLA  PW   PBX  PBC
                           (   1   4   3   4   0   0   0)

     celldm(1)=   4.653998  celldm(2)=   0.000000  celldm(3)=   0.000000
     celldm(4)=   0.000000  celldm(5)=   0.000000  celldm(6)=   0.000000

     crystal axes: (cart. coord. in units of alat)
               a(1) = (   1.000000   0.000000   0.000000 )  
               a(2) = (  -0.500000   0.866025   0.000000 )  
               a(3) = (   0.000000   0.000000   6.090654 )  

     reciprocal axes: (cart. coord. in units 2 pi/alat)
               b(1) = (  1.000000  0.577350 -0.000000 )  
               b(2) = (  0.000000  1.154701  0.000000 )  
               b(3) = (  0.000000 -0.000000  0.164186 )  


     PseudoPot. # 1 for C  read from file:
     ../../../../pseudos/C.pbe-n-kjpaw_psl.1.0.0.UPF
     MD5 check sum: 5d2aebdfa2cae82b50a7e79e9516da0f
     Pseudo is Projector augmented-wave + core cor, Zval =  4.0
     Generated using "atomic" code by A. Dal Corso  v.5.1
     Shape of augmentation charge: PSQ
     Using radial grid of 1073 points,  4 beta functions with: 
                l(1) =   0
                l(2) =   0
                l(3) =   1
                l(4) =   1
     Q(r) pseudized with 0 coefficients 


     atomic species   valence    mass     pseudopotential
     C                 4.00    12.01070     C ( 1.00)

     24 Sym. Ops., with inversion, found (12 have fractional translation)



   Cartesian axes

     site n.     atom                  positions (alat units)
         1        C      tau(   1) = (   0.0000000   0.0000000   0.0000000  )
         2        C      tau(   2) = (   0.0000000   0.5773503   0.0000000  )

     number of k points=    12  Gaussian smearing, width (Ry)=  0.0100
                       cart. coord. in units 2pi/alat
        k(    1) = (   0.0000000   0.0000000   0.0000000), wk =   0.0246914
        k(    2) = (   0.0000000   0.1283001   0.0000000), wk =   0.1481481
        k(    3) = (   0.0000000   0.2566001   0.0000000), wk =   0.1481481
        k(    4) = (   0.0000000   0.3849002   0.0000000), wk =   0.1481481
        k(    5) = (   0.0000000   0.5132002   0.0000000), wk =   0.1481481
        k(    6) = (   0.1111111   0.1924501   0.0000000), wk =   0.1481481
        k(    7) = (   0.1111111   0.3207501   0.0000000), wk =   0.2962963
        k(    8) = (   0.1111111   0.4490502   0.0000000), wk =   0.2962963
        k(    9) = (   0.1111111   0.5773503   0.0000000), wk =   0.1481481
        k(   10) = (   0.2222222   0.3849002   0.0000000), wk =   0.1481481
        k(   11) = (   0.2222222   0.5132002   0.0000000), wk =   0.2962963
        k(   12) = (   0.3333333   0.5773503   0.0000000), wk =   0.0493827

     Dense  grid:   203031 G-vectors     FFT dimensions: (  45,  45, 256)

     Smooth grid:    51251 G-vectors     FFT dimensions: (  27,  27, 162)

     Estimated max dynamical RAM per process >     286.17 MB

     Initial potential from superposition of free atoms

     starting charge       7.9999, renormalised to       8.0000

     negative rho (up, down):  7.621E-06 0.000E+00
     Starting wfcs are    8 randomized atomic wfcs

     total cpu time spent up to now is        8.2 secs

     Self-consistent Calculation

     iteration #  1     ecut=    80.00 Ry     beta= 0.70
     Davidson diagonalization with overlap
     ethr =  1.00E-02,  avg # of iterations =  6.0

     negative rho (up, down):  4.020E-06 0.000E+00

     total cpu time spent up to now is       15.3 secs

     total energy              =     -36.86030308 Ry
     estimated scf accuracy    <       0.19351112 Ry

     iteration #  2     ecut=    80.00 Ry     beta= 0.70
     Davidson diagonalization with overlap
     ethr =  2.42E-03,  avg # of iterations =  3.6

     negative rho (up, down):  6.726E-06 0.000E+00

     total cpu time spent up to now is       19.5 secs

     total energy              =     -36.88669454 Ry
     estimated scf accuracy    <       0.00195365 Ry

     iteration #  3     ecut=    80.00 Ry     beta= 0.70
     Davidson diagonalization with overlap
     ethr =  2.44E-05,  avg # of iterations =  9.8

     negative rho (up, down):  9.986E-06 0.000E+00

     total cpu time spent up to now is       27.1 secs

     total energy              =     -36.88701033 Ry
     estimated scf accuracy    <       0.00015186 Ry

     iteration #  4     ecut=    80.00 Ry     beta= 0.70
     Davidson diagonalization with overlap
     ethr =  1.90E-06,  avg # of iterations =  4.3

     negative rho (up, down):  1.018E-05 0.000E+00

     total cpu time spent up to now is       30.3 secs

     total energy              =     -36.88702303 Ry
     estimated scf accuracy    <       0.00000216 Ry

     iteration #  5     ecut=    80.00 Ry     beta= 0.70
     Davidson diagonalization with overlap
     ethr =  2.70E-08,  avg # of iterations =  2.8

     negative rho (up, down):  1.018E-05 0.000E+00

     total cpu time spent up to now is       32.7 secs

     total energy              =     -36.88702399 Ry
     estimated scf accuracy    <       0.00000006 Ry

     iteration #  6     ecut=    80.00 Ry     beta= 0.70
     Davidson diagonalization with overlap
     ethr =  6.94E-10,  avg # of iterations =  2.6

     negative rho (up, down):  1.018E-05 0.000E+00

     total cpu time spent up to now is       35.2 secs

     End of self-consistent calculation

          k = 0.0000 0.0000 0.0000 (  6489 PWs)   bands (ev):

   -21.2630  -9.3524  -4.7557  -4.7557   1.5004   2.3764   2.7456   4.6658

          k = 0.0000 0.1283 0.0000 (  6477 PWs)   bands (ev):

   -20.9711  -9.0034  -5.8728  -5.3301   1.8983   2.7774   3.1496   5.0633

          k = 0.0000 0.2566 0.0000 (  6439 PWs)   bands (ev):

   -20.1014  -8.4262  -7.9746  -6.4885   3.0909   3.9729   4.3616   6.1641

          k = 0.0000 0.3849 0.0000 (  6414 PWs)   bands (ev):

   -18.6746 -11.3613  -7.5116  -6.3462   3.2231   5.0637   5.9939   6.0462

          k = 0.0000 0.5132 0.0000 (  6406 PWs)   bands (ev):

   -16.7670 -14.1101  -8.0767  -4.4986   0.5200   5.7578   7.8320   8.7433

          k = 0.1111 0.1925 0.0000 (  6443 PWs)   bands (ev):

   -20.3904  -8.3138  -7.4313  -6.4780   2.6943   3.5773   3.9582   5.8553

          k = 0.1111 0.3208 0.0000 (  6414 PWs)   bands (ev):

   -19.2420  -9.8850  -7.8649  -6.9754   4.2821   4.4773   5.1858   5.5742

          k = 0.1111 0.4491 0.0000 (  6418 PWs)   bands (ev):

   -17.5638 -12.6491  -8.7471  -5.1441   1.6288   6.6293   7.1304   7.5313

          k = 0.1111 0.5774 0.0000 (  6396 PWs)   bands (ev):

   -15.8184 -14.7961  -9.0476  -3.8050  -0.0991   6.9586   9.6531   9.8164

          k = 0.2222 0.3849 0.0000 (  6439 PWs)   bands (ev):

   -17.8396 -11.4024  -9.8828  -5.3904   2.2581   6.2543   7.0897   7.5928

          k = 0.2222 0.5132 0.0000 (  6401 PWs)   bands (ev):

   -15.9871 -13.5199 -10.8833  -3.5102   0.0142   8.9415   9.1760   9.8323

          k = 0.3333 0.5774 0.0000 (  6408 PWs)   bands (ev):

   -14.3249 -14.3249 -12.3048  -1.7022  -1.7022   8.9194  11.2010  11.2010

     the Fermi energy is    -1.7022 ev

!    total energy              =     -36.88702401 Ry
     total all-electron energy =      -152.415220 Ry
     estimated scf accuracy    <          5.7E-10 Ry
     smearing contrib. (-TS)   =      -0.00027861 Ry
     internal energy E=F+TS    =     -36.88674540 Ry

     The total energy is F=E-TS. E is the sum of the following terms:
     one-electron contribution =    -157.20035027 Ry
     hartree contribution      =      80.22446086 Ry
     xc contribution           =      -9.27998585 Ry
     ewald contribution        =      61.70343446 Ry
     one-center paw contrib.   =     -12.33430460 Ry

     convergence has been achieved in   6 iterations

     negative rho (up, down):  1.018E-05 0.000E+00

     Forces acting on atoms (cartesian axes, Ry/au):

     atom    1 type  1   force =     0.00000000   -0.00000000    0.00000000
     atom    2 type  1   force =     0.00000000    0.00000000    0.00000000

     Total force =     0.000000     Total SCF correction =     0.000000


     Computing stress (Cartesian axis) and pressure


     negative rho (up, down):  1.018E-05 0.000E+00
          total   stress  (Ry/bohr**3)                   (kbar)     P=        3.60
   0.00003689   0.00000000  -0.00000000            5.43        0.00       -0.00
   0.00000000   0.00003689  -0.00000000            0.00        5.43       -0.00
   0.00000000   0.00000000  -0.00000042            0.00        0.00       -0.06


     Writing all to output data dir ./tmp/graphene.save/ :
     XML data file, charge density, pseudopotentials, collected wavefunctions

     init_run     :      3.21s CPU      7.97s WALL (       1 calls)
     electrons    :     25.87s CPU     27.00s WALL (       1 calls)
     forces       :      0.45s CPU      0.50s WALL (       1 calls)
     stress       :      2.06s CPU      1.92s WALL (       1 calls)

     Called by init_run:
     wfcinit      :      1.18s CPU      2.61s WALL (       1 calls)
     potinit      :      0.80s CPU      2.63s WALL (       1 calls)
     hinit0       :      0.95s CPU      2.10s WALL (       1 calls)

     Called by electrons:
     c_bands      :     19.28s CPU     19.32s WALL (       6 calls)
     sum_band     :      3.28s CPU      3.42s WALL (       6 calls)
     v_of_rho     :      1.85s CPU      2.94s WALL (       7 calls)
     newd         :      0.99s CPU      1.71s WALL (       7 calls)
     PAW_pot      :      0.77s CPU      1.20s WALL (       7 calls)
     mix_rho      :      0.16s CPU      0.19s WALL (       6 calls)

     Called by c_bands:
     init_us_2    :      0.37s CPU      0.30s WALL (     180 calls)
     cegterg      :     18.77s CPU     18.97s WALL (      72 calls)

     Called by *egterg:
     cdiaghg      :      0.11s CPU      0.07s WALL (     420 calls)
     h_psi        :     17.72s CPU     19.12s WALL (     432 calls)
     s_psi        :      0.42s CPU      0.70s WALL (     432 calls)
     g_psi        :      0.09s CPU      0.05s WALL (     348 calls)

     Called by h_psi:
     h_psi:calbec :      0.44s CPU      0.96s WALL (     432 calls)
     vloc_psi     :     15.48s CPU     13.30s WALL (     432 calls)
     add_vuspsi   :      1.74s CPU      4.82s WALL (     432 calls)

     General routines
     calbec       :      0.53s CPU      1.05s WALL (     708 calls)
     fft          :      1.61s CPU      2.42s WALL (     114 calls)
     ffts         :      0.31s CPU      0.85s WALL (      13 calls)
     fftw         :     12.02s CPU     10.68s WALL (    4436 calls)
     interpolate  :      0.37s CPU      0.95s WALL (       7 calls)


     PWSCF        :     31.78s CPU     37.68s WALL


   This run was terminated on:   7:10:35   1Oct2025            

=------------------------------------------------------------------------------=
   JOB DONE.
=------------------------------------------------------------------------------=
