
     Program PWSCF v.7.4.1 starts on 28Oct2025 at 19:39: 2 

     This program is part of the open-source Quantum ESPRESSO suite
     for quantum simulation of materials; please cite
         "P. Giannozzi et al., J. Phys.:Condens. Matter 21 395502 (2009);
         "P. Giannozzi et al., J. Phys.:Condens. Matter 29 465901 (2017);
         "P. Giannozzi et al., J. Chem. Phys. 152 154105 (2020);
          URL http://www.quantum-espresso.org", 
     in publications or presentations arising from this work. More details at
     http://www.quantum-espresso.org/quote

     Serial version
     9109 MiB available memory on the printing compute node when the environment starts

     Reading input from grap_SOC_scf.in

     Current dimensions of program PWSCF are:
     Max number of different atomic species (ntypx) = 10
     Max number of k-points (npk) =  40000
     Max angular momentum in pseudopotentials (lmaxx) =  4
     file C.rel-pbe-n-kjpaw_psl.0.1.UPF: wavefunction(s)  2P 2P renormalized


     G-vector sticks info
     --------------------
     sticks:   dense  smooth     PW     G-vecs:    dense   smooth      PW
     Sum        1045     421    139               166859    42343    8205

     Using Slab Decomposition



     bravais-lattice index     =            0
     lattice parameter (alat)  =       4.6624  a.u.
     unit-cell volume          =     533.6317 (a.u.)^3
     number of atoms/cell      =            2
     number of atomic types    =            1
     number of electrons       =         8.00
     number of Kohn-Sham states=           16
     kinetic-energy cutoff     =      70.0000  Ry
     charge density cutoff     =     700.0000  Ry
     scf convergence threshold =      1.0E-08
     mixing beta               =       0.1000
     number of iterations used =            8  plain     mixing
     Exchange-correlation= SLA  PW   PBX  PBC
                           (   1   4   3   4   0   0   0)
     Non magnetic calculation with spin-orbit


     celldm(1)=   4.662410  celldm(2)=   0.000000  celldm(3)=   0.000000
     celldm(4)=   0.000000  celldm(5)=   0.000000  celldm(6)=   0.000000

     crystal axes: (cart. coord. in units of alat)
               a(1) = (   1.000000   0.000000  -0.000000 )  
               a(2) = (  -0.500000   0.866025   0.000000 )  
               a(3) = (  -0.000000   0.000000   6.079666 )  

     reciprocal axes: (cart. coord. in units 2 pi/alat)
               b(1) = (  1.000000  0.577350  0.000000 )  
               b(2) = ( -0.000000  1.154701 -0.000000 )  
               b(3) = (  0.000000  0.000000  0.164483 )  


     PseudoPot. # 1 for C  read from file:
     ../../../pseudos/C.rel-pbe-n-kjpaw_psl.0.1.UPF
     MD5 check sum: 5ef0b8f55ac4be3c3db5d31256eeff6b
     Pseudo is Projector augmented-wave + core cor, Zval =  4.0
     Generated using &quot;atomic&quot; code by A. Dal Corso  v.6.3
     Shape of augmentation charge: BESSEL
     Using radial grid of 1073 points,  6 beta functions with: 
                l(1) =   0
                l(2) =   0
                l(3) =   1
                l(4) =   1
                l(5) =   1
                l(6) =   1
     Q(r) pseudized with 0 coefficients 


     atomic species   valence    mass     pseudopotential
     C                 4.00    12.01100     C ( 1.00)

     No symmetry found



   Cartesian axes

     site n.     atom                  positions (alat units)
         1        C      tau(   1) = (   0.0000000   0.0000000   0.0000000  )
         2        C      tau(   2) = (   0.0000000   0.5773503   0.0000000  )

     number of k points=    74  Gaussian smearing, width (Ry)=  0.0020
                       cart. coord. in units 2pi/alat
        k(    1) = (   0.0000000   0.0000000   0.0000000), wk =   0.0069444
        k(    2) = (   0.0000000   0.0962250   0.0000000), wk =   0.0138889
        k(    3) = (   0.0000000   0.1924501   0.0000000), wk =   0.0138889
        k(    4) = (   0.0000000   0.2886751   0.0000000), wk =   0.0138889
        k(    5) = (   0.0000000   0.3849002   0.0000000), wk =   0.0138889
        k(    6) = (   0.0000000   0.4811252   0.0000000), wk =   0.0138889
        k(    7) = (   0.0000000  -0.5773503   0.0000000), wk =   0.0069444
        k(    8) = (   0.0833333   0.0481125   0.0000000), wk =   0.0138889
        k(    9) = (   0.0833333   0.1443376   0.0000000), wk =   0.0138889
        k(   10) = (   0.0833333   0.2405626   0.0000000), wk =   0.0138889
        k(   11) = (   0.0833333   0.3367877   0.0000000), wk =   0.0138889
        k(   12) = (   0.0833333   0.4330127   0.0000000), wk =   0.0138889
        k(   13) = (   0.0833333   0.5292377   0.0000000), wk =   0.0138889
        k(   14) = (   0.0833333  -0.5292377   0.0000000), wk =   0.0138889
        k(   15) = (   0.0833333  -0.4330127   0.0000000), wk =   0.0138889
        k(   16) = (   0.0833333  -0.3367877   0.0000000), wk =   0.0138889
        k(   17) = (   0.0833333  -0.2405626   0.0000000), wk =   0.0138889
        k(   18) = (   0.0833333  -0.1443376   0.0000000), wk =   0.0138889
        k(   19) = (   0.0833333  -0.0481125   0.0000000), wk =   0.0138889
        k(   20) = (   0.1666667   0.0962250   0.0000000), wk =   0.0138889
        k(   21) = (   0.1666667   0.1924501   0.0000000), wk =   0.0138889
        k(   22) = (   0.1666667   0.2886751   0.0000000), wk =   0.0138889
        k(   23) = (   0.1666667   0.3849002   0.0000000), wk =   0.0138889
        k(   24) = (   0.1666667   0.4811252   0.0000000), wk =   0.0138889
        k(   25) = (   0.1666667   0.5773503   0.0000000), wk =   0.0138889
        k(   26) = (   0.1666667  -0.4811252   0.0000000), wk =   0.0138889
        k(   27) = (   0.1666667  -0.3849002   0.0000000), wk =   0.0138889
        k(   28) = (   0.1666667  -0.2886751   0.0000000), wk =   0.0138889
        k(   29) = (   0.1666667  -0.1924501   0.0000000), wk =   0.0138889
        k(   30) = (   0.1666667  -0.0962250   0.0000000), wk =   0.0138889
        k(   31) = (   0.1666667  -0.0000000   0.0000000), wk =   0.0138889
        k(   32) = (   0.2500000   0.1443376   0.0000000), wk =   0.0138889
        k(   33) = (   0.2500000   0.2405626   0.0000000), wk =   0.0138889
        k(   34) = (   0.2500000   0.3367877   0.0000000), wk =   0.0138889
        k(   35) = (   0.2500000   0.4330127   0.0000000), wk =   0.0138889
        k(   36) = (   0.2500000   0.5292377   0.0000000), wk =   0.0138889
        k(   37) = (   0.2500000   0.6254628   0.0000000), wk =   0.0138889
        k(   38) = (   0.2500000  -0.4330127   0.0000000), wk =   0.0138889
        k(   39) = (   0.2500000  -0.3367877   0.0000000), wk =   0.0138889
        k(   40) = (   0.2500000  -0.2405626   0.0000000), wk =   0.0138889
        k(   41) = (   0.2500000  -0.1443376   0.0000000), wk =   0.0138889
        k(   42) = (   0.2500000  -0.0481125   0.0000000), wk =   0.0138889
        k(   43) = (   0.2500000   0.0481125   0.0000000), wk =   0.0138889
        k(   44) = (   0.3333333   0.1924501   0.0000000), wk =   0.0138889
        k(   45) = (   0.3333333   0.2886751   0.0000000), wk =   0.0138889
        k(   46) = (   0.3333333   0.3849002   0.0000000), wk =   0.0138889
        k(   47) = (   0.3333333   0.4811252   0.0000000), wk =   0.0138889
        k(   48) = (   0.3333333   0.5773503   0.0000000), wk =   0.0138889
        k(   49) = (   0.3333333   0.6735753   0.0000000), wk =   0.0138889
        k(   50) = (   0.3333333  -0.3849002   0.0000000), wk =   0.0138889
        k(   51) = (   0.3333333  -0.2886751   0.0000000), wk =   0.0138889
        k(   52) = (   0.3333333  -0.1924501   0.0000000), wk =   0.0138889
        k(   53) = (   0.3333333  -0.0962250   0.0000000), wk =   0.0138889
        k(   54) = (   0.3333333   0.0000000   0.0000000), wk =   0.0138889
        k(   55) = (   0.3333333   0.0962250   0.0000000), wk =   0.0138889
        k(   56) = (   0.4166667   0.2405626   0.0000000), wk =   0.0138889
        k(   57) = (   0.4166667   0.3367877   0.0000000), wk =   0.0138889
        k(   58) = (   0.4166667   0.4330127   0.0000000), wk =   0.0138889
        k(   59) = (   0.4166667   0.5292377   0.0000000), wk =   0.0138889
        k(   60) = (   0.4166667   0.6254628   0.0000000), wk =   0.0138889
        k(   61) = (   0.4166667   0.7216878   0.0000000), wk =   0.0138889
        k(   62) = (   0.4166667  -0.3367877   0.0000000), wk =   0.0138889
        k(   63) = (   0.4166667  -0.2405626   0.0000000), wk =   0.0138889
        k(   64) = (   0.4166667  -0.1443376   0.0000000), wk =   0.0138889
        k(   65) = (   0.4166667  -0.0481125   0.0000000), wk =   0.0138889
        k(   66) = (   0.4166667   0.0481125   0.0000000), wk =   0.0138889
        k(   67) = (   0.4166667   0.1443376   0.0000000), wk =   0.0138889
        k(   68) = (  -0.5000000  -0.2886751   0.0000000), wk =   0.0069444
        k(   69) = (  -0.5000000  -0.1924501   0.0000000), wk =   0.0138889
        k(   70) = (  -0.5000000  -0.0962250   0.0000000), wk =   0.0138889
        k(   71) = (  -0.5000000   0.0000000   0.0000000), wk =   0.0138889
        k(   72) = (  -0.5000000   0.0962250   0.0000000), wk =   0.0138889
        k(   73) = (  -0.5000000   0.1924501   0.0000000), wk =   0.0138889
        k(   74) = (  -0.5000000  -0.8660254   0.0000000), wk =   0.0069444

     Dense  grid:   166859 G-vectors     FFT dimensions: (  40,  40, 240)

     Smooth grid:    42343 G-vectors     FFT dimensions: (  25,  25, 160)

     Estimated max dynamical RAM per process >     798.94 MB

     Initial potential from superposition of free atoms

     starting charge       7.9999, renormalised to       8.0000

     negative rho (up, down):  2.781E-05 0.000E+00
     Starting wfcs are random

     total cpu time spent up to now is        8.5 secs

     Self-consistent Calculation

     iteration #  1     ecut=    70.00 Ry     beta= 0.10
     Davidson diagonalization with overlap
     ethr =  1.00E-02,  avg # of iterations =  8.8

     negative rho (up, down):  2.271E-05 0.000E+00

     total cpu time spent up to now is       95.5 secs

     total energy              =     -36.95393682 Ry
     estimated scf accuracy    <       0.20213561 Ry

     iteration #  2     ecut=    70.00 Ry     beta= 0.10
     Davidson diagonalization with overlap
     ethr =  2.53E-03,  avg # of iterations =  1.0

     negative rho (up, down):  1.045E-04 0.000E+00

     total cpu time spent up to now is      111.9 secs

     total energy              =     -36.85268858 Ry
     estimated scf accuracy    <       0.15622101 Ry

     iteration #  3     ecut=    70.00 Ry     beta= 0.10
     Davidson diagonalization with overlap
     ethr =  1.95E-03,  avg # of iterations =  3.9

     negative rho (up, down):  7.712E-05 0.000E+00

     total cpu time spent up to now is      132.0 secs

     total energy              =     -36.87727619 Ry
     estimated scf accuracy    <       0.00278274 Ry

     iteration #  4     ecut=    70.00 Ry     beta= 0.10
     Davidson diagonalization with overlap
     ethr =  3.48E-05,  avg # of iterations =  7.6

     negative rho (up, down):  7.842E-05 0.000E+00

     total cpu time spent up to now is      183.9 secs

     total energy              =     -36.90325210 Ry
     estimated scf accuracy    <       0.00720536 Ry

     iteration #  5     ecut=    70.00 Ry     beta= 0.10
     Davidson diagonalization with overlap
     ethr =  3.48E-05,  avg # of iterations =  5.0

     negative rho (up, down):  1.725E-04 0.000E+00

     total cpu time spent up to now is      213.5 secs

     total energy              =     -36.88809838 Ry
     estimated scf accuracy    <       0.03531102 Ry

     iteration #  6     ecut=    70.00 Ry     beta= 0.10
     Davidson diagonalization with overlap
     ethr =  3.48E-05,  avg # of iterations =  5.3

     negative rho (up, down):  4.874E-04 0.000E+00

     total cpu time spent up to now is      251.4 secs

     total energy              =     -36.88786800 Ry
     estimated scf accuracy    <       0.00394569 Ry

     iteration #  7     ecut=    70.00 Ry     beta= 0.10
     Davidson diagonalization with overlap
     ethr =  3.48E-05,  avg # of iterations =  4.4

     negative rho (up, down):  3.561E-04 0.000E+00

     total cpu time spent up to now is      276.2 secs

     total energy              =     -36.88899327 Ry
     estimated scf accuracy    <       0.00048718 Ry

     iteration #  8     ecut=    70.00 Ry     beta= 0.10
     Davidson diagonalization with overlap
     ethr =  6.09E-06,  avg # of iterations =  5.0

     negative rho (up, down):  3.289E-04 0.000E+00

     total cpu time spent up to now is      313.5 secs

     total energy              =     -36.88915374 Ry
     estimated scf accuracy    <       0.00105695 Ry

     iteration #  9     ecut=    70.00 Ry     beta= 0.10
     Davidson diagonalization with overlap
     ethr =  6.09E-06,  avg # of iterations =  1.0

     negative rho (up, down):  1.672E-04 0.000E+00

     total cpu time spent up to now is      334.2 secs

     total energy              =     -36.88890391 Ry
     estimated scf accuracy    <       0.00067142 Ry

     iteration # 10     ecut=    70.00 Ry     beta= 0.10
     Davidson diagonalization with overlap
     ethr =  6.09E-06,  avg # of iterations =  2.2

     negative rho (up, down):  1.049E-04 0.000E+00

     total cpu time spent up to now is      356.1 secs

     total energy              =     -36.88890346 Ry
     estimated scf accuracy    <       0.00020123 Ry

     iteration # 11     ecut=    70.00 Ry     beta= 0.10
     Davidson diagonalization with overlap
     ethr =  2.52E-06,  avg # of iterations =  3.7

     negative rho (up, down):  6.535E-05 0.000E+00

     total cpu time spent up to now is      381.3 secs

     total energy              =     -36.88884990 Ry
     estimated scf accuracy    <       0.00013522 Ry

     iteration # 12     ecut=    70.00 Ry     beta= 0.10
     Davidson diagonalization with overlap
     ethr =  1.69E-06,  avg # of iterations =  4.1

     negative rho (up, down):  4.206E-05 0.000E+00

     total cpu time spent up to now is      410.6 secs

     total energy              =     -36.88890208 Ry
     estimated scf accuracy    <       0.00000130 Ry

     iteration # 13     ecut=    70.00 Ry     beta= 0.10
     Davidson diagonalization with overlap
     ethr =  1.62E-08,  avg # of iterations =  5.0

     negative rho (up, down):  3.789E-05 0.000E+00

     total cpu time spent up to now is      455.6 secs

     total energy              =     -36.88892575 Ry
     estimated scf accuracy    <       0.00003507 Ry

     iteration # 14     ecut=    70.00 Ry     beta= 0.10
     Davidson diagonalization with overlap
     ethr =  1.62E-08,  avg # of iterations =  1.0

     negative rho (up, down):  3.570E-05 0.000E+00

     total cpu time spent up to now is      477.4 secs

     total energy              =     -36.88891716 Ry
     estimated scf accuracy    <       0.00003388 Ry

     iteration # 15     ecut=    70.00 Ry     beta= 0.10
     Davidson diagonalization with overlap
     ethr =  1.62E-08,  avg # of iterations =  3.4

     negative rho (up, down):  3.286E-05 0.000E+00

     total cpu time spent up to now is      504.9 secs

     total energy              =     -36.88891498 Ry
     estimated scf accuracy    <       0.00001712 Ry

     iteration # 16     ecut=    70.00 Ry     beta= 0.10
     Davidson diagonalization with overlap
     ethr =  1.62E-08,  avg # of iterations =  2.6

     negative rho (up, down):  2.678E-05 0.000E+00

     total cpu time spent up to now is      529.1 secs

     total energy              =     -36.88891137 Ry
     estimated scf accuracy    <       0.00001111 Ry

     iteration # 17     ecut=    70.00 Ry     beta= 0.10
     Davidson diagonalization with overlap
     ethr =  1.62E-08,  avg # of iterations =  3.3

     negative rho (up, down):  2.718E-05 0.000E+00

     total cpu time spent up to now is      556.8 secs

     total energy              =     -36.88891029 Ry
     estimated scf accuracy    <       0.00000355 Ry

     iteration # 18     ecut=    70.00 Ry     beta= 0.10
     Davidson diagonalization with overlap
     ethr =  1.62E-08,  avg # of iterations =  2.9

     negative rho (up, down):  2.480E-05 0.000E+00

     total cpu time spent up to now is      582.4 secs

     total energy              =     -36.88891064 Ry
     estimated scf accuracy    <       0.00000062 Ry

     iteration # 19     ecut=    70.00 Ry     beta= 0.10
     Davidson diagonalization with overlap
     ethr =  7.72E-09,  avg # of iterations =  4.2

     negative rho (up, down):  2.231E-05 0.000E+00

     total cpu time spent up to now is      618.0 secs

     total energy              =     -36.88891159 Ry
     estimated scf accuracy    <       0.00000306 Ry

     iteration # 20     ecut=    70.00 Ry     beta= 0.10
     Davidson diagonalization with overlap
     ethr =  7.72E-09,  avg # of iterations =  1.0

     negative rho (up, down):  2.132E-05 0.000E+00

     total cpu time spent up to now is      639.6 secs

     total energy              =     -36.88891165 Ry
     estimated scf accuracy    <       0.00000298 Ry

     iteration # 21     ecut=    70.00 Ry     beta= 0.10
     Davidson diagonalization with overlap
     ethr =  7.72E-09,  avg # of iterations =  1.0

     negative rho (up, down):  1.947E-05 0.000E+00

     total cpu time spent up to now is      661.6 secs

     total energy              =     -36.88891084 Ry
     estimated scf accuracy    <       0.00000245 Ry

     iteration # 22     ecut=    70.00 Ry     beta= 0.10
     Davidson diagonalization with overlap
     ethr =  7.72E-09,  avg # of iterations =  1.0

     negative rho (up, down):  1.573E-05 0.000E+00

     total cpu time spent up to now is      683.3 secs

     total energy              =     -36.88891031 Ry
     estimated scf accuracy    <       0.00000099 Ry

     iteration # 23     ecut=    70.00 Ry     beta= 0.10
     Davidson diagonalization with overlap
     ethr =  7.72E-09,  avg # of iterations =  3.8

     negative rho (up, down):  1.347E-05 0.000E+00

     total cpu time spent up to now is      714.5 secs

     total energy              =     -36.88891070 Ry
     estimated scf accuracy    <       0.00000033 Ry

     iteration # 24     ecut=    70.00 Ry     beta= 0.10
     Davidson diagonalization with overlap
     ethr =  4.07E-09,  avg # of iterations =  1.4

     negative rho (up, down):  1.125E-05 0.000E+00

     total cpu time spent up to now is      737.7 secs

     total energy              =     -36.88891080 Ry
     estimated scf accuracy    <       0.00000013 Ry

     iteration # 25     ecut=    70.00 Ry     beta= 0.10
     Davidson diagonalization with overlap
     ethr =  1.69E-09,  avg # of iterations =  1.6

     negative rho (up, down):  1.068E-05 0.000E+00

     total cpu time spent up to now is      759.6 secs

     total energy              =     -36.88891062 Ry
     estimated scf accuracy    <       0.00000027 Ry

     iteration # 26     ecut=    70.00 Ry     beta= 0.10
     Davidson diagonalization with overlap
     ethr =  1.69E-09,  avg # of iterations =  3.7

     negative rho (up, down):  9.736E-06 0.000E+00

     total cpu time spent up to now is      814.6 secs

     total energy              =     -36.88891068 Ry
     estimated scf accuracy    <       0.00000002 Ry

     iteration # 27     ecut=    70.00 Ry     beta= 0.10
     Davidson diagonalization with overlap
     ethr =  2.26E-10,  avg # of iterations =  3.6

     negative rho (up, down):  7.071E-06 0.000E+00

     total cpu time spent up to now is      942.1 secs

     End of self-consistent calculation

          k = 0.0000 0.0000 0.0000 (  5307 PWs)   bands (ev):

   -21.2377 -21.2377  -9.3330  -9.3330  -4.7877  -4.7877  -4.7784  -4.7784
     1.5196   1.5196   2.4169   2.4169   2.8572   2.8572   4.7521   4.7521

          k = 0.0000 0.0962 0.0000 (  5285 PWs)   bands (ev):

   -21.0739 -21.0739  -9.1374  -9.1374  -5.4329  -5.4329  -5.1203  -5.1203
     1.7424   1.7424   2.6414   2.6414   3.0838   3.0838   4.9751   4.9751

          k = 0.0000 0.1925 0.0000 (  5253 PWs)   bands (ev):

   -20.5845 -20.5845  -8.5558  -8.5558  -7.0685  -7.0685  -5.9104  -5.9104
     2.4105   2.4105   3.3136   3.3136   3.7637   3.7637   5.6410   5.6410

          k = 0.0000 0.2887 0.0000 (  5269 PWs)   bands (ev):

   -19.7750 -19.7750  -9.1642  -9.1642  -7.6074  -7.6074  -6.7876  -6.7876
     3.5219   3.5219   4.4136   4.4136   4.8956   4.8956   5.5230   5.5231

          k = 0.0000 0.3849 0.0000 (  5285 PWs)   bands (ev):

   -18.6579 -18.6579 -11.3646 -11.3646  -7.5190  -7.5190  -6.3423  -6.3423
     3.1774   3.1774   5.0644   5.0644   5.9628   5.9628   6.0165   6.0165

          k = 0.0000 0.4811 0.0000 (  5290 PWs)   bands (ev):

   -17.2644 -17.2644 -13.4617 -13.4617  -7.9906  -7.9906  -4.9234  -4.9234
     1.0475   1.0475   5.7074   5.7074   7.0723   7.0723   7.9993   7.9993

          k = 0.0000-0.5774 0.0000 (  5288 PWs)   bands (ev):

   -16.0066 -16.0066 -14.9619 -14.9619  -8.1525  -8.1525  -4.0812  -4.0812
    -0.0474  -0.0474   5.6280   5.6280   9.3730   9.3730   9.5238   9.5238

          k = 0.0833 0.0481 0.0000 (  5285 PWs)   bands (ev):

   -21.0739 -21.0739  -9.1374  -9.1374  -5.4329  -5.4329  -5.1203  -5.1203
     1.7424   1.7424   2.6414   2.6414   3.0838   3.0838   4.9751   4.9751

          k = 0.0833 0.1443 0.0000 (  5269 PWs)   bands (ev):

   -20.7473 -20.7473  -8.7486  -8.7486  -6.4655  -6.4655  -5.7958  -5.7958
     2.1880   2.1880   3.0900   3.0900   3.5372   3.5372   5.4202   5.4202

          k = 0.0833 0.2406 0.0000 (  5261 PWs)   bands (ev):

   -20.0979 -20.0979  -8.1732  -8.1732  -7.9825  -7.9825  -6.7912  -6.7912
     3.0787   3.0787   3.9829   3.9829   4.4439   4.4439   6.2683   6.2686

          k = 0.0833 0.3368 0.0000 (  5275 PWs)   bands (ev):

   -19.1344 -19.1344 -10.2435 -10.2435  -7.6754  -7.6754  -6.8693  -6.8693
     4.1869   4.1869   4.4100   4.4100   5.3435   5.3435   5.8013   5.8013

          k = 0.0833 0.4330 0.0000 (  5284 PWs)   bands (ev):

   -17.8759 -17.8759 -12.3634 -12.3634  -8.3087  -8.3087  -5.4933  -5.4933
     1.9919   1.9919   6.1517   6.1517   6.5658   6.5658   7.1003   7.1003

          k = 0.0833 0.5292 0.0000 (  5302 PWs)   bands (ev):

   -16.3998 -16.3998 -14.3009 -14.3009  -8.6363  -8.6363  -4.1876  -4.1876
     0.2279   0.2279   6.3660   6.3660   8.3691   8.3691   9.2477   9.2477

          k = 0.0833-0.5292 0.0000 (  5302 PWs)   bands (ev):

   -16.3998 -16.3998 -14.3009 -14.3009  -8.6363  -8.6363  -4.1876  -4.1876
     0.2279   0.2279   6.3660   6.3660   8.3691   8.3691   9.2477   9.2477

          k = 0.0833-0.4330 0.0000 (  5284 PWs)   bands (ev):

   -17.8759 -17.8759 -12.3634 -12.3634  -8.3087  -8.3087  -5.4933  -5.4933
     1.9919   1.9919   6.1517   6.1517   6.5658   6.5658   7.1003   7.1003

          k = 0.0833-0.3368 0.0000 (  5275 PWs)   bands (ev):

   -19.1344 -19.1344 -10.2435 -10.2435  -7.6754  -7.6754  -6.8693  -6.8693
     4.1869   4.1869   4.4100   4.4100   5.3435   5.3435   5.8013   5.8013

          k = 0.0833-0.2406 0.0000 (  5261 PWs)   bands (ev):

   -20.0979 -20.0979  -8.1732  -8.1732  -7.9825  -7.9825  -6.7912  -6.7912
     3.0787   3.0787   3.9829   3.9829   4.4439   4.4439   6.2626   6.2626

          k = 0.0833-0.1443 0.0000 (  5269 PWs)   bands (ev):

   -20.7473 -20.7473  -8.7486  -8.7486  -6.4655  -6.4655  -5.7958  -5.7958
     2.1880   2.1880   3.0900   3.0900   3.5372   3.5372   5.4202   5.4202

          k = 0.0833-0.0481 0.0000 (  5285 PWs)   bands (ev):

   -21.0739 -21.0739  -9.1374  -9.1374  -5.4329  -5.4329  -5.1203  -5.1203
     1.7424   1.7424   2.6414   2.6414   3.0838   3.0838   4.9751   4.9751

          k = 0.1667 0.0962 0.0000 (  5253 PWs)   bands (ev):

   -20.5845 -20.5845  -8.5558  -8.5558  -7.0685  -7.0685  -5.9104  -5.9104
     2.4105   2.4105   3.3136   3.3136   3.7637   3.7637   5.6410   5.6410

          k = 0.1667 0.1925 0.0000 (  5261 PWs)   bands (ev):

   -20.0979 -20.0979  -8.1732  -8.1732  -7.9825  -7.9825  -6.7912  -6.7912
     3.0787   3.0787   3.9829   3.9829   4.4439   4.4439   6.2654   6.2656

          k = 0.1667 0.2887 0.0000 (  5288 PWs)   bands (ev):

   -19.2944 -19.2944  -9.5027  -9.5027  -8.1499  -8.1499  -7.0476  -7.0476
     4.1902   4.1902   4.6420   4.6420   5.0923   5.0923   5.5776   5.5776

          k = 0.1667 0.3849 0.0000 (  5285 PWs)   bands (ev):

   -18.1880 -18.1880 -11.2277 -11.2277  -9.2044  -9.2044  -5.7978  -5.7978
     2.6988   2.6988   5.7374   5.7374   6.6218   6.6218   7.1615   7.1615

          k = 0.1667 0.4811 0.0000 (  5283 PWs)   bands (ev):

   -16.8144 -16.8144 -13.1352 -13.1352  -9.7797  -9.7797  -4.3747  -4.3747
     0.7912   0.7912   7.6920   7.6920   8.2799   8.2799   8.4897   8.4898

          k = 0.1667 0.5774 0.0000 (  5264 PWs)   bands (ev):

   -15.5853 -15.5853 -14.5645 -14.5645  -9.9643  -9.9643  -3.4845  -3.4845
    -0.2740  -0.2740   8.1729   8.1729   9.8752   9.8752   9.9339   9.9339

          k = 0.1667-0.4811 0.0000 (  5283 PWs)   bands (ev):

   -16.8144 -16.8144 -13.1352 -13.1352  -9.7797  -9.7797  -4.3747  -4.3747
     0.7912   0.7912   7.6920   7.6920   8.2799   8.2799   8.4897   8.4897

          k = 0.1667-0.3849 0.0000 (  5285 PWs)   bands (ev):

   -18.1880 -18.1880 -11.2277 -11.2277  -9.2044  -9.2044  -5.7978  -5.7978
     2.6988   2.6988   5.7374   5.7374   6.6218   6.6218   7.1615   7.1615

          k = 0.1667-0.2887 0.0000 (  5288 PWs)   bands (ev):

   -19.2944 -19.2944  -9.5027  -9.5027  -8.1499  -8.1499  -7.0476  -7.0476
     4.1902   4.1902   4.6420   4.6420   5.0923   5.0923   5.5776   5.5776

          k = 0.1667-0.1925 0.0000 (  5261 PWs)   bands (ev):

   -20.0979 -20.0979  -8.1732  -8.1732  -7.9825  -7.9825  -6.7912  -6.7912
     3.0787   3.0787   3.9829   3.9829   4.4439   4.4439   6.2626   6.2626

          k = 0.1667-0.0962 0.0000 (  5253 PWs)   bands (ev):

   -20.5845 -20.5845  -8.5558  -8.5558  -7.0685  -7.0685  -5.9104  -5.9104
     2.4105   2.4105   3.3136   3.3136   3.7637   3.7637   5.6410   5.6410

          k = 0.1667-0.0000 0.0000 (  5269 PWs)   bands (ev):

   -20.7473 -20.7473  -8.7486  -8.7486  -6.4655  -6.4655  -5.7958  -5.7958
     2.1880   2.1880   3.0900   3.0900   3.5372   3.5372   5.4202   5.4202

          k = 0.2500 0.1443 0.0000 (  5269 PWs)   bands (ev):

   -19.7750 -19.7750  -9.1642  -9.1642  -7.6074  -7.6074  -6.7876  -6.7876
     3.5219   3.5219   4.4136   4.4136   4.8956   4.8956   5.5230   5.5230

          k = 0.2500 0.2406 0.0000 (  5275 PWs)   bands (ev):

   -19.1344 -19.1344 -10.2435 -10.2435  -7.6754  -7.6754  -6.8693  -6.8693
     4.1869   4.1869   4.4100   4.4100   5.3435   5.3435   5.8013   5.8013

          k = 0.2500 0.3368 0.0000 (  5285 PWs)   bands (ev):

   -18.1880 -18.1880 -11.2277 -11.2277  -9.2044  -9.2044  -5.7978  -5.7978
     2.6988   2.6988   5.7374   5.7374   6.6218   6.6218   7.1615   7.1615

          k = 0.2500 0.4330 0.0000 (  5268 PWs)   bands (ev):

   -16.9617 -16.9617 -12.2637 -12.2637 -10.6837 -10.6837  -4.4585  -4.4585
     1.0878   1.0878   7.4842   7.4842   8.1985   8.1985   8.9675   8.9675

          k = 0.2500 0.5292 0.0000 (  5282 PWs)   bands (ev):

   -15.5424 -15.5424 -13.6820 -13.6820 -11.3906 -11.3906  -3.0764  -3.0764
    -0.4287  -0.4287   9.1409   9.1409   9.5749   9.5749  10.4410  10.4410

          k = 0.2500 0.6255 0.0000 (  5282 PWs)   bands (ev):

   -15.5424 -15.5424 -13.6819 -13.6819 -11.3906 -11.3906  -3.0764  -3.0764
    -0.4287  -0.4287   9.1409   9.1409   9.5749   9.5749  10.4410  10.4410

          k = 0.2500-0.4330 0.0000 (  5268 PWs)   bands (ev):

   -16.9617 -16.9617 -12.2637 -12.2637 -10.6837 -10.6837  -4.4585  -4.4585
     1.0878   1.0878   7.4842   7.4842   8.1985   8.1985   8.9675   8.9675

          k = 0.2500-0.3368 0.0000 (  5285 PWs)   bands (ev):

   -18.1880 -18.1880 -11.2277 -11.2277  -9.2044  -9.2044  -5.7978  -5.7978
     2.6988   2.6988   5.7374   5.7374   6.6218   6.6218   7.1615   7.1615

          k = 0.2500-0.2406 0.0000 (  5275 PWs)   bands (ev):

   -19.1344 -19.1344 -10.2435 -10.2435  -7.6754  -7.6754  -6.8693  -6.8693
     4.1869   4.1869   4.4100   4.4100   5.3435   5.3435   5.8013   5.8013

          k = 0.2500-0.1443 0.0000 (  5269 PWs)   bands (ev):

   -19.7750 -19.7750  -9.1642  -9.1642  -7.6074  -7.6074  -6.7876  -6.7876
     3.5219   3.5219   4.4136   4.4136   4.8956   4.8956   5.5230   5.5230

          k = 0.2500-0.0481 0.0000 (  5261 PWs)   bands (ev):

   -20.0979 -20.0979  -8.1732  -8.1732  -7.9825  -7.9825  -6.7912  -6.7912
     3.0787   3.0787   3.9829   3.9829   4.4439   4.4439   6.2626   6.2627

          k = 0.2500 0.0481 0.0000 (  5261 PWs)   bands (ev):

   -20.0979 -20.0979  -8.1732  -8.1732  -7.9825  -7.9825  -6.7912  -6.7912
     3.0787   3.0787   3.9829   3.9829   4.4439   4.4439   6.2626   6.2655

          k = 0.3333 0.1925 0.0000 (  5285 PWs)   bands (ev):

   -18.6579 -18.6579 -11.3646 -11.3646  -7.5190  -7.5190  -6.3423  -6.3423
     3.1774   3.1774   5.0643   5.0644   5.9628   5.9628   6.0165   6.0165

          k = 0.3333 0.2887 0.0000 (  5284 PWs)   bands (ev):

   -17.8759 -17.8759 -12.3634 -12.3634  -8.3087  -8.3087  -5.4933  -5.4933
     1.9919   1.9919   6.1517   6.1517   6.5658   6.5658   7.1003   7.1003

          k = 0.3333 0.3849 0.0000 (  5283 PWs)   bands (ev):

   -16.8144 -16.8144 -13.1352 -13.1352  -9.7797  -9.7797  -4.3747  -4.3747
     0.7912   0.7912   7.6920   7.6920   8.2799   8.2799   8.4897   8.4898

          k = 0.3333 0.4811 0.0000 (  5282 PWs)   bands (ev):

   -15.5424 -15.5424 -13.6820 -13.6820 -11.3906 -11.3906  -3.0764  -3.0764
    -0.4287  -0.4287   9.1409   9.1409   9.5749   9.5749  10.4410  10.4410

          k = 0.3333 0.5774 0.0000 (  5292 PWs)   bands (ev):

   -14.3287 -14.3287 -14.3266 -14.3266 -12.2809 -12.2809  -1.7238  -1.7238
    -1.7238  -1.7237   8.8793   8.8793  11.1360  11.1361  11.1401  11.1401

          k = 0.3333 0.6736 0.0000 (  5282 PWs)   bands (ev):

   -15.5424 -15.5424 -13.6819 -13.6819 -11.3906 -11.3906  -3.0764  -3.0764
    -0.4287  -0.4287   9.1409   9.1409   9.5749   9.5749  10.4410  10.4410

          k = 0.3333-0.3849 0.0000 (  5283 PWs)   bands (ev):

   -16.8144 -16.8144 -13.1352 -13.1352  -9.7797  -9.7797  -4.3747  -4.3747
     0.7912   0.7912   7.6920   7.6920   8.2799   8.2799   8.4897   8.4897

          k = 0.3333-0.2887 0.0000 (  5284 PWs)   bands (ev):

   -17.8759 -17.8759 -12.3634 -12.3634  -8.3087  -8.3087  -5.4933  -5.4933
     1.9919   1.9919   6.1517   6.1517   6.5658   6.5658   7.1003   7.1003

          k = 0.3333-0.1925 0.0000 (  5285 PWs)   bands (ev):

   -18.6579 -18.6579 -11.3646 -11.3646  -7.5190  -7.5190  -6.3423  -6.3423
     3.1774   3.1774   5.0644   5.0644   5.9628   5.9628   6.0165   6.0165

          k = 0.3333-0.0962 0.0000 (  5275 PWs)   bands (ev):

   -19.1344 -19.1344 -10.2435 -10.2435  -7.6754  -7.6754  -6.8693  -6.8693
     4.1869   4.1869   4.4100   4.4100   5.3435   5.3435   5.8013   5.8013

          k = 0.3333 0.0000 0.0000 (  5288 PWs)   bands (ev):

   -19.2944 -19.2944  -9.5027  -9.5027  -8.1499  -8.1499  -7.0476  -7.0476
     4.1902   4.1902   4.6420   4.6420   5.0923   5.0923   5.5776   5.5776

          k = 0.3333 0.0962 0.0000 (  5275 PWs)   bands (ev):

   -19.1344 -19.1344 -10.2435 -10.2435  -7.6754  -7.6754  -6.8693  -6.8693
     4.1869   4.1869   4.4100   4.4100   5.3435   5.3435   5.8013   5.8013

          k = 0.4167 0.2406 0.0000 (  5290 PWs)   bands (ev):

   -17.2644 -17.2644 -13.4617 -13.4617  -7.9905  -7.9905  -4.9234  -4.9234
     1.0475   1.0475   5.7075   5.7075   7.0723   7.0723   7.9993   7.9993

          k = 0.4167 0.3368 0.0000 (  5302 PWs)   bands (ev):

   -16.3998 -16.3998 -14.3009 -14.3009  -8.6363  -8.6363  -4.1876  -4.1876
     0.2279   0.2279   6.3660   6.3660   8.3691   8.3691   9.2477   9.2477

          k = 0.4167 0.4330 0.0000 (  5264 PWs)   bands (ev):

   -15.5853 -15.5853 -14.5645 -14.5645  -9.9643  -9.9643  -3.4845  -3.4845
    -0.2740  -0.2740   8.1729   8.1729   9.8752   9.8752   9.9339   9.9339

          k = 0.4167 0.5292 0.0000 (  5282 PWs)   bands (ev):

   -15.5424 -15.5424 -13.6820 -13.6820 -11.3906 -11.3906  -3.0764  -3.0764
    -0.4287  -0.4287   9.1409   9.1409   9.5749   9.5749  10.4410  10.4410

          k = 0.4167 0.6255 0.0000 (  5282 PWs)   bands (ev):

   -15.5424 -15.5424 -13.6819 -13.6819 -11.3906 -11.3906  -3.0764  -3.0764
    -0.4287  -0.4287   9.1409   9.1409   9.5749   9.5749  10.4410  10.4410

          k = 0.4167 0.7217 0.0000 (  5264 PWs)   bands (ev):

   -15.5853 -15.5853 -14.5645 -14.5645  -9.9643  -9.9643  -3.4845  -3.4845
    -0.2740  -0.2740   8.1729   8.1729   9.8752   9.8752   9.9339   9.9339

          k = 0.4167-0.3368 0.0000 (  5302 PWs)   bands (ev):

   -16.3998 -16.3998 -14.3009 -14.3009  -8.6363  -8.6363  -4.1876  -4.1876
     0.2279   0.2279   6.3660   6.3660   8.3691   8.3691   9.2477   9.2477

          k = 0.4167-0.2406 0.0000 (  5290 PWs)   bands (ev):

   -17.2644 -17.2644 -13.4617 -13.4617  -7.9906  -7.9906  -4.9234  -4.9234
     1.0475   1.0475   5.7074   5.7074   7.0723   7.0723   7.9993   7.9993

          k = 0.4167-0.1443 0.0000 (  5284 PWs)   bands (ev):

   -17.8759 -17.8759 -12.3634 -12.3634  -8.3087  -8.3087  -5.4933  -5.4933
     1.9919   1.9919   6.1517   6.1517   6.5658   6.5658   7.1003   7.1003

          k = 0.4167-0.0481 0.0000 (  5285 PWs)   bands (ev):

   -18.1880 -18.1880 -11.2277 -11.2277  -9.2044  -9.2044  -5.7978  -5.7978
     2.6988   2.6988   5.7374   5.7374   6.6218   6.6218   7.1615   7.1615

          k = 0.4167 0.0481 0.0000 (  5285 PWs)   bands (ev):

   -18.1880 -18.1880 -11.2277 -11.2277  -9.2044  -9.2044  -5.7978  -5.7978
     2.6988   2.6988   5.7374   5.7374   6.6218   6.6218   7.1615   7.1615

          k = 0.4167 0.1443 0.0000 (  5284 PWs)   bands (ev):

   -17.8759 -17.8759 -12.3634 -12.3634  -8.3087  -8.3087  -5.4933  -5.4933
     1.9919   1.9919   6.1517   6.1517   6.5658   6.5658   7.1003   7.1003

          k =-0.5000-0.2887 0.0000 (  5288 PWs)   bands (ev):

   -16.0066 -16.0066 -14.9619 -14.9619  -8.1524  -8.1524  -4.0812  -4.0812
    -0.0474  -0.0474   5.6280   5.6280   9.3730   9.3730   9.5238   9.5238

          k =-0.5000-0.1925 0.0000 (  5302 PWs)   bands (ev):

   -16.3998 -16.3998 -14.3009 -14.3009  -8.6363  -8.6363  -4.1876  -4.1876
     0.2279   0.2279   6.3660   6.3660   8.3691   8.3691   9.2477   9.2477

          k =-0.5000-0.0962 0.0000 (  5283 PWs)   bands (ev):

   -16.8144 -16.8144 -13.1352 -13.1352  -9.7797  -9.7797  -4.3747  -4.3747
     0.7912   0.7912   7.6920   7.6920   8.2799   8.2799   8.4897   8.4897

          k =-0.5000 0.0000 0.0000 (  5268 PWs)   bands (ev):

   -16.9617 -16.9617 -12.2637 -12.2637 -10.6837 -10.6837  -4.4585  -4.4585
     1.0878   1.0878   7.4842   7.4842   8.1985   8.1985   8.9675   8.9675

          k =-0.5000 0.0962 0.0000 (  5283 PWs)   bands (ev):

   -16.8144 -16.8144 -13.1352 -13.1352  -9.7797  -9.7797  -4.3747  -4.3747
     0.7912   0.7912   7.6920   7.6920   8.2799   8.2799   8.4897   8.4897

          k =-0.5000 0.1925 0.0000 (  5302 PWs)   bands (ev):

   -16.3998 -16.3998 -14.3009 -14.3009  -8.6363  -8.6363  -4.1876  -4.1876
     0.2279   0.2279   6.3660   6.3660   8.3691   8.3691   9.2477   9.2477

          k =-0.5000-0.8660 0.0000 (  5288 PWs)   bands (ev):

   -16.0066 -16.0066 -14.9619 -14.9619  -8.1525  -8.1525  -4.0812  -4.0812
    -0.0473  -0.0473   5.6280   5.6280   9.3730   9.3730   9.5238   9.5238

     the Fermi energy is  -1.723754 ev

!    total energy              =     -36.88891072 Ry
     total all-electron energy =      -152.417200 Ry
     estimated scf accuracy    <          5.8E-09 Ry
     smearing contrib. (-TS)   =      -0.00003134 Ry
     internal energy E=F+TS    =     -36.88887938 Ry

     The total energy is F=E-TS. E is the sum of the following terms:
     one-electron contribution =    -156.62370198 Ry
     hartree contribution      =      79.91892071 Ry
     xc contribution           =      -8.28630939 Ry
     ewald contribution        =      61.40972547 Ry
     one-center paw contrib.   =     -13.30751418 Ry

     convergence has been achieved in  27 iterations

     negative rho (up, down):  7.071E-06 0.000E+00

     Forces acting on atoms (cartesian axes, Ry/au):

     atom    1 type  1   force =    -0.00000136    0.00000054    0.00000088
     atom    2 type  1   force =     0.00000136   -0.00000054   -0.00000088

     Total force =     0.000002     Total SCF correction =     0.000006
     SCF correction compared to forces is large: reduce conv_thr to get better values


     Computing stress (Cartesian axis) and pressure


     negative rho (up, down):  7.071E-06 0.000E+00
          total   stress  (Ry/bohr**3)                   (kbar)     P=       -0.83
  -0.00000832  -0.00000001  -0.00000000           -1.22       -0.00       -0.00
  -0.00000001  -0.00000832  -0.00000000           -0.00       -1.22       -0.00
  -0.00000000  -0.00000000  -0.00000026           -0.00       -0.00       -0.04


     Writing all to output data dir ./tmp/graphene.save/ :
     XML data file, charge density, pseudopotentials, collected wavefunctions

     init_run     :      8.14s CPU      8.33s WALL (       1 calls)
     electrons    :    901.32s CPU    933.63s WALL (       1 calls)
     forces       :     13.33s CPU     13.84s WALL (       1 calls)
     stress       :     49.18s CPU     50.65s WALL (       1 calls)

     Called by init_run:
     wfcinit      :      6.63s CPU      6.68s WALL (       1 calls)
     potinit      :      0.51s CPU      0.55s WALL (       1 calls)
     hinit0       :      0.73s CPU      0.74s WALL (       1 calls)

     Called by electrons:
     c_bands      :    777.97s CPU    801.98s WALL (      27 calls)
     sum_band     :    104.88s CPU    109.71s WALL (      27 calls)
     v_of_rho     :      3.97s CPU      4.01s WALL (      28 calls)
     newd         :      9.01s CPU     12.48s WALL (      28 calls)
     PAW_pot      :      2.58s CPU      2.58s WALL (      28 calls)
     mix_rho      :      2.16s CPU      2.17s WALL (      27 calls)

     Called by c_bands:
     init_us_2    :      5.53s CPU      5.57s WALL (    4218 calls)
     cegterg      :    759.08s CPU    783.06s WALL (    1998 calls)

     Called by *egterg:
     cdiaghg      :      7.73s CPU      7.74s WALL (    8768 calls)
     h_psi        :    470.37s CPU    471.84s WALL (    8842 calls)
     s_psi        :     52.43s CPU     52.54s WALL (    8842 calls)
     g_psi        :      2.39s CPU      2.40s WALL (    6770 calls)

     Called by h_psi:
     h_psi:calbec :     51.44s CPU     51.49s WALL (    8842 calls)
     vloc_psi     :    364.58s CPU    365.57s WALL (    8842 calls)
     add_vuspsi   :     52.65s CPU     52.69s WALL (    8842 calls)

     General routines
     calbec       :    115.24s CPU    115.35s WALL (   12098 calls)
     fft          :      4.34s CPU      4.34s WALL (     714 calls)
     ffts         :      0.54s CPU      0.54s WALL (     220 calls)
     fftw         :    247.37s CPU    247.96s WALL (  432252 calls)
     interpolate  :      1.09s CPU      1.10s WALL (     112 calls)


     PWSCF        :  16m12.39s CPU  16m47.33s WALL


   This run was terminated on:  19:55:49  28Oct2025            

=------------------------------------------------------------------------------=
   JOB DONE.
=------------------------------------------------------------------------------=
