
     Program PWSCF v.7.4.1 starts on  1Oct2025 at  7:39:14 

     This program is part of the open-source Quantum ESPRESSO suite
     for quantum simulation of materials; please cite
         "P. Giannozzi et al., J. Phys.:Condens. Matter 21 395502 (2009);
         "P. Giannozzi et al., J. Phys.:Condens. Matter 29 465901 (2017);
         "P. Giannozzi et al., J. Chem. Phys. 152 154105 (2020);
          URL http://www.quantum-espresso.org", 
     in publications or presentations arising from this work. More details at
     http://www.quantum-espresso.org/quote

     Serial version
     17616 MiB available memory on the printing compute node when the environment starts

     Reading input from graphene_scf.in

     Current dimensions of program PWSCF are:
     Max number of different atomic species (ntypx) = 10
     Max number of k-points (npk) =  40000
     Max angular momentum in pseudopotentials (lmaxx) =  4
     file C.pbe-n-kjpaw_psl.1.0.0.UPF: wavefunction(s)  2S 2P renormalized
     Message from routine setup:
     using ibrav=0 with symmetry is DISCOURAGED, use correct ibrav instead


     G-vector sticks info
     --------------------
     sticks:   dense  smooth     PW     G-vecs:    dense   smooth      PW
     Sum        1039     421    121               166325    42211    7043

     Using Slab Decomposition



     bravais-lattice index     =            0
     lattice parameter (alat)  =       4.6540  a.u.
     unit-cell volume          =     531.7080 (a.u.)^3
     number of atoms/cell      =            2
     number of atomic types    =            1
     number of electrons       =         8.00
     number of Kohn-Sham states=            8
     kinetic-energy cutoff     =      70.0000  Ry
     charge density cutoff     =     700.0000  Ry
     scf convergence threshold =      1.0E-08
     mixing beta               =       0.7000
     number of iterations used =            8  plain     mixing
     Exchange-correlation= SLA  PW   PBX  PBC
                           (   1   4   3   4   0   0   0)

     celldm(1)=   4.653998  celldm(2)=   0.000000  celldm(3)=   0.000000
     celldm(4)=   0.000000  celldm(5)=   0.000000  celldm(6)=   0.000000

     crystal axes: (cart. coord. in units of alat)
               a(1) = (   1.000000   0.000000   0.000000 )  
               a(2) = (  -0.500000   0.866025   0.000000 )  
               a(3) = (   0.000000   0.000000   6.090654 )  

     reciprocal axes: (cart. coord. in units 2 pi/alat)
               b(1) = (  1.000000  0.577350 -0.000000 )  
               b(2) = (  0.000000  1.154701  0.000000 )  
               b(3) = (  0.000000 -0.000000  0.164186 )  


     PseudoPot. # 1 for C  read from file:
     ../../../../pseudos/C.pbe-n-kjpaw_psl.1.0.0.UPF
     MD5 check sum: 5d2aebdfa2cae82b50a7e79e9516da0f
     Pseudo is Projector augmented-wave + core cor, Zval =  4.0
     Generated using "atomic" code by A. Dal Corso  v.5.1
     Shape of augmentation charge: PSQ
     Using radial grid of 1073 points,  4 beta functions with: 
                l(1) =   0
                l(2) =   0
                l(3) =   1
                l(4) =   1
     Q(r) pseudized with 0 coefficients 


     atomic species   valence    mass     pseudopotential
     C                 4.00    12.01070     C ( 1.00)

     24 Sym. Ops., with inversion, found (12 have fractional translation)



   Cartesian axes

     site n.     atom                  positions (alat units)
         1        C      tau(   1) = (   0.0000000   0.0000000   0.0000000  )
         2        C      tau(   2) = (   0.0000000   0.5773503   0.0000000  )

     number of k points=    16  Gaussian smearing, width (Ry)=  0.0100
                       cart. coord. in units 2pi/alat
        k(    1) = (   0.0000000   0.0000000   0.0000000), wk =   0.0165289
        k(    2) = (   0.0000000   0.1049728   0.0000000), wk =   0.0991736
        k(    3) = (   0.0000000   0.2099456   0.0000000), wk =   0.0991736
        k(    4) = (   0.0000000   0.3149183   0.0000000), wk =   0.0991736
        k(    5) = (   0.0000000   0.4198911   0.0000000), wk =   0.0991736
        k(    6) = (   0.0000000   0.5248639   0.0000000), wk =   0.0991736
        k(    7) = (   0.0909091   0.1574592   0.0000000), wk =   0.0991736
        k(    8) = (   0.0909091   0.2624319   0.0000000), wk =   0.1983471
        k(    9) = (   0.0909091   0.3674047   0.0000000), wk =   0.1983471
        k(   10) = (   0.0909091   0.4723775   0.0000000), wk =   0.1983471
        k(   11) = (   0.0909091   0.5773503   0.0000000), wk =   0.0991736
        k(   12) = (   0.1818182   0.3149183   0.0000000), wk =   0.0991736
        k(   13) = (   0.1818182   0.4198911   0.0000000), wk =   0.1983471
        k(   14) = (   0.1818182   0.5248639   0.0000000), wk =   0.1983471
        k(   15) = (   0.2727273   0.4723775   0.0000000), wk =   0.0991736
        k(   16) = (   0.2727273   0.5773503   0.0000000), wk =   0.0991736

     Dense  grid:   166325 G-vectors     FFT dimensions: (  45,  45, 240)

     Smooth grid:    42211 G-vectors     FFT dimensions: (  27,  27, 160)

     Estimated max dynamical RAM per process >     241.28 MB

     Initial potential from superposition of free atoms

     starting charge       7.9999, renormalised to       8.0000

     negative rho (up, down):  2.230E-05 0.000E+00
     Starting wfcs are    8 randomized atomic wfcs

     total cpu time spent up to now is        3.7 secs

     Self-consistent Calculation

     iteration #  1     ecut=    70.00 Ry     beta= 0.70
     Davidson diagonalization with overlap
     ethr =  1.00E-02,  avg # of iterations =  5.6

     negative rho (up, down):  2.261E-05 0.000E+00

     total cpu time spent up to now is       11.6 secs

     total energy              =     -36.86098951 Ry
     estimated scf accuracy    <       0.19381247 Ry

     iteration #  2     ecut=    70.00 Ry     beta= 0.70
     Davidson diagonalization with overlap
     ethr =  2.42E-03,  avg # of iterations =  2.9

     negative rho (up, down):  2.926E-05 0.000E+00

     total cpu time spent up to now is       17.8 secs

     total energy              =     -36.88759135 Ry
     estimated scf accuracy    <       0.00196551 Ry

     iteration #  3     ecut=    70.00 Ry     beta= 0.70
     Davidson diagonalization with overlap
     ethr =  2.46E-05,  avg # of iterations = 10.8

     negative rho (up, down):  3.491E-05 0.000E+00

     total cpu time spent up to now is       36.7 secs

     total energy              =     -36.88789669 Ry
     estimated scf accuracy    <       0.00015269 Ry

     iteration #  4     ecut=    70.00 Ry     beta= 0.70
     Davidson diagonalization with overlap
     ethr =  1.91E-06,  avg # of iterations =  3.5

     negative rho (up, down):  3.548E-05 0.000E+00

     total cpu time spent up to now is       46.5 secs

     total energy              =     -36.88790936 Ry
     estimated scf accuracy    <       0.00000196 Ry

     iteration #  5     ecut=    70.00 Ry     beta= 0.70
     Davidson diagonalization with overlap
     ethr =  2.46E-08,  avg # of iterations =  2.9

     negative rho (up, down):  3.551E-05 0.000E+00

     total cpu time spent up to now is       56.1 secs

     total energy              =     -36.88791035 Ry
     estimated scf accuracy    <       0.00000006 Ry

     iteration #  6     ecut=    70.00 Ry     beta= 0.70
     Davidson diagonalization with overlap
     ethr =  7.24E-10,  avg # of iterations =  2.5

     negative rho (up, down):  3.552E-05 0.000E+00

     total cpu time spent up to now is       63.1 secs

     End of self-consistent calculation

          k = 0.0000 0.0000 0.0000 (  5283 PWs)   bands (ev):

   -21.2631  -9.3522  -4.7556  -4.7556   1.5223   2.4169   2.8473   4.7451

          k = 0.0000 0.1050 0.0000 (  5245 PWs)   bands (ev):

   -21.0676  -9.1183  -5.5243  -5.1550   1.7884   2.6852   3.1181   5.0114

          k = 0.0000 0.2099 0.0000 (  5235 PWs)   bands (ev):

   -20.4838  -8.4242  -7.4103  -6.0545   2.5864   3.4876   3.9300   5.8050

          k = 0.0000 0.3149 0.0000 (  5255 PWs)   bands (ev):

   -19.5199  -9.7550  -7.2990  -6.9968   3.9129   4.6975   5.0675   5.2809

          k = 0.0000 0.4199 0.0000 (  5267 PWs)   bands (ev):

   -18.1950 -12.1477  -7.7179  -5.8282   2.3994   5.7105   6.0049   6.7052

          k = 0.0000 0.5249 0.0000 (  5282 PWs)   bands (ev):

   -16.5833 -14.3296  -8.1005  -4.3690   0.3531   5.7460   8.1317   9.0602

          k = 0.0909 0.1575 0.0000 (  5241 PWs)   bands (ev):

   -20.6780  -8.6541  -6.7042  -5.9542   2.3208   3.2208   3.6595   5.5428

          k = 0.0909 0.2624 0.0000 (  5242 PWs)   bands (ev):

   -19.9041  -8.6257  -7.7423  -7.0733   3.3843   4.2850   4.7425   5.9028

          k = 0.0909 0.3674 0.0000 (  5265 PWs)   bands (ev):

   -18.7592 -10.9112  -7.9899  -6.4308   3.5077   4.9721   5.8958   6.3610

          k = 0.0909 0.4724 0.0000 (  5269 PWs)   bands (ev):

   -17.2766 -13.1824  -8.5712  -4.8786   1.1927   6.6489   7.1087   7.9868

          k = 0.0909 0.5774 0.0000 (  5288 PWs)   bands (ev):

   -15.8805 -14.8559  -8.7695  -3.8931  -0.0690   6.5708   9.5800   9.7403

          k = 0.1818 0.3149 0.0000 (  5246 PWs)   bands (ev):

   -18.9491 -10.0339  -8.6244  -6.6366   4.0191   4.7106   5.6058   6.0962

          k = 0.1818 0.4199 0.0000 (  5259 PWs)   bands (ev):

   -17.6415 -11.8964  -9.7093  -5.1833   1.9292   6.5518   7.4022   7.9857

          k = 0.1818 0.5249 0.0000 (  5254 PWs)   bands (ev):

   -16.0633 -13.8918 -10.1852  -3.6879   0.0687   8.6671   8.9154   9.3696

          k = 0.2727 0.4724 0.0000 (  5278 PWs)   bands (ev):

   -16.2143 -12.8977 -11.2995  -3.6628   0.2609   8.6095   8.9078  10.1335

          k = 0.2727 0.5774 0.0000 (  5256 PWs)   bands (ev):

   -14.8788 -14.1152 -11.8356  -2.4765  -0.9651   9.0799  10.7854  10.8497

     the Fermi energy is    -1.6689 ev

!    total energy              =     -36.88791037 Ry
     total all-electron energy =      -152.416106 Ry
     estimated scf accuracy    <          3.7E-10 Ry
     smearing contrib. (-TS)   =      -0.00000000 Ry
     internal energy E=F+TS    =     -36.88791037 Ry

     The total energy is F=E-TS. E is the sum of the following terms:
     one-electron contribution =    -157.20138957 Ry
     hartree contribution      =      80.22434888 Ry
     xc contribution           =      -9.28002525 Ry
     ewald contribution        =      61.70343446 Ry
     one-center paw contrib.   =     -12.33427888 Ry

     convergence has been achieved in   6 iterations

     negative rho (up, down):  3.552E-05 0.000E+00

     Forces acting on atoms (cartesian axes, Ry/au):

     atom    1 type  1   force =     0.00000000   -0.00000000    0.00000000
     atom    2 type  1   force =     0.00000000    0.00000000    0.00000000

     Total force =     0.000000     Total SCF correction =     0.000000


     Computing stress (Cartesian axis) and pressure


     negative rho (up, down):  3.552E-05 0.000E+00
          total   stress  (Ry/bohr**3)                   (kbar)     P=        3.09
   0.00003232   0.00000000   0.00000000            4.75        0.00        0.00
   0.00000000   0.00003232   0.00000000            0.00        4.75        0.00
   0.00000000   0.00000000  -0.00000158            0.00        0.00       -0.23


     Writing all to output data dir ./tmp/graphene.save/ :
     XML data file, charge density, pseudopotentials, collected wavefunctions

     init_run     :      3.17s CPU      3.54s WALL (       1 calls)
     electrons    :     28.10s CPU     59.42s WALL (       1 calls)
     forces       :      0.57s CPU      0.71s WALL (       1 calls)
     stress       :      2.28s CPU      3.59s WALL (       1 calls)

     Called by init_run:
     wfcinit      :      1.15s CPU      1.10s WALL (       1 calls)
     potinit      :      0.82s CPU      0.94s WALL (       1 calls)
     hinit0       :      1.04s CPU      1.30s WALL (       1 calls)

     Called by electrons:
     c_bands      :     21.73s CPU     45.76s WALL (       6 calls)
     sum_band     :      2.84s CPU      5.16s WALL (       6 calls)
     v_of_rho     :      1.88s CPU      3.75s WALL (       7 calls)
     newd         :      0.90s CPU      2.88s WALL (       7 calls)
     PAW_pot      :      0.87s CPU      1.59s WALL (       7 calls)
     mix_rho      :      0.18s CPU      0.67s WALL (       6 calls)

     Called by c_bands:
     init_us_2    :      0.36s CPU      0.47s WALL (     240 calls)
     cegterg      :     21.30s CPU     45.35s WALL (      96 calls)

     Called by *egterg:
     cdiaghg      :      0.10s CPU      0.10s WALL (     547 calls)
     h_psi        :     19.92s CPU     40.29s WALL (     563 calls)
     s_psi        :      0.72s CPU      2.67s WALL (     563 calls)
     g_psi        :      0.05s CPU      0.05s WALL (     451 calls)

     Called by h_psi:
     h_psi:calbec :      0.57s CPU      2.21s WALL (     563 calls)
     vloc_psi     :     15.30s CPU     18.87s WALL (     563 calls)
     add_vuspsi   :      4.01s CPU     19.15s WALL (     563 calls)

     General routines
     calbec       :      0.69s CPU      2.34s WALL (     931 calls)
     fft          :      2.05s CPU      3.27s WALL (     114 calls)
     ffts         :      0.40s CPU      0.40s WALL (      13 calls)
     fftw         :     11.88s CPU     15.80s WALL (    5924 calls)
     interpolate  :      0.48s CPU      0.49s WALL (       7 calls)


     PWSCF        :     34.33s CPU   1m 7.51s WALL


   This run was terminated on:   7:40:22   1Oct2025            

=------------------------------------------------------------------------------=
   JOB DONE.
=------------------------------------------------------------------------------=
