C  H 
 1.0000000000000000
     0.0000000000000000    0.0000000000000000    4.2859656153173900
    33.2190488041099172    0.0000000000000000    0.0000000000000000
     0.0000000000000000   30.0883046097560971    0.0000000000000000
 C   H  
   4   4
Cartesian
 15.9439676901250387 15.0000000000000000  0.0000000000000000
 17.1775882449395283 15.0000000000000000  0.7122311594000000
 17.1775882449395283 15.0000000000000000  2.1366934782000002
 15.9439676901250387 15.0000000000000000  2.8489246376000001
 15.0000000000000000 15.0000000000000000  0.5450000000000000
 15.0000000000000000 15.0000000000000000  2.3039246376000002
 18.1215559350645634 15.0000000000000000  0.1672311594000000
 18.1215559350645634 15.0000000000000000  2.6816934782000001
