
     Program PWSCF v.7.4.1 starts on 18Nov2025 at 15: 6:29 

     This program is part of the open-source Quantum ESPRESSO suite
     for quantum simulation of materials; please cite
         "P. Giannozzi et al., J. Phys.:Condens. Matter 21 395502 (2009);
         "P. Giannozzi et al., J. Phys.:Condens. Matter 29 465901 (2017);
         "P. Giannozzi et al., J. Chem. Phys. 152 154105 (2020);
          URL http://www.quantum-espresso.org", 
     in publications or presentations arising from this work. More details at
     http://www.quantum-espresso.org/quote

     Parallel version (MPI), running on     6 processors

     MPI processes distributed on     1 nodes
     108852 MiB available memory on the printing compute node when the environment starts
 
     Reading input from 1-agnr_bands.in

     Current dimensions of program PWSCF are:
     Max number of different atomic species (ntypx) = 10
     Max number of k-points (npk) =  40000
     Max angular momentum in pseudopotentials (lmaxx) =  4
     Message from routine input:
     WARNING: "startingwfc" set to random may spoil restart
     file C.pbe-n-kjpaw_psl.1.0.0.UPF: wavefunction(s)  2S 2P renormalized
     file H.pbe-kjpaw_psl.1.0.0.UPF: wavefunction(s)  1S renormalized
 
     R & G space division:  proc/nbgrp/npool/nimage =       6
     Subspace diagonalization in iterative solution of the eigenvalue problem:
     a serial algorithm will be used

 
     Parallelization info
     --------------------
     sticks:   dense  smooth     PW     G-vecs:    dense   smooth      PW
     Min        4722    1890    519              1506646   381314   54615
     Max        4723    1891    520              1506653   381321   54622
     Sum       28333   11345   3117              9039883  2287895  327715
 
     Using Slab Decomposition
 


     bravais-lattice index     =            0
     lattice parameter (alat)  =       8.0993  a.u.
     unit-cell volume          =   28908.8086 (a.u.)^3
     number of atoms/cell      =            8
     number of atomic types    =            2
     number of electrons       =        20.00
     number of Kohn-Sham states=           14
     kinetic-energy cutoff     =      70.0000  Ry
     charge density cutoff     =     700.0000  Ry
     Exchange-correlation= SLA  PW   PBX  PBC
                           (   1   4   3   4   0   0   0)

     celldm(1)=   8.099301  celldm(2)=   0.000000  celldm(3)=   0.000000
     celldm(4)=   0.000000  celldm(5)=   0.000000  celldm(6)=   0.000000

     crystal axes: (cart. coord. in units of alat)
               a(1) = (   0.000000   0.000000   1.000000 )  
               a(2) = (   7.750657   0.000000   0.000000 )  
               a(3) = (   0.000000   7.020193   0.000000 )  

     reciprocal axes: (cart. coord. in units 2 pi/alat)
               b(1) = (  0.000000  0.000000  1.000000 )  
               b(2) = (  0.129021  0.000000  0.000000 )  
               b(3) = (  0.000000  0.142446  0.000000 )  


     PseudoPot. # 1 for C  read from file:
     ../../../../pseudos/C.pbe-n-kjpaw_psl.1.0.0.UPF
     MD5 check sum: 5f16ad9a65e90284d1d834d4ab3b0f7d
     Pseudo is Projector augmented-wave + core cor, Zval =  4.0
     Generated using &quot;atomic&quot; code by A. Dal Corso  v.6.3
     Shape of augmentation charge: PSQ
     Using radial grid of 1073 points,  4 beta functions with: 
                l(1) =   0
                l(2) =   0
                l(3) =   1
                l(4) =   1
     Q(r) pseudized with 0 coefficients 


     PseudoPot. # 2 for H  read from file:
     ../../../../pseudos/H.pbe-kjpaw_psl.1.0.0.UPF
     MD5 check sum: d81a744832360e4a8af0b0b5b123bc2a
     Pseudo is Projector augmented-wave, Zval =  1.0
     Generated using &quot;atomic&quot; code by A. Dal Corso  v.6.3MaX
     Shape of augmentation charge: PSQ
     Using radial grid of  929 points,  2 beta functions with: 
                l(1) =   0
                l(2) =   0
     Q(r) pseudized with 0 coefficients 


     atomic species   valence    mass     pseudopotential
     C                 4.00    12.01100     C ( 1.00)
     H                 1.00     1.00790     H ( 1.00)

     No symmetry found


                                    s                        frac. trans.

      isym =  1     identity                                     

 cryst.   s( 1) = (     1          0          0      )
                  (     0          1          0      )
                  (     0          0          1      )

 cart.    s( 1) = (  1.0000000  0.0000000  0.0000000 )
                  (  0.0000000  1.0000000  0.0000000 )
                  (  0.0000000  0.0000000  1.0000000 )


   Cartesian axes

     site n.     atom                  positions (alat units)
         1        C      tau(   1) = (   3.7200410   3.4997948   0.0000000  )
         2        C      tau(   2) = (   4.0078689   3.4997948   0.1661775  )
         3        C      tau(   3) = (   4.0078689   3.4997948   0.4985326  )
         4        C      tau(   4) = (   3.7200410   3.4997948   0.6647101  )
         5        H      tau(   5) = (   3.4997948   3.4997948   0.1271592  )
         6        H      tau(   6) = (   3.4997948   3.4997948   0.5375509  )
         7        H      tau(   7) = (   4.2281151   3.4997948   0.0390183  )
         8        H      tau(   8) = (   4.2281151   3.4997948   0.6256918  )

   Crystallographic axes

     site n.     atom                  positions (cryst. coord.)
         1        C      tau(   1) = (  0.0000000  0.4799646  0.4985326  )
         2        C      tau(   2) = (  0.1661775  0.5171005  0.4985326  )
         3        C      tau(   3) = (  0.4985326  0.5171005  0.4985326  )
         4        C      tau(   4) = (  0.6647101  0.4799646  0.4985326  )
         5        H      tau(   5) = (  0.1271592  0.4515481  0.4985326  )
         6        H      tau(   6) = (  0.5375509  0.4515481  0.4985326  )
         7        H      tau(   7) = (  0.0390183  0.5455170  0.4985326  )
         8        H      tau(   8) = (  0.6256918  0.5455170  0.4985326  )

     number of k points=    41  Gaussian smearing, width (Ry)=  0.0020
                       cart. coord. in units 2pi/alat
        k(    1) = (   0.0000000   0.0000000  -0.5000000), wk =   0.0487805
        k(    2) = (   0.0000000   0.0000000  -0.4750000), wk =   0.0487805
        k(    3) = (   0.0000000   0.0000000  -0.4500000), wk =   0.0487805
        k(    4) = (   0.0000000   0.0000000  -0.4250000), wk =   0.0487805
        k(    5) = (   0.0000000   0.0000000  -0.4000000), wk =   0.0487805
        k(    6) = (   0.0000000   0.0000000  -0.3750000), wk =   0.0487805
        k(    7) = (   0.0000000   0.0000000  -0.3500000), wk =   0.0487805
        k(    8) = (   0.0000000   0.0000000  -0.3250000), wk =   0.0487805
        k(    9) = (   0.0000000   0.0000000  -0.3000000), wk =   0.0487805
        k(   10) = (   0.0000000   0.0000000  -0.2750000), wk =   0.0487805
        k(   11) = (   0.0000000   0.0000000  -0.2500000), wk =   0.0487805
        k(   12) = (   0.0000000   0.0000000  -0.2250000), wk =   0.0487805
        k(   13) = (   0.0000000   0.0000000  -0.2000000), wk =   0.0487805
        k(   14) = (   0.0000000   0.0000000  -0.1750000), wk =   0.0487805
        k(   15) = (   0.0000000   0.0000000  -0.1500000), wk =   0.0487805
        k(   16) = (   0.0000000   0.0000000  -0.1250000), wk =   0.0487805
        k(   17) = (   0.0000000   0.0000000  -0.1000000), wk =   0.0487805
        k(   18) = (   0.0000000   0.0000000  -0.0750000), wk =   0.0487805
        k(   19) = (   0.0000000   0.0000000  -0.0500000), wk =   0.0487805
        k(   20) = (   0.0000000   0.0000000  -0.0250000), wk =   0.0487805
        k(   21) = (   0.0000000   0.0000000   0.0000000), wk =   0.0487805
        k(   22) = (   0.0000000   0.0000000   0.0250000), wk =   0.0487805
        k(   23) = (   0.0000000   0.0000000   0.0500000), wk =   0.0487805
        k(   24) = (   0.0000000   0.0000000   0.0750000), wk =   0.0487805
        k(   25) = (   0.0000000   0.0000000   0.1000000), wk =   0.0487805
        k(   26) = (   0.0000000   0.0000000   0.1250000), wk =   0.0487805
        k(   27) = (   0.0000000   0.0000000   0.1500000), wk =   0.0487805
        k(   28) = (   0.0000000   0.0000000   0.1750000), wk =   0.0487805
        k(   29) = (   0.0000000   0.0000000   0.2000000), wk =   0.0487805
        k(   30) = (   0.0000000   0.0000000   0.2250000), wk =   0.0487805
        k(   31) = (   0.0000000   0.0000000   0.2500000), wk =   0.0487805
        k(   32) = (   0.0000000   0.0000000   0.2750000), wk =   0.0487805
        k(   33) = (   0.0000000   0.0000000   0.3000000), wk =   0.0487805
        k(   34) = (   0.0000000   0.0000000   0.3250000), wk =   0.0487805
        k(   35) = (   0.0000000   0.0000000   0.3500000), wk =   0.0487805
        k(   36) = (   0.0000000   0.0000000   0.3750000), wk =   0.0487805
        k(   37) = (   0.0000000   0.0000000   0.4000000), wk =   0.0487805
        k(   38) = (   0.0000000   0.0000000   0.4250000), wk =   0.0487805
        k(   39) = (   0.0000000   0.0000000   0.4500000), wk =   0.0487805
        k(   40) = (   0.0000000   0.0000000   0.4750000), wk =   0.0487805
        k(   41) = (   0.0000000   0.0000000   0.5000000), wk =   0.0487805

                       cryst. coord.
        k(    1) = (  -0.5000000   0.0000000   0.0000000), wk =   0.0487805
        k(    2) = (  -0.4750000   0.0000000   0.0000000), wk =   0.0487805
        k(    3) = (  -0.4500000   0.0000000   0.0000000), wk =   0.0487805
        k(    4) = (  -0.4250000   0.0000000   0.0000000), wk =   0.0487805
        k(    5) = (  -0.4000000   0.0000000   0.0000000), wk =   0.0487805
        k(    6) = (  -0.3750000   0.0000000   0.0000000), wk =   0.0487805
        k(    7) = (  -0.3500000   0.0000000   0.0000000), wk =   0.0487805
        k(    8) = (  -0.3250000   0.0000000   0.0000000), wk =   0.0487805
        k(    9) = (  -0.3000000   0.0000000   0.0000000), wk =   0.0487805
        k(   10) = (  -0.2750000   0.0000000   0.0000000), wk =   0.0487805
        k(   11) = (  -0.2500000   0.0000000   0.0000000), wk =   0.0487805
        k(   12) = (  -0.2250000   0.0000000   0.0000000), wk =   0.0487805
        k(   13) = (  -0.2000000   0.0000000   0.0000000), wk =   0.0487805
        k(   14) = (  -0.1750000   0.0000000   0.0000000), wk =   0.0487805
        k(   15) = (  -0.1500000   0.0000000   0.0000000), wk =   0.0487805
        k(   16) = (  -0.1250000   0.0000000   0.0000000), wk =   0.0487805
        k(   17) = (  -0.1000000   0.0000000   0.0000000), wk =   0.0487805
        k(   18) = (  -0.0750000   0.0000000   0.0000000), wk =   0.0487805
        k(   19) = (  -0.0500000   0.0000000   0.0000000), wk =   0.0487805
        k(   20) = (  -0.0250000   0.0000000   0.0000000), wk =   0.0487805
        k(   21) = (   0.0000000   0.0000000   0.0000000), wk =   0.0487805
        k(   22) = (   0.0250000   0.0000000   0.0000000), wk =   0.0487805
        k(   23) = (   0.0500000   0.0000000   0.0000000), wk =   0.0487805
        k(   24) = (   0.0750000   0.0000000   0.0000000), wk =   0.0487805
        k(   25) = (   0.1000000   0.0000000   0.0000000), wk =   0.0487805
        k(   26) = (   0.1250000   0.0000000   0.0000000), wk =   0.0487805
        k(   27) = (   0.1500000   0.0000000   0.0000000), wk =   0.0487805
        k(   28) = (   0.1750000   0.0000000   0.0000000), wk =   0.0487805
        k(   29) = (   0.2000000   0.0000000   0.0000000), wk =   0.0487805
        k(   30) = (   0.2250000   0.0000000   0.0000000), wk =   0.0487805
        k(   31) = (   0.2500000   0.0000000   0.0000000), wk =   0.0487805
        k(   32) = (   0.2750000   0.0000000   0.0000000), wk =   0.0487805
        k(   33) = (   0.3000000   0.0000000   0.0000000), wk =   0.0487805
        k(   34) = (   0.3250000   0.0000000   0.0000000), wk =   0.0487805
        k(   35) = (   0.3500000   0.0000000   0.0000000), wk =   0.0487805
        k(   36) = (   0.3750000   0.0000000   0.0000000), wk =   0.0487805
        k(   37) = (   0.4000000   0.0000000   0.0000000), wk =   0.0487805
        k(   38) = (   0.4250000   0.0000000   0.0000000), wk =   0.0487805
        k(   39) = (   0.4500000   0.0000000   0.0000000), wk =   0.0487805
        k(   40) = (   0.4750000   0.0000000   0.0000000), wk =   0.0487805
        k(   41) = (   0.5000000   0.0000000   0.0000000), wk =   0.0487805

     Dense  grid:  9039883 G-vectors     FFT dimensions: (  72, 540, 480)

     Smooth grid:  2287895 G-vectors     FFT dimensions: (  45, 360, 320)

     Dynamical RAM for                 wfc:      10.18 MB

     Dynamical RAM for     wfc (w. buffer):      10.18 MB

     Dynamical RAM for           str. fact:      45.98 MB

     Dynamical RAM for           local pot:       0.00 MB

     Dynamical RAM for          nlocal pot:      29.08 MB

     Dynamical RAM for                qrad:       1.21 MB

     Dynamical RAM for          rho,v,vnew:     140.16 MB

     Dynamical RAM for           G-vectors:      89.12 MB

     Dynamical RAM for          h,s,v(r/c):       0.04 MB

     Dynamical RAM for          <psi|beta>:       0.01 MB

     Dynamical RAM for                 psi:      20.36 MB

     Dynamical RAM for                hpsi:      20.36 MB

     Dynamical RAM for                spsi:      20.36 MB

     Dynamical RAM for      wfcinit/wfcrot:      20.36 MB

     Dynamical RAM for           addusdens:    1080.52 MB

     Estimated static dynamical RAM per process >     503.36 MB

     Estimated max dynamical RAM per process >       1.55 GB

     Estimated total dynamical RAM >       9.28 GB

     Atomic positions and unit cell read from directory:
     ./tmp/AGNR.save/
 

     The potential is recalculated from file :
     ./tmp/AGNR.save/charge-density


     negative rho (up, down):  6.880E-04 0.000E+00
     Starting wfcs are random
     Checking if some PAW data can be deallocated... 
       PAW data deallocated on    4 nodes for type:  1
       PAW data deallocated on    2 nodes for type:  2

     Band Structure Calculation
     Davidson diagonalization with overlap

     Computing kpt #:     1  of    41
     total cpu time spent up to now is       36.9 secs

     Computing kpt #:     2  of    41
     total cpu time spent up to now is       64.1 secs

     Computing kpt #:     3  of    41
     total cpu time spent up to now is       89.8 secs

     Computing kpt #:     4  of    41
     total cpu time spent up to now is      116.2 secs

     Computing kpt #:     5  of    41
     total cpu time spent up to now is      143.0 secs

     Computing kpt #:     6  of    41
     total cpu time spent up to now is      171.3 secs

     Computing kpt #:     7  of    41
     total cpu time spent up to now is      202.2 secs

     Computing kpt #:     8  of    41
     total cpu time spent up to now is      235.8 secs

     Computing kpt #:     9  of    41
     c_bands:  1 eigenvalues not converged
     total cpu time spent up to now is      270.4 secs

     Computing kpt #:    10  of    41
     c_bands:  1 eigenvalues not converged
     total cpu time spent up to now is      303.6 secs

     Computing kpt #:    11  of    41
     c_bands:  1 eigenvalues not converged
     total cpu time spent up to now is      335.9 secs

     Computing kpt #:    12  of    41
     c_bands:  1 eigenvalues not converged
     total cpu time spent up to now is      369.2 secs

     Computing kpt #:    13  of    41
     c_bands:  1 eigenvalues not converged
     total cpu time spent up to now is      402.2 secs

     Computing kpt #:    14  of    41
     c_bands:  1 eigenvalues not converged
     total cpu time spent up to now is      435.5 secs

     Computing kpt #:    15  of    41
     c_bands:  1 eigenvalues not converged
     total cpu time spent up to now is      468.4 secs

     Computing kpt #:    16  of    41
     total cpu time spent up to now is      501.0 secs

     Computing kpt #:    17  of    41
     total cpu time spent up to now is      533.1 secs

     Computing kpt #:    18  of    41
     total cpu time spent up to now is      565.5 secs

     Computing kpt #:    19  of    41
     total cpu time spent up to now is      597.6 secs

     Computing kpt #:    20  of    41
     c_bands:  1 eigenvalues not converged
     total cpu time spent up to now is      629.8 secs

     Computing kpt #:    21  of    41
     total cpu time spent up to now is      661.3 secs

     Computing kpt #:    22  of    41
     total cpu time spent up to now is      693.4 secs

     Computing kpt #:    23  of    41
     c_bands:  1 eigenvalues not converged
     total cpu time spent up to now is      725.6 secs

     Computing kpt #:    24  of    41
     c_bands:  1 eigenvalues not converged
     total cpu time spent up to now is      757.9 secs

     Computing kpt #:    25  of    41
     total cpu time spent up to now is      789.8 secs

     Computing kpt #:    26  of    41
     c_bands:  1 eigenvalues not converged
     total cpu time spent up to now is      822.4 secs

     Computing kpt #:    27  of    41
     c_bands:  1 eigenvalues not converged
     total cpu time spent up to now is      855.3 secs

     Computing kpt #:    28  of    41
     c_bands:  1 eigenvalues not converged
     total cpu time spent up to now is      887.6 secs

     Computing kpt #:    29  of    41
     c_bands:  1 eigenvalues not converged
     total cpu time spent up to now is     1833.9 secs

     Computing kpt #:    30  of    41
     c_bands:  1 eigenvalues not converged
     total cpu time spent up to now is     1866.4 secs

     Computing kpt #:    31  of    41
     c_bands:  1 eigenvalues not converged
     total cpu time spent up to now is     1899.7 secs

     Computing kpt #:    32  of    41
     c_bands:  1 eigenvalues not converged
     total cpu time spent up to now is     1933.6 secs

     Computing kpt #:    33  of    41
     c_bands:  1 eigenvalues not converged
     total cpu time spent up to now is     1966.8 secs

     Computing kpt #:    34  of    41
     total cpu time spent up to now is     1999.8 secs

     Computing kpt #:    35  of    41
     total cpu time spent up to now is     2029.3 secs

     Computing kpt #:    36  of    41
     total cpu time spent up to now is     2057.8 secs

     Computing kpt #:    37  of    41
     total cpu time spent up to now is     2083.0 secs

     Computing kpt #:    38  of    41
     total cpu time spent up to now is     2108.7 secs

     Computing kpt #:    39  of    41
     total cpu time spent up to now is     2134.1 secs

     Computing kpt #:    40  of    41
     total cpu time spent up to now is     2160.3 secs

     Computing kpt #:    41  of    41
     total cpu time spent up to now is     2187.9 secs

     ethr =  5.00E-11,  avg # of iterations =101.6

     total cpu time spent up to now is     2187.9 secs

     End of band structure calculation

          k = 0.0000 0.0000-0.5000 (286006 PWs)   bands (ev):

   -19.3897 -19.3132 -14.2710 -14.2129  -9.8782  -9.8276  -9.4324  -9.3661
    -7.3051  -7.2478  -0.4944  -0.4355   1.2359   1.2425

          k = 0.0000 0.0000-0.4750 (286004 PWs)   bands (ev):

   -19.4866 -19.2107 -14.3769 -14.1018  -9.9834  -9.7197  -9.5876  -9.2244
    -7.4225  -7.1248  -0.6419  -0.2855   1.1054   1.2435

          k = 0.0000 0.0000-0.4500 (286032 PWs)   bands (ev):

   -19.6079 -19.0727 -14.5018 -13.9615 -10.1061  -9.7880  -9.5829  -9.0703
    -7.5582  -6.9717  -0.8124  -0.1078   0.9490   1.1116

          k = 0.0000 0.0000-0.4250 (286064 PWs)   bands (ev):

   -19.7251 -18.9280 -14.6221 -13.8157 -10.2249  -9.9966  -9.4462  -8.9332
    -7.6887  -6.8127  -0.9807   0.0719   0.7919   0.9580

          k = 0.0000 0.0000-0.4000 (285962 PWs)   bands (ev):

   -19.8366 -18.7780 -14.7368 -13.6656 -10.3389 -10.2147  -9.3068  -8.8152
    -7.8129  -6.6486  -1.1462   0.2517   0.6392   0.8070

          k = 0.0000 0.0000-0.3750 (285986 PWs)   bands (ev):

   -19.9420 -18.6236 -14.8456 -13.5118 -10.4480 -10.4394  -9.1662  -8.7177
    -7.9305  -6.4800  -1.3088   0.4289   0.4927   0.6632

          k = 0.0000 0.0000-0.3500 (286026 PWs)   bands (ev):

   -20.0411 -18.4653 -14.9483 -13.3548 -10.6701 -10.5506  -9.0252  -8.6415
    -8.0412  -6.3075  -1.4687   0.3535   0.5281   0.5975

          k = 0.0000 0.0000-0.3250 (285904 PWs)   bands (ev):

   -20.1338 -18.3037 -15.0447 -13.1955 -10.9033 -10.6479  -8.8848  -8.5868
    -8.1450  -6.1314  -1.6259   0.2220   0.4022   0.7345

          k = 0.0000 0.0000-0.3000 (285910 PWs)   bands (ev):

   -20.2200 -18.1395 -15.1348 -13.0345 -11.1376 -10.7390  -8.7463  -8.5535
    -8.2416  -5.9523  -1.7810   0.0988   0.2856   0.7452

          k = 0.0000 0.0000-0.2750 (285880 PWs)   bands (ev):

   -20.2996 -17.9736 -15.2185 -12.8727 -11.3712 -10.8240  -8.6107  -8.5407
    -8.3310  -5.7708  -1.9341  -0.0160   0.1783   0.6279

          k = 0.0000 0.0000-0.2500 (285760 PWs)   bands (ev):

   -20.3725 -17.8070 -15.2958 -12.7112 -11.6018 -10.9026  -8.5470  -8.4794
    -8.4129  -5.5875  -2.0858  -0.1220   0.0804   0.5209

          k = 0.0000 0.0000-0.2250 (285722 PWs)   bands (ev):

   -20.4386 -17.6411 -15.3665 -12.5513 -11.8273 -10.9749  -8.5705  -8.4874
    -8.3538  -5.4032  -2.2364  -0.2190  -0.0081   0.4240

          k = 0.0000 0.0000-0.2000 (285751 PWs)   bands (ev):

   -20.4979 -17.4774 -15.4309 -12.3945 -12.0453 -11.0410  -8.6085  -8.5542
    -8.2353  -5.2184  -2.3864  -0.3068  -0.0874   0.3373

          k = 0.0000 0.0000-0.1750 (285825 PWs)   bands (ev):

   -20.5503 -17.3182 -15.4888 -12.2531 -12.2423 -11.1009  -8.6580  -8.6133
    -8.1255  -5.0343  -2.5361  -0.3852  -0.1574   0.2609

          k = 0.0000 0.0000-0.1500 (285849 PWs)   bands (ev):

   -20.5958 -17.1660 -15.5404 -12.4467 -12.0976 -11.1550  -8.7152  -8.6647
    -8.0261  -4.8517  -2.6856  -0.4540  -0.2182   0.1946

          k = 0.0000 0.0000-0.1250 (285905 PWs)   bands (ev):

   -20.6344 -17.0241 -15.5856 -12.6231 -11.9621 -11.2037  -8.7761  -8.7083
    -7.9386  -4.6722  -2.8348  -0.5128  -0.2696   0.1385

          k = 0.0000 0.0000-0.1000 (285887 PWs)   bands (ev):

   -20.6660 -16.8966 -15.6244 -12.7776 -11.8388 -11.2478  -8.8359  -8.7440
    -7.8646  -4.4977  -2.9828  -0.5614  -0.3118   0.0926

          k = 0.0000 0.0000-0.0750 (285923 PWs)   bands (ev):

   -20.6906 -16.7884 -15.6564 -12.9053 -11.7306 -11.2881  -8.8897  -8.7718
    -7.8054  -4.3317  -3.1270  -0.5996  -0.3446   0.0570

          k = 0.0000 0.0000-0.0500 (285979 PWs)   bands (ev):

   -20.7081 -16.7050 -15.6806 -13.0014 -11.6413 -11.3252  -8.9327  -8.7917
    -7.7621  -4.1815  -3.2610  -0.6271  -0.3680   0.0315

          k = 0.0000 0.0000-0.0250 (285871 PWs)   bands (ev):

   -20.7187 -16.6520 -15.6961 -13.0612 -11.5768 -11.3565  -8.9605  -8.8037
    -7.7358  -4.0641  -3.3684  -0.6436  -0.3821   0.0162

          k = 0.0000 0.0000 0.0000 (285921 PWs)   bands (ev):

   -20.7222 -16.6338 -15.7014 -13.0815 -11.5511 -11.3708  -8.9702  -8.8077
    -7.7270  -4.0157  -3.4134  -0.6492  -0.3868   0.0111

          k = 0.0000 0.0000 0.0250 (285871 PWs)   bands (ev):

   -20.7187 -16.6520 -15.6961 -13.0612 -11.5768 -11.3565  -8.9605  -8.8037
    -7.7358  -4.0641  -3.3684  -0.6436  -0.3821   0.0162

          k = 0.0000 0.0000 0.0500 (285979 PWs)   bands (ev):

   -20.7081 -16.7050 -15.6806 -13.0014 -11.6413 -11.3252  -8.9327  -8.7917
    -7.7621  -4.1815  -3.2610  -0.6271  -0.3680   0.0315

          k = 0.0000 0.0000 0.0750 (285923 PWs)   bands (ev):

   -20.6906 -16.7884 -15.6564 -12.9053 -11.7306 -11.2881  -8.8897  -8.7718
    -7.8054  -4.3317  -3.1270  -0.5996  -0.3446   0.0570

          k = 0.0000 0.0000 0.1000 (285887 PWs)   bands (ev):

   -20.6660 -16.8966 -15.6244 -12.7776 -11.8388 -11.2478  -8.8359  -8.7440
    -7.8646  -4.4977  -2.9828  -0.5614  -0.3118   0.0926

          k = 0.0000 0.0000 0.1250 (285905 PWs)   bands (ev):

   -20.6344 -17.0241 -15.5856 -12.6231 -11.9621 -11.2037  -8.7761  -8.7083
    -7.9386  -4.6722  -2.8348  -0.5128  -0.2696   0.1385

          k = 0.0000 0.0000 0.1500 (285849 PWs)   bands (ev):

   -20.5958 -17.1660 -15.5404 -12.4467 -12.0976 -11.1550  -8.7152  -8.6647
    -8.0261  -4.8517  -2.6856  -0.4540  -0.2182   0.1946

          k = 0.0000 0.0000 0.1750 (285825 PWs)   bands (ev):

   -20.5503 -17.3182 -15.4888 -12.2531 -12.2423 -11.1009  -8.6580  -8.6133
    -8.1255  -5.0343  -2.5361  -0.3852  -0.1574   0.2609

          k = 0.0000 0.0000 0.2000 (285751 PWs)   bands (ev):

   -20.4979 -17.4774 -15.4309 -12.3945 -12.0453 -11.0410  -8.6085  -8.5542
    -8.2353  -5.2184  -2.3864  -0.3068  -0.0874   0.3373

          k = 0.0000 0.0000 0.2250 (285722 PWs)   bands (ev):

   -20.4386 -17.6411 -15.3665 -12.5513 -11.8273 -10.9749  -8.5705  -8.4874
    -8.3538  -5.4032  -2.2364  -0.2190  -0.0081   0.4240

          k = 0.0000 0.0000 0.2500 (285760 PWs)   bands (ev):

   -20.3725 -17.8070 -15.2958 -12.7112 -11.6018 -10.9026  -8.5470  -8.4794
    -8.4129  -5.5875  -2.0858  -0.1220   0.0804   0.5209

          k = 0.0000 0.0000 0.2750 (285880 PWs)   bands (ev):

   -20.2996 -17.9736 -15.2185 -12.8727 -11.3712 -10.8240  -8.6107  -8.5407
    -8.3310  -5.7708  -1.9341  -0.0160   0.1783   0.6279

          k = 0.0000 0.0000 0.3000 (285910 PWs)   bands (ev):

   -20.2200 -18.1395 -15.1348 -13.0345 -11.1376 -10.7390  -8.7463  -8.5535
    -8.2416  -5.9523  -1.7810   0.0988   0.2856   0.7463

          k = 0.0000 0.0000 0.3250 (285904 PWs)   bands (ev):

   -20.1338 -18.3037 -15.0447 -13.1955 -10.9033 -10.6479  -8.8848  -8.5868
    -8.1450  -6.1314  -1.6259   0.2220   0.4022   0.7345

          k = 0.0000 0.0000 0.3500 (286026 PWs)   bands (ev):

   -20.0411 -18.4653 -14.9483 -13.3548 -10.6701 -10.5506  -9.0252  -8.6415
    -8.0412  -6.3075  -1.4687   0.3535   0.5281   0.5975

          k = 0.0000 0.0000 0.3750 (285986 PWs)   bands (ev):

   -19.9420 -18.6236 -14.8456 -13.5118 -10.4480 -10.4394  -9.1662  -8.7177
    -7.9305  -6.4800  -1.3088   0.4289   0.4927   0.6632

          k = 0.0000 0.0000 0.4000 (285962 PWs)   bands (ev):

   -19.8366 -18.7780 -14.7368 -13.6656 -10.3389 -10.2147  -9.3068  -8.8152
    -7.8129  -6.6486  -1.1462   0.2517   0.6392   0.8070

          k = 0.0000 0.0000 0.4250 (286064 PWs)   bands (ev):

   -19.7251 -18.9280 -14.6221 -13.8157 -10.2249  -9.9966  -9.4462  -8.9332
    -7.6887  -6.8127  -0.9807   0.0719   0.7919   0.9580

          k = 0.0000 0.0000 0.4500 (286032 PWs)   bands (ev):

   -19.6079 -19.0727 -14.5018 -13.9615 -10.1061  -9.7880  -9.5829  -9.0703
    -7.5582  -6.9717  -0.8124  -0.1078   0.9490   1.1116

          k = 0.0000 0.0000 0.4750 (286004 PWs)   bands (ev):

   -19.4866 -19.2107 -14.3769 -14.1018  -9.9834  -9.7197  -9.5876  -9.2244
    -7.4225  -7.1248  -0.6419  -0.2855   1.1054   1.2435

          k = 0.0000 0.0000 0.5000 (286006 PWs)   bands (ev):

   -19.3897 -19.3132 -14.2710 -14.2129  -9.8782  -9.8276  -9.4324  -9.3661
    -7.3051  -7.2478  -0.4944  -0.4355   1.2359   1.2425

     Writing all to output data dir ./tmp/AGNR.save/ :
     XML data file, pseudopotentials, collected wavefunctions
 
     init_run     :      8.43s CPU      9.84s WALL (       1 calls)
     electrons    :   1869.49s CPU   2177.86s WALL (       1 calls)

     Called by init_run:
     wfcinit      :      0.00s CPU      0.00s WALL (       1 calls)
     wfcinit:wfcr :     27.49s CPU     23.20s WALL (      41 calls)
     potinit      :      2.57s CPU      3.32s WALL (       1 calls)
     hinit0       :      1.15s CPU      1.32s WALL (       1 calls)

     Called by electrons:
     c_bands      :   1869.49s CPU   2177.86s WALL (       1 calls)
     v_of_rho     :      1.52s CPU      2.05s WALL (       1 calls)
     v_h          :      0.14s CPU      0.21s WALL (       1 calls)
     v_xc         :      1.39s CPU      1.83s WALL (       1 calls)
     newd         :      1.11s CPU      1.50s WALL (       1 calls)
     PAW_pot      :      0.09s CPU      0.10s WALL (       1 calls)

     Called by c_bands:
     init_us_2    :      1.36s CPU      0.70s WALL (      41 calls)
     cegterg      :   1836.95s CPU   2152.05s WALL (     218 calls)

     Called by sum_band:

     Called by *egterg:
     cdiaghg      :      2.99s CPU      1.47s WALL (    4206 calls)
     cegterg:over :     60.12s CPU     30.06s WALL (    4165 calls)
     cegterg:upda :     50.48s CPU     25.28s WALL (    4165 calls)
     cegterg:last :     79.21s CPU     39.62s WALL (    1899 calls)
     h_psi        :   1579.90s CPU   2030.86s WALL (    4424 calls)
     s_psi        :     42.93s CPU     21.49s WALL (    4424 calls)
     g_psi        :     15.52s CPU      7.78s WALL (    4165 calls)

     Called by h_psi:
     h_psi:calbec :     41.15s CPU     21.32s WALL (    4424 calls)
     vloc_psi     :   1480.60s CPU   1979.44s WALL (    4424 calls)
     add_vuspsi   :     48.03s CPU     24.05s WALL (    4424 calls)

     General routines
     calbec       :     41.11s CPU     21.29s WALL (    4424 calls)
     fft          :      2.07s CPU      2.36s WALL (      13 calls)
     ffts         :      0.59s CPU      0.60s WALL (       1 calls)
     fftw         :   1125.96s CPU   1720.28s WALL (   54208 calls)
     interpolate  :      0.71s CPU      0.75s WALL (       1 calls)
     davcio       :      0.13s CPU      0.21s WALL (      82 calls)
 
     Parallel routines

     PAW routines
     PAW_pot      :      0.09s CPU      0.10s WALL (       1 calls)
 
     PWSCF        :  31m19.20s CPU  36m46.37s WALL

 
   This run was terminated on:  15:43:15  18Nov2025            

=------------------------------------------------------------------------------=
   JOB DONE.
=------------------------------------------------------------------------------=
