
     Program PWSCF v.7.4.1 starts on  5Nov2025 at  0:33:50 

     This program is part of the open-source Quantum ESPRESSO suite
     for quantum simulation of materials; please cite
         "P. Giannozzi et al., J. Phys.:Condens. Matter 21 395502 (2009);
         "P. Giannozzi et al., J. Phys.:Condens. Matter 29 465901 (2017);
         "P. Giannozzi et al., J. Chem. Phys. 152 154105 (2020);
          URL http://www.quantum-espresso.org", 
     in publications or presentations arising from this work. More details at
     http://www.quantum-espresso.org/quote

     Serial version
     10494 MiB available memory on the printing compute node when the environment starts

     Reading input from grap_SOC_nscf.in

     Current dimensions of program PWSCF are:
     Max number of different atomic species (ntypx) = 10
     Max number of k-points (npk) =  40000
     Max angular momentum in pseudopotentials (lmaxx) =  4
     Presently stress not available with electric field and gates

     Message from routine input:
     WARNING: "startingwfc" set to random may spoil restart
     file C.rel-pbe-n-kjpaw_psl.0.1.UPF: wavefunction(s)  2P 2P renormalized


     G-vector sticks info
     --------------------
     sticks:   dense  smooth     PW     G-vecs:    dense   smooth      PW
     Sum        1045     421    139               166859    42343    8205

     Using Slab Decomposition



     bravais-lattice index     =            0
     lattice parameter (alat)  =       4.6624  a.u.
     unit-cell volume          =     533.6317 (a.u.)^3
     number of atoms/cell      =            2
     number of atomic types    =            1
     number of electrons       =         8.00
     number of Kohn-Sham states=           16
     kinetic-energy cutoff     =      70.0000  Ry
     charge density cutoff     =     700.0000  Ry
     Exchange-correlation= SLA  PW   PBX  PBC
                           (   1   4   3   4   0   0   0)
     Non magnetic calculation with spin-orbit


     celldm(1)=   4.662410  celldm(2)=   0.000000  celldm(3)=   0.000000
     celldm(4)=   0.000000  celldm(5)=   0.000000  celldm(6)=   0.000000

     crystal axes: (cart. coord. in units of alat)
               a(1) = (   1.000000   0.000000  -0.000000 )  
               a(2) = (  -0.500000   0.866025   0.000000 )  
               a(3) = (  -0.000000   0.000000   6.079666 )  

     reciprocal axes: (cart. coord. in units 2 pi/alat)
               b(1) = (  1.000000  0.577350  0.000000 )  
               b(2) = ( -0.000000  1.154701 -0.000000 )  
               b(3) = (  0.000000  0.000000  0.164483 )  


     PseudoPot. # 1 for C  read from file:
     ../../../pseudos/C.rel-pbe-n-kjpaw_psl.0.1.UPF
     MD5 check sum: 5ef0b8f55ac4be3c3db5d31256eeff6b
     Pseudo is Projector augmented-wave + core cor, Zval =  4.0
     Generated using &quot;atomic&quot; code by A. Dal Corso  v.6.3
     Shape of augmentation charge: BESSEL
     Using radial grid of 1073 points,  6 beta functions with: 
                l(1) =   0
                l(2) =   0
                l(3) =   1
                l(4) =   1
                l(5) =   1
                l(6) =   1
     Q(r) pseudized with 0 coefficients 


     atomic species   valence    mass     pseudopotential
     C                 4.00    12.01100     C ( 1.00)

     No symmetry found



   Cartesian axes

     site n.     atom                  positions (alat units)
         1        C      tau(   1) = (   0.0000000   0.0000000   3.0398328  )
         2        C      tau(   2) = (   0.0000000   0.5773503   3.0398328  )

     number of k points= 11252  Gaussian smearing, width (Ry)=  0.0020

     Number of k-points >= 100: set verbosity='high' to print them.

     Dense  grid:   166859 G-vectors     FFT dimensions: (  40,  40, 240)

     Smooth grid:    42343 G-vectors     FFT dimensions: (  25,  25, 160)

     Estimated max dynamical RAM per process >     403.01 MB
 ----2D----2D----2D----2D----2D----2D----2D----2D----2D----2D----2D----2D
  The code is running with the 2D cutoff
  Please refer to:
  Sohier, T., Calandra, M., & Mauri, F. (2017), 
  Density functional perturbation theory for gated two-dimensional heterostructures:
  Theoretical developments and application to flexural phonons in graphene.
  Physical Review B, 96(7), 75448. https://doi.org/10.1103/PhysRevB.96.075448
 ----2D----2D----2D----2D----2D----2D----2D----2D----2D----2D----2D----2D

     Atomic positions and unit cell read from directory:
     ./tmp/graphene.save/


     The potential is recalculated from file :
     ./tmp/graphene.save/charge-density


     negative rho (up, down):  7.075E-06 0.000E+00

     Adding external electric field

     Computed dipole along edir(3) : 
        Dipole                0.0100 Ry au,          0.0254 Debye
        Dipole field          0.0002 Ry au, 

        E field amplitude [Ha a.u.]:  1.9447E-03
        Potential amp.        0.0921 Ry
        Total length         26.9286 bohr

     Starting wfcs are random

     Band Structure Calculation
     Davidson diagonalization with overlap

     ethr =  1.25E-10,  avg # of iterations = 33.5

     total cpu time spent up to now is    36691.2 secs

     End of band structure calculation

     Number of k-points >= 100: set verbosity='high' to print the bands.

     the Fermi energy is  -4.082231 ev
     (compare with:  -4.081294 eV, computed in scf)

     Writing all to output data dir ./tmp/graphene.save/ :
     XML data file, pseudopotentials, collected wavefunctions

     init_run     :      5.41s CPU      5.63s WALL (       1 calls)
     electrons    :  36294.53s CPU  36685.46s WALL (       1 calls)

     Called by init_run:
     wfcinit      :      0.00s CPU      0.00s WALL (       1 calls)
     potinit      :      0.51s CPU      0.55s WALL (       1 calls)
     hinit0       :      0.75s CPU      0.76s WALL (       1 calls)

     Called by electrons:
     c_bands      :  36294.50s CPU  36685.44s WALL (       1 calls)
     v_of_rho     :      0.10s CPU      0.13s WALL (       1 calls)
     newd         :      0.21s CPU      0.30s WALL (       1 calls)
     PAW_pot      :      0.06s CPU      0.06s WALL (       1 calls)

     Called by c_bands:
     init_us_2    :      8.91s CPU     10.58s WALL (   11252 calls)
     cegterg      :  35238.79s CPU  35615.23s WALL (   23870 calls)

     Called by *egterg:
     cdiaghg      :    642.07s CPU    642.76s WALL (  388381 calls)
     h_psi        :  16137.15s CPU  16259.12s WALL (  412251 calls)
     s_psi        :   1701.98s CPU   1722.44s WALL (  412251 calls)
     g_psi        :    107.42s CPU    107.66s WALL (  377129 calls)

     Called by h_psi:
     h_psi:calbec :   1693.58s CPU   1694.77s WALL (  412251 calls)
     vloc_psi     :  12625.45s CPU  12668.51s WALL (  412251 calls)
     add_vuspsi   :   1718.36s CPU   1719.25s WALL (  412251 calls)

     General routines
     calbec       :   1692.60s CPU   1693.88s WALL (  412251 calls)
     fft          :      0.57s CPU      0.57s WALL (      19 calls)
     ffts         :      0.31s CPU      0.31s WALL (       4 calls)
     fftw         :   6636.22s CPU   6648.82s WALL (16266020 calls)
     interpolate  :      0.33s CPU      0.33s WALL (       4 calls)
     davcio       :      2.36s CPU     96.30s WALL (   22504 calls)


     PWSCF        :     10h 5m CPU     10h13m WALL


   This run was terminated on:  10:47:44   5Nov2025            

=------------------------------------------------------------------------------=
   JOB DONE.
=------------------------------------------------------------------------------=
