
     Program PWSCF v.7.4.1 starts on 29Jan2026 at  2:23:32 

     This program is part of the open-source Quantum ESPRESSO suite
     for quantum simulation of materials; please cite
         "P. Giannozzi et al., J. Phys.:Condens. Matter 21 395502 (2009);
         "P. Giannozzi et al., J. Phys.:Condens. Matter 29 465901 (2017);
         "P. Giannozzi et al., J. Chem. Phys. 152 154105 (2020);
          URL http://www.quantum-espresso.org", 
     in publications or presentations arising from this work. More details at
     http://www.quantum-espresso.org/quote

     Parallel version (MPI), running on    20 processors

     MPI processes distributed on     1 nodes
     124376 MiB available memory on the printing compute node when the environment starts
 
     Reading input from grap_SOC_scf.in

     Current dimensions of program PWSCF are:
     Max number of different atomic species (ntypx) = 10
     Max number of k-points (npk) =  40000
     Max angular momentum in pseudopotentials (lmaxx) =  4
     Presently stress not available with electric field and gates

     file C.rel-pbe-n-kjpaw_psl.1.0.0.UPF: wavefunction(s)  2S 2P 2P renormalized
 
     R & G space division:  proc/nbgrp/npool/nimage =      20
     Subspace diagonalization in iterative solution of the eigenvalue problem:
     a serial algorithm will be used

 
     Parallelization info
     --------------------
     sticks:   dense  smooth     PW     G-vecs:    dense   smooth      PW
     Min          52      21      6                 8339     2113     392
     Max          57      22      7                 8350     2140     425
     Sum        1045     421    139               166859    42343    8205
 
     Using Slab Decomposition
 


     bravais-lattice index     =            0
     lattice parameter (alat)  =       4.6624  a.u.
     unit-cell volume          =     533.6317 (a.u.)^3
     number of atoms/cell      =            2
     number of atomic types    =            1
     number of electrons       =         8.00
     number of Kohn-Sham states=           16
     kinetic-energy cutoff     =      70.0000  Ry
     charge density cutoff     =     700.0000  Ry
     scf convergence threshold =      1.0E-08
     mixing beta               =       0.1000
     number of iterations used =            8  plain     mixing
     Exchange-correlation= SLA  PW   PBX  PBC
                           (   1   4   3   4   0   0   0)
     Non magnetic calculation with spin-orbit


     celldm(1)=   4.662410  celldm(2)=   0.000000  celldm(3)=   0.000000
     celldm(4)=   0.000000  celldm(5)=   0.000000  celldm(6)=   0.000000

     crystal axes: (cart. coord. in units of alat)
               a(1) = (   1.000000   0.000000   0.000000 )  
               a(2) = (  -0.500000   0.866025   0.000000 )  
               a(3) = (   0.000000   0.000000   6.079666 )  

     reciprocal axes: (cart. coord. in units 2 pi/alat)
               b(1) = (  1.000000  0.577350  0.000000 )  
               b(2) = (  0.000000  1.154701  0.000000 )  
               b(3) = (  0.000000  0.000000  0.164483 )  


     PseudoPot. # 1 for C  read from file:
     ../../../PP_C/C.rel-pbe-n-kjpaw_psl.1.0.0.UPF
     MD5 check sum: dd2b8f743de1f3a10095e4114fb28074
     Pseudo is Projector augmented-wave + core cor, Zval =  4.0
     Generated using &quot;atomic&quot; code by A. Dal Corso  v.6.3
     Shape of augmentation charge: PSQ
     Using radial grid of 1073 points,  6 beta functions with: 
                l(1) =   0
                l(2) =   0
                l(3) =   1
                l(4) =   1
                l(5) =   1
                l(6) =   1
     Q(r) pseudized with 0 coefficients 


     atomic species   valence    mass     pseudopotential
     C                 4.00    12.01100     C ( 1.00)

     No symmetry found



   Cartesian axes

     site n.     atom                  positions (alat units)
         1        C      tau(   1) = (   0.0000000   0.0000000   3.0398328  )
         2        C      tau(   2) = (   0.0000000   0.5773503   3.0398328  )

     number of k points=    74  Gaussian smearing, width (Ry)=  0.0020
                       cart. coord. in units 2pi/alat
        k(    1) = (   0.0000000   0.0000000   0.0000000), wk =   0.0069444
        k(    2) = (   0.0000000   0.0962250   0.0000000), wk =   0.0138889
        k(    3) = (   0.0000000   0.1924501   0.0000000), wk =   0.0138889
        k(    4) = (   0.0000000   0.2886751   0.0000000), wk =   0.0138889
        k(    5) = (   0.0000000   0.3849002   0.0000000), wk =   0.0138889
        k(    6) = (   0.0000000   0.4811252   0.0000000), wk =   0.0138889
        k(    7) = (   0.0000000  -0.5773503   0.0000000), wk =   0.0069444
        k(    8) = (   0.0833333   0.0481125   0.0000000), wk =   0.0138889
        k(    9) = (   0.0833333   0.1443376   0.0000000), wk =   0.0138889
        k(   10) = (   0.0833333   0.2405626   0.0000000), wk =   0.0138889
        k(   11) = (   0.0833333   0.3367877   0.0000000), wk =   0.0138889
        k(   12) = (   0.0833333   0.4330127   0.0000000), wk =   0.0138889
        k(   13) = (   0.0833333   0.5292377   0.0000000), wk =   0.0138889
        k(   14) = (   0.0833333  -0.5292377   0.0000000), wk =   0.0138889
        k(   15) = (   0.0833333  -0.4330127   0.0000000), wk =   0.0138889
        k(   16) = (   0.0833333  -0.3367877   0.0000000), wk =   0.0138889
        k(   17) = (   0.0833333  -0.2405626   0.0000000), wk =   0.0138889
        k(   18) = (   0.0833333  -0.1443376   0.0000000), wk =   0.0138889
        k(   19) = (   0.0833333  -0.0481125   0.0000000), wk =   0.0138889
        k(   20) = (   0.1666667   0.0962250   0.0000000), wk =   0.0138889
        k(   21) = (   0.1666667   0.1924501   0.0000000), wk =   0.0138889
        k(   22) = (   0.1666667   0.2886751   0.0000000), wk =   0.0138889
        k(   23) = (   0.1666667   0.3849002   0.0000000), wk =   0.0138889
        k(   24) = (   0.1666667   0.4811252   0.0000000), wk =   0.0138889
        k(   25) = (   0.1666667   0.5773503   0.0000000), wk =   0.0138889
        k(   26) = (   0.1666667  -0.4811252   0.0000000), wk =   0.0138889
        k(   27) = (   0.1666667  -0.3849002   0.0000000), wk =   0.0138889
        k(   28) = (   0.1666667  -0.2886751   0.0000000), wk =   0.0138889
        k(   29) = (   0.1666667  -0.1924501   0.0000000), wk =   0.0138889
        k(   30) = (   0.1666667  -0.0962250   0.0000000), wk =   0.0138889
        k(   31) = (   0.1666667  -0.0000000   0.0000000), wk =   0.0138889
        k(   32) = (   0.2500000   0.1443376   0.0000000), wk =   0.0138889
        k(   33) = (   0.2500000   0.2405626   0.0000000), wk =   0.0138889
        k(   34) = (   0.2500000   0.3367877   0.0000000), wk =   0.0138889
        k(   35) = (   0.2500000   0.4330127   0.0000000), wk =   0.0138889
        k(   36) = (   0.2500000   0.5292377   0.0000000), wk =   0.0138889
        k(   37) = (   0.2500000   0.6254628   0.0000000), wk =   0.0138889
        k(   38) = (   0.2500000  -0.4330127   0.0000000), wk =   0.0138889
        k(   39) = (   0.2500000  -0.3367877   0.0000000), wk =   0.0138889
        k(   40) = (   0.2500000  -0.2405626   0.0000000), wk =   0.0138889
        k(   41) = (   0.2500000  -0.1443376   0.0000000), wk =   0.0138889
        k(   42) = (   0.2500000  -0.0481125   0.0000000), wk =   0.0138889
        k(   43) = (   0.2500000   0.0481125   0.0000000), wk =   0.0138889
        k(   44) = (   0.3333333   0.1924501   0.0000000), wk =   0.0138889
        k(   45) = (   0.3333333   0.2886751   0.0000000), wk =   0.0138889
        k(   46) = (   0.3333333   0.3849002   0.0000000), wk =   0.0138889
        k(   47) = (   0.3333333   0.4811252   0.0000000), wk =   0.0138889
        k(   48) = (   0.3333333   0.5773503   0.0000000), wk =   0.0138889
        k(   49) = (   0.3333333   0.6735753   0.0000000), wk =   0.0138889
        k(   50) = (   0.3333333  -0.3849002   0.0000000), wk =   0.0138889
        k(   51) = (   0.3333333  -0.2886751   0.0000000), wk =   0.0138889
        k(   52) = (   0.3333333  -0.1924501   0.0000000), wk =   0.0138889
        k(   53) = (   0.3333333  -0.0962250   0.0000000), wk =   0.0138889
        k(   54) = (   0.3333333  -0.0000000   0.0000000), wk =   0.0138889
        k(   55) = (   0.3333333   0.0962250   0.0000000), wk =   0.0138889
        k(   56) = (   0.4166667   0.2405626   0.0000000), wk =   0.0138889
        k(   57) = (   0.4166667   0.3367877   0.0000000), wk =   0.0138889
        k(   58) = (   0.4166667   0.4330127   0.0000000), wk =   0.0138889
        k(   59) = (   0.4166667   0.5292377   0.0000000), wk =   0.0138889
        k(   60) = (   0.4166667   0.6254628   0.0000000), wk =   0.0138889
        k(   61) = (   0.4166667   0.7216878   0.0000000), wk =   0.0138889
        k(   62) = (   0.4166667  -0.3367877   0.0000000), wk =   0.0138889
        k(   63) = (   0.4166667  -0.2405626   0.0000000), wk =   0.0138889
        k(   64) = (   0.4166667  -0.1443376   0.0000000), wk =   0.0138889
        k(   65) = (   0.4166667  -0.0481125   0.0000000), wk =   0.0138889
        k(   66) = (   0.4166667   0.0481125   0.0000000), wk =   0.0138889
        k(   67) = (   0.4166667   0.1443376   0.0000000), wk =   0.0138889
        k(   68) = (  -0.5000000  -0.2886751   0.0000000), wk =   0.0069444
        k(   69) = (  -0.5000000  -0.1924501   0.0000000), wk =   0.0138889
        k(   70) = (  -0.5000000  -0.0962250   0.0000000), wk =   0.0138889
        k(   71) = (  -0.5000000   0.0000000   0.0000000), wk =   0.0138889
        k(   72) = (  -0.5000000   0.0962250   0.0000000), wk =   0.0138889
        k(   73) = (  -0.5000000   0.1924501   0.0000000), wk =   0.0138889
        k(   74) = (  -0.5000000  -0.8660254   0.0000000), wk =   0.0069444

     Dense  grid:   166859 G-vectors     FFT dimensions: (  40,  40, 240)

     Smooth grid:    42343 G-vectors     FFT dimensions: (  25,  25, 160)

     Estimated max dynamical RAM per process >      40.42 MB

     Estimated total dynamical RAM >     808.50 MB

     Initial potential from superposition of free atoms

     starting charge       7.9999, renormalised to       8.0000

     negative rho (up, down):  2.223E-05 0.000E+00
 
     Adding external electric field

     Computed dipole along edir(3) : 
        Dipole               -0.0000 Ry au,         -0.0000 Debye
        Dipole field         -0.0000 Ry au, 
 
        E field amplitude [Ha a.u.]:  9.7235E-03
        Potential amp.        0.5237 Ry
        Total length         26.9286 bohr
 
     Starting wfcs are random
     Checking if some PAW data can be deallocated... 

     total cpu time spent up to now is        0.9 secs

     per-process dynamical memory:    53.7 Mb

     Self-consistent Calculation

     iteration #  1     ecut=    70.00 Ry     beta= 0.10
     Davidson diagonalization with overlap
     ethr =  1.00E-02,  avg # of iterations =  8.5

     negative rho (up, down):  2.130E-05 0.000E+00
 
     Adding external electric field

     Computed dipole along edir(3) : 
        Dipole                0.0122 Ry au,          0.0310 Debye
        Dipole field          0.0003 Ry au, 
 
        E field amplitude [Ha a.u.]:  9.7235E-03
        Potential amp.        0.5082 Ry
        Total length         26.9286 bohr
 

     total cpu time spent up to now is        8.6 secs

     total energy              =     -36.95198588 Ry
     estimated scf accuracy    <       0.20475797 Ry

     iteration #  2     ecut=    70.00 Ry     beta= 0.10
     Davidson diagonalization with overlap
     ethr =  2.56E-03,  avg # of iterations =  1.0

     negative rho (up, down):  2.648E-05 0.000E+00
 
     Adding external electric field

     Computed dipole along edir(3) : 
        Dipole                0.0782 Ry au,          0.1988 Debye
        Dipole field          0.0018 Ry au, 
 
        E field amplitude [Ha a.u.]:  9.7235E-03
        Potential amp.        0.4245 Ry
        Total length         26.9286 bohr
 

     total cpu time spent up to now is       10.4 secs

     total energy              =     -36.86228456 Ry
     estimated scf accuracy    <       0.15079929 Ry

     iteration #  3     ecut=    70.00 Ry     beta= 0.10
     Davidson diagonalization with overlap
     ethr =  1.88E-03,  avg # of iterations =  3.0

     negative rho (up, down):  2.629E-05 0.000E+00
 
     Adding external electric field

     Computed dipole along edir(3) : 
        Dipole                0.0631 Ry au,          0.1605 Debye
        Dipole field          0.0015 Ry au, 
 
        E field amplitude [Ha a.u.]:  9.7235E-03
        Potential amp.        0.4436 Ry
        Total length         26.9286 bohr
 

     total cpu time spent up to now is       12.6 secs

     total energy              =     -36.88750279 Ry
     estimated scf accuracy    <       0.00336510 Ry

     iteration #  4     ecut=    70.00 Ry     beta= 0.10
     Davidson diagonalization with overlap
     ethr =  4.21E-05,  avg # of iterations =  5.8

     negative rho (up, down):  2.856E-05 0.000E+00
 
     Adding external electric field

     Computed dipole along edir(3) : 
        Dipole                0.0375 Ry au,          0.0953 Debye
        Dipole field          0.0009 Ry au, 
 
        E field amplitude [Ha a.u.]:  9.7235E-03
        Potential amp.        0.4761 Ry
        Total length         26.9286 bohr
 

     total cpu time spent up to now is       15.9 secs

     total energy              =     -36.88772106 Ry
     estimated scf accuracy    <       0.00187098 Ry

     iteration #  5     ecut=    70.00 Ry     beta= 0.10
     Davidson diagonalization with overlap
     ethr =  2.34E-05,  avg # of iterations =  2.8

     negative rho (up, down):  2.853E-05 0.000E+00
 
     Adding external electric field

     Computed dipole along edir(3) : 
        Dipole                0.0351 Ry au,          0.0891 Debye
        Dipole field          0.0008 Ry au, 
 
        E field amplitude [Ha a.u.]:  9.7235E-03
        Potential amp.        0.4792 Ry
        Total length         26.9286 bohr
 

     total cpu time spent up to now is       18.2 secs

     total energy              =     -36.88808376 Ry
     estimated scf accuracy    <       0.00090827 Ry

     iteration #  6     ecut=    70.00 Ry     beta= 0.10
     Davidson diagonalization with overlap
     ethr =  1.14E-05,  avg # of iterations =  1.0

     negative rho (up, down):  3.173E-05 0.000E+00
 
     Adding external electric field

     Computed dipole along edir(3) : 
        Dipole                0.0518 Ry au,          0.1317 Debye
        Dipole field          0.0012 Ry au, 
 
        E field amplitude [Ha a.u.]:  9.7235E-03
        Potential amp.        0.4580 Ry
        Total length         26.9286 bohr
 

     total cpu time spent up to now is       19.9 secs

     total energy              =     -36.88781728 Ry
     estimated scf accuracy    <       0.00112618 Ry

     iteration #  7     ecut=    70.00 Ry     beta= 0.10
     Davidson diagonalization with overlap
     ethr =  1.14E-05,  avg # of iterations =  2.2

     negative rho (up, down):  3.269E-05 0.000E+00
 
     Adding external electric field

     Computed dipole along edir(3) : 
        Dipole                0.0579 Ry au,          0.1473 Debye
        Dipole field          0.0014 Ry au, 
 
        E field amplitude [Ha a.u.]:  9.7235E-03
        Potential amp.        0.4502 Ry
        Total length         26.9286 bohr
 

     total cpu time spent up to now is       21.9 secs

     total energy              =     -36.88782194 Ry
     estimated scf accuracy    <       0.00012332 Ry

     iteration #  8     ecut=    70.00 Ry     beta= 0.10
     Davidson diagonalization with overlap
     ethr =  1.54E-06,  avg # of iterations =  3.3

     negative rho (up, down):  3.302E-05 0.000E+00
 
     Adding external electric field

     Computed dipole along edir(3) : 
        Dipole                0.0565 Ry au,          0.1437 Debye
        Dipole field          0.0013 Ry au, 
 
        E field amplitude [Ha a.u.]:  9.7235E-03
        Potential amp.        0.4520 Ry
        Total length         26.9286 bohr
 

     total cpu time spent up to now is       24.4 secs

     total energy              =     -36.88784474 Ry
     estimated scf accuracy    <       0.00000155 Ry

     iteration #  9     ecut=    70.00 Ry     beta= 0.10
     Davidson diagonalization with overlap
     ethr =  1.93E-08,  avg # of iterations =  2.2

     negative rho (up, down):  3.336E-05 0.000E+00
 
     Adding external electric field

     Computed dipole along edir(3) : 
        Dipole                0.0562 Ry au,          0.1429 Debye
        Dipole field          0.0013 Ry au, 
 
        E field amplitude [Ha a.u.]:  9.7235E-03
        Potential amp.        0.4524 Ry
        Total length         26.9286 bohr
 

     total cpu time spent up to now is       26.5 secs

     total energy              =     -36.88784606 Ry
     estimated scf accuracy    <       0.00000236 Ry

     iteration # 10     ecut=    70.00 Ry     beta= 0.10
     Davidson diagonalization with overlap
     ethr =  1.93E-08,  avg # of iterations =  1.0

     negative rho (up, down):  3.390E-05 0.000E+00
 
     Adding external electric field

     Computed dipole along edir(3) : 
        Dipole                0.0573 Ry au,          0.1455 Debye
        Dipole field          0.0013 Ry au, 
 
        E field amplitude [Ha a.u.]:  9.7235E-03
        Potential amp.        0.4511 Ry
        Total length         26.9286 bohr
 

     total cpu time spent up to now is       28.3 secs

     total energy              =     -36.88784485 Ry
     estimated scf accuracy    <       0.00000278 Ry

     iteration # 11     ecut=    70.00 Ry     beta= 0.10
     Davidson diagonalization with overlap
     ethr =  1.93E-08,  avg # of iterations =  2.0

     negative rho (up, down):  3.395E-05 0.000E+00
 
     Adding external electric field

     Computed dipole along edir(3) : 
        Dipole                0.0572 Ry au,          0.1455 Debye
        Dipole field          0.0013 Ry au, 
 
        E field amplitude [Ha a.u.]:  9.7235E-03
        Potential amp.        0.4511 Ry
        Total length         26.9286 bohr
 

     total cpu time spent up to now is       30.3 secs

     total energy              =     -36.88784539 Ry
     estimated scf accuracy    <       0.00000008 Ry

     iteration # 12     ecut=    70.00 Ry     beta= 0.10
     Davidson diagonalization with overlap
     ethr =  1.06E-09,  avg # of iterations =  1.7

     negative rho (up, down):  3.405E-05 0.000E+00
 
     Adding external electric field

     Computed dipole along edir(3) : 
        Dipole                0.0572 Ry au,          0.1455 Debye
        Dipole field          0.0013 Ry au, 
 
        E field amplitude [Ha a.u.]:  9.7235E-03
        Potential amp.        0.4511 Ry
        Total length         26.9286 bohr
 

     total cpu time spent up to now is       32.2 secs

     total energy              =     -36.88784541 Ry
     estimated scf accuracy    <       0.00000002 Ry

     iteration # 13     ecut=    70.00 Ry     beta= 0.10
     Davidson diagonalization with overlap
     ethr =  1.95E-10,  avg # of iterations =  1.3

     negative rho (up, down):  3.417E-05 0.000E+00
 
     Adding external electric field

     Computed dipole along edir(3) : 
        Dipole                0.0573 Ry au,          0.1455 Debye
        Dipole field          0.0013 Ry au, 
 
        E field amplitude [Ha a.u.]:  9.7235E-03
        Potential amp.        0.4511 Ry
        Total length         26.9286 bohr
 

     total cpu time spent up to now is       34.0 secs

     total energy              =     -36.88784541 Ry
     estimated scf accuracy    <       0.00000002 Ry

     iteration # 14     ecut=    70.00 Ry     beta= 0.10
     Davidson diagonalization with overlap
     ethr =  1.95E-10,  avg # of iterations =  2.0

     negative rho (up, down):  3.533E-05 0.000E+00
 
     Adding external electric field

     Computed dipole along edir(3) : 
        Dipole                0.0573 Ry au,          0.1458 Debye
        Dipole field          0.0014 Ry au, 
 
        E field amplitude [Ha a.u.]:  9.7235E-03
        Potential amp.        0.4509 Ry
        Total length         26.9286 bohr
 

     total cpu time spent up to now is       36.0 secs

     End of self-consistent calculation

          k = 0.0000 0.0000 0.0000 (  5307 PWs)   bands (ev):

   -21.0849 -21.0849  -9.1816  -9.1816  -4.6278  -4.6278  -4.6186  -4.6186
     0.6993   0.6993   1.7958   1.7958   3.0410   3.0410   4.7659   4.7659

          k = 0.0000 0.0962 0.0000 (  5285 PWs)   bands (ev):

   -20.9211 -20.9211  -8.9858  -8.9858  -5.2739  -5.2739  -4.9611  -4.9611
     0.9267   0.9267   2.0197   2.0197   3.2633   3.2634   4.9882   4.9883

          k = 0.0000 0.1925 0.0000 (  5253 PWs)   bands (ev):

   -20.4316 -20.4316  -8.4039  -8.4038  -6.9112  -6.9112  -5.7527  -5.7527
     1.6087   1.6087   2.6912   2.6913   3.9290   3.9292   5.6518   5.6520

          k = 0.0000 0.2887 0.0000 (  5269 PWs)   bands (ev):

   -19.6221 -19.6221  -9.0088  -9.0088  -7.4549  -7.4549  -6.6317  -6.6317
     2.7439   2.7440   3.8074   3.8075   5.0123   5.0125   5.6841   5.6841

          k = 0.0000 0.3849 0.0000 (  5285 PWs)   bands (ev):

   -18.5049 -18.5048 -11.2106 -11.2106  -7.3645  -7.3645  -6.1891  -6.1891
     3.3313   3.3314   4.3411   4.3412   5.3673   5.3675   6.1264   6.1268

          k = 0.0000 0.4811 0.0000 (  5290 PWs)   bands (ev):

   -17.1112 -17.1112 -13.3086 -13.3086  -7.8371  -7.8371  -4.7695  -4.7695
     1.2051   1.2052   5.8807   5.8807   6.3789   6.3790   7.3837   7.3838

          k = 0.0000-0.5774 0.0000 (  5288 PWs)   bands (ev):

   -15.8525 -15.8525 -14.8099 -14.8099  -7.9993  -7.9993  -3.9271  -3.9271
     0.1104   0.1104   5.8021   5.8021   8.8337   8.8337   8.8674   8.8674

          k = 0.0833 0.0481 0.0000 (  5285 PWs)   bands (ev):

   -20.9211 -20.9211  -8.9858  -8.9858  -5.2739  -5.2739  -4.9611  -4.9611
     0.9267   0.9267   2.0197   2.0197   3.2633   3.2634   4.9882   4.9883

          k = 0.0833 0.1443 0.0000 (  5269 PWs)   bands (ev):

   -20.5945 -20.5945  -8.5969  -8.5969  -6.3077  -6.3077  -5.6377  -5.6377
     1.3814   1.3815   2.4676   2.4676   3.7077   3.7078   5.4319   5.4321

          k = 0.0833 0.2406 0.0000 (  5261 PWs)   bands (ev):

   -19.9450 -19.9450  -8.0171  -8.0171  -7.8302  -7.8302  -6.6348  -6.6348
     2.2903   2.2904   3.3625   3.3626   4.5928   4.5930   6.2969   6.2971

          k = 0.0833 0.3368 0.0000 (  5275 PWs)   bands (ev):

   -18.9815 -18.9815 -10.0889 -10.0889  -7.5205  -7.5205  -6.7164  -6.7164
     3.6480   3.6481   4.3497   4.3498   4.7120   4.7122   5.9265   5.9269

          k = 0.0833 0.4330 0.0000 (  5284 PWs)   bands (ev):

   -17.7228 -17.7228 -12.2099 -12.2099  -8.1550  -8.1549  -5.3396  -5.3396
     2.1494   2.1495   5.4675   5.4676   6.4565   6.4569   6.7379   6.7382

          k = 0.0833 0.5292 0.0000 (  5302 PWs)   bands (ev):

   -16.2463 -16.2463 -14.1483 -14.1482  -8.4832  -8.4832  -4.0333  -4.0333
     0.3855   0.3855   6.5401   6.5401   7.7248   7.7250   8.6963   8.6965

          k = 0.0833-0.5292 0.0000 (  5302 PWs)   bands (ev):

   -16.2463 -16.2463 -14.1483 -14.1482  -8.4832  -8.4832  -4.0333  -4.0333
     0.3855   0.3855   6.5401   6.5401   7.7248   7.7250   8.6963   8.6965

          k = 0.0833-0.4330 0.0000 (  5284 PWs)   bands (ev):

   -17.7228 -17.7228 -12.2099 -12.2099  -8.1550  -8.1549  -5.3396  -5.3396
     2.1494   2.1495   5.4675   5.4676   6.4565   6.4569   6.7379   6.7382

          k = 0.0833-0.3368 0.0000 (  5275 PWs)   bands (ev):

   -18.9815 -18.9815 -10.0889 -10.0889  -7.5205  -7.5205  -6.7164  -6.7164
     3.6480   3.6481   4.3497   4.3498   4.7120   4.7122   5.9265   5.9269

          k = 0.0833-0.2406 0.0000 (  5261 PWs)   bands (ev):

   -19.9450 -19.9450  -8.0171  -8.0171  -7.8302  -7.8302  -6.6348  -6.6348
     2.2903   2.2904   3.3625   3.3626   4.5928   4.5930   6.2969   6.2971

          k = 0.0833-0.1443 0.0000 (  5269 PWs)   bands (ev):

   -20.5945 -20.5945  -8.5969  -8.5969  -6.3077  -6.3077  -5.6377  -5.6377
     1.3814   1.3815   2.4676   2.4676   3.7077   3.7078   5.4319   5.4321

          k = 0.0833-0.0481 0.0000 (  5285 PWs)   bands (ev):

   -20.9211 -20.9211  -8.9858  -8.9858  -5.2739  -5.2739  -4.9611  -4.9611
     0.9267   0.9267   2.0197   2.0197   3.2633   3.2634   4.9882   4.9883

          k = 0.1667 0.0962 0.0000 (  5253 PWs)   bands (ev):

   -20.4316 -20.4316  -8.4039  -8.4038  -6.9112  -6.9112  -5.7527  -5.7527
     1.6087   1.6087   2.6912   2.6913   3.9290   3.9292   5.6518   5.6520

          k = 0.1667 0.1925 0.0000 (  5261 PWs)   bands (ev):

   -19.9450 -19.9450  -8.0171  -8.0171  -7.8302  -7.8302  -6.6348  -6.6348
     2.2903   2.2904   3.3625   3.3626   4.5928   4.5930   6.2969   6.2971

          k = 0.1667 0.2887 0.0000 (  5288 PWs)   bands (ev):

   -19.1414 -19.1414  -9.3477  -9.3477  -7.9951  -7.9950  -6.8948  -6.8948
     3.4253   3.4253   4.4796   4.4797   4.7994   4.7995   5.6941   5.6944

          k = 0.1667 0.3849 0.0000 (  5285 PWs)   bands (ev):

   -18.0350 -18.0350 -11.0738 -11.0737  -9.0507  -9.0507  -5.6442  -5.6442
     2.8563   2.8563   5.0110   5.0111   6.0361   6.0363   7.2086   7.2090

          k = 0.1667 0.4811 0.0000 (  5283 PWs)   bands (ev):

   -16.6612 -16.6612 -12.9820 -12.9820  -9.6267  -9.6267  -4.2205  -4.2204
     0.9486   0.9487   7.0376   7.0378   8.0077   8.0080   8.4428   8.4433

          k = 0.1667 0.5774 0.0000 (  5264 PWs)   bands (ev):

   -15.4313 -15.4313 -14.4123 -14.4123  -9.8115  -9.8115  -3.3299  -3.3299
    -0.1168  -0.1168   8.3463   8.3463   9.3997   9.3998   9.4871   9.4873

          k = 0.1667-0.4811 0.0000 (  5283 PWs)   bands (ev):

   -16.6612 -16.6612 -12.9820 -12.9820  -9.6267  -9.6267  -4.2205  -4.2204
     0.9486   0.9487   7.0376   7.0378   8.0077   8.0080   8.4428   8.4433

          k = 0.1667-0.3849 0.0000 (  5285 PWs)   bands (ev):

   -18.0350 -18.0350 -11.0738 -11.0737  -9.0507  -9.0507  -5.6442  -5.6442
     2.8563   2.8563   5.0110   5.0111   6.0361   6.0363   7.2086   7.2090

          k = 0.1667-0.2887 0.0000 (  5288 PWs)   bands (ev):

   -19.1414 -19.1414  -9.3477  -9.3477  -7.9951  -7.9950  -6.8948  -6.8948
     3.4253   3.4253   4.4796   4.4797   4.7994   4.7995   5.6941   5.6944

          k = 0.1667-0.1925 0.0000 (  5261 PWs)   bands (ev):

   -19.9450 -19.9450  -8.0171  -8.0171  -7.8302  -7.8302  -6.6348  -6.6348
     2.2903   2.2904   3.3625   3.3626   4.5928   4.5930   6.2969   6.2972

          k = 0.1667-0.0962 0.0000 (  5253 PWs)   bands (ev):

   -20.4316 -20.4316  -8.4039  -8.4038  -6.9112  -6.9112  -5.7527  -5.7527
     1.6087   1.6087   2.6912   2.6913   3.9290   3.9292   5.6518   5.6520

          k = 0.1667-0.0000 0.0000 (  5269 PWs)   bands (ev):

   -20.5945 -20.5945  -8.5969  -8.5969  -6.3077  -6.3077  -5.6377  -5.6377
     1.3814   1.3815   2.4676   2.4676   3.7077   3.7078   5.4319   5.4321

          k = 0.2500 0.1443 0.0000 (  5269 PWs)   bands (ev):

   -19.6221 -19.6221  -9.0088  -9.0088  -7.4549  -7.4549  -6.6317  -6.6317
     2.7439   2.7440   3.8074   3.8075   5.0123   5.0125   5.6841   5.6841

          k = 0.2500 0.2406 0.0000 (  5275 PWs)   bands (ev):

   -18.9815 -18.9815 -10.0889 -10.0889  -7.5205  -7.5205  -6.7164  -6.7164
     3.6480   3.6481   4.3497   4.3498   4.7120   4.7122   5.9265   5.9269

          k = 0.2500 0.3368 0.0000 (  5285 PWs)   bands (ev):

   -18.0350 -18.0350 -11.0738 -11.0737  -9.0507  -9.0507  -5.6442  -5.6442
     2.8563   2.8563   5.0110   5.0111   6.0361   6.0363   7.2086   7.2090

          k = 0.2500 0.4330 0.0000 (  5268 PWs)   bands (ev):

   -16.8086 -16.8085 -12.1100 -12.1100 -10.5311 -10.5311  -4.3042  -4.3042
     1.2451   1.2452   6.8063   6.8065   7.7886   7.7888   8.7649   8.7656

          k = 0.2500 0.5292 0.0000 (  5282 PWs)   bands (ev):

   -15.3890 -15.3890 -13.5288 -13.5288 -11.2384 -11.2384  -2.9214  -2.9214
    -0.2720  -0.2719   8.8946   8.8949   9.5293   9.5295  10.0098  10.0100

          k = 0.2500 0.6255 0.0000 (  5282 PWs)   bands (ev):

   -15.3890 -15.3890 -13.5288 -13.5288 -11.2384 -11.2384  -2.9214  -2.9214
    -0.2720  -0.2719   8.8946   8.8949   9.5293   9.5295  10.0098  10.0100

          k = 0.2500-0.4330 0.0000 (  5268 PWs)   bands (ev):

   -16.8086 -16.8085 -12.1100 -12.1100 -10.5311 -10.5311  -4.3042  -4.3042
     1.2451   1.2452   6.8063   6.8065   7.7886   7.7888   8.7649   8.7656

          k = 0.2500-0.3368 0.0000 (  5285 PWs)   bands (ev):

   -18.0350 -18.0350 -11.0738 -11.0737  -9.0507  -9.0507  -5.6442  -5.6442
     2.8563   2.8563   5.0110   5.0111   6.0361   6.0363   7.2086   7.2090

          k = 0.2500-0.2406 0.0000 (  5275 PWs)   bands (ev):

   -18.9815 -18.9815 -10.0889 -10.0889  -7.5205  -7.5205  -6.7164  -6.7164
     3.6480   3.6481   4.3497   4.3498   4.7120   4.7122   5.9265   5.9269

          k = 0.2500-0.1443 0.0000 (  5269 PWs)   bands (ev):

   -19.6221 -19.6221  -9.0088  -9.0088  -7.4549  -7.4549  -6.6317  -6.6317
     2.7439   2.7440   3.8074   3.8075   5.0123   5.0125   5.6841   5.6841

          k = 0.2500-0.0481 0.0000 (  5261 PWs)   bands (ev):

   -19.9450 -19.9450  -8.0171  -8.0171  -7.8302  -7.8302  -6.6348  -6.6348
     2.2903   2.2904   3.3625   3.3626   4.5928   4.5930   6.2970   6.2971

          k = 0.2500 0.0481 0.0000 (  5261 PWs)   bands (ev):

   -19.9450 -19.9450  -8.0171  -8.0171  -7.8302  -7.8302  -6.6348  -6.6348
     2.2903   2.2904   3.3625   3.3626   4.5928   4.5930   6.2969   6.2971

          k = 0.3333 0.1925 0.0000 (  5285 PWs)   bands (ev):

   -18.5049 -18.5048 -11.2106 -11.2106  -7.3645  -7.3645  -6.1891  -6.1891
     3.3313   3.3314   4.3411   4.3412   5.3673   5.3675   6.1264   6.1268

          k = 0.3333 0.2887 0.0000 (  5284 PWs)   bands (ev):

   -17.7228 -17.7228 -12.2099 -12.2099  -8.1550  -8.1549  -5.3396  -5.3396
     2.1494   2.1494   5.4675   5.4676   6.4565   6.4569   6.7379   6.7382

          k = 0.3333 0.3849 0.0000 (  5283 PWs)   bands (ev):

   -16.6612 -16.6612 -12.9820 -12.9820  -9.6267  -9.6267  -4.2205  -4.2204
     0.9486   0.9487   7.0376   7.0378   8.0077   8.0080   8.4428   8.4433

          k = 0.3333 0.4811 0.0000 (  5282 PWs)   bands (ev):

   -15.3890 -15.3890 -13.5288 -13.5288 -11.2384 -11.2384  -2.9214  -2.9214
    -0.2720  -0.2719   8.8946   8.8949   9.5293   9.5295  10.0098  10.0100

          k = 0.3333 0.5774 0.0000 (  5292 PWs)   bands (ev):

   -14.1751 -14.1750 -14.1730 -14.1730 -12.1297 -12.1297  -1.5680  -1.5680
    -1.5679  -1.5678   9.0115   9.0115  11.1357  11.1366  11.1390  11.1391

          k = 0.3333 0.6736 0.0000 (  5282 PWs)   bands (ev):

   -15.3890 -15.3890 -13.5288 -13.5288 -11.2384 -11.2384  -2.9214  -2.9214
    -0.2720  -0.2719   8.8946   8.8949   9.5293   9.5295  10.0098  10.0100

          k = 0.3333-0.3849 0.0000 (  5283 PWs)   bands (ev):

   -16.6612 -16.6612 -12.9820 -12.9820  -9.6267  -9.6267  -4.2205  -4.2204
     0.9486   0.9487   7.0376   7.0378   8.0077   8.0080   8.4428   8.4433

          k = 0.3333-0.2887 0.0000 (  5284 PWs)   bands (ev):

   -17.7228 -17.7228 -12.2099 -12.2099  -8.1550  -8.1549  -5.3396  -5.3396
     2.1494   2.1494   5.4675   5.4676   6.4565   6.4569   6.7379   6.7382

          k = 0.3333-0.1925 0.0000 (  5285 PWs)   bands (ev):

   -18.5049 -18.5048 -11.2106 -11.2106  -7.3645  -7.3645  -6.1891  -6.1891
     3.3313   3.3314   4.3411   4.3412   5.3673   5.3675   6.1264   6.1268

          k = 0.3333-0.0962 0.0000 (  5275 PWs)   bands (ev):

   -18.9815 -18.9815 -10.0889 -10.0889  -7.5205  -7.5205  -6.7164  -6.7164
     3.6480   3.6481   4.3497   4.3498   4.7120   4.7122   5.9265   5.9269

          k = 0.3333-0.0000 0.0000 (  5288 PWs)   bands (ev):

   -19.1414 -19.1414  -9.3478  -9.3477  -7.9950  -7.9950  -6.8948  -6.8948
     3.4253   3.4253   4.4796   4.4797   4.7994   4.7995   5.6941   5.6944

          k = 0.3333 0.0962 0.0000 (  5275 PWs)   bands (ev):

   -18.9815 -18.9815 -10.0889 -10.0889  -7.5205  -7.5205  -6.7164  -6.7164
     3.6480   3.6481   4.3497   4.3498   4.7120   4.7122   5.9265   5.9269

          k = 0.4167 0.2406 0.0000 (  5290 PWs)   bands (ev):

   -17.1112 -17.1112 -13.3086 -13.3086  -7.8371  -7.8371  -4.7695  -4.7695
     1.2051   1.2052   5.8807   5.8807   6.3789   6.3790   7.3837   7.3838

          k = 0.4167 0.3368 0.0000 (  5302 PWs)   bands (ev):

   -16.2463 -16.2463 -14.1483 -14.1482  -8.4832  -8.4832  -4.0333  -4.0333
     0.3855   0.3855   6.5401   6.5401   7.7248   7.7250   8.6963   8.6965

          k = 0.4167 0.4330 0.0000 (  5264 PWs)   bands (ev):

   -15.4313 -15.4313 -14.4123 -14.4123  -9.8115  -9.8115  -3.3299  -3.3299
    -0.1168  -0.1168   8.3463   8.3463   9.3997   9.3998   9.4871   9.4873

          k = 0.4167 0.5292 0.0000 (  5282 PWs)   bands (ev):

   -15.3890 -15.3890 -13.5288 -13.5288 -11.2384 -11.2384  -2.9214  -2.9214
    -0.2720  -0.2719   8.8946   8.8949   9.5293   9.5295  10.0098  10.0100

          k = 0.4167 0.6255 0.0000 (  5282 PWs)   bands (ev):

   -15.3890 -15.3890 -13.5288 -13.5288 -11.2384 -11.2384  -2.9214  -2.9214
    -0.2720  -0.2719   8.8946   8.8949   9.5293   9.5295  10.0098  10.0100

          k = 0.4167 0.7217 0.0000 (  5264 PWs)   bands (ev):

   -15.4313 -15.4313 -14.4123 -14.4123  -9.8115  -9.8115  -3.3299  -3.3299
    -0.1168  -0.1168   8.3463   8.3463   9.3997   9.3998   9.4871   9.4873

          k = 0.4167-0.3368 0.0000 (  5302 PWs)   bands (ev):

   -16.2463 -16.2463 -14.1483 -14.1482  -8.4832  -8.4832  -4.0333  -4.0333
     0.3855   0.3855   6.5401   6.5401   7.7248   7.7250   8.6963   8.6965

          k = 0.4167-0.2406 0.0000 (  5290 PWs)   bands (ev):

   -17.1112 -17.1112 -13.3086 -13.3086  -7.8371  -7.8371  -4.7695  -4.7695
     1.2051   1.2052   5.8807   5.8807   6.3789   6.3790   7.3837   7.3838

          k = 0.4167-0.1443 0.0000 (  5284 PWs)   bands (ev):

   -17.7228 -17.7228 -12.2099 -12.2099  -8.1550  -8.1549  -5.3396  -5.3396
     2.1494   2.1494   5.4675   5.4676   6.4565   6.4569   6.7379   6.7382

          k = 0.4167-0.0481 0.0000 (  5285 PWs)   bands (ev):

   -18.0350 -18.0350 -11.0738 -11.0737  -9.0507  -9.0507  -5.6442  -5.6442
     2.8563   2.8563   5.0110   5.0111   6.0361   6.0363   7.2086   7.2090

          k = 0.4167 0.0481 0.0000 (  5285 PWs)   bands (ev):

   -18.0350 -18.0350 -11.0738 -11.0737  -9.0507  -9.0507  -5.6442  -5.6442
     2.8563   2.8563   5.0110   5.0111   6.0361   6.0363   7.2086   7.2090

          k = 0.4167 0.1443 0.0000 (  5284 PWs)   bands (ev):

   -17.7228 -17.7228 -12.2099 -12.2099  -8.1550  -8.1549  -5.3396  -5.3396
     2.1494   2.1494   5.4675   5.4676   6.4565   6.4569   6.7379   6.7382

          k =-0.5000-0.2887 0.0000 (  5288 PWs)   bands (ev):

   -15.8525 -15.8525 -14.8099 -14.8099  -7.9993  -7.9993  -3.9270  -3.9270
     0.1104   0.1104   5.8021   5.8021   8.8337   8.8337   8.8674   8.8674

          k =-0.5000-0.1925 0.0000 (  5302 PWs)   bands (ev):

   -16.2463 -16.2463 -14.1483 -14.1482  -8.4832  -8.4832  -4.0333  -4.0333
     0.3855   0.3855   6.5401   6.5401   7.7248   7.7250   8.6963   8.6965

          k =-0.5000-0.0962 0.0000 (  5283 PWs)   bands (ev):

   -16.6612 -16.6612 -12.9820 -12.9820  -9.6267  -9.6267  -4.2205  -4.2204
     0.9486   0.9487   7.0376   7.0378   8.0077   8.0080   8.4428   8.4433

          k =-0.5000 0.0000 0.0000 (  5268 PWs)   bands (ev):

   -16.8086 -16.8085 -12.1100 -12.1100 -10.5311 -10.5311  -4.3042  -4.3042
     1.2451   1.2452   6.8063   6.8065   7.7886   7.7888   8.7649   8.7656

          k =-0.5000 0.0962 0.0000 (  5283 PWs)   bands (ev):

   -16.6612 -16.6612 -12.9820 -12.9820  -9.6267  -9.6267  -4.2205  -4.2204
     0.9486   0.9487   7.0376   7.0378   8.0077   8.0080   8.4428   8.4433

          k =-0.5000 0.1925 0.0000 (  5302 PWs)   bands (ev):

   -16.2463 -16.2463 -14.1483 -14.1482  -8.4832  -8.4832  -4.0333  -4.0333
     0.3855   0.3855   6.5401   6.5401   7.7248   7.7250   8.6963   8.6965

          k =-0.5000-0.8660 0.0000 (  5288 PWs)   bands (ev):

   -15.8525 -15.8525 -14.8099 -14.8099  -7.9993  -7.9993  -3.9270  -3.9270
     0.1104   0.1104   5.8021   5.8021   8.8337   8.8337   8.8674   8.8674

     the Fermi energy is    -1.56790809 ev

!    total energy              =     -36.88784543 Ry
     total all-electron energy =      -152.416118 Ry
     estimated scf accuracy    <          2.9E-09 Ry
     smearing contrib. (-TS)   =      -0.00003134 Ry
     internal energy E=F+TS    =     -36.88781408 Ry

     The total energy is F=E-TS. E is the sum of the following terms:
     one-electron contribution =    -156.61508177 Ry
     hartree contribution      =      79.92475761 Ry
     xc contribution           =      -9.27187530 Ry
     ewald contribution        =      61.40972547 Ry
     electric field correction =      -0.00103780 Ry
     one-center paw contrib.   =     -12.33430229 Ry

     convergence has been achieved in  14 iterations

     negative rho (up, down):  3.533E-05 0.000E+00

     Forces acting on atoms (cartesian axes, Ry/au):

     atom    1 type  1   force =    -0.00000017   -0.00000065   -0.00000034
     atom    2 type  1   force =     0.00000017    0.00000065    0.00000034

     Total force =     0.000001     Total SCF correction =     0.000182
     SCF correction compared to forces is large: reduce conv_thr to get better values

     Writing all to output data dir ../tmp/graphene.save/ :
     XML data file, charge density, pseudopotentials, collected wavefunctions
 
     init_run     :      0.73s CPU      0.79s WALL (       1 calls)
     electrons    :     33.77s CPU     35.21s WALL (       1 calls)
     forces       :      0.11s CPU      0.11s WALL (       1 calls)

     Called by init_run:
     wfcinit      :      0.63s CPU      0.67s WALL (       1 calls)
     potinit      :      0.03s CPU      0.04s WALL (       1 calls)
     hinit0       :      0.02s CPU      0.02s WALL (       1 calls)

     Called by electrons:
     c_bands      :     28.57s CPU     29.71s WALL (      14 calls)
     sum_band     :      4.46s CPU      4.67s WALL (      14 calls)
     v_of_rho     :      0.16s CPU      0.19s WALL (      15 calls)
     newd         :      0.26s CPU      0.26s WALL (      15 calls)
     PAW_pot      :      0.17s CPU      0.17s WALL (      15 calls)
     mix_rho      :      0.11s CPU      0.11s WALL (      14 calls)

     Called by c_bands:
     init_us_2    :      0.20s CPU      0.21s WALL (    2220 calls)
     cegterg      :     27.73s CPU     28.80s WALL (    1036 calls)

     Called by *egterg:
     cdiaghg      :      3.65s CPU      3.71s WALL (    3836 calls)
     h_psi        :     21.32s CPU     22.27s WALL (    3910 calls)
     s_psi        :      0.46s CPU      0.48s WALL (    3910 calls)
     g_psi        :      0.08s CPU      0.08s WALL (    2800 calls)

     Called by h_psi:
     h_psi:calbec :      0.61s CPU      0.64s WALL (    3910 calls)
     vloc_psi     :     20.04s CPU     20.93s WALL (    3910 calls)
     add_vuspsi   :      0.48s CPU      0.50s WALL (    3910 calls)

     General routines
     calbec       :      0.78s CPU      0.82s WALL (    5242 calls)
     fft          :      0.21s CPU      0.21s WALL (     372 calls)
     ffts         :      0.01s CPU      0.01s WALL (     116 calls)
     fftw         :     17.59s CPU     18.38s WALL (  217424 calls)
     interpolate  :      0.03s CPU      0.03s WALL (      60 calls)
 
     Parallel routines
 
     PWSCF        :     34.91s CPU     38.70s WALL

 
   This run was terminated on:   2:24:10  29Jan2026            

=------------------------------------------------------------------------------=
   JOB DONE.
=------------------------------------------------------------------------------=
