
     Program PWSCF v.7.4.1 starts on 29Jan2026 at  2:24:49 

     This program is part of the open-source Quantum ESPRESSO suite
     for quantum simulation of materials; please cite
         "P. Giannozzi et al., J. Phys.:Condens. Matter 21 395502 (2009);
         "P. Giannozzi et al., J. Phys.:Condens. Matter 29 465901 (2017);
         "P. Giannozzi et al., J. Chem. Phys. 152 154105 (2020);
          URL http://www.quantum-espresso.org", 
     in publications or presentations arising from this work. More details at
     http://www.quantum-espresso.org/quote

     Parallel version (MPI), running on    20 processors

     MPI processes distributed on     1 nodes
     113292 MiB available memory on the printing compute node when the environment starts
 
     Reading input from grap_SOC_scf.in

     Current dimensions of program PWSCF are:
     Max number of different atomic species (ntypx) = 10
     Max number of k-points (npk) =  40000
     Max angular momentum in pseudopotentials (lmaxx) =  4
     Presently stress not available with electric field and gates

     file C.rel-pbe-n-kjpaw_psl.1.0.0.UPF: wavefunction(s)  2S 2P 2P renormalized
 
     R & G space division:  proc/nbgrp/npool/nimage =      20
     Subspace diagonalization in iterative solution of the eigenvalue problem:
     a serial algorithm will be used

 
     Parallelization info
     --------------------
     sticks:   dense  smooth     PW     G-vecs:    dense   smooth      PW
     Min          52      21      6                 8339     2113     392
     Max          57      22      7                 8350     2140     425
     Sum        1045     421    139               166859    42343    8205
 
     Using Slab Decomposition
 


     bravais-lattice index     =            0
     lattice parameter (alat)  =       4.6624  a.u.
     unit-cell volume          =     533.6317 (a.u.)^3
     number of atoms/cell      =            2
     number of atomic types    =            1
     number of electrons       =         8.00
     number of Kohn-Sham states=           16
     kinetic-energy cutoff     =      70.0000  Ry
     charge density cutoff     =     700.0000  Ry
     scf convergence threshold =      1.0E-08
     mixing beta               =       0.1000
     number of iterations used =            8  plain     mixing
     Exchange-correlation= SLA  PW   PBX  PBC
                           (   1   4   3   4   0   0   0)
     Non magnetic calculation with spin-orbit


     celldm(1)=   4.662410  celldm(2)=   0.000000  celldm(3)=   0.000000
     celldm(4)=   0.000000  celldm(5)=   0.000000  celldm(6)=   0.000000

     crystal axes: (cart. coord. in units of alat)
               a(1) = (   1.000000   0.000000   0.000000 )  
               a(2) = (  -0.500000   0.866025   0.000000 )  
               a(3) = (   0.000000   0.000000   6.079666 )  

     reciprocal axes: (cart. coord. in units 2 pi/alat)
               b(1) = (  1.000000  0.577350  0.000000 )  
               b(2) = (  0.000000  1.154701  0.000000 )  
               b(3) = (  0.000000  0.000000  0.164483 )  


     PseudoPot. # 1 for C  read from file:
     ../../../PP_C/C.rel-pbe-n-kjpaw_psl.1.0.0.UPF
     MD5 check sum: dd2b8f743de1f3a10095e4114fb28074
     Pseudo is Projector augmented-wave + core cor, Zval =  4.0
     Generated using &quot;atomic&quot; code by A. Dal Corso  v.6.3
     Shape of augmentation charge: PSQ
     Using radial grid of 1073 points,  6 beta functions with: 
                l(1) =   0
                l(2) =   0
                l(3) =   1
                l(4) =   1
                l(5) =   1
                l(6) =   1
     Q(r) pseudized with 0 coefficients 


     atomic species   valence    mass     pseudopotential
     C                 4.00    12.01100     C ( 1.00)

     No symmetry found



   Cartesian axes

     site n.     atom                  positions (alat units)
         1        C      tau(   1) = (   0.0000000   0.0000000   3.0398328  )
         2        C      tau(   2) = (   0.0000000   0.5773503   3.0398328  )

     number of k points=    74  Gaussian smearing, width (Ry)=  0.0020
                       cart. coord. in units 2pi/alat
        k(    1) = (   0.0000000   0.0000000   0.0000000), wk =   0.0069444
        k(    2) = (   0.0000000   0.0962250   0.0000000), wk =   0.0138889
        k(    3) = (   0.0000000   0.1924501   0.0000000), wk =   0.0138889
        k(    4) = (   0.0000000   0.2886751   0.0000000), wk =   0.0138889
        k(    5) = (   0.0000000   0.3849002   0.0000000), wk =   0.0138889
        k(    6) = (   0.0000000   0.4811252   0.0000000), wk =   0.0138889
        k(    7) = (   0.0000000  -0.5773503   0.0000000), wk =   0.0069444
        k(    8) = (   0.0833333   0.0481125   0.0000000), wk =   0.0138889
        k(    9) = (   0.0833333   0.1443376   0.0000000), wk =   0.0138889
        k(   10) = (   0.0833333   0.2405626   0.0000000), wk =   0.0138889
        k(   11) = (   0.0833333   0.3367877   0.0000000), wk =   0.0138889
        k(   12) = (   0.0833333   0.4330127   0.0000000), wk =   0.0138889
        k(   13) = (   0.0833333   0.5292377   0.0000000), wk =   0.0138889
        k(   14) = (   0.0833333  -0.5292377   0.0000000), wk =   0.0138889
        k(   15) = (   0.0833333  -0.4330127   0.0000000), wk =   0.0138889
        k(   16) = (   0.0833333  -0.3367877   0.0000000), wk =   0.0138889
        k(   17) = (   0.0833333  -0.2405626   0.0000000), wk =   0.0138889
        k(   18) = (   0.0833333  -0.1443376   0.0000000), wk =   0.0138889
        k(   19) = (   0.0833333  -0.0481125   0.0000000), wk =   0.0138889
        k(   20) = (   0.1666667   0.0962250   0.0000000), wk =   0.0138889
        k(   21) = (   0.1666667   0.1924501   0.0000000), wk =   0.0138889
        k(   22) = (   0.1666667   0.2886751   0.0000000), wk =   0.0138889
        k(   23) = (   0.1666667   0.3849002   0.0000000), wk =   0.0138889
        k(   24) = (   0.1666667   0.4811252   0.0000000), wk =   0.0138889
        k(   25) = (   0.1666667   0.5773503   0.0000000), wk =   0.0138889
        k(   26) = (   0.1666667  -0.4811252   0.0000000), wk =   0.0138889
        k(   27) = (   0.1666667  -0.3849002   0.0000000), wk =   0.0138889
        k(   28) = (   0.1666667  -0.2886751   0.0000000), wk =   0.0138889
        k(   29) = (   0.1666667  -0.1924501   0.0000000), wk =   0.0138889
        k(   30) = (   0.1666667  -0.0962250   0.0000000), wk =   0.0138889
        k(   31) = (   0.1666667  -0.0000000   0.0000000), wk =   0.0138889
        k(   32) = (   0.2500000   0.1443376   0.0000000), wk =   0.0138889
        k(   33) = (   0.2500000   0.2405626   0.0000000), wk =   0.0138889
        k(   34) = (   0.2500000   0.3367877   0.0000000), wk =   0.0138889
        k(   35) = (   0.2500000   0.4330127   0.0000000), wk =   0.0138889
        k(   36) = (   0.2500000   0.5292377   0.0000000), wk =   0.0138889
        k(   37) = (   0.2500000   0.6254628   0.0000000), wk =   0.0138889
        k(   38) = (   0.2500000  -0.4330127   0.0000000), wk =   0.0138889
        k(   39) = (   0.2500000  -0.3367877   0.0000000), wk =   0.0138889
        k(   40) = (   0.2500000  -0.2405626   0.0000000), wk =   0.0138889
        k(   41) = (   0.2500000  -0.1443376   0.0000000), wk =   0.0138889
        k(   42) = (   0.2500000  -0.0481125   0.0000000), wk =   0.0138889
        k(   43) = (   0.2500000   0.0481125   0.0000000), wk =   0.0138889
        k(   44) = (   0.3333333   0.1924501   0.0000000), wk =   0.0138889
        k(   45) = (   0.3333333   0.2886751   0.0000000), wk =   0.0138889
        k(   46) = (   0.3333333   0.3849002   0.0000000), wk =   0.0138889
        k(   47) = (   0.3333333   0.4811252   0.0000000), wk =   0.0138889
        k(   48) = (   0.3333333   0.5773503   0.0000000), wk =   0.0138889
        k(   49) = (   0.3333333   0.6735753   0.0000000), wk =   0.0138889
        k(   50) = (   0.3333333  -0.3849002   0.0000000), wk =   0.0138889
        k(   51) = (   0.3333333  -0.2886751   0.0000000), wk =   0.0138889
        k(   52) = (   0.3333333  -0.1924501   0.0000000), wk =   0.0138889
        k(   53) = (   0.3333333  -0.0962250   0.0000000), wk =   0.0138889
        k(   54) = (   0.3333333  -0.0000000   0.0000000), wk =   0.0138889
        k(   55) = (   0.3333333   0.0962250   0.0000000), wk =   0.0138889
        k(   56) = (   0.4166667   0.2405626   0.0000000), wk =   0.0138889
        k(   57) = (   0.4166667   0.3367877   0.0000000), wk =   0.0138889
        k(   58) = (   0.4166667   0.4330127   0.0000000), wk =   0.0138889
        k(   59) = (   0.4166667   0.5292377   0.0000000), wk =   0.0138889
        k(   60) = (   0.4166667   0.6254628   0.0000000), wk =   0.0138889
        k(   61) = (   0.4166667   0.7216878   0.0000000), wk =   0.0138889
        k(   62) = (   0.4166667  -0.3367877   0.0000000), wk =   0.0138889
        k(   63) = (   0.4166667  -0.2405626   0.0000000), wk =   0.0138889
        k(   64) = (   0.4166667  -0.1443376   0.0000000), wk =   0.0138889
        k(   65) = (   0.4166667  -0.0481125   0.0000000), wk =   0.0138889
        k(   66) = (   0.4166667   0.0481125   0.0000000), wk =   0.0138889
        k(   67) = (   0.4166667   0.1443376   0.0000000), wk =   0.0138889
        k(   68) = (  -0.5000000  -0.2886751   0.0000000), wk =   0.0069444
        k(   69) = (  -0.5000000  -0.1924501   0.0000000), wk =   0.0138889
        k(   70) = (  -0.5000000  -0.0962250   0.0000000), wk =   0.0138889
        k(   71) = (  -0.5000000   0.0000000   0.0000000), wk =   0.0138889
        k(   72) = (  -0.5000000   0.0962250   0.0000000), wk =   0.0138889
        k(   73) = (  -0.5000000   0.1924501   0.0000000), wk =   0.0138889
        k(   74) = (  -0.5000000  -0.8660254   0.0000000), wk =   0.0069444

     Dense  grid:   166859 G-vectors     FFT dimensions: (  40,  40, 240)

     Smooth grid:    42343 G-vectors     FFT dimensions: (  25,  25, 160)

     Estimated max dynamical RAM per process >      40.42 MB

     Estimated total dynamical RAM >     808.50 MB

     Initial potential from superposition of free atoms

     starting charge       7.9999, renormalised to       8.0000

     negative rho (up, down):  2.223E-05 0.000E+00
 
     Adding external electric field

     Computed dipole along edir(3) : 
        Dipole               -0.0000 Ry au,         -0.0000 Debye
        Dipole field         -0.0000 Ry au, 
 
        E field amplitude [Ha a.u.]:  1.3613E-02
        Potential amp.        0.7331 Ry
        Total length         26.9286 bohr
 
     Starting wfcs are random
     Checking if some PAW data can be deallocated... 

     total cpu time spent up to now is        0.6 secs

     per-process dynamical memory:    53.7 Mb

     Self-consistent Calculation

     iteration #  1     ecut=    70.00 Ry     beta= 0.10
     Davidson diagonalization with overlap
     ethr =  1.00E-02,  avg # of iterations =  8.7

     negative rho (up, down):  2.121E-05 0.000E+00
 
     Adding external electric field

     Computed dipole along edir(3) : 
        Dipole                0.0171 Ry au,          0.0434 Debye
        Dipole field          0.0004 Ry au, 
 
        E field amplitude [Ha a.u.]:  1.3613E-02
        Potential amp.        0.7115 Ry
        Total length         26.9286 bohr
 

     total cpu time spent up to now is        5.9 secs

     total energy              =     -36.95285051 Ry
     estimated scf accuracy    <       0.20634985 Ry

     iteration #  2     ecut=    70.00 Ry     beta= 0.10
     Davidson diagonalization with overlap
     ethr =  2.58E-03,  avg # of iterations =  1.0

     negative rho (up, down):  2.624E-05 0.000E+00
 
     Adding external electric field

     Computed dipole along edir(3) : 
        Dipole                0.1084 Ry au,          0.2756 Debye
        Dipole field          0.0026 Ry au, 
 
        E field amplitude [Ha a.u.]:  1.3613E-02
        Potential amp.        0.5956 Ry
        Total length         26.9286 bohr
 

     total cpu time spent up to now is        7.1 secs

     total energy              =     -36.86282594 Ry
     estimated scf accuracy    <       0.15170307 Ry

     iteration #  3     ecut=    70.00 Ry     beta= 0.10
     Davidson diagonalization with overlap
     ethr =  1.90E-03,  avg # of iterations =  3.0

     negative rho (up, down):  2.610E-05 0.000E+00
 
     Adding external electric field

     Computed dipole along edir(3) : 
        Dipole                0.0857 Ry au,          0.2179 Debye
        Dipole field          0.0020 Ry au, 
 
        E field amplitude [Ha a.u.]:  1.3613E-02
        Potential amp.        0.6244 Ry
        Total length         26.9286 bohr
 

     total cpu time spent up to now is        8.6 secs

     total energy              =     -36.88804899 Ry
     estimated scf accuracy    <       0.00425926 Ry

     iteration #  4     ecut=    70.00 Ry     beta= 0.10
     Davidson diagonalization with overlap
     ethr =  5.32E-05,  avg # of iterations =  4.9

     negative rho (up, down):  2.822E-05 0.000E+00
 
     Adding external electric field

     Computed dipole along edir(3) : 
        Dipole                0.0561 Ry au,          0.1426 Debye
        Dipole field          0.0013 Ry au, 
 
        E field amplitude [Ha a.u.]:  1.3613E-02
        Potential amp.        0.6620 Ry
        Total length         26.9286 bohr
 

     total cpu time spent up to now is       10.5 secs

     total energy              =     -36.88819764 Ry
     estimated scf accuracy    <       0.00216311 Ry

     iteration #  5     ecut=    70.00 Ry     beta= 0.10
     Davidson diagonalization with overlap
     ethr =  2.70E-05,  avg # of iterations =  3.1

     negative rho (up, down):  2.837E-05 0.000E+00
 
     Adding external electric field

     Computed dipole along edir(3) : 
        Dipole                0.0583 Ry au,          0.1483 Debye
        Dipole field          0.0014 Ry au, 
 
        E field amplitude [Ha a.u.]:  1.3613E-02
        Potential amp.        0.6592 Ry
        Total length         26.9286 bohr
 

     total cpu time spent up to now is       12.1 secs

     total energy              =     -36.88853800 Ry
     estimated scf accuracy    <       0.00113893 Ry

     iteration #  6     ecut=    70.00 Ry     beta= 0.10
     Davidson diagonalization with overlap
     ethr =  1.42E-05,  avg # of iterations =  1.0

     negative rho (up, down):  3.244E-05 0.000E+00
 
     Adding external electric field

     Computed dipole along edir(3) : 
        Dipole                0.0841 Ry au,          0.2137 Debye
        Dipole field          0.0020 Ry au, 
 
        E field amplitude [Ha a.u.]:  1.3613E-02
        Potential amp.        0.6265 Ry
        Total length         26.9286 bohr
 

     total cpu time spent up to now is       13.3 secs

     total energy              =     -36.88821751 Ry
     estimated scf accuracy    <       0.00097387 Ry

     iteration #  7     ecut=    70.00 Ry     beta= 0.10
     Davidson diagonalization with overlap
     ethr =  1.22E-05,  avg # of iterations =  2.8

     negative rho (up, down):  3.244E-05 0.000E+00
 
     Adding external electric field

     Computed dipole along edir(3) : 
        Dipole                0.0777 Ry au,          0.1975 Debye
        Dipole field          0.0018 Ry au, 
 
        E field amplitude [Ha a.u.]:  1.3613E-02
        Potential amp.        0.6346 Ry
        Total length         26.9286 bohr
 

     total cpu time spent up to now is       14.8 secs

     total energy              =     -36.88836365 Ry
     estimated scf accuracy    <       0.00006155 Ry

     iteration #  8     ecut=    70.00 Ry     beta= 0.10
     Davidson diagonalization with overlap
     ethr =  7.69E-07,  avg # of iterations =  2.5

     negative rho (up, down):  3.297E-05 0.000E+00
 
     Adding external electric field

     Computed dipole along edir(3) : 
        Dipole                0.0805 Ry au,          0.2047 Debye
        Dipole field          0.0019 Ry au, 
 
        E field amplitude [Ha a.u.]:  1.3613E-02
        Potential amp.        0.6310 Ry
        Total length         26.9286 bohr
 

     total cpu time spent up to now is       16.3 secs

     total energy              =     -36.88837622 Ry
     estimated scf accuracy    <       0.00002015 Ry

     iteration #  9     ecut=    70.00 Ry     beta= 0.10
     Davidson diagonalization with overlap
     ethr =  2.52E-07,  avg # of iterations =  2.0

     negative rho (up, down):  3.314E-05 0.000E+00
 
     Adding external electric field

     Computed dipole along edir(3) : 
        Dipole                0.0804 Ry au,          0.2043 Debye
        Dipole field          0.0019 Ry au, 
 
        E field amplitude [Ha a.u.]:  1.3613E-02
        Potential amp.        0.6312 Ry
        Total length         26.9286 bohr
 

     total cpu time spent up to now is       17.6 secs

     total energy              =     -36.88837993 Ry
     estimated scf accuracy    <       0.00000073 Ry

     iteration # 10     ecut=    70.00 Ry     beta= 0.10
     Davidson diagonalization with overlap
     ethr =  9.14E-09,  avg # of iterations =  1.6

     negative rho (up, down):  3.357E-05 0.000E+00
 
     Adding external electric field

     Computed dipole along edir(3) : 
        Dipole                0.0805 Ry au,          0.2045 Debye
        Dipole field          0.0019 Ry au, 
 
        E field amplitude [Ha a.u.]:  1.3613E-02
        Potential amp.        0.6311 Ry
        Total length         26.9286 bohr
 

     total cpu time spent up to now is       18.8 secs

     total energy              =     -36.88838023 Ry
     estimated scf accuracy    <       0.00000049 Ry

     iteration # 11     ecut=    70.00 Ry     beta= 0.10
     Davidson diagonalization with overlap
     ethr =  6.16E-09,  avg # of iterations =  1.7

     negative rho (up, down):  3.381E-05 0.000E+00
 
     Adding external electric field

     Computed dipole along edir(3) : 
        Dipole                0.0802 Ry au,          0.2040 Debye
        Dipole field          0.0019 Ry au, 
 
        E field amplitude [Ha a.u.]:  1.3613E-02
        Potential amp.        0.6314 Ry
        Total length         26.9286 bohr
 

     total cpu time spent up to now is       20.1 secs

     total energy              =     -36.88838026 Ry
     estimated scf accuracy    <       0.00000013 Ry

     iteration # 12     ecut=    70.00 Ry     beta= 0.10
     Davidson diagonalization with overlap
     ethr =  1.60E-09,  avg # of iterations =  2.0

     negative rho (up, down):  3.391E-05 0.000E+00
 
     Adding external electric field

     Computed dipole along edir(3) : 
        Dipole                0.0802 Ry au,          0.2039 Debye
        Dipole field          0.0019 Ry au, 
 
        E field amplitude [Ha a.u.]:  1.3613E-02
        Potential amp.        0.6314 Ry
        Total length         26.9286 bohr
 

     total cpu time spent up to now is       21.4 secs

     total energy              =     -36.88838029 Ry
     estimated scf accuracy    <       0.00000001 Ry

     iteration # 13     ecut=    70.00 Ry     beta= 0.10
     Davidson diagonalization with overlap
     ethr =  1.57E-10,  avg # of iterations =  1.8

     negative rho (up, down):  3.399E-05 0.000E+00
 
     Adding external electric field

     Computed dipole along edir(3) : 
        Dipole                0.0802 Ry au,          0.2039 Debye
        Dipole field          0.0019 Ry au, 
 
        E field amplitude [Ha a.u.]:  1.3613E-02
        Potential amp.        0.6314 Ry
        Total length         26.9286 bohr
 

     total cpu time spent up to now is       22.6 secs

     total energy              =     -36.88838029 Ry
     estimated scf accuracy    <       0.00000001 Ry

     iteration # 14     ecut=    70.00 Ry     beta= 0.10
     Davidson diagonalization with overlap
     ethr =  1.57E-10,  avg # of iterations =  1.0

     negative rho (up, down):  3.516E-05 0.000E+00
 
     Adding external electric field

     Computed dipole along edir(3) : 
        Dipole                0.0803 Ry au,          0.2042 Debye
        Dipole field          0.0019 Ry au, 
 
        E field amplitude [Ha a.u.]:  1.3613E-02
        Potential amp.        0.6313 Ry
        Total length         26.9286 bohr
 

     total cpu time spent up to now is       23.8 secs

     End of self-consistent calculation

          k = 0.0000 0.0000 0.0000 (  5307 PWs)   bands (ev):

   -21.0270 -21.0270  -9.1239  -9.1239  -4.5702  -4.5702  -4.5610  -4.5610
     0.0205   0.0205   1.3962   1.3962   3.1976   3.1976   4.5236   4.5236

          k = 0.0000 0.0962 0.0000 (  5285 PWs)   bands (ev):

   -20.8633 -20.8633  -8.9282  -8.9282  -5.2163  -5.2163  -4.9035  -4.9035
     0.2488   0.2488   1.6204   1.6204   3.4189   3.4190   4.7453   4.7454

          k = 0.0000 0.1925 0.0000 (  5253 PWs)   bands (ev):

   -20.3738 -20.3738  -8.3462  -8.3462  -6.8536  -6.8535  -5.6951  -5.6951
     0.9335   0.9335   2.2926   2.2927   4.0824   4.0826   5.4073   5.4074

          k = 0.0000 0.2887 0.0000 (  5269 PWs)   bands (ev):

   -19.5643 -19.5643  -8.9511  -8.9510  -7.3972  -7.3972  -6.5740  -6.5740
     2.0741   2.0741   3.4093   3.4095   5.1702   5.1705   5.7164   5.7164

          k = 0.0000 0.3849 0.0000 (  5285 PWs)   bands (ev):

   -18.4470 -18.4470 -11.1529 -11.1528  -7.3069  -7.3069  -6.1314  -6.1313
     3.3780   3.3781   3.6859   3.6859   4.9840   4.9843   6.1681   6.1685

          k = 0.0000 0.4811 0.0000 (  5290 PWs)   bands (ev):

   -17.0534 -17.0533 -13.2508 -13.2508  -7.7794  -7.7794  -4.7116  -4.7116
     1.2623   1.2624   5.7232   5.7233   5.9420   5.9420   6.9899   6.9902

          k = 0.0000-0.5774 0.0000 (  5288 PWs)   bands (ev):

   -15.7947 -15.7947 -14.7521 -14.7521  -7.9416  -7.9416  -3.8690  -3.8690
     0.1676   0.1676   5.8601   5.8601   8.2203   8.2203   8.2341   8.2341

          k = 0.0833 0.0481 0.0000 (  5285 PWs)   bands (ev):

   -20.8633 -20.8633  -8.9282  -8.9282  -5.2163  -5.2163  -4.9035  -4.9035
     0.2488   0.2488   1.6204   1.6204   3.4189   3.4190   4.7453   4.7454

          k = 0.0833 0.1443 0.0000 (  5269 PWs)   bands (ev):

   -20.5366 -20.5366  -8.5392  -8.5392  -6.2501  -6.2500  -5.5801  -5.5801
     0.7053   0.7053   2.0687   2.0688   3.8618   3.8620   5.1878   5.1879

          k = 0.0833 0.2406 0.0000 (  5261 PWs)   bands (ev):

   -19.8872 -19.8872  -7.9595  -7.9594  -7.7725  -7.7725  -6.5771  -6.5771
     1.6180   1.6181   2.9643   2.9644   4.7454   4.7456   6.0584   6.0585

          k = 0.0833 0.3368 0.0000 (  5275 PWs)   bands (ev):

   -18.9236 -18.9236 -10.0312 -10.0311  -7.4628  -7.4628  -6.6586  -6.6586
     2.9856   2.9856   4.2583   4.2585   4.4643   4.4645   6.0657   6.0662

          k = 0.0833 0.4330 0.0000 (  5284 PWs)   bands (ev):

   -17.6650 -17.6650 -12.1521 -12.1521  -8.0973  -8.0972  -5.2818  -5.2817
     2.2065   2.2066   4.8126   4.8126   6.0847   6.0850   6.7666   6.7669

          k = 0.0833 0.5292 0.0000 (  5302 PWs)   bands (ev):

   -16.1885 -16.1885 -14.0905 -14.0904  -8.4255  -8.4255  -3.9753  -3.9753
     0.4428   0.4429   6.5979   6.5979   7.0892   7.0892   8.2971   8.2975

          k = 0.0833-0.5292 0.0000 (  5302 PWs)   bands (ev):

   -16.1885 -16.1885 -14.0905 -14.0904  -8.4255  -8.4255  -3.9753  -3.9753
     0.4428   0.4429   6.5979   6.5979   7.0892   7.0892   8.2971   8.2975

          k = 0.0833-0.4330 0.0000 (  5284 PWs)   bands (ev):

   -17.6650 -17.6650 -12.1521 -12.1521  -8.0973  -8.0972  -5.2818  -5.2817
     2.2065   2.2066   4.8126   4.8126   6.0847   6.0850   6.7666   6.7669

          k = 0.0833-0.3368 0.0000 (  5275 PWs)   bands (ev):

   -18.9236 -18.9236 -10.0312 -10.0311  -7.4628  -7.4628  -6.6586  -6.6586
     2.9856   2.9856   4.2583   4.2585   4.4643   4.4645   6.0657   6.0662

          k = 0.0833-0.2406 0.0000 (  5261 PWs)   bands (ev):

   -19.8872 -19.8872  -7.9595  -7.9594  -7.7725  -7.7725  -6.5771  -6.5771
     1.6180   1.6181   2.9643   2.9644   4.7454   4.7456   6.0584   6.0585

          k = 0.0833-0.1443 0.0000 (  5269 PWs)   bands (ev):

   -20.5366 -20.5366  -8.5392  -8.5392  -6.2501  -6.2500  -5.5801  -5.5801
     0.7053   0.7053   2.0687   2.0688   3.8618   3.8620   5.1878   5.1879

          k = 0.0833-0.0481 0.0000 (  5285 PWs)   bands (ev):

   -20.8633 -20.8633  -8.9282  -8.9282  -5.2163  -5.2163  -4.9035  -4.9035
     0.2488   0.2488   1.6204   1.6204   3.4189   3.4190   4.7453   4.7454

          k = 0.1667 0.0962 0.0000 (  5253 PWs)   bands (ev):

   -20.3738 -20.3738  -8.3462  -8.3462  -6.8536  -6.8535  -5.6951  -5.6951
     0.9335   0.9335   2.2926   2.2927   4.0824   4.0826   5.4073   5.4074

          k = 0.1667 0.1925 0.0000 (  5261 PWs)   bands (ev):

   -19.8872 -19.8872  -7.9595  -7.9594  -7.7725  -7.7725  -6.5771  -6.5771
     1.6180   1.6181   2.9643   2.9644   4.7454   4.7456   6.0584   6.0585

          k = 0.1667 0.2887 0.0000 (  5288 PWs)   bands (ev):

   -19.0836 -19.0836  -9.2900  -9.2900  -7.9374  -7.9373  -6.8371  -6.8370
     2.7585   2.7585   4.0812   4.0814   4.8573   4.8574   5.8473   5.8476

          k = 0.1667 0.3849 0.0000 (  5285 PWs)   bands (ev):

   -17.9772 -17.9772 -11.0160 -11.0160  -8.9930  -8.9930  -5.5864  -5.5864
     2.9139   2.9140   4.3544   4.3544   5.6369   5.6371   7.3668   7.3672

          k = 0.1667 0.4811 0.0000 (  5283 PWs)   bands (ev):

   -16.6034 -16.6034 -12.9243 -12.9242  -9.5689  -9.5689  -4.1625  -4.1625
     1.0063   1.0064   6.4018   6.4018   7.6090   7.6093   8.4868   8.4871

          k = 0.1667 0.5774 0.0000 (  5264 PWs)   bands (ev):

   -15.3736 -15.3735 -14.3545 -14.3545  -9.7538  -9.7538  -3.2718  -3.2718
    -0.0592  -0.0592   8.4038   8.4038   8.8703   8.8704   8.8981   8.8982

          k = 0.1667-0.4811 0.0000 (  5283 PWs)   bands (ev):

   -16.6034 -16.6034 -12.9243 -12.9242  -9.5689  -9.5689  -4.1625  -4.1625
     1.0063   1.0064   6.4018   6.4018   7.6090   7.6093   8.4868   8.4871

          k = 0.1667-0.3849 0.0000 (  5285 PWs)   bands (ev):

   -17.9772 -17.9772 -11.0160 -11.0160  -8.9930  -8.9930  -5.5864  -5.5864
     2.9139   2.9140   4.3544   4.3544   5.6369   5.6371   7.3668   7.3672

          k = 0.1667-0.2887 0.0000 (  5288 PWs)   bands (ev):

   -19.0836 -19.0836  -9.2900  -9.2900  -7.9374  -7.9373  -6.8371  -6.8370
     2.7585   2.7585   4.0812   4.0814   4.8573   4.8574   5.8473   5.8476

          k = 0.1667-0.1925 0.0000 (  5261 PWs)   bands (ev):

   -19.8872 -19.8872  -7.9595  -7.9594  -7.7725  -7.7725  -6.5771  -6.5771
     1.6180   1.6181   2.9643   2.9644   4.7454   4.7456   6.0584   6.0585

          k = 0.1667-0.0962 0.0000 (  5253 PWs)   bands (ev):

   -20.3738 -20.3738  -8.3462  -8.3462  -6.8536  -6.8535  -5.6951  -5.6951
     0.9335   0.9335   2.2926   2.2927   4.0824   4.0826   5.4073   5.4074

          k = 0.1667-0.0000 0.0000 (  5269 PWs)   bands (ev):

   -20.5366 -20.5366  -8.5392  -8.5392  -6.2501  -6.2500  -5.5801  -5.5801
     0.7053   0.7053   2.0687   2.0688   3.8618   3.8620   5.1878   5.1879

          k = 0.2500 0.1443 0.0000 (  5269 PWs)   bands (ev):

   -19.5643 -19.5643  -8.9511  -8.9511  -7.3972  -7.3972  -6.5740  -6.5740
     2.0741   2.0741   3.4093   3.4095   5.1702   5.1705   5.7164   5.7164

          k = 0.2500 0.2406 0.0000 (  5275 PWs)   bands (ev):

   -18.9236 -18.9236 -10.0312 -10.0311  -7.4628  -7.4628  -6.6586  -6.6586
     2.9856   2.9856   4.2583   4.2585   4.4643   4.4645   6.0657   6.0662

          k = 0.2500 0.3368 0.0000 (  5285 PWs)   bands (ev):

   -17.9772 -17.9772 -11.0160 -11.0160  -8.9930  -8.9930  -5.5864  -5.5864
     2.9139   2.9140   4.3544   4.3544   5.6369   5.6371   7.3668   7.3672

          k = 0.2500 0.4330 0.0000 (  5268 PWs)   bands (ev):

   -16.7507 -16.7507 -12.0522 -12.0522 -10.4733 -10.4733  -4.2463  -4.2463
     1.3031   1.3032   6.1714   6.1715   7.3765   7.3769   8.9733   8.9740

          k = 0.2500 0.5292 0.0000 (  5282 PWs)   bands (ev):

   -15.3312 -15.3312 -13.4710 -13.4710 -11.1807 -11.1806  -2.8634  -2.8634
    -0.2141  -0.2140   8.4054   8.4055   9.2226   9.2229   9.9233   9.9237

          k = 0.2500 0.6255 0.0000 (  5282 PWs)   bands (ev):

   -15.3312 -15.3312 -13.4710 -13.4710 -11.1807 -11.1806  -2.8634  -2.8634
    -0.2141  -0.2140   8.4054   8.4056   9.2226   9.2229   9.9233   9.9237

          k = 0.2500-0.4330 0.0000 (  5268 PWs)   bands (ev):

   -16.7507 -16.7507 -12.0522 -12.0522 -10.4733 -10.4733  -4.2463  -4.2463
     1.3031   1.3032   6.1714   6.1715   7.3765   7.3769   8.9733   8.9740

          k = 0.2500-0.3368 0.0000 (  5285 PWs)   bands (ev):

   -17.9772 -17.9772 -11.0160 -11.0160  -8.9930  -8.9930  -5.5864  -5.5864
     2.9139   2.9140   4.3544   4.3544   5.6369   5.6371   7.3668   7.3672

          k = 0.2500-0.2406 0.0000 (  5275 PWs)   bands (ev):

   -18.9236 -18.9236 -10.0312 -10.0311  -7.4628  -7.4628  -6.6586  -6.6586
     2.9856   2.9856   4.2583   4.2585   4.4643   4.4645   6.0657   6.0662

          k = 0.2500-0.1443 0.0000 (  5269 PWs)   bands (ev):

   -19.5643 -19.5643  -8.9511  -8.9511  -7.3972  -7.3972  -6.5740  -6.5740
     2.0741   2.0741   3.4093   3.4095   5.1702   5.1705   5.7164   5.7164

          k = 0.2500-0.0481 0.0000 (  5261 PWs)   bands (ev):

   -19.8872 -19.8872  -7.9595  -7.9594  -7.7725  -7.7725  -6.5771  -6.5771
     1.6180   1.6181   2.9643   2.9644   4.7454   4.7456   6.0584   6.0585

          k = 0.2500 0.0481 0.0000 (  5261 PWs)   bands (ev):

   -19.8872 -19.8872  -7.9595  -7.9594  -7.7725  -7.7725  -6.5771  -6.5771
     1.6180   1.6181   2.9643   2.9644   4.7454   4.7456   6.0584   6.0585

          k = 0.3333 0.1925 0.0000 (  5285 PWs)   bands (ev):

   -18.4470 -18.4470 -11.1529 -11.1528  -7.3069  -7.3069  -6.1314  -6.1313
     3.3780   3.3781   3.6859   3.6859   4.9840   4.9843   6.1681   6.1685

          k = 0.3333 0.2887 0.0000 (  5284 PWs)   bands (ev):

   -17.6650 -17.6650 -12.1521 -12.1521  -8.0973  -8.0972  -5.2818  -5.2817
     2.2065   2.2066   4.8126   4.8126   6.0847   6.0850   6.7666   6.7669

          k = 0.3333 0.3849 0.0000 (  5283 PWs)   bands (ev):

   -16.6034 -16.6034 -12.9243 -12.9242  -9.5689  -9.5689  -4.1625  -4.1625
     1.0063   1.0064   6.4018   6.4018   7.6090   7.6093   8.4868   8.4871

          k = 0.3333 0.4811 0.0000 (  5282 PWs)   bands (ev):

   -15.3312 -15.3312 -13.4710 -13.4710 -11.1807 -11.1806  -2.8634  -2.8634
    -0.2141  -0.2140   8.4054   8.4055   9.2226   9.2229   9.9233   9.9237

          k = 0.3333 0.5774 0.0000 (  5292 PWs)   bands (ev):

   -14.1173 -14.1173 -14.1152 -14.1152 -12.0719 -12.0719  -1.5100  -1.5099
    -1.5099  -1.5098   9.0348   9.0348  10.8548  10.8554  10.8559  10.8561

          k = 0.3333 0.6736 0.0000 (  5282 PWs)   bands (ev):

   -15.3312 -15.3312 -13.4710 -13.4710 -11.1807 -11.1806  -2.8634  -2.8634
    -0.2141  -0.2140   8.4054   8.4055   9.2226   9.2229   9.9233   9.9237

          k = 0.3333-0.3849 0.0000 (  5283 PWs)   bands (ev):

   -16.6034 -16.6034 -12.9243 -12.9242  -9.5689  -9.5689  -4.1625  -4.1625
     1.0063   1.0064   6.4018   6.4018   7.6090   7.6093   8.4868   8.4871

          k = 0.3333-0.2887 0.0000 (  5284 PWs)   bands (ev):

   -17.6650 -17.6650 -12.1521 -12.1521  -8.0973  -8.0972  -5.2818  -5.2817
     2.2065   2.2066   4.8126   4.8126   6.0847   6.0850   6.7666   6.7669

          k = 0.3333-0.1925 0.0000 (  5285 PWs)   bands (ev):

   -18.4470 -18.4470 -11.1529 -11.1528  -7.3069  -7.3069  -6.1314  -6.1313
     3.3780   3.3781   3.6859   3.6859   4.9840   4.9843   6.1681   6.1685

          k = 0.3333-0.0962 0.0000 (  5275 PWs)   bands (ev):

   -18.9236 -18.9236 -10.0312 -10.0311  -7.4628  -7.4628  -6.6586  -6.6586
     2.9856   2.9856   4.2583   4.2585   4.4643   4.4645   6.0657   6.0662

          k = 0.3333-0.0000 0.0000 (  5288 PWs)   bands (ev):

   -19.0836 -19.0836  -9.2900  -9.2900  -7.9374  -7.9373  -6.8371  -6.8370
     2.7585   2.7585   4.0812   4.0814   4.8573   4.8574   5.8473   5.8476

          k = 0.3333 0.0962 0.0000 (  5275 PWs)   bands (ev):

   -18.9236 -18.9236 -10.0312 -10.0311  -7.4628  -7.4628  -6.6586  -6.6586
     2.9856   2.9856   4.2583   4.2585   4.4643   4.4645   6.0657   6.0662

          k = 0.4167 0.2406 0.0000 (  5290 PWs)   bands (ev):

   -17.0534 -17.0533 -13.2508 -13.2508  -7.7794  -7.7794  -4.7116  -4.7116
     1.2623   1.2624   5.7232   5.7233   5.9420   5.9420   6.9899   6.9902

          k = 0.4167 0.3368 0.0000 (  5302 PWs)   bands (ev):

   -16.1885 -16.1885 -14.0905 -14.0904  -8.4255  -8.4255  -3.9753  -3.9753
     0.4428   0.4429   6.5979   6.5979   7.0892   7.0892   8.2971   8.2974

          k = 0.4167 0.4330 0.0000 (  5264 PWs)   bands (ev):

   -15.3736 -15.3735 -14.3545 -14.3545  -9.7538  -9.7538  -3.2718  -3.2718
    -0.0592  -0.0592   8.4038   8.4038   8.8703   8.8704   8.8981   8.8982

          k = 0.4167 0.5292 0.0000 (  5282 PWs)   bands (ev):

   -15.3312 -15.3312 -13.4710 -13.4710 -11.1807 -11.1806  -2.8634  -2.8634
    -0.2141  -0.2140   8.4054   8.4055   9.2226   9.2229   9.9233   9.9237

          k = 0.4167 0.6255 0.0000 (  5282 PWs)   bands (ev):

   -15.3312 -15.3312 -13.4710 -13.4710 -11.1807 -11.1806  -2.8634  -2.8634
    -0.2141  -0.2140   8.4054   8.4055   9.2226   9.2229   9.9233   9.9237

          k = 0.4167 0.7217 0.0000 (  5264 PWs)   bands (ev):

   -15.3736 -15.3735 -14.3545 -14.3545  -9.7538  -9.7538  -3.2718  -3.2718
    -0.0592  -0.0592   8.4038   8.4038   8.8704   8.8704   8.8981   8.8982

          k = 0.4167-0.3368 0.0000 (  5302 PWs)   bands (ev):

   -16.1885 -16.1885 -14.0905 -14.0904  -8.4255  -8.4255  -3.9753  -3.9753
     0.4428   0.4429   6.5979   6.5979   7.0892   7.0892   8.2971   8.2975

          k = 0.4167-0.2406 0.0000 (  5290 PWs)   bands (ev):

   -17.0534 -17.0533 -13.2508 -13.2508  -7.7794  -7.7794  -4.7116  -4.7116
     1.2623   1.2624   5.7232   5.7233   5.9420   5.9420   6.9899   6.9902

          k = 0.4167-0.1443 0.0000 (  5284 PWs)   bands (ev):

   -17.6650 -17.6650 -12.1521 -12.1521  -8.0973  -8.0972  -5.2818  -5.2817
     2.2065   2.2066   4.8126   4.8126   6.0847   6.0850   6.7666   6.7669

          k = 0.4167-0.0481 0.0000 (  5285 PWs)   bands (ev):

   -17.9772 -17.9772 -11.0160 -11.0160  -8.9930  -8.9930  -5.5864  -5.5864
     2.9139   2.9140   4.3544   4.3544   5.6369   5.6371   7.3668   7.3672

          k = 0.4167 0.0481 0.0000 (  5285 PWs)   bands (ev):

   -17.9772 -17.9772 -11.0160 -11.0160  -8.9930  -8.9930  -5.5864  -5.5864
     2.9139   2.9140   4.3544   4.3544   5.6369   5.6371   7.3668   7.3672

          k = 0.4167 0.1443 0.0000 (  5284 PWs)   bands (ev):

   -17.6650 -17.6650 -12.1521 -12.1521  -8.0973  -8.0972  -5.2818  -5.2817
     2.2065   2.2066   4.8126   4.8126   6.0847   6.0850   6.7666   6.7669

          k =-0.5000-0.2887 0.0000 (  5288 PWs)   bands (ev):

   -15.7947 -15.7947 -14.7521 -14.7521  -7.9416  -7.9416  -3.8690  -3.8690
     0.1676   0.1676   5.8601   5.8601   8.2203   8.2203   8.2341   8.2341

          k =-0.5000-0.1925 0.0000 (  5302 PWs)   bands (ev):

   -16.1885 -16.1885 -14.0905 -14.0904  -8.4255  -8.4255  -3.9753  -3.9753
     0.4428   0.4429   6.5979   6.5979   7.0892   7.0892   8.2971   8.2975

          k =-0.5000-0.0962 0.0000 (  5283 PWs)   bands (ev):

   -16.6034 -16.6034 -12.9243 -12.9242  -9.5689  -9.5689  -4.1625  -4.1625
     1.0063   1.0064   6.4018   6.4018   7.6090   7.6093   8.4868   8.4871

          k =-0.5000 0.0000 0.0000 (  5268 PWs)   bands (ev):

   -16.7507 -16.7507 -12.0522 -12.0522 -10.4733 -10.4733  -4.2463  -4.2463
     1.3031   1.3032   6.1714   6.1715   7.3765   7.3769   8.9733   8.9740

          k =-0.5000 0.0962 0.0000 (  5283 PWs)   bands (ev):

   -16.6034 -16.6034 -12.9243 -12.9242  -9.5689  -9.5689  -4.1625  -4.1625
     1.0063   1.0064   6.4018   6.4018   7.6090   7.6093   8.4868   8.4871

          k =-0.5000 0.1925 0.0000 (  5302 PWs)   bands (ev):

   -16.1885 -16.1885 -14.0905 -14.0904  -8.4255  -8.4255  -3.9753  -3.9753
     0.4428   0.4429   6.5979   6.5979   7.0892   7.0892   8.2971   8.2974

          k =-0.5000-0.8660 0.0000 (  5288 PWs)   bands (ev):

   -15.7947 -15.7947 -14.7521 -14.7521  -7.9416  -7.9416  -3.8690  -3.8690
     0.1676   0.1676   5.8601   5.8601   8.2203   8.2203   8.2341   8.2341

     the Fermi energy is    -1.50989033 ev

!    total energy              =     -36.88838031 Ry
     total all-electron energy =      -152.416653 Ry
     estimated scf accuracy    <          4.2E-09 Ry
     smearing contrib. (-TS)   =      -0.00003134 Ry
     internal energy E=F+TS    =     -36.88834897 Ry

     The total energy is F=E-TS. E is the sum of the following terms:
     one-electron contribution =    -156.61165305 Ry
     hartree contribution      =      79.92160197 Ry
     xc contribution           =      -9.27168091 Ry
     ewald contribution        =      61.40972547 Ry
     electric field correction =      -0.00203493 Ry
     one-center paw contrib.   =     -12.33430751 Ry

     convergence has been achieved in  14 iterations

     negative rho (up, down):  3.516E-05 0.000E+00

     Forces acting on atoms (cartesian axes, Ry/au):

     atom    1 type  1   force =    -0.00000013    0.00000006    0.00000005
     atom    2 type  1   force =     0.00000013   -0.00000006   -0.00000005

     Total force =     0.000000     Total SCF correction =     0.000184
     SCF correction compared to forces is large: reduce conv_thr to get better values

     Writing all to output data dir ../tmp/graphene.save/ :
     XML data file, charge density, pseudopotentials, collected wavefunctions
 
     init_run     :      0.49s CPU      0.54s WALL (       1 calls)
     electrons    :     22.33s CPU     23.25s WALL (       1 calls)
     forces       :      0.07s CPU      0.07s WALL (       1 calls)

     Called by init_run:
     wfcinit      :      0.41s CPU      0.44s WALL (       1 calls)
     potinit      :      0.02s CPU      0.03s WALL (       1 calls)
     hinit0       :      0.01s CPU      0.02s WALL (       1 calls)

     Called by electrons:
     c_bands      :     18.70s CPU     19.39s WALL (      14 calls)
     sum_band     :      3.05s CPU      3.18s WALL (      14 calls)
     v_of_rho     :      0.12s CPU      0.14s WALL (      15 calls)
     newd         :      0.21s CPU      0.22s WALL (      15 calls)
     PAW_pot      :      0.13s CPU      0.14s WALL (      15 calls)
     mix_rho      :      0.09s CPU      0.09s WALL (      14 calls)

     Called by c_bands:
     init_us_2    :      0.14s CPU      0.15s WALL (    2220 calls)
     cegterg      :     18.04s CPU     18.69s WALL (    1036 calls)

     Called by *egterg:
     cdiaghg      :      2.46s CPU      2.50s WALL (    3774 calls)
     h_psi        :     13.91s CPU     14.48s WALL (    3848 calls)
     s_psi        :      0.24s CPU      0.25s WALL (    3848 calls)
     g_psi        :      0.05s CPU      0.05s WALL (    2738 calls)

     Called by h_psi:
     h_psi:calbec :      0.38s CPU      0.40s WALL (    3848 calls)
     vloc_psi     :     13.11s CPU     13.64s WALL (    3848 calls)
     add_vuspsi   :      0.27s CPU      0.28s WALL (    3848 calls)

     General routines
     calbec       :      0.47s CPU      0.49s WALL (    5180 calls)
     fft          :      0.15s CPU      0.15s WALL (     372 calls)
     ffts         :      0.01s CPU      0.01s WALL (     116 calls)
     fftw         :     11.45s CPU     11.93s WALL (  215668 calls)
     interpolate  :      0.02s CPU      0.02s WALL (      60 calls)
 
     Parallel routines
 
     PWSCF        :     23.17s CPU     26.28s WALL

 
   This run was terminated on:   2:25:15  29Jan2026            

=------------------------------------------------------------------------------=
   JOB DONE.
=------------------------------------------------------------------------------=
