
     Program PWSCF v.7.4.1 starts on  1Oct2025 at  7:41:55 

     This program is part of the open-source Quantum ESPRESSO suite
     for quantum simulation of materials; please cite
         "P. Giannozzi et al., J. Phys.:Condens. Matter 21 395502 (2009);
         "P. Giannozzi et al., J. Phys.:Condens. Matter 29 465901 (2017);
         "P. Giannozzi et al., J. Chem. Phys. 152 154105 (2020);
          URL http://www.quantum-espresso.org", 
     in publications or presentations arising from this work. More details at
     http://www.quantum-espresso.org/quote

     Serial version
     17400 MiB available memory on the printing compute node when the environment starts

     Reading input from graphene_scf.in

     Current dimensions of program PWSCF are:
     Max number of different atomic species (ntypx) = 10
     Max number of k-points (npk) =  40000
     Max angular momentum in pseudopotentials (lmaxx) =  4
     file C.pbe-n-kjpaw_psl.1.0.0.UPF: wavefunction(s)  2S 2P renormalized
     Message from routine setup:
     using ibrav=0 with symmetry is DISCOURAGED, use correct ibrav instead


     G-vector sticks info
     --------------------
     sticks:   dense  smooth     PW     G-vecs:    dense   smooth      PW
     Sum        1039     421    121               166325    42211    6983

     Using Slab Decomposition



     bravais-lattice index     =            0
     lattice parameter (alat)  =       4.6540  a.u.
     unit-cell volume          =     531.7080 (a.u.)^3
     number of atoms/cell      =            2
     number of atomic types    =            1
     number of electrons       =         8.00
     number of Kohn-Sham states=            8
     kinetic-energy cutoff     =      70.0000  Ry
     charge density cutoff     =     700.0000  Ry
     scf convergence threshold =      1.0E-08
     mixing beta               =       0.7000
     number of iterations used =            8  plain     mixing
     Exchange-correlation= SLA  PW   PBX  PBC
                           (   1   4   3   4   0   0   0)

     celldm(1)=   4.653998  celldm(2)=   0.000000  celldm(3)=   0.000000
     celldm(4)=   0.000000  celldm(5)=   0.000000  celldm(6)=   0.000000

     crystal axes: (cart. coord. in units of alat)
               a(1) = (   1.000000   0.000000   0.000000 )  
               a(2) = (  -0.500000   0.866025   0.000000 )  
               a(3) = (   0.000000   0.000000   6.090654 )  

     reciprocal axes: (cart. coord. in units 2 pi/alat)
               b(1) = (  1.000000  0.577350 -0.000000 )  
               b(2) = (  0.000000  1.154701  0.000000 )  
               b(3) = (  0.000000 -0.000000  0.164186 )  


     PseudoPot. # 1 for C  read from file:
     ../../../../pseudos/C.pbe-n-kjpaw_psl.1.0.0.UPF
     MD5 check sum: 5d2aebdfa2cae82b50a7e79e9516da0f
     Pseudo is Projector augmented-wave + core cor, Zval =  4.0
     Generated using "atomic" code by A. Dal Corso  v.5.1
     Shape of augmentation charge: PSQ
     Using radial grid of 1073 points,  4 beta functions with: 
                l(1) =   0
                l(2) =   0
                l(3) =   1
                l(4) =   1
     Q(r) pseudized with 0 coefficients 


     atomic species   valence    mass     pseudopotential
     C                 4.00    12.01070     C ( 1.00)

     24 Sym. Ops., with inversion, found (12 have fractional translation)



   Cartesian axes

     site n.     atom                  positions (alat units)
         1        C      tau(   1) = (   0.0000000   0.0000000   0.0000000  )
         2        C      tau(   2) = (   0.0000000   0.5773503   0.0000000  )

     number of k points=    21  Gaussian smearing, width (Ry)=  0.0100
                       cart. coord. in units 2pi/alat
        k(    1) = (   0.0000000   0.0000000   0.0000000), wk =   0.0118343
        k(    2) = (   0.0000000   0.0888231   0.0000000), wk =   0.0710059
        k(    3) = (   0.0000000   0.1776462   0.0000000), wk =   0.0710059
        k(    4) = (   0.0000000   0.2664694   0.0000000), wk =   0.0710059
        k(    5) = (   0.0000000   0.3552925   0.0000000), wk =   0.0710059
        k(    6) = (   0.0000000   0.4441156   0.0000000), wk =   0.0710059
        k(    7) = (   0.0000000   0.5329387   0.0000000), wk =   0.0710059
        k(    8) = (   0.0769231   0.1332347   0.0000000), wk =   0.0710059
        k(    9) = (   0.0769231   0.2220578   0.0000000), wk =   0.1420118
        k(   10) = (   0.0769231   0.3108809   0.0000000), wk =   0.1420118
        k(   11) = (   0.0769231   0.3997040   0.0000000), wk =   0.1420118
        k(   12) = (   0.0769231   0.4885272   0.0000000), wk =   0.1420118
        k(   13) = (   0.0769231   0.5773503   0.0000000), wk =   0.0710059
        k(   14) = (   0.1538462   0.2664694   0.0000000), wk =   0.0710059
        k(   15) = (   0.1538462   0.3552925   0.0000000), wk =   0.1420118
        k(   16) = (   0.1538462   0.4441156   0.0000000), wk =   0.1420118
        k(   17) = (   0.1538462   0.5329387   0.0000000), wk =   0.1420118
        k(   18) = (   0.2307692   0.3997040   0.0000000), wk =   0.0710059
        k(   19) = (   0.2307692   0.4885272   0.0000000), wk =   0.1420118
        k(   20) = (   0.2307692   0.5773503   0.0000000), wk =   0.0710059
        k(   21) = (   0.3076923   0.5329387   0.0000000), wk =   0.0710059

     Dense  grid:   166325 G-vectors     FFT dimensions: (  45,  45, 240)

     Smooth grid:    42211 G-vectors     FFT dimensions: (  27,  27, 160)

     Estimated max dynamical RAM per process >     244.49 MB

     Initial potential from superposition of free atoms

     starting charge       7.9999, renormalised to       8.0000

     negative rho (up, down):  2.230E-05 0.000E+00
     Starting wfcs are    8 randomized atomic wfcs

     total cpu time spent up to now is        6.9 secs

     Self-consistent Calculation

     iteration #  1     ecut=    70.00 Ry     beta= 0.70
     Davidson diagonalization with overlap
     ethr =  1.00E-02,  avg # of iterations =  5.7

     negative rho (up, down):  2.246E-05 0.000E+00

     total cpu time spent up to now is       19.7 secs

     total energy              =     -36.86109318 Ry
     estimated scf accuracy    <       0.19379967 Ry

     iteration #  2     ecut=    70.00 Ry     beta= 0.70
     Davidson diagonalization with overlap
     ethr =  2.42E-03,  avg # of iterations =  3.3

     negative rho (up, down):  2.928E-05 0.000E+00

     total cpu time spent up to now is       25.7 secs

     total energy              =     -36.88769681 Ry
     estimated scf accuracy    <       0.00196716 Ry

     iteration #  3     ecut=    70.00 Ry     beta= 0.70
     Davidson diagonalization with overlap
     ethr =  2.46E-05,  avg # of iterations = 11.0

     negative rho (up, down):  3.493E-05 0.000E+00

     total cpu time spent up to now is       43.0 secs

     total energy              =     -36.88800683 Ry
     estimated scf accuracy    <       0.00015448 Ry

     iteration #  4     ecut=    70.00 Ry     beta= 0.70
     Davidson diagonalization with overlap
     ethr =  1.93E-06,  avg # of iterations =  3.9

     negative rho (up, down):  3.549E-05 0.000E+00

     total cpu time spent up to now is       50.2 secs

     total energy              =     -36.88801981 Ry
     estimated scf accuracy    <       0.00000229 Ry

     iteration #  5     ecut=    70.00 Ry     beta= 0.70
     Davidson diagonalization with overlap
     ethr =  2.86E-08,  avg # of iterations =  3.0

     negative rho (up, down):  3.551E-05 0.000E+00

     total cpu time spent up to now is       53.6 secs

     total energy              =     -36.88802093 Ry
     estimated scf accuracy    <       0.00000007 Ry

     iteration #  6     ecut=    70.00 Ry     beta= 0.70
     Davidson diagonalization with overlap
     ethr =  8.89E-10,  avg # of iterations =  2.6

     negative rho (up, down):  3.552E-05 0.000E+00

     total cpu time spent up to now is       56.5 secs

     End of self-consistent calculation

          k = 0.0000 0.0000 0.0000 (  5283 PWs)   bands (ev):

   -21.2637  -9.3527  -4.7563  -4.7563   1.5222   2.4169   2.8474   4.7451

          k = 0.0000 0.0888 0.0000 (  5265 PWs)   bands (ev):

   -21.1237  -9.1852  -5.3160  -5.0489   1.7127   2.6090   3.0412   4.9359

          k = 0.0000 0.1776 0.0000 (  5245 PWs)   bands (ev):

   -20.7050  -8.6862  -6.7553  -5.7559   2.2843   3.1843   3.6226   5.5062

          k = 0.0000 0.2665 0.0000 (  5239 PWs)   bands (ev):

   -20.0117  -8.6486  -7.8692  -6.5787   3.2354   4.1345   4.5911   6.0637

          k = 0.0000 0.3553 0.0000 (  5253 PWs)   bands (ev):

   -19.0520 -10.6853  -7.3097  -6.7661   3.9304   4.5608   5.5108   5.9261

          k = 0.0000 0.4441 0.0000 (  5268 PWs)   bands (ev):

   -17.8430 -12.6808  -7.8394  -5.4641   1.8513   5.8513   6.3043   7.2058

          k = 0.0000 0.5329 0.0000 (  5280 PWs)   bands (ev):

   -16.4596 -14.4753  -8.1150  -4.2905   0.2518   5.7385   8.3317   9.2595

          k = 0.0769 0.1332 0.0000 (  5259 PWs)   bands (ev):

   -20.8444  -8.8518  -6.2308  -5.6346   2.0939   2.9928   3.4289   5.3167

          k = 0.0769 0.2221 0.0000 (  5233 PWs)   bands (ev):

   -20.2884  -8.1932  -7.7666  -6.5329   2.8558   3.7577   4.2043   6.0722

          k = 0.0769 0.3109 0.0000 (  5253 PWs)   bands (ev):

   -19.4619  -9.6600  -7.3832  -7.2297   3.9958   4.7570   5.0345   5.3661

          k = 0.0769 0.3997 0.0000 (  5257 PWs)   bands (ev):

   -18.3766 -11.6447  -8.0458  -6.0116   2.7963   5.5046   6.4365   6.6138

          k = 0.0769 0.4885 0.0000 (  5262 PWs)   bands (ev):

   -17.0635 -13.5430  -8.4612  -4.6965   0.9021   6.4031   7.4065   8.3053

          k = 0.0769 0.5774 0.0000 (  5282 PWs)   bands (ev):

   -15.9168 -14.8914  -8.6024  -3.9445  -0.0541   6.3382   9.5314   9.6880

          k = 0.1538 0.2665 0.0000 (  5260 PWs)   bands (ev):

   -19.5992  -9.0204  -7.7438  -7.3859   3.8073   4.7092   5.1739   5.2715

          k = 0.1538 0.3553 0.0000 (  5259 PWs)   bands (ev):

   -18.6466 -10.6301  -8.7596  -6.2948   3.4552   5.1338   6.0300   6.5295

          k = 0.1538 0.4441 0.0000 (  5261 PWs)   bands (ev):

   -17.4503 -12.4382  -9.3947  -4.9983   1.5897   6.8229   7.6873   8.0951

          k = 0.1538 0.5329 0.0000 (  5261 PWs)   bands (ev):

   -16.0890 -14.1485  -9.7026  -3.7954   0.0724   7.9581   8.8704   9.5033

          k = 0.2308 0.3997 0.0000 (  5270 PWs)   bands (ev):

   -17.5816 -11.6742 -10.1394  -5.1074   1.9005   6.6386   7.4645   8.0766

          k = 0.2308 0.4885 0.0000 (  5260 PWs)   bands (ev):

   -16.3044 -13.0711 -10.9237  -3.7828   0.3414   8.4817   8.9201   9.9750

          k = 0.2308 0.5774 0.0000 (  5270 PWs)   bands (ev):

   -15.1989 -14.2713 -11.1432  -2.9267  -0.5971   9.3692   9.9840  10.4454

          k = 0.3077 0.5329 0.0000 (  5268 PWs)   bands (ev):

   -15.0316 -13.7729 -12.0564  -2.4797  -0.9367   8.9995  10.3495  11.3510

     the Fermi energy is    -1.6436 ev

!    total energy              =     -36.88802096 Ry
     total all-electron energy =      -152.416217 Ry
     estimated scf accuracy    <          5.7E-10 Ry
     smearing contrib. (-TS)   =      -0.00000000 Ry
     internal energy E=F+TS    =     -36.88802096 Ry

     The total energy is F=E-TS. E is the sum of the following terms:
     one-electron contribution =    -157.20121612 Ry
     hartree contribution      =      80.22401147 Ry
     xc contribution           =      -9.27997153 Ry
     ewald contribution        =      61.70343446 Ry
     one-center paw contrib.   =     -12.33427924 Ry

     convergence has been achieved in   6 iterations

     negative rho (up, down):  3.552E-05 0.000E+00

     Forces acting on atoms (cartesian axes, Ry/au):

     atom    1 type  1   force =     0.00000000   -0.00000000    0.00000000
     atom    2 type  1   force =     0.00000000    0.00000000    0.00000000

     Total force =     0.000000     Total SCF correction =     0.000000


     Computing stress (Cartesian axis) and pressure


     negative rho (up, down):  3.552E-05 0.000E+00
          total   stress  (Ry/bohr**3)                   (kbar)     P=        3.05
   0.00003188   0.00000000   0.00000000            4.69        0.00        0.00
   0.00000000   0.00003188   0.00000000            0.00        4.69        0.00
   0.00000000   0.00000000  -0.00000156            0.00        0.00       -0.23


     Writing all to output data dir ./tmp/graphene.save/ :
     XML data file, charge density, pseudopotentials, collected wavefunctions

     init_run     :      3.75s CPU      6.67s WALL (       1 calls)
     electrons    :     38.38s CPU     49.59s WALL (       1 calls)
     forces       :      0.41s CPU      0.45s WALL (       1 calls)
     stress       :      1.85s CPU      1.72s WALL (       1 calls)

     Called by init_run:
     wfcinit      :      1.75s CPU      2.74s WALL (       1 calls)
     potinit      :      0.82s CPU      2.16s WALL (       1 calls)
     hinit0       :      0.99s CPU      1.27s WALL (       1 calls)

     Called by electrons:
     c_bands      :     31.99s CPU     41.87s WALL (       6 calls)
     sum_band     :      3.58s CPU      3.81s WALL (       6 calls)
     v_of_rho     :      1.46s CPU      2.40s WALL (       7 calls)
     newd         :      0.78s CPU      1.45s WALL (       7 calls)
     PAW_pot      :      0.74s CPU      1.15s WALL (       7 calls)
     mix_rho      :      0.14s CPU      0.17s WALL (       6 calls)

     Called by c_bands:
     init_us_2    :      0.49s CPU      0.39s WALL (     315 calls)
     cegterg      :     31.29s CPU     41.37s WALL (     126 calls)

     Called by *egterg:
     cdiaghg      :      0.18s CPU      0.12s WALL (     743 calls)
     h_psi        :     29.05s CPU     37.88s WALL (     764 calls)
     s_psi        :      1.15s CPU      2.90s WALL (     764 calls)
     g_psi        :      0.11s CPU      0.07s WALL (     617 calls)

     Called by h_psi:
     h_psi:calbec :      0.83s CPU      1.86s WALL (     764 calls)
     vloc_psi     :     22.89s CPU     20.07s WALL (     764 calls)
     add_vuspsi   :      5.25s CPU     15.88s WALL (     764 calls)

     General routines
     calbec       :      0.96s CPU      1.99s WALL (    1247 calls)
     fft          :      1.64s CPU      2.15s WALL (     114 calls)
     ffts         :      0.43s CPU      1.18s WALL (      13 calls)
     fftw         :     17.62s CPU     15.91s WALL (    7792 calls)
     interpolate  :      0.50s CPU      1.17s WALL (       7 calls)


     PWSCF        :     44.58s CPU     58.69s WALL


   This run was terminated on:   7:42:53   1Oct2025            

=------------------------------------------------------------------------------=
   JOB DONE.
=------------------------------------------------------------------------------=
