
     Program PWSCF v.7.4.1 starts on 30Dec2025 at 18:57:47 

     This program is part of the open-source Quantum ESPRESSO suite
     for quantum simulation of materials; please cite
         "P. Giannozzi et al., J. Phys.:Condens. Matter 21 395502 (2009);
         "P. Giannozzi et al., J. Phys.:Condens. Matter 29 465901 (2017);
         "P. Giannozzi et al., J. Chem. Phys. 152 154105 (2020);
          URL http://www.quantum-espresso.org", 
     in publications or presentations arising from this work. More details at
     http://www.quantum-espresso.org/quote

     Parallel version (MPI), running on    24 processors

     MPI processes distributed on     1 nodes
     83880 MiB available memory on the printing compute node when the environment starts
 
     Reading input from grap_scf.in

     Current dimensions of program PWSCF are:
     Max number of different atomic species (ntypx) = 10
     Max number of k-points (npk) =  40000
     Max angular momentum in pseudopotentials (lmaxx) =  4
     file C.pz-n-kjpaw-LDA.UPF: wavefunction(s)  2P renormalized
     Message from routine setup:
     using ibrav=0 with symmetry is DISCOURAGED, use correct ibrav instead
 
     R & G space division:  proc/nbgrp/npool/nimage =      24
     Subspace diagonalization in iterative solution of the eigenvalue problem:
     a serial algorithm will be used

 
     Parallelization info
     --------------------
     sticks:   dense  smooth     PW     G-vecs:    dense   smooth      PW
     Min          43      17      5                 6815     1719     287
     Max          44      18      6                 6828     1738     314
     Sum        1039     421    121               163611    41503    7019
 
     Using Slab Decomposition
 


     bravais-lattice index     =            0
     lattice parameter (alat)  =       4.6223  a.u.
     unit-cell volume          =     522.6524 (a.u.)^3
     number of atoms/cell      =            2
     number of atomic types    =            1
     number of electrons       =         8.00
     number of Kohn-Sham states=            8
     kinetic-energy cutoff     =      70.0000  Ry
     charge density cutoff     =     700.0000  Ry
     scf convergence threshold =      1.0E-08
     mixing beta               =       0.5000
     number of iterations used =            8  plain     mixing
     Exchange-correlation= SLA  PZ   NOGX NOGC
                           (   1   1   0   0   0   0   0)

     celldm(1)=   4.622345  celldm(2)=   0.000000  celldm(3)=   0.000000
     celldm(4)=   0.000000  celldm(5)=   0.000000  celldm(6)=   0.000000

     crystal axes: (cart. coord. in units of alat)
               a(1) = (   1.000000   0.000000   0.000000 )  
               a(2) = (  -0.500000   0.866025   0.000000 )  
               a(3) = (   0.000000   0.000000   6.110762 )  

     reciprocal axes: (cart. coord. in units 2 pi/alat)
               b(1) = (  1.000000  0.577350  0.000000 )  
               b(2) = (  0.000000  1.154701  0.000000 )  
               b(3) = (  0.000000  0.000000  0.163646 )  


     PseudoPot. # 1 for C  read from file:
     ../../../PP_C/C.pz-n-kjpaw-LDA.UPF
     MD5 check sum: f9b5071a06eb8a1f9ad661a58cdfa26d
     Pseudo is Projector augmented-wave + core cor, Zval =  4.0
     Generated using "atomic" code by A. Dal Corso  (Quantum ESPRESSO distribution)
     Shape of augmentation charge: BESSEL
     Using radial grid of 1073 points,  4 beta functions with: 
                l(1) =   0
                l(2) =   0
                l(3) =   1
                l(4) =   1
     Q(r) pseudized with 0 coefficients 


     atomic species   valence    mass     pseudopotential
     C                 4.00    12.01100     C ( 1.00)

     24 Sym. Ops., with inversion, found (12 have fractional translation)


                                    s                        frac. trans.

      isym =  1     identity                                     

 cryst.   s( 1) = (     1          0          0      )
                  (     0          1          0      )
                  (     0          0          1      )

 cart.    s( 1) = (  1.0000000  0.0000000  0.0000000 )
                  (  0.0000000  1.0000000  0.0000000 )
                  (  0.0000000  0.0000000  1.0000000 )


      isym =  2     180 deg rotation - cart. axis [0,0,1]        

 cryst.   s( 2) = (    -1          0          0      )    f =( -0.3333334 )
                  (     0         -1          0      )       (  0.3333333 )
                  (     0          0          1      )       (  0.0000000 )

 cart.    s( 2) = ( -1.0000000 -0.0000000  0.0000000 )    f =( -0.5000000 )
                  (  0.0000000 -1.0000000  0.0000000 )       (  0.2886751 )
                  (  0.0000000  0.0000000  1.0000000 )       (  0.0000000 )


      isym =  3     180 deg rotation - cart. axis [0,1,0]        

 cryst.   s( 3) = (    -1          0          0      )
                  (     1          1          0      )
                  (     0          0         -1      )

 cart.    s( 3) = ( -1.0000000  0.0000000  0.0000000 )
                  (  0.0000000  1.0000000  0.0000000 )
                  (  0.0000000  0.0000000 -1.0000000 )


      isym =  4     180 deg rotation - cart. axis [1,0,0]        

 cryst.   s( 4) = (     1          0          0      )    f =( -0.3333334 )
                  (    -1         -1          0      )       (  0.3333333 )
                  (     0          0         -1      )       (  0.0000000 )

 cart.    s( 4) = (  1.0000000 -0.0000000  0.0000000 )    f =( -0.5000000 )
                  (  0.0000000 -1.0000000  0.0000000 )       (  0.2886751 )
                  (  0.0000000  0.0000000 -1.0000000 )       (  0.0000000 )


      isym =  5      60 deg rotation - cryst. axis [0,0,1]       

 cryst.   s( 5) = (     1          1          0      )    f =( -0.3333334 )
                  (    -1          0          0      )       (  0.3333334 )
                  (     0          0          1      )       (  0.0000000 )

 cart.    s( 5) = (  0.5000000 -0.8660254  0.0000000 )    f =( -0.5000000 )
                  (  0.8660254  0.5000000  0.0000000 )       (  0.2886751 )
                  (  0.0000000  0.0000000  1.0000000 )       (  0.0000000 )


      isym =  6      60 deg rotation - cryst. axis [0,0,-1]      

 cryst.   s( 6) = (     0         -1          0      )    f =( -0.3333333 )
                  (     1          1          0      )       (  0.3333334 )
                  (     0          0          1      )       (  0.0000000 )

 cart.    s( 6) = (  0.5000000  0.8660254  0.0000000 )    f =( -0.5000000 )
                  ( -0.8660254  0.5000000  0.0000000 )       (  0.2886752 )
                  (  0.0000000  0.0000000  1.0000000 )       (  0.0000000 )


      isym =  7     120 deg rotation - cryst. axis [0,0,1]       

 cryst.   s( 7) = (     0          1          0      )
                  (    -1         -1          0      )
                  (     0          0          1      )

 cart.    s( 7) = ( -0.5000000 -0.8660254  0.0000000 )
                  (  0.8660254 -0.5000000  0.0000000 )
                  (  0.0000000  0.0000000  1.0000000 )


      isym =  8     120 deg rotation - cryst. axis [0,0,-1]      

 cryst.   s( 8) = (    -1         -1          0      )
                  (     1          0          0      )
                  (     0          0          1      )

 cart.    s( 8) = ( -0.5000000  0.8660254  0.0000000 )
                  ( -0.8660254 -0.5000000  0.0000000 )
                  (  0.0000000  0.0000000  1.0000000 )


      isym =  9     180 deg rotation - cryst. axis [1,-1,0]      

 cryst.   s( 9) = (     0         -1          0      )
                  (    -1          0          0      )
                  (     0          0         -1      )

 cart.    s( 9) = (  0.5000000 -0.8660254  0.0000000 )
                  ( -0.8660254 -0.5000000  0.0000000 )
                  (  0.0000000  0.0000000 -1.0000000 )


      isym = 10     180 deg rotation - cryst. axis [2,1,0]       

 cryst.   s(10) = (     1          1          0      )
                  (     0         -1          0      )
                  (     0          0         -1      )

 cart.    s(10) = (  0.5000000  0.8660254  0.0000000 )
                  (  0.8660254 -0.5000000  0.0000000 )
                  (  0.0000000  0.0000000 -1.0000000 )


      isym = 11     180 deg rotation - cryst. axis [0,1,0]       

 cryst.   s(11) = (    -1         -1          0      )    f =( -0.3333334 )
                  (     0          1          0      )       (  0.3333334 )
                  (     0          0         -1      )       (  0.0000000 )

 cart.    s(11) = ( -0.5000000 -0.8660254  0.0000000 )    f =( -0.5000000 )
                  ( -0.8660254  0.5000000  0.0000000 )       (  0.2886752 )
                  (  0.0000000  0.0000000 -1.0000000 )       (  0.0000000 )


      isym = 12     180 deg rotation - cryst. axis [1,1,0]       

 cryst.   s(12) = (     0          1          0      )    f =( -0.3333333 )
                  (     1          0          0      )       (  0.3333334 )
                  (     0          0         -1      )       (  0.0000000 )

 cart.    s(12) = ( -0.5000000  0.8660254  0.0000000 )    f =( -0.5000000 )
                  (  0.8660254  0.5000000  0.0000000 )       (  0.2886751 )
                  (  0.0000000  0.0000000 -1.0000000 )       (  0.0000000 )


      isym = 13     inversion                                    

 cryst.   s(13) = (    -1          0          0      )    f =( -0.3333334 )
                  (     0         -1          0      )       (  0.3333333 )
                  (     0          0         -1      )       (  0.0000000 )

 cart.    s(13) = ( -1.0000000 -0.0000000  0.0000000 )    f =( -0.5000000 )
                  (  0.0000000 -1.0000000  0.0000000 )       (  0.2886751 )
                  (  0.0000000  0.0000000 -1.0000000 )       (  0.0000000 )


      isym = 14     inv. 180 deg rotation - cart. axis [0,0,1]   

 cryst.   s(14) = (     1          0          0      )
                  (     0          1          0      )
                  (     0          0         -1      )

 cart.    s(14) = (  1.0000000  0.0000000  0.0000000 )
                  (  0.0000000  1.0000000  0.0000000 )
                  (  0.0000000  0.0000000 -1.0000000 )


      isym = 15     inv. 180 deg rotation - cart. axis [0,1,0]   

 cryst.   s(15) = (     1          0          0      )    f =( -0.3333334 )
                  (    -1         -1          0      )       (  0.3333333 )
                  (     0          0          1      )       (  0.0000000 )

 cart.    s(15) = (  1.0000000 -0.0000000  0.0000000 )    f =( -0.5000000 )
                  (  0.0000000 -1.0000000  0.0000000 )       (  0.2886751 )
                  (  0.0000000  0.0000000  1.0000000 )       (  0.0000000 )


      isym = 16     inv. 180 deg rotation - cart. axis [1,0,0]   

 cryst.   s(16) = (    -1          0          0      )
                  (     1          1          0      )
                  (     0          0          1      )

 cart.    s(16) = ( -1.0000000  0.0000000  0.0000000 )
                  (  0.0000000  1.0000000  0.0000000 )
                  (  0.0000000  0.0000000  1.0000000 )


      isym = 17     inv.  60 deg rotation - cryst. axis [0,0,1]  

 cryst.   s(17) = (    -1         -1          0      )
                  (     1          0          0      )
                  (     0          0         -1      )

 cart.    s(17) = ( -0.5000000  0.8660254  0.0000000 )
                  ( -0.8660254 -0.5000000  0.0000000 )
                  (  0.0000000  0.0000000 -1.0000000 )


      isym = 18     inv.  60 deg rotation - cryst. axis [0,0,-1] 

 cryst.   s(18) = (     0          1          0      )
                  (    -1         -1          0      )
                  (     0          0         -1      )

 cart.    s(18) = ( -0.5000000 -0.8660254  0.0000000 )
                  (  0.8660254 -0.5000000  0.0000000 )
                  (  0.0000000  0.0000000 -1.0000000 )


      isym = 19     inv. 120 deg rotation - cryst. axis [0,0,1]  

 cryst.   s(19) = (     0         -1          0      )    f =( -0.3333333 )
                  (     1          1          0      )       (  0.3333334 )
                  (     0          0         -1      )       (  0.0000000 )

 cart.    s(19) = (  0.5000000  0.8660254  0.0000000 )    f =( -0.5000000 )
                  ( -0.8660254  0.5000000  0.0000000 )       (  0.2886752 )
                  (  0.0000000  0.0000000 -1.0000000 )       (  0.0000000 )


      isym = 20     inv. 120 deg rotation - cryst. axis [0,0,-1] 

 cryst.   s(20) = (     1          1          0      )    f =( -0.3333334 )
                  (    -1          0          0      )       (  0.3333334 )
                  (     0          0         -1      )       (  0.0000000 )

 cart.    s(20) = (  0.5000000 -0.8660254  0.0000000 )    f =( -0.5000000 )
                  (  0.8660254  0.5000000  0.0000000 )       (  0.2886751 )
                  (  0.0000000  0.0000000 -1.0000000 )       (  0.0000000 )


      isym = 21     inv. 180 deg rotation - cryst. axis [1,-1,0] 

 cryst.   s(21) = (     0          1          0      )    f =( -0.3333333 )
                  (     1          0          0      )       (  0.3333334 )
                  (     0          0          1      )       (  0.0000000 )

 cart.    s(21) = ( -0.5000000  0.8660254  0.0000000 )    f =( -0.5000000 )
                  (  0.8660254  0.5000000  0.0000000 )       (  0.2886751 )
                  (  0.0000000  0.0000000  1.0000000 )       (  0.0000000 )


      isym = 22     inv. 180 deg rotation - cryst. axis [2,1,0]  

 cryst.   s(22) = (    -1         -1          0      )    f =( -0.3333334 )
                  (     0          1          0      )       (  0.3333334 )
                  (     0          0          1      )       (  0.0000000 )

 cart.    s(22) = ( -0.5000000 -0.8660254  0.0000000 )    f =( -0.5000000 )
                  ( -0.8660254  0.5000000  0.0000000 )       (  0.2886752 )
                  (  0.0000000  0.0000000  1.0000000 )       (  0.0000000 )


      isym = 23     inv. 180 deg rotation - cryst. axis [0,1,0]  

 cryst.   s(23) = (     1          1          0      )
                  (     0         -1          0      )
                  (     0          0          1      )

 cart.    s(23) = (  0.5000000  0.8660254  0.0000000 )
                  (  0.8660254 -0.5000000  0.0000000 )
                  (  0.0000000  0.0000000  1.0000000 )


      isym = 24     inv. 180 deg rotation - cryst. axis [1,1,0]  

 cryst.   s(24) = (     0         -1          0      )
                  (    -1          0          0      )
                  (     0          0          1      )

 cart.    s(24) = (  0.5000000 -0.8660254  0.0000000 )
                  ( -0.8660254 -0.5000000  0.0000000 )
                  (  0.0000000  0.0000000  1.0000000 )


   Cartesian axes

     site n.     atom                  positions (alat units)
         1        C      tau(   1) = (   0.0000000   0.0000000   0.0000000  )
         2        C      tau(   2) = (   0.0000000   0.5773503   0.0000000  )

   Crystallographic axes

     site n.     atom                  positions (cryst. coord.)
         1        C      tau(   1) = (  0.0000000  0.0000000  0.0000000  )
         2        C      tau(   2) = (  0.3333334  0.6666667  0.0000000  )

     number of k points=    19  Gaussian smearing, width (Ry)=  0.0020
                       cart. coord. in units 2pi/alat
        k(    1) = (   0.0000000   0.0000000   0.0000000), wk =   0.0138889
        k(    2) = (   0.0000000   0.0962250   0.0000000), wk =   0.0833333
        k(    3) = (   0.0000000   0.1924501   0.0000000), wk =   0.0833333
        k(    4) = (   0.0000000   0.2886751   0.0000000), wk =   0.0833333
        k(    5) = (   0.0000000   0.3849002   0.0000000), wk =   0.0833333
        k(    6) = (   0.0000000   0.4811252   0.0000000), wk =   0.0833333
        k(    7) = (   0.0000000  -0.5773503   0.0000000), wk =   0.0416667
        k(    8) = (   0.0833333   0.1443376   0.0000000), wk =   0.0833333
        k(    9) = (   0.0833333   0.2405626   0.0000000), wk =   0.1666667
        k(   10) = (   0.0833333   0.3367877   0.0000000), wk =   0.1666667
        k(   11) = (   0.0833333   0.4330127   0.0000000), wk =   0.1666667
        k(   12) = (   0.0833333   0.5292377   0.0000000), wk =   0.1666667
        k(   13) = (   0.1666667   0.2886751   0.0000000), wk =   0.0833333
        k(   14) = (   0.1666667   0.3849002   0.0000000), wk =   0.1666667
        k(   15) = (   0.1666667   0.4811252   0.0000000), wk =   0.1666667
        k(   16) = (   0.1666667   0.5773503   0.0000000), wk =   0.0833333
        k(   17) = (   0.2500000   0.4330127   0.0000000), wk =   0.0833333
        k(   18) = (   0.2500000   0.5292377   0.0000000), wk =   0.1666667
        k(   19) = (   0.3333333   0.5773503   0.0000000), wk =   0.0277778

                       cryst. coord.
        k(    1) = (   0.0000000   0.0000000   0.0000000), wk =   0.0138889
        k(    2) = (   0.0000000   0.0833333   0.0000000), wk =   0.0833333
        k(    3) = (   0.0000000   0.1666667   0.0000000), wk =   0.0833333
        k(    4) = (   0.0000000   0.2500000   0.0000000), wk =   0.0833333
        k(    5) = (   0.0000000   0.3333333   0.0000000), wk =   0.0833333
        k(    6) = (   0.0000000   0.4166667   0.0000000), wk =   0.0833333
        k(    7) = (   0.0000000  -0.5000000   0.0000000), wk =   0.0416667
        k(    8) = (   0.0833333   0.0833333   0.0000000), wk =   0.0833333
        k(    9) = (   0.0833333   0.1666667   0.0000000), wk =   0.1666667
        k(   10) = (   0.0833333   0.2500000   0.0000000), wk =   0.1666667
        k(   11) = (   0.0833333   0.3333333   0.0000000), wk =   0.1666667
        k(   12) = (   0.0833333   0.4166667   0.0000000), wk =   0.1666667
        k(   13) = (   0.1666667   0.1666667   0.0000000), wk =   0.0833333
        k(   14) = (   0.1666667   0.2500000   0.0000000), wk =   0.1666667
        k(   15) = (   0.1666667   0.3333333   0.0000000), wk =   0.1666667
        k(   16) = (   0.1666667   0.4166667   0.0000000), wk =   0.0833333
        k(   17) = (   0.2500000   0.2500000   0.0000000), wk =   0.0833333
        k(   18) = (   0.2500000   0.3333333   0.0000000), wk =   0.1666667
        k(   19) = (   0.3333333   0.3333333   0.0000000), wk =   0.0277778

     Dense  grid:   163611 G-vectors     FFT dimensions: (  45,  45, 240)

     Smooth grid:    41503 G-vectors     FFT dimensions: (  27,  27, 160)

     Dynamical RAM for                 wfc:       0.03 MB

     Dynamical RAM for     wfc (w. buffer):       0.52 MB

     Dynamical RAM for           str. fact:       0.10 MB

     Dynamical RAM for           local pot:       0.00 MB

     Dynamical RAM for          nlocal pot:       0.05 MB

     Dynamical RAM for                qrad:       0.61 MB

     Dynamical RAM for          rho,v,vnew:       0.78 MB

     Dynamical RAM for               rhoin:       0.26 MB

     Dynamical RAM for            rho*nmix:       1.66 MB

     Dynamical RAM for           G-vectors:       0.40 MB

     Dynamical RAM for          h,s,v(r/c):       0.01 MB

     Dynamical RAM for          <psi|beta>:       0.00 MB

     Dynamical RAM for                 psi:       0.05 MB

     Dynamical RAM for                hpsi:       0.05 MB

     Dynamical RAM for                spsi:       0.05 MB

     Dynamical RAM for      wfcinit/wfcrot:       0.05 MB

     Dynamical RAM for           addusdens:       4.68 MB

     Dynamical RAM for          addusforce:       4.94 MB

     Dynamical RAM for         addusstress:       5.20 MB

     Estimated static dynamical RAM per process >       3.71 MB

     Estimated max dynamical RAM per process >      10.57 MB

     Estimated total dynamical RAM >     253.70 MB

     Initial potential from superposition of free atoms

     starting charge       7.9999, renormalised to       8.0000

     negative rho (up, down):  2.414E-05 0.000E+00
     Starting wfcs are random
     Checking if some PAW data can be deallocated... 

     total cpu time spent up to now is        0.2 secs

     per-process dynamical memory:    37.8 Mb

     Self-consistent Calculation

     iteration #  1     ecut=    70.00 Ry     beta= 0.50
     Davidson diagonalization with overlap

---- Real-time Memory Report at c_bands before calling an iterative solver
           148 MiB given to the printing process from OS
            36 MiB allocation reported by mallinfo(arena+hblkhd)
         83231 MiB available memory on the node where the printing process lives
------------------
     ethr =  1.00E-02,  avg # of iterations = 15.1

     total cpu time spent up to now is        0.6 secs

     total energy              =     -35.58894245 Ry
     estimated scf accuracy    <       0.15626374 Ry

     iteration #  2     ecut=    70.00 Ry     beta= 0.50
     Davidson diagonalization with overlap

---- Real-time Memory Report at c_bands before calling an iterative solver
           155 MiB given to the printing process from OS
            41 MiB allocation reported by mallinfo(arena+hblkhd)
         83147 MiB available memory on the node where the printing process lives
------------------
     ethr =  1.95E-03,  avg # of iterations =  2.8

     total cpu time spent up to now is        0.7 secs

     total energy              =     -35.61560855 Ry
     estimated scf accuracy    <       0.03494835 Ry

     iteration #  3     ecut=    70.00 Ry     beta= 0.50
     Davidson diagonalization with overlap

---- Real-time Memory Report at c_bands before calling an iterative solver
           156 MiB given to the printing process from OS
            41 MiB allocation reported by mallinfo(arena+hblkhd)
         83146 MiB available memory on the node where the printing process lives
------------------
     ethr =  4.37E-04,  avg # of iterations =  6.7

     total cpu time spent up to now is        0.9 secs

     total energy              =     -35.63365701 Ry
     estimated scf accuracy    <       0.00500538 Ry

     iteration #  4     ecut=    70.00 Ry     beta= 0.50
     Davidson diagonalization with overlap

---- Real-time Memory Report at c_bands before calling an iterative solver
           156 MiB given to the printing process from OS
            41 MiB allocation reported by mallinfo(arena+hblkhd)
         83144 MiB available memory on the node where the printing process lives
------------------
     c_bands:  1 eigenvalues not converged
     ethr =  6.26E-05,  avg # of iterations =  9.4

     negative rho (up, down):  1.350E-05 0.000E+00

     total cpu time spent up to now is        1.1 secs

     total energy              =     -35.63591506 Ry
     estimated scf accuracy    <       0.00026358 Ry

     iteration #  5     ecut=    70.00 Ry     beta= 0.50
     Davidson diagonalization with overlap

---- Real-time Memory Report at c_bands before calling an iterative solver
           156 MiB given to the printing process from OS
            41 MiB allocation reported by mallinfo(arena+hblkhd)
         83142 MiB available memory on the node where the printing process lives
------------------
     c_bands:  1 eigenvalues not converged
     c_bands:  1 eigenvalues not converged
     c_bands:  1 eigenvalues not converged
     c_bands:  1 eigenvalues not converged
     ethr =  3.29E-06,  avg # of iterations = 14.0

     negative rho (up, down):  3.008E-06 0.000E+00

     total cpu time spent up to now is        1.4 secs

     total energy              =     -35.63617102 Ry
     estimated scf accuracy    <       0.00047834 Ry

     iteration #  6     ecut=    70.00 Ry     beta= 0.50
     Davidson diagonalization with overlap

---- Real-time Memory Report at c_bands before calling an iterative solver
           156 MiB given to the printing process from OS
            41 MiB allocation reported by mallinfo(arena+hblkhd)
         83139 MiB available memory on the node where the printing process lives
------------------
     ethr =  3.29E-06,  avg # of iterations =  3.8

     negative rho (up, down):  5.808E-06 0.000E+00

     total cpu time spent up to now is        1.5 secs

     total energy              =     -35.63624377 Ry
     estimated scf accuracy    <       0.00000345 Ry

     iteration #  7     ecut=    70.00 Ry     beta= 0.50
     Davidson diagonalization with overlap

---- Real-time Memory Report at c_bands before calling an iterative solver
           156 MiB given to the printing process from OS
            41 MiB allocation reported by mallinfo(arena+hblkhd)
         83139 MiB available memory on the node where the printing process lives
------------------
     ethr =  4.31E-08,  avg # of iterations =  5.8

     negative rho (up, down):  6.974E-06 0.000E+00

     total cpu time spent up to now is        1.7 secs

     total energy              =     -35.63626511 Ry
     estimated scf accuracy    <       0.00000442 Ry

     iteration #  8     ecut=    70.00 Ry     beta= 0.50
     Davidson diagonalization with overlap

---- Real-time Memory Report at c_bands before calling an iterative solver
           156 MiB given to the printing process from OS
            41 MiB allocation reported by mallinfo(arena+hblkhd)
         83139 MiB available memory on the node where the printing process lives
------------------
     ethr =  4.31E-08,  avg # of iterations =  1.4

     negative rho (up, down):  1.369E-05 0.000E+00

     total cpu time spent up to now is        1.8 secs

     total energy              =     -35.63626279 Ry
     estimated scf accuracy    <       0.00000281 Ry

     iteration #  9     ecut=    70.00 Ry     beta= 0.50
     Davidson diagonalization with overlap

---- Real-time Memory Report at c_bands before calling an iterative solver
           156 MiB given to the printing process from OS
            41 MiB allocation reported by mallinfo(arena+hblkhd)
         83139 MiB available memory on the node where the printing process lives
------------------
     ethr =  3.51E-08,  avg # of iterations =  3.8

     negative rho (up, down):  1.327E-05 0.000E+00

     total cpu time spent up to now is        1.9 secs

     total energy              =     -35.63626443 Ry
     estimated scf accuracy    <       0.00000056 Ry

     iteration # 10     ecut=    70.00 Ry     beta= 0.50
     Davidson diagonalization with overlap

---- Real-time Memory Report at c_bands before calling an iterative solver
           156 MiB given to the printing process from OS
            41 MiB allocation reported by mallinfo(arena+hblkhd)
         83138 MiB available memory on the node where the printing process lives
------------------
     ethr =  6.94E-09,  avg # of iterations =  1.9

     negative rho (up, down):  1.328E-05 0.000E+00

     total cpu time spent up to now is        2.0 secs

     total energy              =     -35.63626440 Ry
     estimated scf accuracy    <       0.00000026 Ry

     iteration # 11     ecut=    70.00 Ry     beta= 0.50
     Davidson diagonalization with overlap

---- Real-time Memory Report at c_bands before calling an iterative solver
           157 MiB given to the printing process from OS
            41 MiB allocation reported by mallinfo(arena+hblkhd)
         83138 MiB available memory on the node where the printing process lives
------------------
     ethr =  3.27E-09,  avg # of iterations =  1.8

     negative rho (up, down):  1.309E-05 0.000E+00

     total cpu time spent up to now is        2.1 secs

     total energy              =     -35.63626395 Ry
     estimated scf accuracy    <       0.00000012 Ry

     iteration # 12     ecut=    70.00 Ry     beta= 0.50
     Davidson diagonalization with overlap

---- Real-time Memory Report at c_bands before calling an iterative solver
           157 MiB given to the printing process from OS
            41 MiB allocation reported by mallinfo(arena+hblkhd)
         83138 MiB available memory on the node where the printing process lives
------------------
     ethr =  1.51E-09,  avg # of iterations =  3.2

     negative rho (up, down):  1.299E-05 0.000E+00

     total cpu time spent up to now is        2.2 secs

     End of self-consistent calculation

          k = 0.0000 0.0000 0.0000 (  5163 PWs)   bands (ev):

   -21.4126  -9.7223  -4.9409  -4.9409   1.4034   2.4492   2.8432   4.7350

     occupation numbers 
     1.0000   1.0000   1.0000   1.0000   0.0000   0.0000   0.0000   0.0000

          k = 0.0000 0.0962 0.0000 (  5149 PWs)   bands (ev):

   -21.2474  -9.5220  -5.5822  -5.2875   1.6282   2.6770   3.0738   4.9608

     occupation numbers 
     1.0000   1.0000   1.0000   1.0000   0.0000   0.0000   0.0000   0.0000

          k = 0.0000 0.1925 0.0000 (  5145 PWs)   bands (ev):

   -20.7534  -8.9266  -7.2060  -6.0977   2.3029   3.3583   3.7658   5.6360

     occupation numbers 
     1.0000   1.0000   1.0000   1.0000   0.0000   0.0000   0.0000   0.0000

          k = 0.0000 0.2887 0.0000 (  5157 PWs)   bands (ev):

   -19.9364  -9.2995  -7.9548  -6.9956   3.4251   4.4655   4.9181   5.4601

     occupation numbers 
     1.0000   1.0000   1.0000   1.0000   0.0000   0.0000   0.0000   0.0000

          k = 0.0000 0.3849 0.0000 (  5172 PWs)   bands (ev):

   -18.8071 -11.5082  -7.7431  -6.6567   3.0469   4.9818   6.0691   6.0990

     occupation numbers 
     1.0000   1.0000   1.0000   1.0000   0.0000   0.0000   0.0000   0.0000

          k = 0.0000 0.4811 0.0000 (  5182 PWs)   bands (ev):

   -17.3908 -13.6271  -8.2247  -5.1946   0.8563   5.8352   7.0128   8.0985

     occupation numbers 
     1.0000   1.0000   1.0000   1.0000   0.0000   0.0000   0.0000   0.0000

          k = 0.0000-0.5774 0.0000 (  5192 PWs)   bands (ev):

   -16.0352 -15.2249  -8.3900  -4.3187  -0.2789   5.7679   9.3506   9.4425

     occupation numbers 
     1.0000   1.0000   1.0000   1.0000   0.0000   0.0000   0.0000   0.0000

          k = 0.0833 0.1443 0.0000 (  5148 PWs)   bands (ev):

   -20.9178  -9.1241  -6.6011  -5.9810   2.0783   3.1318   3.5353   5.4122

     occupation numbers 
     1.0000   1.0000   1.0000   1.0000   0.0000   0.0000   0.0000   0.0000

          k = 0.0833 0.2406 0.0000 (  5152 PWs)   bands (ev):

   -20.2624  -8.3393  -8.2997  -6.9976   2.9779   4.0360   4.4584   6.2399

     occupation numbers 
     1.0000   1.0000   1.0000   1.0000   0.0000   0.0000   0.0000   0.0000

          k = 0.0833 0.3368 0.0000 (  5168 PWs)   bands (ev):

   -19.2892 -10.3756  -7.8957  -7.1980   4.0901   4.3220   5.4149   5.8414

     occupation numbers 
     1.0000   1.0000   1.0000   1.0000   0.0000   0.0000   0.0000   0.0000

          k = 0.0833 0.4330 0.0000 (  5176 PWs)   bands (ev):

   -18.0149 -12.5109  -8.5386  -5.7840   1.8377   6.0845   6.6729   7.1874

     occupation numbers 
     1.0000   1.0000   1.0000   1.0000   0.0000   0.0000   0.0000   0.0000

          k = 0.0833 0.5292 0.0000 (  5180 PWs)   bands (ev):

   -16.4966 -14.4912  -8.8711  -4.4336   0.0171   6.4943   8.3138   9.3242

     occupation numbers 
     1.0000   1.0000   1.0000   1.0000   0.0000   0.0000   0.0000   0.0000

          k = 0.1667 0.2887 0.0000 (  5152 PWs)   bands (ev):

   -19.4509  -9.6056  -8.3915  -7.3812   4.1007   4.5654   5.1573   5.6124

     occupation numbers 
     1.0000   1.0000   1.0000   1.0000   0.0000   0.0000   0.0000   0.0000

          k = 0.1667 0.3849 0.0000 (  5165 PWs)   bands (ev):

   -18.3323 -11.3400  -9.4538  -6.0986   2.5820   5.6618   6.6940   7.2258

     occupation numbers 
     1.0000   1.0000   1.0000   1.0000   0.0000   0.0000   0.0000   0.0000

          k = 0.1667 0.4811 0.0000 (  5170 PWs)   bands (ev):

   -16.9360 -13.2793 -10.0241  -4.6341   0.6243   7.6330   8.3766   8.5201

     occupation numbers 
     1.0000   1.0000   1.0000   1.0000   0.0000   0.0000   0.0000   0.0000

          k = 0.1667 0.5774 0.0000 (  5200 PWs)   bands (ev):

   -15.6194 -14.7991 -10.2073  -3.7110  -0.4777   8.2842   9.6588   9.9062

     occupation numbers 
     1.0000   1.0000   1.0000   1.0000   0.0000   0.0000   0.0000   0.0000

          k = 0.2500 0.4330 0.0000 (  5174 PWs)   bands (ev):

   -17.0889 -12.3374 -10.9881  -4.7233   0.9460   7.4206   8.1943   9.0659

     occupation numbers 
     1.0000   1.0000   1.0000   1.0000   0.0000   0.0000   0.0000   0.0000

          k = 0.2500 0.5292 0.0000 (  5188 PWs)   bands (ev):

   -15.6316 -13.7986 -11.6903  -3.3007  -0.6048   8.8298   9.5182  10.5027

     occupation numbers 
     1.0000   1.0000   1.0000   1.0000   0.0000   0.0000   0.0000   0.0000

          k = 0.3333 0.5774 0.0000 (  5220 PWs)   bands (ev):

   -14.3775 -14.3775 -12.6854  -1.9177  -1.9177   8.4936  11.1115  11.1116

     occupation numbers 
     1.0000   1.0000   1.0000   0.5000   0.5000   0.0000   0.0000   0.0000

     the Fermi energy is    -1.9177 ev

!    total energy              =     -35.63626439 Ry
     total all-electron energy =      -151.245435 Ry
     estimated scf accuracy    <          5.2E-10 Ry
     smearing contrib. (-TS)   =      -0.00003134 Ry
     internal energy E=F+TS    =     -35.63623304 Ry

     The total energy is F=E-TS. E is the sum of the following terms:
     one-electron contribution =    -158.66191085 Ry
     hartree contribution      =      80.93828217 Ry
     xc contribution           =      -8.28302555 Ry
     ewald contribution        =      62.46262411 Ry
     one-center paw contrib.   =     -12.09220291 Ry
      -> PAW hartree energy AE =      11.40105990 Ry
      -> PAW hartree energy PS =     -11.38753955 Ry
      -> PAW xc energy AE      =     -10.42257801 Ry
      -> PAW xc energy PS      =       4.36295620 Ry
      -> total E_H with PAW    =      80.95180252 Ry
      -> total E_XC with PAW   =     -14.34264736 Ry

     convergence has been achieved in  12 iterations

     negative rho (up, down):  1.299E-05 0.000E+00

     Forces acting on atoms (cartesian axes, Ry/au):

     atom    1 type  1   force =     0.00000000   -0.00000000    0.00000000
     atom    2 type  1   force =     0.00000000    0.00000000    0.00000000
     The non-local contrib.  to forces
     atom    1 type  1   force =     0.00000000    0.00000000    0.00000000
     atom    2 type  1   force =     0.00000000   -0.00000000    0.00000000
     The ionic contribution  to forces
     atom    1 type  1   force =    -0.00000000    0.00000053   -0.00000000
     atom    2 type  1   force =     0.00000000   -0.00000053   -0.00000000
     The local contribution  to forces
     atom    1 type  1   force =     0.00000000   -0.00000000    0.00000000
     atom    2 type  1   force =     0.00000000   -0.00000038    0.00000000
     The core correction contribution to forces
     atom    1 type  1   force =     0.00000000   -0.00000000    0.00000000
     atom    2 type  1   force =    -0.00000000    0.00000001   -0.00000000
     The Hubbard contrib.    to forces
     atom    1 type  1   force =     0.00000000    0.00000000    0.00000000
     atom    2 type  1   force =     0.00000000    0.00000000    0.00000000
     The SCF correction term to forces
     atom    1 type  1   force =    -0.00000000   -0.00000000    0.00000000
     atom    2 type  1   force =     0.00000000   -0.00000000    0.00000000

     Total force =     0.000000     Total SCF correction =     0.000000


     Computing stress (Cartesian axis) and pressure


     negative rho (up, down):  1.299E-05 0.000E+00
          total   stress  (Ry/bohr**3)                   (kbar)     P=       -0.06
  -0.00000031   0.00000000   0.00000000           -0.05        0.00        0.00
   0.00000000  -0.00000031   0.00000000            0.00       -0.05        0.00
   0.00000000   0.00000000  -0.00000055            0.00        0.00       -0.08

     kinetic stress (kbar)   2601.95     -0.00      0.00
                               -0.00   2601.95      0.00
                                0.00      0.00   2948.15

     local   stress (kbar) -48625.27      0.00     -0.00
                                0.00 -48625.27      0.00
                               -0.00      0.00  47976.34

     nonloc. stress (kbar)    961.25     -0.00      0.00
                               -0.00    961.25      0.00
                                0.00      0.00    867.25

     hartree stress (kbar)  22553.19      0.00      0.00
                                0.00  22553.19     -0.00
                                0.00     -0.00 -22325.59

     exc-cor stress (kbar)   -300.93      0.00      0.00
                                0.00   -300.93      0.00
                                0.00      0.00   -300.93

     corecor stress (kbar)   -378.34     -0.00      0.00
                               -0.00   -378.34      0.00
                                0.00      0.00   -369.74

     ewald   stress (kbar)  23188.11     -0.00      0.00
                               -0.00  23188.11      0.00
                                0.00      0.00 -28795.57

     hubbard stress (kbar)      0.00      0.00      0.00
                                0.00      0.00      0.00
                                0.00      0.00      0.00

     DFT-D   stress (kbar)      0.00      0.00      0.00
                                0.00      0.00      0.00
                                0.00      0.00      0.00

     XDM     stress (kbar)      0.00      0.00      0.00
                                0.00      0.00      0.00
                                0.00      0.00      0.00

     dft-nl  stress (kbar)      0.00      0.00      0.00
                                0.00      0.00      0.00
                                0.00      0.00      0.00

     TS-vdW  stress (kbar)      0.00      0.00      0.00
                                0.00      0.00      0.00
                                0.00      0.00      0.00

     MDB     stress (kbar)      0.00      0.00      0.00
                                0.00      0.00      0.00
                                0.00      0.00      0.00

     3D-RISM stress (kbar)      0.00      0.00      0.00
                                0.00      0.00      0.00
                                0.00      0.00      0.00


     Writing all to output data dir ../tmp/graphene.save/ :
     XML data file, charge density, pseudopotentials, collected wavefunctions
 
     init_run     :      0.12s CPU      0.16s WALL (       1 calls)
     electrons    :      1.88s CPU      2.06s WALL (       1 calls)
     forces       :      0.02s CPU      0.02s WALL (       1 calls)
     stress       :      0.05s CPU      0.05s WALL (       1 calls)

     Called by init_run:
     wfcinit      :      0.03s CPU      0.04s WALL (       1 calls)
     wfcinit:wfcr :      0.03s CPU      0.04s WALL (      19 calls)
     potinit      :      0.00s CPU      0.01s WALL (       1 calls)
     hinit0       :      0.01s CPU      0.01s WALL (       1 calls)

     Called by electrons:
     c_bands      :      1.45s CPU      1.55s WALL (      12 calls)
     sum_band     :      0.26s CPU      0.28s WALL (      12 calls)
     v_of_rho     :      0.02s CPU      0.03s WALL (      13 calls)
     v_h          :      0.01s CPU      0.01s WALL (      13 calls)
     v_xc         :      0.02s CPU      0.02s WALL (      15 calls)
     newd         :      0.08s CPU      0.08s WALL (      13 calls)
     PAW_pot      :      0.03s CPU      0.03s WALL (      13 calls)
     mix_rho      :      0.02s CPU      0.02s WALL (      12 calls)

     Called by c_bands:
     init_us_2    :      0.02s CPU      0.02s WALL (     513 calls)
     cegterg      :      1.42s CPU      1.51s WALL (     228 calls)

     Called by sum_band:
     sum_band:wei :      0.00s CPU      0.00s WALL (      12 calls)
     sum_band:loo :      0.15s CPU      0.15s WALL (      12 calls)
     sum_band:buf :      0.00s CPU      0.00s WALL (     228 calls)
     sum_band:ini :      0.01s CPU      0.01s WALL (     228 calls)
     sum_band:cal :      0.01s CPU      0.01s WALL (     228 calls)
     sum_band:bec :      0.00s CPU      0.00s WALL (     228 calls)
     addusdens    :      0.07s CPU      0.08s WALL (      12 calls)
                                        0.00s GPU  (      12 calls)
     addusd:skk   :      0.00s CPU      0.00s WALL (      12 calls)
                                        0.00s GPU  (      12 calls)

     Called by *egterg:
     cdiaghg      :      0.15s CPU      0.16s WALL (    1552 calls)
     cegterg:over :      0.05s CPU      0.05s WALL (    1324 calls)
     cegterg:upda :      0.01s CPU      0.01s WALL (    1324 calls)
     cegterg:last :      0.02s CPU      0.02s WALL (     862 calls)
     h_psi        :      1.14s CPU      1.22s WALL (    1571 calls)
     s_psi        :      0.01s CPU      0.01s WALL (    1571 calls)
     g_psi        :      0.01s CPU      0.01s WALL (    1324 calls)

     Called by h_psi:
     h_psi:calbec :      0.05s CPU      0.05s WALL (    1571 calls)
     vloc_psi     :      1.07s CPU      1.14s WALL (    1571 calls)
     add_vuspsi   :      0.01s CPU      0.02s WALL (    1571 calls)

     General routines
     calbec       :      0.06s CPU      0.06s WALL (    2122 calls)
     fft          :      0.04s CPU      0.04s WALL (      84 calls)
     ffts         :      0.00s CPU      0.00s WALL (      25 calls)
     fftw         :      1.02s CPU      1.08s WALL (   17444 calls)
     interpolate  :      0.01s CPU      0.01s WALL (      13 calls)
 
     Parallel routines

     PAW routines
     PAW_pot      :      0.03s CPU      0.03s WALL (      13 calls)
     PAW_symme    :      0.00s CPU      0.00s WALL (      25 calls)
 
     PWSCF        :      2.14s CPU      2.63s WALL

 
   This run was terminated on:  18:57:49  30Dec2025            

=------------------------------------------------------------------------------=
   JOB DONE.
=------------------------------------------------------------------------------=
