
     Program PWSCF v.7.4.1 starts on 14Nov2025 at 14: 9: 0 

     This program is part of the open-source Quantum ESPRESSO suite
     for quantum simulation of materials; please cite
         "P. Giannozzi et al., J. Phys.:Condens. Matter 21 395502 (2009);
         "P. Giannozzi et al., J. Phys.:Condens. Matter 29 465901 (2017);
         "P. Giannozzi et al., J. Chem. Phys. 152 154105 (2020);
          URL http://www.quantum-espresso.org", 
     in publications or presentations arising from this work. More details at
     http://www.quantum-espresso.org/quote

     Parallel version (MPI), running on     6 processors

     MPI processes distributed on     1 nodes
     6258 MiB available memory on the printing compute node when the environment starts

     Reading input from grap_SOC_scf.in

     Current dimensions of program PWSCF are:
     Max number of different atomic species (ntypx) = 10
     Max number of k-points (npk) =  40000
     Max angular momentum in pseudopotentials (lmaxx) =  4
     Presently stress not available with electric field and gates

     file C.rel-pbe-n-kjpaw_psl.0.1.UPF: wavefunction(s)  2P 2P renormalized

     R & G space division:  proc/nbgrp/npool/nimage =       6
     Subspace diagonalization in iterative solution of the eigenvalue problem:
     a serial algorithm will be used


     Parallelization info
     --------------------
     sticks:   dense  smooth     PW     G-vecs:    dense   smooth      PW
     Min         173      70     23                27803     7050    1361
     Max         175      71     24                27830     7077    1378
     Sum        1045     421    139               166859    42343    8205

     Using Slab Decomposition



     bravais-lattice index     =            0
     lattice parameter (alat)  =       4.6624  a.u.
     unit-cell volume          =     533.6317 (a.u.)^3
     number of atoms/cell      =            2
     number of atomic types    =            1
     number of electrons       =         8.00
     number of Kohn-Sham states=           16
     kinetic-energy cutoff     =      70.0000  Ry
     charge density cutoff     =     700.0000  Ry
     scf convergence threshold =      1.0E-08
     mixing beta               =       0.1000
     number of iterations used =            8  plain     mixing
     Exchange-correlation= SLA  PW   PBX  PBC
                           (   1   4   3   4   0   0   0)
     Non magnetic calculation with spin-orbit


     celldm(1)=   4.662410  celldm(2)=   0.000000  celldm(3)=   0.000000
     celldm(4)=   0.000000  celldm(5)=   0.000000  celldm(6)=   0.000000

     crystal axes: (cart. coord. in units of alat)
               a(1) = (   1.000000   0.000000  -0.000000 )  
               a(2) = (  -0.500000   0.866025   0.000000 )  
               a(3) = (  -0.000000   0.000000   6.079666 )  

     reciprocal axes: (cart. coord. in units 2 pi/alat)
               b(1) = (  1.000000  0.577350  0.000000 )  
               b(2) = ( -0.000000  1.154701 -0.000000 )  
               b(3) = (  0.000000  0.000000  0.164483 )  


     PseudoPot. # 1 for C  read from file:
     ../../../pseudos/C.rel-pbe-n-kjpaw_psl.0.1.UPF
     MD5 check sum: 5ef0b8f55ac4be3c3db5d31256eeff6b
     Pseudo is Projector augmented-wave + core cor, Zval =  4.0
     Generated using &quot;atomic&quot; code by A. Dal Corso  v.6.3
     Shape of augmentation charge: BESSEL
     Using radial grid of 1073 points,  6 beta functions with: 
                l(1) =   0
                l(2) =   0
                l(3) =   1
                l(4) =   1
                l(5) =   1
                l(6) =   1
     Q(r) pseudized with 0 coefficients 


     atomic species   valence    mass     pseudopotential
     C                 4.00    12.01100     C ( 1.00)

     No symmetry found



   Cartesian axes

     site n.     atom                  positions (alat units)
         1        C      tau(   1) = (   0.0000000   0.0000000   1.5199164  )
         2        C      tau(   2) = (   0.0000000   0.5773503   1.5199164  )

     number of k points=    74  Gaussian smearing, width (Ry)=  0.0020
                       cart. coord. in units 2pi/alat
        k(    1) = (   0.0000000   0.0000000   0.0000000), wk =   0.0069444
        k(    2) = (   0.0000000   0.0962250   0.0000000), wk =   0.0138889
        k(    3) = (   0.0000000   0.1924501   0.0000000), wk =   0.0138889
        k(    4) = (   0.0000000   0.2886751   0.0000000), wk =   0.0138889
        k(    5) = (   0.0000000   0.3849002   0.0000000), wk =   0.0138889
        k(    6) = (   0.0000000   0.4811252   0.0000000), wk =   0.0138889
        k(    7) = (   0.0000000  -0.5773503   0.0000000), wk =   0.0069444
        k(    8) = (   0.0833333   0.0481125   0.0000000), wk =   0.0138889
        k(    9) = (   0.0833333   0.1443376   0.0000000), wk =   0.0138889
        k(   10) = (   0.0833333   0.2405626   0.0000000), wk =   0.0138889
        k(   11) = (   0.0833333   0.3367877   0.0000000), wk =   0.0138889
        k(   12) = (   0.0833333   0.4330127   0.0000000), wk =   0.0138889
        k(   13) = (   0.0833333   0.5292377   0.0000000), wk =   0.0138889
        k(   14) = (   0.0833333  -0.5292377   0.0000000), wk =   0.0138889
        k(   15) = (   0.0833333  -0.4330127   0.0000000), wk =   0.0138889
        k(   16) = (   0.0833333  -0.3367877   0.0000000), wk =   0.0138889
        k(   17) = (   0.0833333  -0.2405626   0.0000000), wk =   0.0138889
        k(   18) = (   0.0833333  -0.1443376   0.0000000), wk =   0.0138889
        k(   19) = (   0.0833333  -0.0481125   0.0000000), wk =   0.0138889
        k(   20) = (   0.1666667   0.0962250   0.0000000), wk =   0.0138889
        k(   21) = (   0.1666667   0.1924501   0.0000000), wk =   0.0138889
        k(   22) = (   0.1666667   0.2886751   0.0000000), wk =   0.0138889
        k(   23) = (   0.1666667   0.3849002   0.0000000), wk =   0.0138889
        k(   24) = (   0.1666667   0.4811252   0.0000000), wk =   0.0138889
        k(   25) = (   0.1666667   0.5773503   0.0000000), wk =   0.0138889
        k(   26) = (   0.1666667  -0.4811252   0.0000000), wk =   0.0138889
        k(   27) = (   0.1666667  -0.3849002   0.0000000), wk =   0.0138889
        k(   28) = (   0.1666667  -0.2886751   0.0000000), wk =   0.0138889
        k(   29) = (   0.1666667  -0.1924501   0.0000000), wk =   0.0138889
        k(   30) = (   0.1666667  -0.0962250   0.0000000), wk =   0.0138889
        k(   31) = (   0.1666667  -0.0000000   0.0000000), wk =   0.0138889
        k(   32) = (   0.2500000   0.1443376   0.0000000), wk =   0.0138889
        k(   33) = (   0.2500000   0.2405626   0.0000000), wk =   0.0138889
        k(   34) = (   0.2500000   0.3367877   0.0000000), wk =   0.0138889
        k(   35) = (   0.2500000   0.4330127   0.0000000), wk =   0.0138889
        k(   36) = (   0.2500000   0.5292377   0.0000000), wk =   0.0138889
        k(   37) = (   0.2500000   0.6254628   0.0000000), wk =   0.0138889
        k(   38) = (   0.2500000  -0.4330127   0.0000000), wk =   0.0138889
        k(   39) = (   0.2500000  -0.3367877   0.0000000), wk =   0.0138889
        k(   40) = (   0.2500000  -0.2405626   0.0000000), wk =   0.0138889
        k(   41) = (   0.2500000  -0.1443376   0.0000000), wk =   0.0138889
        k(   42) = (   0.2500000  -0.0481125   0.0000000), wk =   0.0138889
        k(   43) = (   0.2500000   0.0481125   0.0000000), wk =   0.0138889
        k(   44) = (   0.3333333   0.1924501   0.0000000), wk =   0.0138889
        k(   45) = (   0.3333333   0.2886751   0.0000000), wk =   0.0138889
        k(   46) = (   0.3333333   0.3849002   0.0000000), wk =   0.0138889
        k(   47) = (   0.3333333   0.4811252   0.0000000), wk =   0.0138889
        k(   48) = (   0.3333333   0.5773503   0.0000000), wk =   0.0138889
        k(   49) = (   0.3333333   0.6735753   0.0000000), wk =   0.0138889
        k(   50) = (   0.3333333  -0.3849002   0.0000000), wk =   0.0138889
        k(   51) = (   0.3333333  -0.2886751   0.0000000), wk =   0.0138889
        k(   52) = (   0.3333333  -0.1924501   0.0000000), wk =   0.0138889
        k(   53) = (   0.3333333  -0.0962250   0.0000000), wk =   0.0138889
        k(   54) = (   0.3333333   0.0000000   0.0000000), wk =   0.0138889
        k(   55) = (   0.3333333   0.0962250   0.0000000), wk =   0.0138889
        k(   56) = (   0.4166667   0.2405626   0.0000000), wk =   0.0138889
        k(   57) = (   0.4166667   0.3367877   0.0000000), wk =   0.0138889
        k(   58) = (   0.4166667   0.4330127   0.0000000), wk =   0.0138889
        k(   59) = (   0.4166667   0.5292377   0.0000000), wk =   0.0138889
        k(   60) = (   0.4166667   0.6254628   0.0000000), wk =   0.0138889
        k(   61) = (   0.4166667   0.7216878   0.0000000), wk =   0.0138889
        k(   62) = (   0.4166667  -0.3367877   0.0000000), wk =   0.0138889
        k(   63) = (   0.4166667  -0.2405626   0.0000000), wk =   0.0138889
        k(   64) = (   0.4166667  -0.1443376   0.0000000), wk =   0.0138889
        k(   65) = (   0.4166667  -0.0481125   0.0000000), wk =   0.0138889
        k(   66) = (   0.4166667   0.0481125   0.0000000), wk =   0.0138889
        k(   67) = (   0.4166667   0.1443376   0.0000000), wk =   0.0138889
        k(   68) = (  -0.5000000  -0.2886751   0.0000000), wk =   0.0069444
        k(   69) = (  -0.5000000  -0.1924501   0.0000000), wk =   0.0138889
        k(   70) = (  -0.5000000  -0.0962250   0.0000000), wk =   0.0138889
        k(   71) = (  -0.5000000   0.0000000   0.0000000), wk =   0.0138889
        k(   72) = (  -0.5000000   0.0962250   0.0000000), wk =   0.0138889
        k(   73) = (  -0.5000000   0.1924501   0.0000000), wk =   0.0138889
        k(   74) = (  -0.5000000  -0.8660254   0.0000000), wk =   0.0069444

     Dense  grid:   166859 G-vectors     FFT dimensions: (  40,  40, 240)

     Smooth grid:    42343 G-vectors     FFT dimensions: (  25,  25, 160)

     Estimated max dynamical RAM per process >     131.86 MB

     Estimated total dynamical RAM >     791.13 MB

     Initial potential from superposition of free atoms

     starting charge       7.9999, renormalised to       8.0000

     negative rho (up, down):  2.781E-05 0.000E+00

     Adding external electric field

     Computed dipole along edir(3) : 
        Dipole                0.0017 Ry au,          0.0043 Debye
        Dipole field          0.0000 Ry au, 

        E field amplitude [Ha a.u.]:  1.9447E-03
        Potential amp.        0.1026 Ry
        Total length         26.9286 bohr

     Starting wfcs are random
     Checking if some PAW data can be deallocated... 

     total cpu time spent up to now is        2.8 secs

     Self-consistent Calculation

     iteration #  1     ecut=    70.00 Ry     beta= 0.10
     Davidson diagonalization with overlap
     ethr =  1.00E-02,  avg # of iterations =  8.8

     negative rho (up, down):  2.271E-05 0.000E+00

     Adding external electric field

     Computed dipole along edir(3) : 
        Dipole                0.0040 Ry au,          0.0102 Debye
        Dipole field          0.0001 Ry au, 

        E field amplitude [Ha a.u.]:  1.9447E-03
        Potential amp.        0.0997 Ry
        Total length         26.9286 bohr


     total cpu time spent up to now is       29.8 secs

     total energy              =     -36.95394043 Ry
     estimated scf accuracy    <       0.20221267 Ry

     iteration #  2     ecut=    70.00 Ry     beta= 0.10
     Davidson diagonalization with overlap
     ethr =  2.53E-03,  avg # of iterations =  1.0

     negative rho (up, down):  1.040E-04 0.000E+00

     Adding external electric field

     Computed dipole along edir(3) : 
        Dipole                0.0200 Ry au,          0.0509 Debye
        Dipole field          0.0005 Ry au, 

        E field amplitude [Ha a.u.]:  1.9447E-03
        Potential amp.        0.0793 Ry
        Total length         26.9286 bohr


     total cpu time spent up to now is       35.4 secs

     total energy              =     -36.85236617 Ry
     estimated scf accuracy    <       0.15647271 Ry

     iteration #  3     ecut=    70.00 Ry     beta= 0.10
     Davidson diagonalization with overlap
     ethr =  1.96E-03,  avg # of iterations =  4.1

     negative rho (up, down):  7.330E-05 0.000E+00

     Adding external electric field

     Computed dipole along edir(3) : 
        Dipole                0.0188 Ry au,          0.0479 Debye
        Dipole field          0.0004 Ry au, 

        E field amplitude [Ha a.u.]:  1.9447E-03
        Potential amp.        0.0809 Ry
        Total length         26.9286 bohr


     total cpu time spent up to now is       42.0 secs

     total energy              =     -36.87762437 Ry
     estimated scf accuracy    <       0.00310666 Ry

     iteration #  4     ecut=    70.00 Ry     beta= 0.10
     Davidson diagonalization with overlap
     ethr =  3.88E-05,  avg # of iterations =  7.3

     negative rho (up, down):  6.944E-05 0.000E+00

     Adding external electric field

     Computed dipole along edir(3) : 
        Dipole                0.0257 Ry au,          0.0654 Debye
        Dipole field          0.0006 Ry au, 

        E field amplitude [Ha a.u.]:  1.9447E-03
        Potential amp.        0.0721 Ry
        Total length         26.9286 bohr


     total cpu time spent up to now is       56.6 secs

     total energy              =     -36.90337323 Ry
     estimated scf accuracy    <       0.00726009 Ry

     iteration #  5     ecut=    70.00 Ry     beta= 0.10
     Davidson diagonalization with overlap
     ethr =  3.88E-05,  avg # of iterations =  5.1

     negative rho (up, down):  1.398E-04 0.000E+00

     Adding external electric field

     Computed dipole along edir(3) : 
        Dipole                0.0125 Ry au,          0.0318 Debye
        Dipole field          0.0003 Ry au, 

        E field amplitude [Ha a.u.]:  1.9447E-03
        Potential amp.        0.0889 Ry
        Total length         26.9286 bohr


     total cpu time spent up to now is       65.3 secs

     total energy              =     -36.88952650 Ry
     estimated scf accuracy    <       0.03544999 Ry

     iteration #  6     ecut=    70.00 Ry     beta= 0.10
     Davidson diagonalization with overlap
     ethr =  3.88E-05,  avg # of iterations =  5.0

     negative rho (up, down):  5.119E-04 0.000E+00

     Adding external electric field

     Computed dipole along edir(3) : 
        Dipole                0.0000 Ry au,          0.0001 Debye
        Dipole field          0.0000 Ry au, 

        E field amplitude [Ha a.u.]:  1.9447E-03
        Potential amp.        0.1047 Ry
        Total length         26.9286 bohr


     total cpu time spent up to now is       74.7 secs

     total energy              =     -36.88723800 Ry
     estimated scf accuracy    <       0.00609594 Ry

     iteration #  7     ecut=    70.00 Ry     beta= 0.10
     Davidson diagonalization with overlap
     ethr =  3.88E-05,  avg # of iterations =  6.0

     negative rho (up, down):  3.880E-04 0.000E+00

     Adding external electric field

     Computed dipole along edir(3) : 
        Dipole                0.0069 Ry au,          0.0175 Debye
        Dipole field          0.0002 Ry au, 

        E field amplitude [Ha a.u.]:  1.9447E-03
        Potential amp.        0.0960 Ry
        Total length         26.9286 bohr


     total cpu time spent up to now is       85.1 secs

     total energy              =     -36.88895968 Ry
     estimated scf accuracy    <       0.00108830 Ry

     iteration #  8     ecut=    70.00 Ry     beta= 0.10
     Davidson diagonalization with overlap
     ethr =  1.36E-05,  avg # of iterations =  2.7

     negative rho (up, down):  3.500E-04 0.000E+00

     Adding external electric field

     Computed dipole along edir(3) : 
        Dipole                0.0077 Ry au,          0.0196 Debye
        Dipole field          0.0002 Ry au, 

        E field amplitude [Ha a.u.]:  1.9447E-03
        Potential amp.        0.0949 Ry
        Total length         26.9286 bohr


     total cpu time spent up to now is       91.1 secs

     total energy              =     -36.88906229 Ry
     estimated scf accuracy    <       0.00056048 Ry

     iteration #  9     ecut=    70.00 Ry     beta= 0.10
     Davidson diagonalization with overlap
     ethr =  7.01E-06,  avg # of iterations =  1.5

     negative rho (up, down):  1.982E-04 0.000E+00

     Adding external electric field

     Computed dipole along edir(3) : 
        Dipole                0.0101 Ry au,          0.0257 Debye
        Dipole field          0.0002 Ry au, 

        E field amplitude [Ha a.u.]:  1.9447E-03
        Potential amp.        0.0919 Ry
        Total length         26.9286 bohr


     total cpu time spent up to now is       96.5 secs

     total energy              =     -36.88878163 Ry
     estimated scf accuracy    <       0.00049451 Ry

     iteration # 10     ecut=    70.00 Ry     beta= 0.10
     Davidson diagonalization with overlap
     ethr =  6.18E-06,  avg # of iterations =  4.3

     negative rho (up, down):  1.718E-04 0.000E+00

     Adding external electric field

     Computed dipole along edir(3) : 
        Dipole                0.0104 Ry au,          0.0265 Debye
        Dipole field          0.0002 Ry au, 

        E field amplitude [Ha a.u.]:  1.9447E-03
        Potential amp.        0.0915 Ry
        Total length         26.9286 bohr


     total cpu time spent up to now is      103.9 secs

     total energy              =     -36.88891248 Ry
     estimated scf accuracy    <       0.00000925 Ry

     iteration # 11     ecut=    70.00 Ry     beta= 0.10
     Davidson diagonalization with overlap
     ethr =  1.16E-07,  avg # of iterations =  5.6

     negative rho (up, down):  2.112E-04 0.000E+00

     Adding external electric field

     Computed dipole along edir(3) : 
        Dipole                0.0084 Ry au,          0.0215 Debye
        Dipole field          0.0002 Ry au, 

        E field amplitude [Ha a.u.]:  1.9447E-03
        Potential amp.        0.0940 Ry
        Total length         26.9286 bohr


     total cpu time spent up to now is      114.8 secs

     total energy              =     -36.88904967 Ry
     estimated scf accuracy    <       0.00004930 Ry

     iteration # 12     ecut=    70.00 Ry     beta= 0.10
     Davidson diagonalization with overlap
     ethr =  1.16E-07,  avg # of iterations =  4.0

     negative rho (up, down):  7.997E-05 0.000E+00

     Adding external electric field

     Computed dipole along edir(3) : 
        Dipole                0.0102 Ry au,          0.0258 Debye
        Dipole field          0.0002 Ry au, 

        E field amplitude [Ha a.u.]:  1.9447E-03
        Potential amp.        0.0919 Ry
        Total length         26.9286 bohr


     total cpu time spent up to now is      123.8 secs

     total energy              =     -36.88888198 Ry
     estimated scf accuracy    <       0.00031291 Ry

     iteration # 13     ecut=    70.00 Ry     beta= 0.10
     Davidson diagonalization with overlap
     ethr =  1.16E-07,  avg # of iterations =  4.6

     negative rho (up, down):  4.384E-05 0.000E+00

     Adding external electric field

     Computed dipole along edir(3) : 
        Dipole                0.0114 Ry au,          0.0291 Debye
        Dipole field          0.0003 Ry au, 

        E field amplitude [Ha a.u.]:  1.9447E-03
        Potential amp.        0.0902 Ry
        Total length         26.9286 bohr


     total cpu time spent up to now is      134.2 secs

     total energy              =     -36.88893322 Ry
     estimated scf accuracy    <       0.00000215 Ry

     iteration # 14     ecut=    70.00 Ry     beta= 0.10
     Davidson diagonalization with overlap
     ethr =  2.69E-08,  avg # of iterations =  1.7

     negative rho (up, down):  3.808E-05 0.000E+00

     Adding external electric field

     Computed dipole along edir(3) : 
        Dipole                0.0117 Ry au,          0.0298 Debye
        Dipole field          0.0003 Ry au, 

        E field amplitude [Ha a.u.]:  1.9447E-03
        Potential amp.        0.0898 Ry
        Total length         26.9286 bohr


     total cpu time spent up to now is      139.8 secs

     total energy              =     -36.88893370 Ry
     estimated scf accuracy    <       0.00000068 Ry

     iteration # 15     ecut=    70.00 Ry     beta= 0.10
     Davidson diagonalization with overlap
     ethr =  8.46E-09,  avg # of iterations =  4.1

     negative rho (up, down):  3.379E-05 0.000E+00

     Adding external electric field

     Computed dipole along edir(3) : 
        Dipole                0.0115 Ry au,          0.0294 Debye
        Dipole field          0.0003 Ry au, 

        E field amplitude [Ha a.u.]:  1.9447E-03
        Potential amp.        0.0901 Ry
        Total length         26.9286 bohr


     total cpu time spent up to now is      146.6 secs

     total energy              =     -36.88893342 Ry
     estimated scf accuracy    <       0.00000139 Ry

     iteration # 16     ecut=    70.00 Ry     beta= 0.10
     Davidson diagonalization with overlap
     ethr =  8.46E-09,  avg # of iterations =  1.3

     negative rho (up, down):  3.134E-05 0.000E+00

     Adding external electric field

     Computed dipole along edir(3) : 
        Dipole                0.0113 Ry au,          0.0288 Debye
        Dipole field          0.0003 Ry au, 

        E field amplitude [Ha a.u.]:  1.9447E-03
        Potential amp.        0.0904 Ry
        Total length         26.9286 bohr


     total cpu time spent up to now is      152.0 secs

     total energy              =     -36.88893320 Ry
     estimated scf accuracy    <       0.00000047 Ry

     iteration # 17     ecut=    70.00 Ry     beta= 0.10
     Davidson diagonalization with overlap
     ethr =  5.84E-09,  avg # of iterations =  3.7

     negative rho (up, down):  2.433E-05 0.000E+00

     Adding external electric field

     Computed dipole along edir(3) : 
        Dipole                0.0116 Ry au,          0.0294 Debye
        Dipole field          0.0003 Ry au, 

        E field amplitude [Ha a.u.]:  1.9447E-03
        Potential amp.        0.0901 Ry
        Total length         26.9286 bohr


     total cpu time spent up to now is      160.1 secs

     total energy              =     -36.88893351 Ry
     estimated scf accuracy    <       0.00000061 Ry

     iteration # 18     ecut=    70.00 Ry     beta= 0.10
     Davidson diagonalization with overlap
     ethr =  5.84E-09,  avg # of iterations =  1.3

     negative rho (up, down):  2.111E-05 0.000E+00

     Adding external electric field

     Computed dipole along edir(3) : 
        Dipole                0.0116 Ry au,          0.0295 Debye
        Dipole field          0.0003 Ry au, 

        E field amplitude [Ha a.u.]:  1.9447E-03
        Potential amp.        0.0900 Ry
        Total length         26.9286 bohr


     total cpu time spent up to now is      165.5 secs

     total energy              =     -36.88893332 Ry
     estimated scf accuracy    <       0.00000038 Ry

     iteration # 19     ecut=    70.00 Ry     beta= 0.10
     Davidson diagonalization with overlap
     ethr =  4.75E-09,  avg # of iterations =  1.3

     negative rho (up, down):  1.884E-05 0.000E+00

     Adding external electric field

     Computed dipole along edir(3) : 
        Dipole                0.0116 Ry au,          0.0296 Debye
        Dipole field          0.0003 Ry au, 

        E field amplitude [Ha a.u.]:  1.9447E-03
        Potential amp.        0.0900 Ry
        Total length         26.9286 bohr


     total cpu time spent up to now is      170.8 secs

     total energy              =     -36.88893334 Ry
     estimated scf accuracy    <       0.00000004 Ry

     iteration # 20     ecut=    70.00 Ry     beta= 0.10
     Davidson diagonalization with overlap
     ethr =  5.55E-10,  avg # of iterations =  4.7

     negative rho (up, down):  1.697E-05 0.000E+00

     Adding external electric field

     Computed dipole along edir(3) : 
        Dipole                0.0116 Ry au,          0.0295 Debye
        Dipole field          0.0003 Ry au, 

        E field amplitude [Ha a.u.]:  1.9447E-03
        Potential amp.        0.0900 Ry
        Total length         26.9286 bohr


     total cpu time spent up to now is      179.8 secs

     total energy              =     -36.88893339 Ry
     estimated scf accuracy    <       0.00000002 Ry

     iteration # 21     ecut=    70.00 Ry     beta= 0.10
     Davidson diagonalization with overlap
     ethr =  2.15E-10,  avg # of iterations =  1.1

     negative rho (up, down):  1.537E-05 0.000E+00

     Adding external electric field

     Computed dipole along edir(3) : 
        Dipole                0.0116 Ry au,          0.0295 Debye
        Dipole field          0.0003 Ry au, 

        E field amplitude [Ha a.u.]:  1.9447E-03
        Potential amp.        0.0900 Ry
        Total length         26.9286 bohr


     total cpu time spent up to now is      185.2 secs

     total energy              =     -36.88893340 Ry
     estimated scf accuracy    <       0.00000001 Ry

     iteration # 22     ecut=    70.00 Ry     beta= 0.10
     Davidson diagonalization with overlap
     ethr =  1.48E-10,  avg # of iterations =  1.2

     negative rho (up, down):  1.390E-05 0.000E+00

     Adding external electric field

     Computed dipole along edir(3) : 
        Dipole                0.0116 Ry au,          0.0294 Debye
        Dipole field          0.0003 Ry au, 

        E field amplitude [Ha a.u.]:  1.9447E-03
        Potential amp.        0.0900 Ry
        Total length         26.9286 bohr


     total cpu time spent up to now is      190.5 secs

     total energy              =     -36.88893340 Ry
     estimated scf accuracy    <       0.00000002 Ry

     iteration # 23     ecut=    70.00 Ry     beta= 0.10
     Davidson diagonalization with overlap
     ethr =  1.48E-10,  avg # of iterations =  1.0

     negative rho (up, down):  6.995E-06 0.000E+00

     Adding external electric field

     Computed dipole along edir(3) : 
        Dipole                0.0114 Ry au,          0.0291 Debye
        Dipole field          0.0003 Ry au, 

        E field amplitude [Ha a.u.]:  1.9447E-03
        Potential amp.        0.0902 Ry
        Total length         26.9286 bohr


     total cpu time spent up to now is      195.9 secs

     End of self-consistent calculation

          k = 0.0000 0.0000 0.0000 (  5307 PWs)   bands (ev):

   -20.9475 -20.9475  -9.0430  -9.0430  -4.4973  -4.4973  -4.4881  -4.4881
     1.6710   1.6710   2.4500   2.4500   2.6833   2.6833   4.6442   4.6442

          k = 0.0000 0.0962 0.0000 (  5285 PWs)   bands (ev):

   -20.7837 -20.7837  -8.8474  -8.8474  -5.1426  -5.1426  -4.8300  -4.8300
     1.8953   1.8953   2.6758   2.6759   2.9085   2.9086   4.8668   4.8668

          k = 0.0000 0.1925 0.0000 (  5253 PWs)   bands (ev):

   -20.2943 -20.2943  -8.2658  -8.2658  -6.7781  -6.7781  -5.6200  -5.6200
     2.5678   2.5678   3.3525   3.3526   3.5839   3.5840   5.5317   5.5317

          k = 0.0000 0.2887 0.0000 (  5269 PWs)   bands (ev):

   -19.4848 -19.4848  -8.8739  -8.8739  -7.3174  -7.3174  -6.4973  -6.4973
     3.6866   3.6866   4.4702   4.4703   4.7050   4.7051   5.7948   5.7948

          k = 0.0000 0.3849 0.0000 (  5285 PWs)   bands (ev):

   -18.3677 -18.3677 -11.0744 -11.0744  -7.2286  -7.2286  -6.0523  -6.0523
     3.4672   3.4672   5.2432   5.2432   6.0641   6.0645   6.1990   6.1996

          k = 0.0000 0.4811 0.0000 (  5290 PWs)   bands (ev):

   -16.9741 -16.9741 -13.1714 -13.1714  -7.7002  -7.7002  -4.6334  -4.6334
     1.3375   1.3375   5.9975   5.9975   7.2589   7.2590   8.0795   8.0796

          k = 0.0000-0.5774 0.0000 (  5288 PWs)   bands (ev):

   -15.7163 -15.7163 -14.6716 -14.6716  -7.8621  -7.8621  -3.7912  -3.7912
     0.2427   0.2427   5.9181   5.9181   9.5902   9.5903   9.7213   9.7213

          k = 0.0833 0.0481 0.0000 (  5285 PWs)   bands (ev):

   -20.7837 -20.7837  -8.8474  -8.8474  -5.1426  -5.1426  -4.8300  -4.8300
     1.8953   1.8953   2.6758   2.6759   2.9085   2.9086   4.8668   4.8668

          k = 0.0833 0.1443 0.0000 (  5269 PWs)   bands (ev):

   -20.4571 -20.4571  -8.4586  -8.4586  -6.1752  -6.1752  -5.5055  -5.5055
     2.3438   2.3438   3.1272   3.1272   3.3590   3.3591   5.3111   5.3111

          k = 0.0833 0.2406 0.0000 (  5261 PWs)   bands (ev):

   -19.8077 -19.8077  -7.8829  -7.8829  -7.6925  -7.6925  -6.5009  -6.5009
     3.2401   3.2401   4.0277   4.0277   4.2592   4.2593   6.1858   6.1859

          k = 0.0833 0.3368 0.0000 (  5275 PWs)   bands (ev):

   -18.8442 -18.8442  -9.9532  -9.9532  -7.3851  -7.3851  -6.5793  -6.5793
     4.4735   4.4736   4.5828   4.5828   5.3942   5.3943   5.6116   5.6118

          k = 0.0833 0.4330 0.0000 (  5284 PWs)   bands (ev):

   -17.5857 -17.5857 -12.0731 -12.0731  -8.0184  -8.0184  -5.2032  -5.2032
     2.2820   2.2820   6.3449   6.3450   6.8366   6.8366   7.1791   7.1794

          k = 0.0833 0.5292 0.0000 (  5302 PWs)   bands (ev):

   -16.1096 -16.1096 -14.0107 -14.0107  -8.3460  -8.3460  -3.8975  -3.8975
     0.5179   0.5179   6.6561   6.6562   8.5676   8.5677   9.3707   9.3708

          k = 0.0833-0.5292 0.0000 (  5302 PWs)   bands (ev):

   -16.1096 -16.1096 -14.0107 -14.0107  -8.3460  -8.3460  -3.8975  -3.8975
     0.5179   0.5179   6.6561   6.6562   8.5676   8.5677   9.3704   9.3705

          k = 0.0833-0.4330 0.0000 (  5284 PWs)   bands (ev):

   -17.5857 -17.5857 -12.0731 -12.0731  -8.0184  -8.0184  -5.2032  -5.2032
     2.2820   2.2820   6.3448   6.3449   6.8365   6.8365   7.1767   7.1768

          k = 0.0833-0.3368 0.0000 (  5275 PWs)   bands (ev):

   -18.8442 -18.8442  -9.9532  -9.9532  -7.3851  -7.3851  -6.5793  -6.5793
     4.4735   4.4736   4.5828   4.5828   5.3941   5.3943   5.6116   5.6118

          k = 0.0833-0.2406 0.0000 (  5261 PWs)   bands (ev):

   -19.8077 -19.8077  -7.8829  -7.8829  -7.6925  -7.6925  -6.5009  -6.5009
     3.2401   3.2401   4.0277   4.0277   4.2592   4.2593   6.1858   6.1859

          k = 0.0833-0.1443 0.0000 (  5269 PWs)   bands (ev):

   -20.4571 -20.4571  -8.4586  -8.4586  -6.1752  -6.1752  -5.5055  -5.5055
     2.3438   2.3438   3.1272   3.1272   3.3590   3.3591   5.3111   5.3111

          k = 0.0833-0.0481 0.0000 (  5285 PWs)   bands (ev):

   -20.7837 -20.7837  -8.8474  -8.8474  -5.1426  -5.1426  -4.8300  -4.8300
     1.8953   1.8953   2.6758   2.6759   2.9085   2.9086   4.8668   4.8668

          k = 0.1667 0.0962 0.0000 (  5253 PWs)   bands (ev):

   -20.2943 -20.2943  -8.2658  -8.2658  -6.7782  -6.7782  -5.6200  -5.6200
     2.5678   2.5678   3.3525   3.3526   3.5839   3.5840   5.5317   5.5317

          k = 0.1667 0.1925 0.0000 (  5261 PWs)   bands (ev):

   -19.8077 -19.8077  -7.8829  -7.8829  -7.6925  -7.6925  -6.5009  -6.5009
     3.2401   3.2401   4.0277   4.0277   4.2592   4.2593   6.1858   6.1858

          k = 0.1667 0.2887 0.0000 (  5288 PWs)   bands (ev):

   -19.0042 -19.0042  -9.2124  -9.2124  -7.8596  -7.8596  -6.7576  -6.7576
     4.3586   4.3587   4.9321   4.9321   5.1492   5.1493   5.3832   5.3833

          k = 0.1667 0.3849 0.0000 (  5285 PWs)   bands (ev):

   -17.8978 -17.8978 -10.9375 -10.9375  -8.9141  -8.9141  -5.5077  -5.5077
     2.9888   2.9888   5.9165   5.9166   6.7046   6.7047   6.9503   6.9504

          k = 0.1667 0.4811 0.0000 (  5283 PWs)   bands (ev):

   -16.5242 -16.5242 -12.8450 -12.8449  -9.4894  -9.4894  -4.0847  -4.0847
     1.0813   1.0813   7.8906   7.8907   8.5568   8.5568   8.6345   8.6346

          k = 0.1667 0.5774 0.0000 (  5264 PWs)   bands (ev):

   -15.2951 -15.2950 -14.2743 -14.2743  -9.6741  -9.6741  -3.1944  -3.1944
     0.0160   0.0160   8.4630   8.4630  10.1202  10.1203  10.1656  10.1657

          k = 0.1667-0.4811 0.0000 (  5283 PWs)   bands (ev):

   -16.5242 -16.5242 -12.8449 -12.8449  -9.4894  -9.4894  -4.0847  -4.0847
     1.0813   1.0813   7.8907   7.8909   8.5568   8.5570   8.6346   8.6362

          k = 0.1667-0.3849 0.0000 (  5285 PWs)   bands (ev):

   -17.8978 -17.8978 -10.9374 -10.9374  -8.9142  -8.9141  -5.5077  -5.5077
     2.9888   2.9888   5.9165   5.9166   6.7046   6.7047   6.9502   6.9504

          k = 0.1667-0.2887 0.0000 (  5288 PWs)   bands (ev):

   -19.0042 -19.0042  -9.2124  -9.2124  -7.8596  -7.8596  -6.7576  -6.7576
     4.3586   4.3587   4.9321   4.9321   5.1492   5.1493   5.3832   5.3834

          k = 0.1667-0.1925 0.0000 (  5261 PWs)   bands (ev):

   -19.8077 -19.8077  -7.8829  -7.8829  -7.6925  -7.6925  -6.5009  -6.5009
     3.2401   3.2401   4.0277   4.0277   4.2592   4.2593   6.1858   6.1858

          k = 0.1667-0.0962 0.0000 (  5253 PWs)   bands (ev):

   -20.2943 -20.2943  -8.2658  -8.2658  -6.7782  -6.7782  -5.6200  -5.6200
     2.5678   2.5678   3.3525   3.3526   3.5839   3.5840   5.5317   5.5317

          k = 0.1667-0.0000 0.0000 (  5269 PWs)   bands (ev):

   -20.4571 -20.4571  -8.4586  -8.4586  -6.1752  -6.1752  -5.5055  -5.5055
     2.3438   2.3438   3.1272   3.1272   3.3590   3.3591   5.3111   5.3111

          k = 0.2500 0.1443 0.0000 (  5269 PWs)   bands (ev):

   -19.4848 -19.4848  -8.8739  -8.8739  -7.3174  -7.3174  -6.4973  -6.4973
     3.6866   3.6866   4.4702   4.4703   4.7050   4.7051   5.7948   5.7949

          k = 0.2500 0.2406 0.0000 (  5275 PWs)   bands (ev):

   -18.8442 -18.8442  -9.9532  -9.9532  -7.3851  -7.3851  -6.5793  -6.5793
     4.4735   4.4736   4.5828   4.5828   5.3941   5.3943   5.6116   5.6118

          k = 0.2500 0.3368 0.0000 (  5285 PWs)   bands (ev):

   -17.8978 -17.8978 -10.9375 -10.9375  -8.9141  -8.9141  -5.5077  -5.5077
     2.9888   2.9888   5.9165   5.9166   6.7046   6.7047   6.9502   6.9504

          k = 0.2500 0.4330 0.0000 (  5268 PWs)   bands (ev):

   -16.6714 -16.6714 -11.9734 -11.9734 -10.3935 -10.3935  -4.1685  -4.1685
     1.3779   1.3779   7.6767   7.6768   8.3596   8.3597   8.7218   8.7220

          k = 0.2500 0.5292 0.0000 (  5282 PWs)   bands (ev):

   -15.2522 -15.2522 -13.3917 -13.3917 -11.1003 -11.1003  -2.7864  -2.7863
    -0.1386  -0.1386   9.4123   9.4124   9.8096   9.8097  10.7128  10.7128

          k = 0.2500 0.6255 0.0000 (  5282 PWs)   bands (ev):

   -15.2522 -15.2522 -13.3917 -13.3917 -11.1003 -11.1003  -2.7864  -2.7863
    -0.1386  -0.1386   9.4123   9.4124   9.8097   9.8098  10.7161  10.7162

          k = 0.2500-0.4330 0.0000 (  5268 PWs)   bands (ev):

   -16.6714 -16.6714 -11.9734 -11.9734 -10.3935 -10.3935  -4.1685  -4.1685
     1.3779   1.3779   7.6767   7.6768   8.3596   8.3597   8.7218   8.7220

          k = 0.2500-0.3368 0.0000 (  5285 PWs)   bands (ev):

   -17.8978 -17.8978 -10.9375 -10.9374  -8.9142  -8.9141  -5.5077  -5.5077
     2.9888   2.9888   5.9165   5.9166   6.7046   6.7047   6.9502   6.9504

          k = 0.2500-0.2406 0.0000 (  5275 PWs)   bands (ev):

   -18.8442 -18.8442  -9.9532  -9.9532  -7.3851  -7.3851  -6.5793  -6.5793
     4.4735   4.4736   4.5828   4.5828   5.3941   5.3943   5.6116   5.6118

          k = 0.2500-0.1443 0.0000 (  5269 PWs)   bands (ev):

   -19.4848 -19.4848  -8.8739  -8.8739  -7.3174  -7.3174  -6.4973  -6.4973
     3.6866   3.6866   4.4702   4.4703   4.7050   4.7051   5.7948   5.7948

          k = 0.2500-0.0481 0.0000 (  5261 PWs)   bands (ev):

   -19.8077 -19.8077  -7.8829  -7.8829  -7.6925  -7.6925  -6.5009  -6.5009
     3.2401   3.2401   4.0277   4.0277   4.2592   4.2593   6.1858   6.1858

          k = 0.2500 0.0481 0.0000 (  5261 PWs)   bands (ev):

   -19.8077 -19.8077  -7.8829  -7.8829  -7.6925  -7.6925  -6.5009  -6.5009
     3.2401   3.2401   4.0277   4.0277   4.2592   4.2593   6.1858   6.1859

          k = 0.3333 0.1925 0.0000 (  5285 PWs)   bands (ev):

   -18.3677 -18.3677 -11.0744 -11.0744  -7.2286  -7.2286  -6.0523  -6.0523
     3.4672   3.4672   5.2432   5.2432   6.0641   6.0645   6.1990   6.1997

          k = 0.3333 0.2887 0.0000 (  5284 PWs)   bands (ev):

   -17.5857 -17.5857 -12.0731 -12.0731  -8.0184  -8.0184  -5.2032  -5.2032
     2.2820   2.2820   6.3448   6.3449   6.8365   6.8365   7.1767   7.1768

          k = 0.3333 0.3849 0.0000 (  5283 PWs)   bands (ev):

   -16.5242 -16.5242 -12.8450 -12.8450  -9.4894  -9.4894  -4.0847  -4.0847
     1.0813   1.0813   7.8906   7.8907   8.5568   8.5568   8.6345   8.6346

          k = 0.3333 0.4811 0.0000 (  5282 PWs)   bands (ev):

   -15.2522 -15.2522 -13.3917 -13.3917 -11.1003 -11.1003  -2.7863  -2.7863
    -0.1386  -0.1386   9.4123   9.4124   9.8096   9.8097  10.7129  10.7129

          k = 0.3333 0.5774 0.0000 (  5292 PWs)   bands (ev):

   -14.0385 -14.0385 -14.0364 -14.0363 -11.9907 -11.9907  -1.4337  -1.4337
    -1.4336  -1.4336   9.1671   9.1671  11.4131  11.4133  11.4171  11.4171

          k = 0.3333 0.6736 0.0000 (  5282 PWs)   bands (ev):

   -15.2522 -15.2522 -13.3917 -13.3917 -11.1003 -11.1003  -2.7864  -2.7863
    -0.1386  -0.1386   9.4123   9.4124   9.8096   9.8097  10.7127  10.7128

          k = 0.3333-0.3849 0.0000 (  5283 PWs)   bands (ev):

   -16.5242 -16.5242 -12.8450 -12.8449  -9.4894  -9.4894  -4.0847  -4.0847
     1.0813   1.0813   7.8907   7.8909   8.5568   8.5570   8.6346   8.6361

          k = 0.3333-0.2887 0.0000 (  5284 PWs)   bands (ev):

   -17.5857 -17.5857 -12.0731 -12.0731  -8.0184  -8.0184  -5.2032  -5.2032
     2.2820   2.2820   6.3448   6.3449   6.8365   6.8365   7.1767   7.1768

          k = 0.3333-0.1925 0.0000 (  5285 PWs)   bands (ev):

   -18.3677 -18.3677 -11.0744 -11.0744  -7.2286  -7.2286  -6.0523  -6.0523
     3.4672   3.4672   5.2431   5.2432   6.0632   6.0635   6.1963   6.1971

          k = 0.3333-0.0962 0.0000 (  5275 PWs)   bands (ev):

   -18.8442 -18.8442  -9.9532  -9.9532  -7.3851  -7.3851  -6.5793  -6.5793
     4.4735   4.4736   4.5828   4.5828   5.3941   5.3943   5.6116   5.6118

          k = 0.3333 0.0000 0.0000 (  5288 PWs)   bands (ev):

   -19.0042 -19.0042  -9.2124  -9.2124  -7.8596  -7.8596  -6.7576  -6.7576
     4.3586   4.3587   4.9321   4.9321   5.1492   5.1493   5.3832   5.3833

          k = 0.3333 0.0962 0.0000 (  5275 PWs)   bands (ev):

   -18.8442 -18.8442  -9.9532  -9.9532  -7.3851  -7.3851  -6.5793  -6.5793
     4.4735   4.4736   4.5828   4.5828   5.3941   5.3943   5.6116   5.6118

          k = 0.4167 0.2406 0.0000 (  5290 PWs)   bands (ev):

   -16.9741 -16.9741 -13.1714 -13.1714  -7.7002  -7.7002  -4.6334  -4.6334
     1.3375   1.3375   5.9975   5.9975   7.2589   7.2590   8.0792   8.0793

          k = 0.4167 0.3368 0.0000 (  5302 PWs)   bands (ev):

   -16.1096 -16.1096 -14.0107 -14.0107  -8.3460  -8.3460  -3.8975  -3.8975
     0.5179   0.5179   6.6562   6.6562   8.5676   8.5677   9.3704   9.3705

          k = 0.4167 0.4330 0.0000 (  5264 PWs)   bands (ev):

   -15.2950 -15.2950 -14.2743 -14.2743  -9.6741  -9.6741  -3.1944  -3.1944
     0.0160   0.0160   8.4630   8.4630  10.1202  10.1203  10.1656  10.1657

          k = 0.4167 0.5292 0.0000 (  5282 PWs)   bands (ev):

   -15.2522 -15.2522 -13.3917 -13.3917 -11.1003 -11.1003  -2.7863  -2.7863
    -0.1386  -0.1386   9.4123   9.4124   9.8097   9.8098  10.7161  10.7162

          k = 0.4167 0.6255 0.0000 (  5282 PWs)   bands (ev):

   -15.2522 -15.2522 -13.3917 -13.3917 -11.1003 -11.1003  -2.7864  -2.7863
    -0.1386  -0.1386   9.4123   9.4124   9.8096   9.8097  10.7128  10.7129

          k = 0.4167 0.7217 0.0000 (  5264 PWs)   bands (ev):

   -15.2950 -15.2950 -14.2743 -14.2743  -9.6741  -9.6741  -3.1944  -3.1944
     0.0160   0.0160   8.4630   8.4630  10.1202  10.1202  10.1656  10.1657

          k = 0.4167-0.3368 0.0000 (  5302 PWs)   bands (ev):

   -16.1096 -16.1096 -14.0107 -14.0107  -8.3460  -8.3460  -3.8975  -3.8975
     0.5179   0.5179   6.6562   6.6562   8.5677   8.5678   9.3727   9.3729

          k = 0.4167-0.2406 0.0000 (  5290 PWs)   bands (ev):

   -16.9741 -16.9741 -13.1714 -13.1714  -7.7002  -7.7002  -4.6334  -4.6334
     1.3375   1.3375   5.9975   5.9975   7.2589   7.2590   8.0793   8.0795

          k = 0.4167-0.1443 0.0000 (  5284 PWs)   bands (ev):

   -17.5857 -17.5857 -12.0731 -12.0731  -8.0184  -8.0184  -5.2032  -5.2032
     2.2820   2.2820   6.3448   6.3449   6.8365   6.8365   7.1767   7.1768

          k = 0.4167-0.0481 0.0000 (  5285 PWs)   bands (ev):

   -17.8978 -17.8978 -10.9375 -10.9375  -8.9141  -8.9141  -5.5077  -5.5077
     2.9888   2.9888   5.9165   5.9166   6.7046   6.7047   6.9503   6.9504

          k = 0.4167 0.0481 0.0000 (  5285 PWs)   bands (ev):

   -17.8978 -17.8978 -10.9375 -10.9375  -8.9141  -8.9141  -5.5077  -5.5077
     2.9888   2.9888   5.9165   5.9166   6.7046   6.7047   6.9502   6.9504

          k = 0.4167 0.1443 0.0000 (  5284 PWs)   bands (ev):

   -17.5857 -17.5857 -12.0731 -12.0731  -8.0184  -8.0184  -5.2032  -5.2032
     2.2820   2.2820   6.3448   6.3449   6.8365   6.8365   7.1767   7.1768

          k =-0.5000-0.2887 0.0000 (  5288 PWs)   bands (ev):

   -15.7163 -15.7163 -14.6716 -14.6716  -7.8621  -7.8621  -3.7912  -3.7912
     0.2427   0.2427   5.9182   5.9182   9.5902   9.5903   9.7213   9.7213

          k =-0.5000-0.1925 0.0000 (  5302 PWs)   bands (ev):

   -16.1096 -16.1096 -14.0107 -14.0107  -8.3460  -8.3460  -3.8975  -3.8975
     0.5179   0.5179   6.6562   6.6562   8.5676   8.5677   9.3707   9.3708

          k =-0.5000-0.0962 0.0000 (  5283 PWs)   bands (ev):

   -16.5242 -16.5242 -12.8450 -12.8450  -9.4894  -9.4894  -4.0847  -4.0847
     1.0813   1.0813   7.8907   7.8909   8.5568   8.5570   8.6345   8.6363

          k =-0.5000 0.0000 0.0000 (  5268 PWs)   bands (ev):

   -16.6714 -16.6714 -11.9734 -11.9734 -10.3935 -10.3935  -4.1685  -4.1685
     1.3779   1.3779   7.6767   7.6768   8.3596   8.3597   8.7218   8.7220

          k =-0.5000 0.0962 0.0000 (  5283 PWs)   bands (ev):

   -16.5242 -16.5242 -12.8450 -12.8450  -9.4894  -9.4894  -4.0847  -4.0847
     1.0813   1.0813   7.8906   7.8907   8.5568   8.5568   8.6345   8.6346

          k =-0.5000 0.1925 0.0000 (  5302 PWs)   bands (ev):

   -16.1096 -16.1096 -14.0107 -14.0107  -8.3460  -8.3460  -3.8975  -3.8975
     0.5179   0.5179   6.6562   6.6562   8.5676   8.5677   9.3706   9.3708

          k =-0.5000-0.8660 0.0000 (  5288 PWs)   bands (ev):

   -15.7163 -15.7163 -14.6716 -14.6716  -7.8621  -7.8621  -3.7912  -3.7912
     0.2427   0.2427   5.9181   5.9181   9.5902   9.5903   9.7213   9.7214

     the Fermi energy is  -1.433689 ev

!    total energy              =     -36.88893344 Ry
     total all-electron energy =      -152.417223 Ry
     estimated scf accuracy    <          8.1E-09 Ry
     smearing contrib. (-TS)   =      -0.00003134 Ry
     internal energy E=F+TS    =     -36.88890210 Ry

     The total energy is F=E-TS. E is the sum of the following terms:
     one-electron contribution =    -156.62329649 Ry
     hartree contribution      =      79.91848784 Ry
     xc contribution           =      -8.28626637 Ry
     ewald contribution        =      61.40972547 Ry
     electric field correction =      -0.00004140 Ry
     one-center paw contrib.   =     -13.30751115 Ry

     convergence has been achieved in  23 iterations

     negative rho (up, down):  6.995E-06 0.000E+00

     Forces acting on atoms (cartesian axes, Ry/au):

     atom    1 type  1   force =     0.00000073    0.00000107   -0.00000102
     atom    2 type  1   force =    -0.00000073   -0.00000107    0.00000102

     Total force =     0.000002     Total SCF correction =     0.000312
     SCF correction compared to forces is large: reduce conv_thr to get better values

     Writing all to output data dir ./tmp/graphene.save/ :
     XML data file, charge density, pseudopotentials, collected wavefunctions

     init_run     :      2.55s CPU      2.68s WALL (       1 calls)
     electrons    :    186.04s CPU    193.09s WALL (       1 calls)
     forces       :      0.70s CPU      0.73s WALL (       1 calls)

     Called by init_run:
     wfcinit      :      1.92s CPU      2.02s WALL (       1 calls)
     potinit      :      0.20s CPU      0.20s WALL (       1 calls)
     hinit0       :      0.36s CPU      0.36s WALL (       1 calls)

     Called by electrons:
     c_bands      :    163.42s CPU    168.60s WALL (      23 calls)
     sum_band     :     19.51s CPU     20.88s WALL (      23 calls)
     v_of_rho     :      0.84s CPU      0.87s WALL (      24 calls)
     newd         :      1.10s CPU      1.57s WALL (      24 calls)
     PAW_pot      :      0.39s CPU      0.40s WALL (      24 calls)
     mix_rho      :      0.58s CPU      0.59s WALL (      23 calls)

     Called by c_bands:
     init_us_2    :      0.99s CPU      1.01s WALL (    3552 calls)
     cegterg      :    160.32s CPU    165.46s WALL (    1702 calls)

     Called by *egterg:
     cdiaghg      :      7.05s CPU      7.07s WALL (    7711 calls)
     h_psi        :    108.30s CPU    113.21s WALL (    7785 calls)
     s_psi        :      6.76s CPU      6.86s WALL (    7785 calls)
     g_psi        :      0.32s CPU      0.32s WALL (    6009 calls)

     Called by h_psi:
     h_psi:calbec :      7.75s CPU      8.05s WALL (    7785 calls)
     vloc_psi     :     92.83s CPU     97.39s WALL (    7785 calls)
     add_vuspsi   :      6.85s CPU      6.89s WALL (    7785 calls)

     General routines
     calbec       :     10.65s CPU     11.01s WALL (    9783 calls)
     fft          :      0.83s CPU      0.87s WALL (     597 calls)
     ffts         :      0.16s CPU      0.16s WALL (     188 calls)
     fftw         :     41.03s CPU     43.16s WALL (  384716 calls)
     interpolate  :      0.27s CPU      0.28s WALL (      96 calls)

     Parallel routines

     PWSCF        :   3m 9.50s CPU   3m16.83s WALL


   This run was terminated on:  14:12:17  14Nov2025            

=------------------------------------------------------------------------------=
   JOB DONE.
=------------------------------------------------------------------------------=
