
     Program PWSCF v.7.4.1 starts on  6Nov2025 at 18:19:38 

     This program is part of the open-source Quantum ESPRESSO suite
     for quantum simulation of materials; please cite
         "P. Giannozzi et al., J. Phys.:Condens. Matter 21 395502 (2009);
         "P. Giannozzi et al., J. Phys.:Condens. Matter 29 465901 (2017);
         "P. Giannozzi et al., J. Chem. Phys. 152 154105 (2020);
          URL http://www.quantum-espresso.org", 
     in publications or presentations arising from this work. More details at
     http://www.quantum-espresso.org/quote

     Serial version
     681 MiB available memory on the printing compute node when the environment starts

     Reading input from grap_SOC_bands.in

     Current dimensions of program PWSCF are:
     Max number of different atomic species (ntypx) = 10
     Max number of k-points (npk) =  40000
     Max angular momentum in pseudopotentials (lmaxx) =  4
     Message from routine input:
     WARNING: "startingwfc" set to random may spoil restart
     file C.rel-pbe-n-kjpaw_psl.0.1.UPF: wavefunction(s)  2P 2P renormalized


     G-vector sticks info
     --------------------
     sticks:   dense  smooth     PW     G-vecs:    dense   smooth      PW
     Sum        1045     421    121               166859    42343    7091

     Using Slab Decomposition



     bravais-lattice index     =            0
     lattice parameter (alat)  =       4.6624  a.u.
     unit-cell volume          =     533.6317 (a.u.)^3
     number of atoms/cell      =            2
     number of atomic types    =            1
     number of electrons       =         8.00
     number of Kohn-Sham states=           16
     kinetic-energy cutoff     =      70.0000  Ry
     charge density cutoff     =     700.0000  Ry
     Exchange-correlation= SLA  PW   PBX  PBC
                           (   1   4   3   4   0   0   0)
     Non magnetic calculation with spin-orbit


     celldm(1)=   4.662410  celldm(2)=   0.000000  celldm(3)=   0.000000
     celldm(4)=   0.000000  celldm(5)=   0.000000  celldm(6)=   0.000000

     crystal axes: (cart. coord. in units of alat)
               a(1) = (   1.000000   0.000000  -0.000000 )  
               a(2) = (  -0.500000   0.866025   0.000000 )  
               a(3) = (  -0.000000   0.000000   6.079666 )  

     reciprocal axes: (cart. coord. in units 2 pi/alat)
               b(1) = (  1.000000  0.577350  0.000000 )  
               b(2) = ( -0.000000  1.154701 -0.000000 )  
               b(3) = (  0.000000  0.000000  0.164483 )  


     PseudoPot. # 1 for C  read from file:
     ../../../../pseudos/C.rel-pbe-n-kjpaw_psl.0.1.UPF
     MD5 check sum: 5ef0b8f55ac4be3c3db5d31256eeff6b
     Pseudo is Projector augmented-wave + core cor, Zval =  4.0
     Generated using &quot;atomic&quot; code by A. Dal Corso  v.6.3
     Shape of augmentation charge: BESSEL
     Using radial grid of 1073 points,  6 beta functions with: 
                l(1) =   0
                l(2) =   0
                l(3) =   1
                l(4) =   1
                l(5) =   1
                l(6) =   1
     Q(r) pseudized with 0 coefficients 


     atomic species   valence    mass     pseudopotential
     C                 4.00    12.01100     C ( 1.00)

     No symmetry found


                                    s                        frac. trans.

      isym =  1     identity                                     

 cryst.   s( 1) = (     1          0          0      )
                  (     0          1          0      )
                  (     0          0          1      )

 cart.    s( 1) = (  1.0000000  0.0000000  0.0000000 )
                  (  0.0000000  1.0000000  0.0000000 )
                  (  0.0000000  0.0000000  1.0000000 )


   Cartesian axes

     site n.     atom                  positions (alat units)
         1        C      tau(   1) = (   0.0000000   0.0000000   0.0000000  )
         2        C      tau(   2) = (   0.0000000   0.5773503   0.0000000  )

   Crystallographic axes

     site n.     atom                  positions (cryst. coord.)
         1        C      tau(   1) = (  0.0000000  0.0000000  0.0000000  )
         2        C      tau(   2) = (  0.3333334  0.6666667  0.0000000  )

     number of k points=  1501  Gaussian smearing, width (Ry)=  0.0020
                       cart. coord. in units 2pi/alat
        k(    1) = (   0.0000000   0.0000000   0.0000000), wk =   0.0006662
        k(    2) = (   0.0006667   0.0011547   0.0000000), wk =   0.0006662
        k(    3) = (   0.0013333   0.0023094   0.0000000), wk =   0.0006662
        k(    4) = (   0.0020000   0.0034641   0.0000000), wk =   0.0006662
        k(    5) = (   0.0026667   0.0046188   0.0000000), wk =   0.0006662
        k(    6) = (   0.0033333   0.0057735   0.0000000), wk =   0.0006662
        k(    7) = (   0.0040000   0.0069282   0.0000000), wk =   0.0006662
        k(    8) = (   0.0046667   0.0080829   0.0000000), wk =   0.0006662
        k(    9) = (   0.0053333   0.0092376   0.0000000), wk =   0.0006662
        k(   10) = (   0.0060000   0.0103923   0.0000000), wk =   0.0006662
        k(   11) = (   0.0066667   0.0115470   0.0000000), wk =   0.0006662
        k(   12) = (   0.0073333   0.0127017   0.0000000), wk =   0.0006662
        k(   13) = (   0.0080000   0.0138564   0.0000000), wk =   0.0006662
        k(   14) = (   0.0086667   0.0150111   0.0000000), wk =   0.0006662
        k(   15) = (   0.0093333   0.0161658   0.0000000), wk =   0.0006662
        k(   16) = (   0.0100000   0.0173205   0.0000000), wk =   0.0006662
        k(   17) = (   0.0106667   0.0184752   0.0000000), wk =   0.0006662
        k(   18) = (   0.0113333   0.0196299   0.0000000), wk =   0.0006662
        k(   19) = (   0.0120000   0.0207846   0.0000000), wk =   0.0006662
        k(   20) = (   0.0126667   0.0219393   0.0000000), wk =   0.0006662
        k(   21) = (   0.0133333   0.0230940   0.0000000), wk =   0.0006662
        k(   22) = (   0.0140000   0.0242487   0.0000000), wk =   0.0006662
        k(   23) = (   0.0146667   0.0254034   0.0000000), wk =   0.0006662
        k(   24) = (   0.0153333   0.0265581   0.0000000), wk =   0.0006662
        k(   25) = (   0.0160000   0.0277128   0.0000000), wk =   0.0006662
        k(   26) = (   0.0166667   0.0288675   0.0000000), wk =   0.0006662
        k(   27) = (   0.0173333   0.0300222   0.0000000), wk =   0.0006662
        k(   28) = (   0.0180000   0.0311769   0.0000000), wk =   0.0006662
        k(   29) = (   0.0186667   0.0323316   0.0000000), wk =   0.0006662
        k(   30) = (   0.0193333   0.0334863   0.0000000), wk =   0.0006662
        k(   31) = (   0.0200000   0.0346410   0.0000000), wk =   0.0006662
        k(   32) = (   0.0206667   0.0357957   0.0000000), wk =   0.0006662
        k(   33) = (   0.0213333   0.0369504   0.0000000), wk =   0.0006662
        k(   34) = (   0.0220000   0.0381051   0.0000000), wk =   0.0006662
        k(   35) = (   0.0226667   0.0392598   0.0000000), wk =   0.0006662
        k(   36) = (   0.0233333   0.0404145   0.0000000), wk =   0.0006662
        k(   37) = (   0.0240000   0.0415692   0.0000000), wk =   0.0006662
        k(   38) = (   0.0246667   0.0427239   0.0000000), wk =   0.0006662
        k(   39) = (   0.0253333   0.0438786   0.0000000), wk =   0.0006662
        k(   40) = (   0.0260000   0.0450333   0.0000000), wk =   0.0006662
        k(   41) = (   0.0266667   0.0461880   0.0000000), wk =   0.0006662
        k(   42) = (   0.0273333   0.0473427   0.0000000), wk =   0.0006662
        k(   43) = (   0.0280000   0.0484974   0.0000000), wk =   0.0006662
        k(   44) = (   0.0286667   0.0496521   0.0000000), wk =   0.0006662
        k(   45) = (   0.0293333   0.0508068   0.0000000), wk =   0.0006662
        k(   46) = (   0.0300000   0.0519615   0.0000000), wk =   0.0006662
        k(   47) = (   0.0306667   0.0531162   0.0000000), wk =   0.0006662
        k(   48) = (   0.0313333   0.0542709   0.0000000), wk =   0.0006662
        k(   49) = (   0.0320000   0.0554256   0.0000000), wk =   0.0006662
        k(   50) = (   0.0326667   0.0565803   0.0000000), wk =   0.0006662
        k(   51) = (   0.0333333   0.0577350   0.0000000), wk =   0.0006662
        k(   52) = (   0.0340000   0.0588897   0.0000000), wk =   0.0006662
        k(   53) = (   0.0346667   0.0600444   0.0000000), wk =   0.0006662
        k(   54) = (   0.0353333   0.0611991   0.0000000), wk =   0.0006662
        k(   55) = (   0.0360000   0.0623538   0.0000000), wk =   0.0006662
        k(   56) = (   0.0366667   0.0635085   0.0000000), wk =   0.0006662
        k(   57) = (   0.0373333   0.0646632   0.0000000), wk =   0.0006662
        k(   58) = (   0.0380000   0.0658179   0.0000000), wk =   0.0006662
        k(   59) = (   0.0386667   0.0669726   0.0000000), wk =   0.0006662
        k(   60) = (   0.0393333   0.0681273   0.0000000), wk =   0.0006662
        k(   61) = (   0.0400000   0.0692820   0.0000000), wk =   0.0006662
        k(   62) = (   0.0406667   0.0704367   0.0000000), wk =   0.0006662
        k(   63) = (   0.0413333   0.0715914   0.0000000), wk =   0.0006662
        k(   64) = (   0.0420000   0.0727461   0.0000000), wk =   0.0006662
        k(   65) = (   0.0426667   0.0739008   0.0000000), wk =   0.0006662
        k(   66) = (   0.0433333   0.0750555   0.0000000), wk =   0.0006662
        k(   67) = (   0.0440000   0.0762102   0.0000000), wk =   0.0006662
        k(   68) = (   0.0446667   0.0773649   0.0000000), wk =   0.0006662
        k(   69) = (   0.0453333   0.0785196   0.0000000), wk =   0.0006662
        k(   70) = (   0.0460000   0.0796743   0.0000000), wk =   0.0006662
        k(   71) = (   0.0466667   0.0808290   0.0000000), wk =   0.0006662
        k(   72) = (   0.0473333   0.0819837   0.0000000), wk =   0.0006662
        k(   73) = (   0.0480000   0.0831384   0.0000000), wk =   0.0006662
        k(   74) = (   0.0486667   0.0842931   0.0000000), wk =   0.0006662
        k(   75) = (   0.0493333   0.0854478   0.0000000), wk =   0.0006662
        k(   76) = (   0.0500000   0.0866025   0.0000000), wk =   0.0006662
        k(   77) = (   0.0506667   0.0877572   0.0000000), wk =   0.0006662
        k(   78) = (   0.0513333   0.0889119   0.0000000), wk =   0.0006662
        k(   79) = (   0.0520000   0.0900666   0.0000000), wk =   0.0006662
        k(   80) = (   0.0526667   0.0912213   0.0000000), wk =   0.0006662
        k(   81) = (   0.0533333   0.0923760   0.0000000), wk =   0.0006662
        k(   82) = (   0.0540000   0.0935307   0.0000000), wk =   0.0006662
        k(   83) = (   0.0546667   0.0946854   0.0000000), wk =   0.0006662
        k(   84) = (   0.0553333   0.0958401   0.0000000), wk =   0.0006662
        k(   85) = (   0.0560000   0.0969948   0.0000000), wk =   0.0006662
        k(   86) = (   0.0566667   0.0981495   0.0000000), wk =   0.0006662
        k(   87) = (   0.0573333   0.0993042   0.0000000), wk =   0.0006662
        k(   88) = (   0.0580000   0.1004589   0.0000000), wk =   0.0006662
        k(   89) = (   0.0586667   0.1016136   0.0000000), wk =   0.0006662
        k(   90) = (   0.0593333   0.1027683   0.0000000), wk =   0.0006662
        k(   91) = (   0.0600000   0.1039230   0.0000000), wk =   0.0006662
        k(   92) = (   0.0606667   0.1050777   0.0000000), wk =   0.0006662
        k(   93) = (   0.0613333   0.1062324   0.0000000), wk =   0.0006662
        k(   94) = (   0.0620000   0.1073872   0.0000000), wk =   0.0006662
        k(   95) = (   0.0626667   0.1085419   0.0000000), wk =   0.0006662
        k(   96) = (   0.0633333   0.1096966   0.0000000), wk =   0.0006662
        k(   97) = (   0.0640000   0.1108513   0.0000000), wk =   0.0006662
        k(   98) = (   0.0646667   0.1120060   0.0000000), wk =   0.0006662
        k(   99) = (   0.0653333   0.1131607   0.0000000), wk =   0.0006662
        k(  100) = (   0.0660000   0.1143154   0.0000000), wk =   0.0006662
        k(  101) = (   0.0666667   0.1154701   0.0000000), wk =   0.0006662
        k(  102) = (   0.0673333   0.1166248   0.0000000), wk =   0.0006662
        k(  103) = (   0.0680000   0.1177795   0.0000000), wk =   0.0006662
        k(  104) = (   0.0686667   0.1189342   0.0000000), wk =   0.0006662
        k(  105) = (   0.0693333   0.1200889   0.0000000), wk =   0.0006662
        k(  106) = (   0.0700000   0.1212436   0.0000000), wk =   0.0006662
        k(  107) = (   0.0706667   0.1223983   0.0000000), wk =   0.0006662
        k(  108) = (   0.0713333   0.1235530   0.0000000), wk =   0.0006662
        k(  109) = (   0.0720000   0.1247077   0.0000000), wk =   0.0006662
        k(  110) = (   0.0726667   0.1258624   0.0000000), wk =   0.0006662
        k(  111) = (   0.0733333   0.1270171   0.0000000), wk =   0.0006662
        k(  112) = (   0.0740000   0.1281718   0.0000000), wk =   0.0006662
        k(  113) = (   0.0746667   0.1293265   0.0000000), wk =   0.0006662
        k(  114) = (   0.0753333   0.1304812   0.0000000), wk =   0.0006662
        k(  115) = (   0.0760000   0.1316359   0.0000000), wk =   0.0006662
        k(  116) = (   0.0766667   0.1327906   0.0000000), wk =   0.0006662
        k(  117) = (   0.0773333   0.1339453   0.0000000), wk =   0.0006662
        k(  118) = (   0.0780000   0.1351000   0.0000000), wk =   0.0006662
        k(  119) = (   0.0786667   0.1362547   0.0000000), wk =   0.0006662
        k(  120) = (   0.0793333   0.1374094   0.0000000), wk =   0.0006662
        k(  121) = (   0.0800000   0.1385641   0.0000000), wk =   0.0006662
        k(  122) = (   0.0806667   0.1397188   0.0000000), wk =   0.0006662
        k(  123) = (   0.0813333   0.1408735   0.0000000), wk =   0.0006662
        k(  124) = (   0.0820000   0.1420282   0.0000000), wk =   0.0006662
        k(  125) = (   0.0826667   0.1431829   0.0000000), wk =   0.0006662
        k(  126) = (   0.0833333   0.1443376   0.0000000), wk =   0.0006662
        k(  127) = (   0.0840000   0.1454923   0.0000000), wk =   0.0006662
        k(  128) = (   0.0846667   0.1466470   0.0000000), wk =   0.0006662
        k(  129) = (   0.0853333   0.1478017   0.0000000), wk =   0.0006662
        k(  130) = (   0.0860000   0.1489564   0.0000000), wk =   0.0006662
        k(  131) = (   0.0866667   0.1501111   0.0000000), wk =   0.0006662
        k(  132) = (   0.0873333   0.1512658   0.0000000), wk =   0.0006662
        k(  133) = (   0.0880000   0.1524205   0.0000000), wk =   0.0006662
        k(  134) = (   0.0886667   0.1535752   0.0000000), wk =   0.0006662
        k(  135) = (   0.0893333   0.1547299   0.0000000), wk =   0.0006662
        k(  136) = (   0.0900000   0.1558846   0.0000000), wk =   0.0006662
        k(  137) = (   0.0906667   0.1570393   0.0000000), wk =   0.0006662
        k(  138) = (   0.0913333   0.1581940   0.0000000), wk =   0.0006662
        k(  139) = (   0.0920000   0.1593487   0.0000000), wk =   0.0006662
        k(  140) = (   0.0926667   0.1605034   0.0000000), wk =   0.0006662
        k(  141) = (   0.0933333   0.1616581   0.0000000), wk =   0.0006662
        k(  142) = (   0.0940000   0.1628128   0.0000000), wk =   0.0006662
        k(  143) = (   0.0946667   0.1639675   0.0000000), wk =   0.0006662
        k(  144) = (   0.0953333   0.1651222   0.0000000), wk =   0.0006662
        k(  145) = (   0.0960000   0.1662769   0.0000000), wk =   0.0006662
        k(  146) = (   0.0966667   0.1674316   0.0000000), wk =   0.0006662
        k(  147) = (   0.0973333   0.1685863   0.0000000), wk =   0.0006662
        k(  148) = (   0.0980000   0.1697410   0.0000000), wk =   0.0006662
        k(  149) = (   0.0986667   0.1708957   0.0000000), wk =   0.0006662
        k(  150) = (   0.0993333   0.1720504   0.0000000), wk =   0.0006662
        k(  151) = (   0.1000000   0.1732051   0.0000000), wk =   0.0006662
        k(  152) = (   0.1006667   0.1743598   0.0000000), wk =   0.0006662
        k(  153) = (   0.1013333   0.1755145   0.0000000), wk =   0.0006662
        k(  154) = (   0.1020000   0.1766692   0.0000000), wk =   0.0006662
        k(  155) = (   0.1026667   0.1778239   0.0000000), wk =   0.0006662
        k(  156) = (   0.1033333   0.1789786   0.0000000), wk =   0.0006662
        k(  157) = (   0.1040000   0.1801333   0.0000000), wk =   0.0006662
        k(  158) = (   0.1046667   0.1812880   0.0000000), wk =   0.0006662
        k(  159) = (   0.1053333   0.1824427   0.0000000), wk =   0.0006662
        k(  160) = (   0.1060000   0.1835974   0.0000000), wk =   0.0006662
        k(  161) = (   0.1066667   0.1847521   0.0000000), wk =   0.0006662
        k(  162) = (   0.1073333   0.1859068   0.0000000), wk =   0.0006662
        k(  163) = (   0.1080000   0.1870615   0.0000000), wk =   0.0006662
        k(  164) = (   0.1086667   0.1882162   0.0000000), wk =   0.0006662
        k(  165) = (   0.1093333   0.1893709   0.0000000), wk =   0.0006662
        k(  166) = (   0.1100000   0.1905256   0.0000000), wk =   0.0006662
        k(  167) = (   0.1106667   0.1916803   0.0000000), wk =   0.0006662
        k(  168) = (   0.1113333   0.1928350   0.0000000), wk =   0.0006662
        k(  169) = (   0.1120000   0.1939897   0.0000000), wk =   0.0006662
        k(  170) = (   0.1126667   0.1951444   0.0000000), wk =   0.0006662
        k(  171) = (   0.1133333   0.1962991   0.0000000), wk =   0.0006662
        k(  172) = (   0.1140000   0.1974538   0.0000000), wk =   0.0006662
        k(  173) = (   0.1146667   0.1986085   0.0000000), wk =   0.0006662
        k(  174) = (   0.1153333   0.1997632   0.0000000), wk =   0.0006662
        k(  175) = (   0.1160000   0.2009179   0.0000000), wk =   0.0006662
        k(  176) = (   0.1166667   0.2020726   0.0000000), wk =   0.0006662
        k(  177) = (   0.1173333   0.2032273   0.0000000), wk =   0.0006662
        k(  178) = (   0.1180000   0.2043820   0.0000000), wk =   0.0006662
        k(  179) = (   0.1186667   0.2055367   0.0000000), wk =   0.0006662
        k(  180) = (   0.1193333   0.2066914   0.0000000), wk =   0.0006662
        k(  181) = (   0.1200000   0.2078461   0.0000000), wk =   0.0006662
        k(  182) = (   0.1206667   0.2090008   0.0000000), wk =   0.0006662
        k(  183) = (   0.1213333   0.2101555   0.0000000), wk =   0.0006662
        k(  184) = (   0.1220000   0.2113102   0.0000000), wk =   0.0006662
        k(  185) = (   0.1226667   0.2124649   0.0000000), wk =   0.0006662
        k(  186) = (   0.1233333   0.2136196   0.0000000), wk =   0.0006662
        k(  187) = (   0.1240000   0.2147743   0.0000000), wk =   0.0006662
        k(  188) = (   0.1246667   0.2159290   0.0000000), wk =   0.0006662
        k(  189) = (   0.1253333   0.2170837   0.0000000), wk =   0.0006662
        k(  190) = (   0.1260000   0.2182384   0.0000000), wk =   0.0006662
        k(  191) = (   0.1266667   0.2193931   0.0000000), wk =   0.0006662
        k(  192) = (   0.1273333   0.2205478   0.0000000), wk =   0.0006662
        k(  193) = (   0.1280000   0.2217025   0.0000000), wk =   0.0006662
        k(  194) = (   0.1286667   0.2228572   0.0000000), wk =   0.0006662
        k(  195) = (   0.1293333   0.2240119   0.0000000), wk =   0.0006662
        k(  196) = (   0.1300000   0.2251666   0.0000000), wk =   0.0006662
        k(  197) = (   0.1306667   0.2263213   0.0000000), wk =   0.0006662
        k(  198) = (   0.1313333   0.2274760   0.0000000), wk =   0.0006662
        k(  199) = (   0.1320000   0.2286307   0.0000000), wk =   0.0006662
        k(  200) = (   0.1326667   0.2297854   0.0000000), wk =   0.0006662
        k(  201) = (   0.1333333   0.2309401   0.0000000), wk =   0.0006662
        k(  202) = (   0.1340000   0.2320948   0.0000000), wk =   0.0006662
        k(  203) = (   0.1346667   0.2332495   0.0000000), wk =   0.0006662
        k(  204) = (   0.1353333   0.2344042   0.0000000), wk =   0.0006662
        k(  205) = (   0.1360000   0.2355589   0.0000000), wk =   0.0006662
        k(  206) = (   0.1366667   0.2367136   0.0000000), wk =   0.0006662
        k(  207) = (   0.1373333   0.2378683   0.0000000), wk =   0.0006662
        k(  208) = (   0.1380000   0.2390230   0.0000000), wk =   0.0006662
        k(  209) = (   0.1386667   0.2401777   0.0000000), wk =   0.0006662
        k(  210) = (   0.1393333   0.2413324   0.0000000), wk =   0.0006662
        k(  211) = (   0.1400000   0.2424871   0.0000000), wk =   0.0006662
        k(  212) = (   0.1406667   0.2436418   0.0000000), wk =   0.0006662
        k(  213) = (   0.1413333   0.2447965   0.0000000), wk =   0.0006662
        k(  214) = (   0.1420000   0.2459512   0.0000000), wk =   0.0006662
        k(  215) = (   0.1426667   0.2471059   0.0000000), wk =   0.0006662
        k(  216) = (   0.1433333   0.2482606   0.0000000), wk =   0.0006662
        k(  217) = (   0.1440000   0.2494153   0.0000000), wk =   0.0006662
        k(  218) = (   0.1446667   0.2505700   0.0000000), wk =   0.0006662
        k(  219) = (   0.1453333   0.2517247   0.0000000), wk =   0.0006662
        k(  220) = (   0.1460000   0.2528794   0.0000000), wk =   0.0006662
        k(  221) = (   0.1466667   0.2540341   0.0000000), wk =   0.0006662
        k(  222) = (   0.1473333   0.2551888   0.0000000), wk =   0.0006662
        k(  223) = (   0.1480000   0.2563435   0.0000000), wk =   0.0006662
        k(  224) = (   0.1486667   0.2574982   0.0000000), wk =   0.0006662
        k(  225) = (   0.1493333   0.2586529   0.0000000), wk =   0.0006662
        k(  226) = (   0.1500000   0.2598076   0.0000000), wk =   0.0006662
        k(  227) = (   0.1506667   0.2609623   0.0000000), wk =   0.0006662
        k(  228) = (   0.1513333   0.2621170   0.0000000), wk =   0.0006662
        k(  229) = (   0.1520000   0.2632717   0.0000000), wk =   0.0006662
        k(  230) = (   0.1526667   0.2644264   0.0000000), wk =   0.0006662
        k(  231) = (   0.1533333   0.2655811   0.0000000), wk =   0.0006662
        k(  232) = (   0.1540000   0.2667358   0.0000000), wk =   0.0006662
        k(  233) = (   0.1546667   0.2678905   0.0000000), wk =   0.0006662
        k(  234) = (   0.1553333   0.2690452   0.0000000), wk =   0.0006662
        k(  235) = (   0.1560000   0.2701999   0.0000000), wk =   0.0006662
        k(  236) = (   0.1566667   0.2713546   0.0000000), wk =   0.0006662
        k(  237) = (   0.1573333   0.2725093   0.0000000), wk =   0.0006662
        k(  238) = (   0.1580000   0.2736640   0.0000000), wk =   0.0006662
        k(  239) = (   0.1586667   0.2748187   0.0000000), wk =   0.0006662
        k(  240) = (   0.1593333   0.2759734   0.0000000), wk =   0.0006662
        k(  241) = (   0.1600000   0.2771281   0.0000000), wk =   0.0006662
        k(  242) = (   0.1606667   0.2782828   0.0000000), wk =   0.0006662
        k(  243) = (   0.1613333   0.2794375   0.0000000), wk =   0.0006662
        k(  244) = (   0.1620000   0.2805922   0.0000000), wk =   0.0006662
        k(  245) = (   0.1626667   0.2817469   0.0000000), wk =   0.0006662
        k(  246) = (   0.1633333   0.2829016   0.0000000), wk =   0.0006662
        k(  247) = (   0.1640000   0.2840563   0.0000000), wk =   0.0006662
        k(  248) = (   0.1646667   0.2852110   0.0000000), wk =   0.0006662
        k(  249) = (   0.1653333   0.2863657   0.0000000), wk =   0.0006662
        k(  250) = (   0.1660000   0.2875204   0.0000000), wk =   0.0006662
        k(  251) = (   0.1666667   0.2886751   0.0000000), wk =   0.0006662
        k(  252) = (   0.1673333   0.2898298   0.0000000), wk =   0.0006662
        k(  253) = (   0.1680000   0.2909845   0.0000000), wk =   0.0006662
        k(  254) = (   0.1686667   0.2921392   0.0000000), wk =   0.0006662
        k(  255) = (   0.1693333   0.2932939   0.0000000), wk =   0.0006662
        k(  256) = (   0.1700000   0.2944486   0.0000000), wk =   0.0006662
        k(  257) = (   0.1706667   0.2956033   0.0000000), wk =   0.0006662
        k(  258) = (   0.1713333   0.2967580   0.0000000), wk =   0.0006662
        k(  259) = (   0.1720000   0.2979127   0.0000000), wk =   0.0006662
        k(  260) = (   0.1726667   0.2990674   0.0000000), wk =   0.0006662
        k(  261) = (   0.1733333   0.3002221   0.0000000), wk =   0.0006662
        k(  262) = (   0.1740000   0.3013768   0.0000000), wk =   0.0006662
        k(  263) = (   0.1746667   0.3025315   0.0000000), wk =   0.0006662
        k(  264) = (   0.1753333   0.3036862   0.0000000), wk =   0.0006662
        k(  265) = (   0.1760000   0.3048409   0.0000000), wk =   0.0006662
        k(  266) = (   0.1766667   0.3059956   0.0000000), wk =   0.0006662
        k(  267) = (   0.1773333   0.3071503   0.0000000), wk =   0.0006662
        k(  268) = (   0.1780000   0.3083050   0.0000000), wk =   0.0006662
        k(  269) = (   0.1786667   0.3094597   0.0000000), wk =   0.0006662
        k(  270) = (   0.1793333   0.3106144   0.0000000), wk =   0.0006662
        k(  271) = (   0.1800000   0.3117691   0.0000000), wk =   0.0006662
        k(  272) = (   0.1806667   0.3129238   0.0000000), wk =   0.0006662
        k(  273) = (   0.1813333   0.3140785   0.0000000), wk =   0.0006662
        k(  274) = (   0.1820000   0.3152332   0.0000000), wk =   0.0006662
        k(  275) = (   0.1826667   0.3163879   0.0000000), wk =   0.0006662
        k(  276) = (   0.1833333   0.3175426   0.0000000), wk =   0.0006662
        k(  277) = (   0.1840000   0.3186973   0.0000000), wk =   0.0006662
        k(  278) = (   0.1846667   0.3198520   0.0000000), wk =   0.0006662
        k(  279) = (   0.1853333   0.3210067   0.0000000), wk =   0.0006662
        k(  280) = (   0.1860000   0.3221615   0.0000000), wk =   0.0006662
        k(  281) = (   0.1866667   0.3233162   0.0000000), wk =   0.0006662
        k(  282) = (   0.1873333   0.3244709   0.0000000), wk =   0.0006662
        k(  283) = (   0.1880000   0.3256256   0.0000000), wk =   0.0006662
        k(  284) = (   0.1886667   0.3267803   0.0000000), wk =   0.0006662
        k(  285) = (   0.1893333   0.3279350   0.0000000), wk =   0.0006662
        k(  286) = (   0.1900000   0.3290897   0.0000000), wk =   0.0006662
        k(  287) = (   0.1906667   0.3302444   0.0000000), wk =   0.0006662
        k(  288) = (   0.1913333   0.3313991   0.0000000), wk =   0.0006662
        k(  289) = (   0.1920000   0.3325538   0.0000000), wk =   0.0006662
        k(  290) = (   0.1926667   0.3337085   0.0000000), wk =   0.0006662
        k(  291) = (   0.1933333   0.3348632   0.0000000), wk =   0.0006662
        k(  292) = (   0.1940000   0.3360179   0.0000000), wk =   0.0006662
        k(  293) = (   0.1946667   0.3371726   0.0000000), wk =   0.0006662
        k(  294) = (   0.1953333   0.3383273   0.0000000), wk =   0.0006662
        k(  295) = (   0.1960000   0.3394820   0.0000000), wk =   0.0006662
        k(  296) = (   0.1966667   0.3406367   0.0000000), wk =   0.0006662
        k(  297) = (   0.1973333   0.3417914   0.0000000), wk =   0.0006662
        k(  298) = (   0.1980000   0.3429461   0.0000000), wk =   0.0006662
        k(  299) = (   0.1986667   0.3441008   0.0000000), wk =   0.0006662
        k(  300) = (   0.1993333   0.3452555   0.0000000), wk =   0.0006662
        k(  301) = (   0.2000000   0.3464102   0.0000000), wk =   0.0006662
        k(  302) = (   0.2006667   0.3475649   0.0000000), wk =   0.0006662
        k(  303) = (   0.2013333   0.3487196   0.0000000), wk =   0.0006662
        k(  304) = (   0.2020000   0.3498743   0.0000000), wk =   0.0006662
        k(  305) = (   0.2026667   0.3510290   0.0000000), wk =   0.0006662
        k(  306) = (   0.2033333   0.3521837   0.0000000), wk =   0.0006662
        k(  307) = (   0.2040000   0.3533384   0.0000000), wk =   0.0006662
        k(  308) = (   0.2046667   0.3544931   0.0000000), wk =   0.0006662
        k(  309) = (   0.2053333   0.3556478   0.0000000), wk =   0.0006662
        k(  310) = (   0.2060000   0.3568025   0.0000000), wk =   0.0006662
        k(  311) = (   0.2066667   0.3579572   0.0000000), wk =   0.0006662
        k(  312) = (   0.2073333   0.3591119   0.0000000), wk =   0.0006662
        k(  313) = (   0.2080000   0.3602666   0.0000000), wk =   0.0006662
        k(  314) = (   0.2086667   0.3614213   0.0000000), wk =   0.0006662
        k(  315) = (   0.2093333   0.3625760   0.0000000), wk =   0.0006662
        k(  316) = (   0.2100000   0.3637307   0.0000000), wk =   0.0006662
        k(  317) = (   0.2106667   0.3648854   0.0000000), wk =   0.0006662
        k(  318) = (   0.2113333   0.3660401   0.0000000), wk =   0.0006662
        k(  319) = (   0.2120000   0.3671948   0.0000000), wk =   0.0006662
        k(  320) = (   0.2126667   0.3683495   0.0000000), wk =   0.0006662
        k(  321) = (   0.2133333   0.3695042   0.0000000), wk =   0.0006662
        k(  322) = (   0.2140000   0.3706589   0.0000000), wk =   0.0006662
        k(  323) = (   0.2146667   0.3718136   0.0000000), wk =   0.0006662
        k(  324) = (   0.2153333   0.3729683   0.0000000), wk =   0.0006662
        k(  325) = (   0.2160000   0.3741230   0.0000000), wk =   0.0006662
        k(  326) = (   0.2166667   0.3752777   0.0000000), wk =   0.0006662
        k(  327) = (   0.2173333   0.3764324   0.0000000), wk =   0.0006662
        k(  328) = (   0.2180000   0.3775871   0.0000000), wk =   0.0006662
        k(  329) = (   0.2186667   0.3787418   0.0000000), wk =   0.0006662
        k(  330) = (   0.2193333   0.3798965   0.0000000), wk =   0.0006662
        k(  331) = (   0.2200000   0.3810512   0.0000000), wk =   0.0006662
        k(  332) = (   0.2206667   0.3822059   0.0000000), wk =   0.0006662
        k(  333) = (   0.2213333   0.3833606   0.0000000), wk =   0.0006662
        k(  334) = (   0.2220000   0.3845153   0.0000000), wk =   0.0006662
        k(  335) = (   0.2226667   0.3856700   0.0000000), wk =   0.0006662
        k(  336) = (   0.2233333   0.3868247   0.0000000), wk =   0.0006662
        k(  337) = (   0.2240000   0.3879794   0.0000000), wk =   0.0006662
        k(  338) = (   0.2246667   0.3891341   0.0000000), wk =   0.0006662
        k(  339) = (   0.2253333   0.3902888   0.0000000), wk =   0.0006662
        k(  340) = (   0.2260000   0.3914435   0.0000000), wk =   0.0006662
        k(  341) = (   0.2266667   0.3925982   0.0000000), wk =   0.0006662
        k(  342) = (   0.2273333   0.3937529   0.0000000), wk =   0.0006662
        k(  343) = (   0.2280000   0.3949076   0.0000000), wk =   0.0006662
        k(  344) = (   0.2286667   0.3960623   0.0000000), wk =   0.0006662
        k(  345) = (   0.2293333   0.3972170   0.0000000), wk =   0.0006662
        k(  346) = (   0.2300000   0.3983717   0.0000000), wk =   0.0006662
        k(  347) = (   0.2306667   0.3995264   0.0000000), wk =   0.0006662
        k(  348) = (   0.2313333   0.4006811   0.0000000), wk =   0.0006662
        k(  349) = (   0.2320000   0.4018358   0.0000000), wk =   0.0006662
        k(  350) = (   0.2326667   0.4029905   0.0000000), wk =   0.0006662
        k(  351) = (   0.2333333   0.4041452   0.0000000), wk =   0.0006662
        k(  352) = (   0.2340000   0.4052999   0.0000000), wk =   0.0006662
        k(  353) = (   0.2346667   0.4064546   0.0000000), wk =   0.0006662
        k(  354) = (   0.2353333   0.4076093   0.0000000), wk =   0.0006662
        k(  355) = (   0.2360000   0.4087640   0.0000000), wk =   0.0006662
        k(  356) = (   0.2366667   0.4099187   0.0000000), wk =   0.0006662
        k(  357) = (   0.2373333   0.4110734   0.0000000), wk =   0.0006662
        k(  358) = (   0.2380000   0.4122281   0.0000000), wk =   0.0006662
        k(  359) = (   0.2386667   0.4133828   0.0000000), wk =   0.0006662
        k(  360) = (   0.2393333   0.4145375   0.0000000), wk =   0.0006662
        k(  361) = (   0.2400000   0.4156922   0.0000000), wk =   0.0006662
        k(  362) = (   0.2406667   0.4168469   0.0000000), wk =   0.0006662
        k(  363) = (   0.2413333   0.4180016   0.0000000), wk =   0.0006662
        k(  364) = (   0.2420000   0.4191563   0.0000000), wk =   0.0006662
        k(  365) = (   0.2426667   0.4203110   0.0000000), wk =   0.0006662
        k(  366) = (   0.2433333   0.4214657   0.0000000), wk =   0.0006662
        k(  367) = (   0.2440000   0.4226204   0.0000000), wk =   0.0006662
        k(  368) = (   0.2446667   0.4237751   0.0000000), wk =   0.0006662
        k(  369) = (   0.2453333   0.4249298   0.0000000), wk =   0.0006662
        k(  370) = (   0.2460000   0.4260845   0.0000000), wk =   0.0006662
        k(  371) = (   0.2466667   0.4272392   0.0000000), wk =   0.0006662
        k(  372) = (   0.2473333   0.4283939   0.0000000), wk =   0.0006662
        k(  373) = (   0.2480000   0.4295486   0.0000000), wk =   0.0006662
        k(  374) = (   0.2486667   0.4307033   0.0000000), wk =   0.0006662
        k(  375) = (   0.2493333   0.4318580   0.0000000), wk =   0.0006662
        k(  376) = (   0.2500000   0.4330127   0.0000000), wk =   0.0006662
        k(  377) = (   0.2506667   0.4341674   0.0000000), wk =   0.0006662
        k(  378) = (   0.2513333   0.4353221   0.0000000), wk =   0.0006662
        k(  379) = (   0.2520000   0.4364768   0.0000000), wk =   0.0006662
        k(  380) = (   0.2526667   0.4376315   0.0000000), wk =   0.0006662
        k(  381) = (   0.2533333   0.4387862   0.0000000), wk =   0.0006662
        k(  382) = (   0.2540000   0.4399409   0.0000000), wk =   0.0006662
        k(  383) = (   0.2546667   0.4410956   0.0000000), wk =   0.0006662
        k(  384) = (   0.2553333   0.4422503   0.0000000), wk =   0.0006662
        k(  385) = (   0.2560000   0.4434050   0.0000000), wk =   0.0006662
        k(  386) = (   0.2566667   0.4445597   0.0000000), wk =   0.0006662
        k(  387) = (   0.2573333   0.4457144   0.0000000), wk =   0.0006662
        k(  388) = (   0.2580000   0.4468691   0.0000000), wk =   0.0006662
        k(  389) = (   0.2586667   0.4480238   0.0000000), wk =   0.0006662
        k(  390) = (   0.2593333   0.4491785   0.0000000), wk =   0.0006662
        k(  391) = (   0.2600000   0.4503332   0.0000000), wk =   0.0006662
        k(  392) = (   0.2606667   0.4514879   0.0000000), wk =   0.0006662
        k(  393) = (   0.2613333   0.4526426   0.0000000), wk =   0.0006662
        k(  394) = (   0.2620000   0.4537973   0.0000000), wk =   0.0006662
        k(  395) = (   0.2626667   0.4549520   0.0000000), wk =   0.0006662
        k(  396) = (   0.2633333   0.4561067   0.0000000), wk =   0.0006662
        k(  397) = (   0.2640000   0.4572614   0.0000000), wk =   0.0006662
        k(  398) = (   0.2646667   0.4584161   0.0000000), wk =   0.0006662
        k(  399) = (   0.2653333   0.4595708   0.0000000), wk =   0.0006662
        k(  400) = (   0.2660000   0.4607255   0.0000000), wk =   0.0006662
        k(  401) = (   0.2666667   0.4618802   0.0000000), wk =   0.0006662
        k(  402) = (   0.2673333   0.4630349   0.0000000), wk =   0.0006662
        k(  403) = (   0.2680000   0.4641896   0.0000000), wk =   0.0006662
        k(  404) = (   0.2686667   0.4653443   0.0000000), wk =   0.0006662
        k(  405) = (   0.2693333   0.4664990   0.0000000), wk =   0.0006662
        k(  406) = (   0.2700000   0.4676537   0.0000000), wk =   0.0006662
        k(  407) = (   0.2706667   0.4688084   0.0000000), wk =   0.0006662
        k(  408) = (   0.2713333   0.4699631   0.0000000), wk =   0.0006662
        k(  409) = (   0.2720000   0.4711178   0.0000000), wk =   0.0006662
        k(  410) = (   0.2726667   0.4722725   0.0000000), wk =   0.0006662
        k(  411) = (   0.2733333   0.4734272   0.0000000), wk =   0.0006662
        k(  412) = (   0.2740000   0.4745819   0.0000000), wk =   0.0006662
        k(  413) = (   0.2746667   0.4757366   0.0000000), wk =   0.0006662
        k(  414) = (   0.2753333   0.4768913   0.0000000), wk =   0.0006662
        k(  415) = (   0.2760000   0.4780460   0.0000000), wk =   0.0006662
        k(  416) = (   0.2766667   0.4792007   0.0000000), wk =   0.0006662
        k(  417) = (   0.2773333   0.4803554   0.0000000), wk =   0.0006662
        k(  418) = (   0.2780000   0.4815101   0.0000000), wk =   0.0006662
        k(  419) = (   0.2786667   0.4826648   0.0000000), wk =   0.0006662
        k(  420) = (   0.2793333   0.4838195   0.0000000), wk =   0.0006662
        k(  421) = (   0.2800000   0.4849742   0.0000000), wk =   0.0006662
        k(  422) = (   0.2806667   0.4861289   0.0000000), wk =   0.0006662
        k(  423) = (   0.2813333   0.4872836   0.0000000), wk =   0.0006662
        k(  424) = (   0.2820000   0.4884383   0.0000000), wk =   0.0006662
        k(  425) = (   0.2826667   0.4895930   0.0000000), wk =   0.0006662
        k(  426) = (   0.2833333   0.4907477   0.0000000), wk =   0.0006662
        k(  427) = (   0.2840000   0.4919024   0.0000000), wk =   0.0006662
        k(  428) = (   0.2846667   0.4930571   0.0000000), wk =   0.0006662
        k(  429) = (   0.2853333   0.4942118   0.0000000), wk =   0.0006662
        k(  430) = (   0.2860000   0.4953665   0.0000000), wk =   0.0006662
        k(  431) = (   0.2866667   0.4965212   0.0000000), wk =   0.0006662
        k(  432) = (   0.2873333   0.4976759   0.0000000), wk =   0.0006662
        k(  433) = (   0.2880000   0.4988306   0.0000000), wk =   0.0006662
        k(  434) = (   0.2886667   0.4999853   0.0000000), wk =   0.0006662
        k(  435) = (   0.2893333   0.5011400   0.0000000), wk =   0.0006662
        k(  436) = (   0.2900000   0.5022947   0.0000000), wk =   0.0006662
        k(  437) = (   0.2906667   0.5034494   0.0000000), wk =   0.0006662
        k(  438) = (   0.2913333   0.5046041   0.0000000), wk =   0.0006662
        k(  439) = (   0.2920000   0.5057588   0.0000000), wk =   0.0006662
        k(  440) = (   0.2926667   0.5069135   0.0000000), wk =   0.0006662
        k(  441) = (   0.2933333   0.5080682   0.0000000), wk =   0.0006662
        k(  442) = (   0.2940000   0.5092229   0.0000000), wk =   0.0006662
        k(  443) = (   0.2946667   0.5103776   0.0000000), wk =   0.0006662
        k(  444) = (   0.2953333   0.5115323   0.0000000), wk =   0.0006662
        k(  445) = (   0.2960000   0.5126870   0.0000000), wk =   0.0006662
        k(  446) = (   0.2966667   0.5138417   0.0000000), wk =   0.0006662
        k(  447) = (   0.2973333   0.5149964   0.0000000), wk =   0.0006662
        k(  448) = (   0.2980000   0.5161511   0.0000000), wk =   0.0006662
        k(  449) = (   0.2986667   0.5173058   0.0000000), wk =   0.0006662
        k(  450) = (   0.2993333   0.5184605   0.0000000), wk =   0.0006662
        k(  451) = (   0.3000000   0.5196152   0.0000000), wk =   0.0006662
        k(  452) = (   0.3006667   0.5207699   0.0000000), wk =   0.0006662
        k(  453) = (   0.3013333   0.5219246   0.0000000), wk =   0.0006662
        k(  454) = (   0.3020000   0.5230793   0.0000000), wk =   0.0006662
        k(  455) = (   0.3026667   0.5242340   0.0000000), wk =   0.0006662
        k(  456) = (   0.3033333   0.5253887   0.0000000), wk =   0.0006662
        k(  457) = (   0.3040000   0.5265434   0.0000000), wk =   0.0006662
        k(  458) = (   0.3046667   0.5276981   0.0000000), wk =   0.0006662
        k(  459) = (   0.3053333   0.5288528   0.0000000), wk =   0.0006662
        k(  460) = (   0.3060000   0.5300075   0.0000000), wk =   0.0006662
        k(  461) = (   0.3066667   0.5311622   0.0000000), wk =   0.0006662
        k(  462) = (   0.3073333   0.5323169   0.0000000), wk =   0.0006662
        k(  463) = (   0.3080000   0.5334716   0.0000000), wk =   0.0006662
        k(  464) = (   0.3086667   0.5346263   0.0000000), wk =   0.0006662
        k(  465) = (   0.3093333   0.5357810   0.0000000), wk =   0.0006662
        k(  466) = (   0.3100000   0.5369358   0.0000000), wk =   0.0006662
        k(  467) = (   0.3106667   0.5380905   0.0000000), wk =   0.0006662
        k(  468) = (   0.3113333   0.5392452   0.0000000), wk =   0.0006662
        k(  469) = (   0.3120000   0.5403999   0.0000000), wk =   0.0006662
        k(  470) = (   0.3126667   0.5415546   0.0000000), wk =   0.0006662
        k(  471) = (   0.3133333   0.5427093   0.0000000), wk =   0.0006662
        k(  472) = (   0.3140000   0.5438640   0.0000000), wk =   0.0006662
        k(  473) = (   0.3146667   0.5450187   0.0000000), wk =   0.0006662
        k(  474) = (   0.3153333   0.5461734   0.0000000), wk =   0.0006662
        k(  475) = (   0.3160000   0.5473281   0.0000000), wk =   0.0006662
        k(  476) = (   0.3166667   0.5484828   0.0000000), wk =   0.0006662
        k(  477) = (   0.3173333   0.5496375   0.0000000), wk =   0.0006662
        k(  478) = (   0.3180000   0.5507922   0.0000000), wk =   0.0006662
        k(  479) = (   0.3186667   0.5519469   0.0000000), wk =   0.0006662
        k(  480) = (   0.3193333   0.5531016   0.0000000), wk =   0.0006662
        k(  481) = (   0.3200000   0.5542563   0.0000000), wk =   0.0006662
        k(  482) = (   0.3206667   0.5554110   0.0000000), wk =   0.0006662
        k(  483) = (   0.3213333   0.5565657   0.0000000), wk =   0.0006662
        k(  484) = (   0.3220000   0.5577204   0.0000000), wk =   0.0006662
        k(  485) = (   0.3226667   0.5588751   0.0000000), wk =   0.0006662
        k(  486) = (   0.3233333   0.5600298   0.0000000), wk =   0.0006662
        k(  487) = (   0.3240000   0.5611845   0.0000000), wk =   0.0006662
        k(  488) = (   0.3246667   0.5623392   0.0000000), wk =   0.0006662
        k(  489) = (   0.3253333   0.5634939   0.0000000), wk =   0.0006662
        k(  490) = (   0.3260000   0.5646486   0.0000000), wk =   0.0006662
        k(  491) = (   0.3266667   0.5658033   0.0000000), wk =   0.0006662
        k(  492) = (   0.3273333   0.5669580   0.0000000), wk =   0.0006662
        k(  493) = (   0.3280000   0.5681127   0.0000000), wk =   0.0006662
        k(  494) = (   0.3286667   0.5692674   0.0000000), wk =   0.0006662
        k(  495) = (   0.3293333   0.5704221   0.0000000), wk =   0.0006662
        k(  496) = (   0.3300000   0.5715768   0.0000000), wk =   0.0006662
        k(  497) = (   0.3306667   0.5727315   0.0000000), wk =   0.0006662
        k(  498) = (   0.3313333   0.5738862   0.0000000), wk =   0.0006662
        k(  499) = (   0.3320000   0.5750409   0.0000000), wk =   0.0006662
        k(  500) = (   0.3326667   0.5761956   0.0000000), wk =   0.0006662
        k(  501) = (   0.3333333   0.5773503   0.0000000), wk =   0.0006662
        k(  502) = (   0.3336667   0.5767729   0.0000000), wk =   0.0006662
        k(  503) = (   0.3340000   0.5761956   0.0000000), wk =   0.0006662
        k(  504) = (   0.3343333   0.5756182   0.0000000), wk =   0.0006662
        k(  505) = (   0.3346667   0.5750409   0.0000000), wk =   0.0006662
        k(  506) = (   0.3350000   0.5744635   0.0000000), wk =   0.0006662
        k(  507) = (   0.3353333   0.5738862   0.0000000), wk =   0.0006662
        k(  508) = (   0.3356667   0.5733088   0.0000000), wk =   0.0006662
        k(  509) = (   0.3360000   0.5727315   0.0000000), wk =   0.0006662
        k(  510) = (   0.3363333   0.5721541   0.0000000), wk =   0.0006662
        k(  511) = (   0.3366667   0.5715768   0.0000000), wk =   0.0006662
        k(  512) = (   0.3370000   0.5709994   0.0000000), wk =   0.0006662
        k(  513) = (   0.3373333   0.5704221   0.0000000), wk =   0.0006662
        k(  514) = (   0.3376667   0.5698447   0.0000000), wk =   0.0006662
        k(  515) = (   0.3380000   0.5692674   0.0000000), wk =   0.0006662
        k(  516) = (   0.3383333   0.5686900   0.0000000), wk =   0.0006662
        k(  517) = (   0.3386667   0.5681127   0.0000000), wk =   0.0006662
        k(  518) = (   0.3390000   0.5675353   0.0000000), wk =   0.0006662
        k(  519) = (   0.3393333   0.5669580   0.0000000), wk =   0.0006662
        k(  520) = (   0.3396667   0.5663806   0.0000000), wk =   0.0006662
        k(  521) = (   0.3400000   0.5658033   0.0000000), wk =   0.0006662
        k(  522) = (   0.3403333   0.5652259   0.0000000), wk =   0.0006662
        k(  523) = (   0.3406667   0.5646486   0.0000000), wk =   0.0006662
        k(  524) = (   0.3410000   0.5640712   0.0000000), wk =   0.0006662
        k(  525) = (   0.3413333   0.5634939   0.0000000), wk =   0.0006662
        k(  526) = (   0.3416667   0.5629165   0.0000000), wk =   0.0006662
        k(  527) = (   0.3420000   0.5623392   0.0000000), wk =   0.0006662
        k(  528) = (   0.3423333   0.5617618   0.0000000), wk =   0.0006662
        k(  529) = (   0.3426667   0.5611845   0.0000000), wk =   0.0006662
        k(  530) = (   0.3430000   0.5606071   0.0000000), wk =   0.0006662
        k(  531) = (   0.3433333   0.5600298   0.0000000), wk =   0.0006662
        k(  532) = (   0.3436667   0.5594524   0.0000000), wk =   0.0006662
        k(  533) = (   0.3440000   0.5588751   0.0000000), wk =   0.0006662
        k(  534) = (   0.3443333   0.5582977   0.0000000), wk =   0.0006662
        k(  535) = (   0.3446667   0.5577204   0.0000000), wk =   0.0006662
        k(  536) = (   0.3450000   0.5571430   0.0000000), wk =   0.0006662
        k(  537) = (   0.3453333   0.5565657   0.0000000), wk =   0.0006662
        k(  538) = (   0.3456667   0.5559883   0.0000000), wk =   0.0006662
        k(  539) = (   0.3460000   0.5554110   0.0000000), wk =   0.0006662
        k(  540) = (   0.3463333   0.5548336   0.0000000), wk =   0.0006662
        k(  541) = (   0.3466667   0.5542563   0.0000000), wk =   0.0006662
        k(  542) = (   0.3470000   0.5536789   0.0000000), wk =   0.0006662
        k(  543) = (   0.3473333   0.5531016   0.0000000), wk =   0.0006662
        k(  544) = (   0.3476667   0.5525242   0.0000000), wk =   0.0006662
        k(  545) = (   0.3480000   0.5519469   0.0000000), wk =   0.0006662
        k(  546) = (   0.3483333   0.5513695   0.0000000), wk =   0.0006662
        k(  547) = (   0.3486667   0.5507922   0.0000000), wk =   0.0006662
        k(  548) = (   0.3490000   0.5502148   0.0000000), wk =   0.0006662
        k(  549) = (   0.3493333   0.5496375   0.0000000), wk =   0.0006662
        k(  550) = (   0.3496667   0.5490601   0.0000000), wk =   0.0006662
        k(  551) = (   0.3500000   0.5484828   0.0000000), wk =   0.0006662
        k(  552) = (   0.3503333   0.5479054   0.0000000), wk =   0.0006662
        k(  553) = (   0.3506667   0.5473281   0.0000000), wk =   0.0006662
        k(  554) = (   0.3510000   0.5467507   0.0000000), wk =   0.0006662
        k(  555) = (   0.3513333   0.5461734   0.0000000), wk =   0.0006662
        k(  556) = (   0.3516667   0.5455960   0.0000000), wk =   0.0006662
        k(  557) = (   0.3520000   0.5450187   0.0000000), wk =   0.0006662
        k(  558) = (   0.3523333   0.5444413   0.0000000), wk =   0.0006662
        k(  559) = (   0.3526667   0.5438640   0.0000000), wk =   0.0006662
        k(  560) = (   0.3530000   0.5432866   0.0000000), wk =   0.0006662
        k(  561) = (   0.3533333   0.5427093   0.0000000), wk =   0.0006662
        k(  562) = (   0.3536667   0.5421319   0.0000000), wk =   0.0006662
        k(  563) = (   0.3540000   0.5415546   0.0000000), wk =   0.0006662
        k(  564) = (   0.3543333   0.5409772   0.0000000), wk =   0.0006662
        k(  565) = (   0.3546667   0.5403999   0.0000000), wk =   0.0006662
        k(  566) = (   0.3550000   0.5398225   0.0000000), wk =   0.0006662
        k(  567) = (   0.3553333   0.5392452   0.0000000), wk =   0.0006662
        k(  568) = (   0.3556667   0.5386678   0.0000000), wk =   0.0006662
        k(  569) = (   0.3560000   0.5380905   0.0000000), wk =   0.0006662
        k(  570) = (   0.3563333   0.5375131   0.0000000), wk =   0.0006662
        k(  571) = (   0.3566667   0.5369358   0.0000000), wk =   0.0006662
        k(  572) = (   0.3570000   0.5363584   0.0000000), wk =   0.0006662
        k(  573) = (   0.3573333   0.5357810   0.0000000), wk =   0.0006662
        k(  574) = (   0.3576667   0.5352037   0.0000000), wk =   0.0006662
        k(  575) = (   0.3580000   0.5346263   0.0000000), wk =   0.0006662
        k(  576) = (   0.3583333   0.5340490   0.0000000), wk =   0.0006662
        k(  577) = (   0.3586667   0.5334716   0.0000000), wk =   0.0006662
        k(  578) = (   0.3590000   0.5328943   0.0000000), wk =   0.0006662
        k(  579) = (   0.3593333   0.5323169   0.0000000), wk =   0.0006662
        k(  580) = (   0.3596667   0.5317396   0.0000000), wk =   0.0006662
        k(  581) = (   0.3600000   0.5311622   0.0000000), wk =   0.0006662
        k(  582) = (   0.3603333   0.5305849   0.0000000), wk =   0.0006662
        k(  583) = (   0.3606667   0.5300075   0.0000000), wk =   0.0006662
        k(  584) = (   0.3610000   0.5294302   0.0000000), wk =   0.0006662
        k(  585) = (   0.3613333   0.5288528   0.0000000), wk =   0.0006662
        k(  586) = (   0.3616667   0.5282755   0.0000000), wk =   0.0006662
        k(  587) = (   0.3620000   0.5276981   0.0000000), wk =   0.0006662
        k(  588) = (   0.3623333   0.5271208   0.0000000), wk =   0.0006662
        k(  589) = (   0.3626667   0.5265434   0.0000000), wk =   0.0006662
        k(  590) = (   0.3630000   0.5259661   0.0000000), wk =   0.0006662
        k(  591) = (   0.3633333   0.5253887   0.0000000), wk =   0.0006662
        k(  592) = (   0.3636667   0.5248114   0.0000000), wk =   0.0006662
        k(  593) = (   0.3640000   0.5242340   0.0000000), wk =   0.0006662
        k(  594) = (   0.3643333   0.5236567   0.0000000), wk =   0.0006662
        k(  595) = (   0.3646667   0.5230793   0.0000000), wk =   0.0006662
        k(  596) = (   0.3650000   0.5225020   0.0000000), wk =   0.0006662
        k(  597) = (   0.3653333   0.5219246   0.0000000), wk =   0.0006662
        k(  598) = (   0.3656667   0.5213473   0.0000000), wk =   0.0006662
        k(  599) = (   0.3660000   0.5207699   0.0000000), wk =   0.0006662
        k(  600) = (   0.3663333   0.5201926   0.0000000), wk =   0.0006662
        k(  601) = (   0.3666667   0.5196152   0.0000000), wk =   0.0006662
        k(  602) = (   0.3670000   0.5190379   0.0000000), wk =   0.0006662
        k(  603) = (   0.3673333   0.5184605   0.0000000), wk =   0.0006662
        k(  604) = (   0.3676667   0.5178832   0.0000000), wk =   0.0006662
        k(  605) = (   0.3680000   0.5173058   0.0000000), wk =   0.0006662
        k(  606) = (   0.3683333   0.5167285   0.0000000), wk =   0.0006662
        k(  607) = (   0.3686667   0.5161511   0.0000000), wk =   0.0006662
        k(  608) = (   0.3690000   0.5155738   0.0000000), wk =   0.0006662
        k(  609) = (   0.3693333   0.5149964   0.0000000), wk =   0.0006662
        k(  610) = (   0.3696667   0.5144191   0.0000000), wk =   0.0006662
        k(  611) = (   0.3700000   0.5138417   0.0000000), wk =   0.0006662
        k(  612) = (   0.3703333   0.5132644   0.0000000), wk =   0.0006662
        k(  613) = (   0.3706667   0.5126870   0.0000000), wk =   0.0006662
        k(  614) = (   0.3710000   0.5121097   0.0000000), wk =   0.0006662
        k(  615) = (   0.3713333   0.5115323   0.0000000), wk =   0.0006662
        k(  616) = (   0.3716667   0.5109550   0.0000000), wk =   0.0006662
        k(  617) = (   0.3720000   0.5103776   0.0000000), wk =   0.0006662
        k(  618) = (   0.3723333   0.5098003   0.0000000), wk =   0.0006662
        k(  619) = (   0.3726667   0.5092229   0.0000000), wk =   0.0006662
        k(  620) = (   0.3730000   0.5086456   0.0000000), wk =   0.0006662
        k(  621) = (   0.3733333   0.5080682   0.0000000), wk =   0.0006662
        k(  622) = (   0.3736667   0.5074909   0.0000000), wk =   0.0006662
        k(  623) = (   0.3740000   0.5069135   0.0000000), wk =   0.0006662
        k(  624) = (   0.3743333   0.5063362   0.0000000), wk =   0.0006662
        k(  625) = (   0.3746667   0.5057588   0.0000000), wk =   0.0006662
        k(  626) = (   0.3750000   0.5051815   0.0000000), wk =   0.0006662
        k(  627) = (   0.3753333   0.5046041   0.0000000), wk =   0.0006662
        k(  628) = (   0.3756667   0.5040268   0.0000000), wk =   0.0006662
        k(  629) = (   0.3760000   0.5034494   0.0000000), wk =   0.0006662
        k(  630) = (   0.3763333   0.5028721   0.0000000), wk =   0.0006662
        k(  631) = (   0.3766667   0.5022947   0.0000000), wk =   0.0006662
        k(  632) = (   0.3770000   0.5017174   0.0000000), wk =   0.0006662
        k(  633) = (   0.3773333   0.5011400   0.0000000), wk =   0.0006662
        k(  634) = (   0.3776667   0.5005627   0.0000000), wk =   0.0006662
        k(  635) = (   0.3780000   0.4999853   0.0000000), wk =   0.0006662
        k(  636) = (   0.3783333   0.4994080   0.0000000), wk =   0.0006662
        k(  637) = (   0.3786667   0.4988306   0.0000000), wk =   0.0006662
        k(  638) = (   0.3790000   0.4982533   0.0000000), wk =   0.0006662
        k(  639) = (   0.3793333   0.4976759   0.0000000), wk =   0.0006662
        k(  640) = (   0.3796667   0.4970986   0.0000000), wk =   0.0006662
        k(  641) = (   0.3800000   0.4965212   0.0000000), wk =   0.0006662
        k(  642) = (   0.3803333   0.4959439   0.0000000), wk =   0.0006662
        k(  643) = (   0.3806667   0.4953665   0.0000000), wk =   0.0006662
        k(  644) = (   0.3810000   0.4947892   0.0000000), wk =   0.0006662
        k(  645) = (   0.3813333   0.4942118   0.0000000), wk =   0.0006662
        k(  646) = (   0.3816667   0.4936345   0.0000000), wk =   0.0006662
        k(  647) = (   0.3820000   0.4930571   0.0000000), wk =   0.0006662
        k(  648) = (   0.3823333   0.4924798   0.0000000), wk =   0.0006662
        k(  649) = (   0.3826667   0.4919024   0.0000000), wk =   0.0006662
        k(  650) = (   0.3830000   0.4913251   0.0000000), wk =   0.0006662
        k(  651) = (   0.3833333   0.4907477   0.0000000), wk =   0.0006662
        k(  652) = (   0.3836667   0.4901704   0.0000000), wk =   0.0006662
        k(  653) = (   0.3840000   0.4895930   0.0000000), wk =   0.0006662
        k(  654) = (   0.3843333   0.4890157   0.0000000), wk =   0.0006662
        k(  655) = (   0.3846667   0.4884383   0.0000000), wk =   0.0006662
        k(  656) = (   0.3850000   0.4878610   0.0000000), wk =   0.0006662
        k(  657) = (   0.3853333   0.4872836   0.0000000), wk =   0.0006662
        k(  658) = (   0.3856667   0.4867063   0.0000000), wk =   0.0006662
        k(  659) = (   0.3860000   0.4861289   0.0000000), wk =   0.0006662
        k(  660) = (   0.3863333   0.4855516   0.0000000), wk =   0.0006662
        k(  661) = (   0.3866667   0.4849742   0.0000000), wk =   0.0006662
        k(  662) = (   0.3870000   0.4843969   0.0000000), wk =   0.0006662
        k(  663) = (   0.3873333   0.4838195   0.0000000), wk =   0.0006662
        k(  664) = (   0.3876667   0.4832422   0.0000000), wk =   0.0006662
        k(  665) = (   0.3880000   0.4826648   0.0000000), wk =   0.0006662
        k(  666) = (   0.3883333   0.4820875   0.0000000), wk =   0.0006662
        k(  667) = (   0.3886667   0.4815101   0.0000000), wk =   0.0006662
        k(  668) = (   0.3890000   0.4809328   0.0000000), wk =   0.0006662
        k(  669) = (   0.3893333   0.4803554   0.0000000), wk =   0.0006662
        k(  670) = (   0.3896667   0.4797781   0.0000000), wk =   0.0006662
        k(  671) = (   0.3900000   0.4792007   0.0000000), wk =   0.0006662
        k(  672) = (   0.3903333   0.4786234   0.0000000), wk =   0.0006662
        k(  673) = (   0.3906667   0.4780460   0.0000000), wk =   0.0006662
        k(  674) = (   0.3910000   0.4774687   0.0000000), wk =   0.0006662
        k(  675) = (   0.3913333   0.4768913   0.0000000), wk =   0.0006662
        k(  676) = (   0.3916667   0.4763140   0.0000000), wk =   0.0006662
        k(  677) = (   0.3920000   0.4757366   0.0000000), wk =   0.0006662
        k(  678) = (   0.3923333   0.4751593   0.0000000), wk =   0.0006662
        k(  679) = (   0.3926667   0.4745819   0.0000000), wk =   0.0006662
        k(  680) = (   0.3930000   0.4740046   0.0000000), wk =   0.0006662
        k(  681) = (   0.3933333   0.4734272   0.0000000), wk =   0.0006662
        k(  682) = (   0.3936667   0.4728499   0.0000000), wk =   0.0006662
        k(  683) = (   0.3940000   0.4722725   0.0000000), wk =   0.0006662
        k(  684) = (   0.3943333   0.4716952   0.0000000), wk =   0.0006662
        k(  685) = (   0.3946667   0.4711178   0.0000000), wk =   0.0006662
        k(  686) = (   0.3950000   0.4705405   0.0000000), wk =   0.0006662
        k(  687) = (   0.3953333   0.4699631   0.0000000), wk =   0.0006662
        k(  688) = (   0.3956667   0.4693858   0.0000000), wk =   0.0006662
        k(  689) = (   0.3960000   0.4688084   0.0000000), wk =   0.0006662
        k(  690) = (   0.3963333   0.4682311   0.0000000), wk =   0.0006662
        k(  691) = (   0.3966667   0.4676537   0.0000000), wk =   0.0006662
        k(  692) = (   0.3970000   0.4670764   0.0000000), wk =   0.0006662
        k(  693) = (   0.3973333   0.4664990   0.0000000), wk =   0.0006662
        k(  694) = (   0.3976667   0.4659217   0.0000000), wk =   0.0006662
        k(  695) = (   0.3980000   0.4653443   0.0000000), wk =   0.0006662
        k(  696) = (   0.3983333   0.4647670   0.0000000), wk =   0.0006662
        k(  697) = (   0.3986667   0.4641896   0.0000000), wk =   0.0006662
        k(  698) = (   0.3990000   0.4636123   0.0000000), wk =   0.0006662
        k(  699) = (   0.3993333   0.4630349   0.0000000), wk =   0.0006662
        k(  700) = (   0.3996667   0.4624576   0.0000000), wk =   0.0006662
        k(  701) = (   0.4000000   0.4618802   0.0000000), wk =   0.0006662
        k(  702) = (   0.4003333   0.4613029   0.0000000), wk =   0.0006662
        k(  703) = (   0.4006667   0.4607255   0.0000000), wk =   0.0006662
        k(  704) = (   0.4010000   0.4601482   0.0000000), wk =   0.0006662
        k(  705) = (   0.4013333   0.4595708   0.0000000), wk =   0.0006662
        k(  706) = (   0.4016667   0.4589935   0.0000000), wk =   0.0006662
        k(  707) = (   0.4020000   0.4584161   0.0000000), wk =   0.0006662
        k(  708) = (   0.4023333   0.4578388   0.0000000), wk =   0.0006662
        k(  709) = (   0.4026667   0.4572614   0.0000000), wk =   0.0006662
        k(  710) = (   0.4030000   0.4566841   0.0000000), wk =   0.0006662
        k(  711) = (   0.4033333   0.4561067   0.0000000), wk =   0.0006662
        k(  712) = (   0.4036667   0.4555294   0.0000000), wk =   0.0006662
        k(  713) = (   0.4040000   0.4549520   0.0000000), wk =   0.0006662
        k(  714) = (   0.4043333   0.4543747   0.0000000), wk =   0.0006662
        k(  715) = (   0.4046667   0.4537973   0.0000000), wk =   0.0006662
        k(  716) = (   0.4050000   0.4532200   0.0000000), wk =   0.0006662
        k(  717) = (   0.4053333   0.4526426   0.0000000), wk =   0.0006662
        k(  718) = (   0.4056667   0.4520653   0.0000000), wk =   0.0006662
        k(  719) = (   0.4060000   0.4514879   0.0000000), wk =   0.0006662
        k(  720) = (   0.4063333   0.4509106   0.0000000), wk =   0.0006662
        k(  721) = (   0.4066667   0.4503332   0.0000000), wk =   0.0006662
        k(  722) = (   0.4070000   0.4497559   0.0000000), wk =   0.0006662
        k(  723) = (   0.4073333   0.4491785   0.0000000), wk =   0.0006662
        k(  724) = (   0.4076667   0.4486012   0.0000000), wk =   0.0006662
        k(  725) = (   0.4080000   0.4480238   0.0000000), wk =   0.0006662
        k(  726) = (   0.4083333   0.4474465   0.0000000), wk =   0.0006662
        k(  727) = (   0.4086667   0.4468691   0.0000000), wk =   0.0006662
        k(  728) = (   0.4090000   0.4462918   0.0000000), wk =   0.0006662
        k(  729) = (   0.4093333   0.4457144   0.0000000), wk =   0.0006662
        k(  730) = (   0.4096667   0.4451371   0.0000000), wk =   0.0006662
        k(  731) = (   0.4100000   0.4445597   0.0000000), wk =   0.0006662
        k(  732) = (   0.4103333   0.4439824   0.0000000), wk =   0.0006662
        k(  733) = (   0.4106667   0.4434050   0.0000000), wk =   0.0006662
        k(  734) = (   0.4110000   0.4428277   0.0000000), wk =   0.0006662
        k(  735) = (   0.4113333   0.4422503   0.0000000), wk =   0.0006662
        k(  736) = (   0.4116667   0.4416730   0.0000000), wk =   0.0006662
        k(  737) = (   0.4120000   0.4410956   0.0000000), wk =   0.0006662
        k(  738) = (   0.4123333   0.4405183   0.0000000), wk =   0.0006662
        k(  739) = (   0.4126667   0.4399409   0.0000000), wk =   0.0006662
        k(  740) = (   0.4130000   0.4393636   0.0000000), wk =   0.0006662
        k(  741) = (   0.4133333   0.4387862   0.0000000), wk =   0.0006662
        k(  742) = (   0.4136667   0.4382089   0.0000000), wk =   0.0006662
        k(  743) = (   0.4140000   0.4376315   0.0000000), wk =   0.0006662
        k(  744) = (   0.4143333   0.4370542   0.0000000), wk =   0.0006662
        k(  745) = (   0.4146667   0.4364768   0.0000000), wk =   0.0006662
        k(  746) = (   0.4150000   0.4358995   0.0000000), wk =   0.0006662
        k(  747) = (   0.4153333   0.4353221   0.0000000), wk =   0.0006662
        k(  748) = (   0.4156667   0.4347448   0.0000000), wk =   0.0006662
        k(  749) = (   0.4160000   0.4341674   0.0000000), wk =   0.0006662
        k(  750) = (   0.4163333   0.4335901   0.0000000), wk =   0.0006662
        k(  751) = (   0.4166667   0.4330127   0.0000000), wk =   0.0006662
        k(  752) = (   0.4170000   0.4324354   0.0000000), wk =   0.0006662
        k(  753) = (   0.4173333   0.4318580   0.0000000), wk =   0.0006662
        k(  754) = (   0.4176667   0.4312807   0.0000000), wk =   0.0006662
        k(  755) = (   0.4180000   0.4307033   0.0000000), wk =   0.0006662
        k(  756) = (   0.4183333   0.4301260   0.0000000), wk =   0.0006662
        k(  757) = (   0.4186667   0.4295486   0.0000000), wk =   0.0006662
        k(  758) = (   0.4190000   0.4289713   0.0000000), wk =   0.0006662
        k(  759) = (   0.4193333   0.4283939   0.0000000), wk =   0.0006662
        k(  760) = (   0.4196667   0.4278165   0.0000000), wk =   0.0006662
        k(  761) = (   0.4200000   0.4272392   0.0000000), wk =   0.0006662
        k(  762) = (   0.4203333   0.4266618   0.0000000), wk =   0.0006662
        k(  763) = (   0.4206667   0.4260845   0.0000000), wk =   0.0006662
        k(  764) = (   0.4210000   0.4255071   0.0000000), wk =   0.0006662
        k(  765) = (   0.4213333   0.4249298   0.0000000), wk =   0.0006662
        k(  766) = (   0.4216667   0.4243524   0.0000000), wk =   0.0006662
        k(  767) = (   0.4220000   0.4237751   0.0000000), wk =   0.0006662
        k(  768) = (   0.4223333   0.4231977   0.0000000), wk =   0.0006662
        k(  769) = (   0.4226667   0.4226204   0.0000000), wk =   0.0006662
        k(  770) = (   0.4230000   0.4220430   0.0000000), wk =   0.0006662
        k(  771) = (   0.4233333   0.4214657   0.0000000), wk =   0.0006662
        k(  772) = (   0.4236667   0.4208883   0.0000000), wk =   0.0006662
        k(  773) = (   0.4240000   0.4203110   0.0000000), wk =   0.0006662
        k(  774) = (   0.4243333   0.4197336   0.0000000), wk =   0.0006662
        k(  775) = (   0.4246667   0.4191563   0.0000000), wk =   0.0006662
        k(  776) = (   0.4250000   0.4185789   0.0000000), wk =   0.0006662
        k(  777) = (   0.4253333   0.4180016   0.0000000), wk =   0.0006662
        k(  778) = (   0.4256667   0.4174242   0.0000000), wk =   0.0006662
        k(  779) = (   0.4260000   0.4168469   0.0000000), wk =   0.0006662
        k(  780) = (   0.4263333   0.4162695   0.0000000), wk =   0.0006662
        k(  781) = (   0.4266667   0.4156922   0.0000000), wk =   0.0006662
        k(  782) = (   0.4270000   0.4151148   0.0000000), wk =   0.0006662
        k(  783) = (   0.4273333   0.4145375   0.0000000), wk =   0.0006662
        k(  784) = (   0.4276667   0.4139601   0.0000000), wk =   0.0006662
        k(  785) = (   0.4280000   0.4133828   0.0000000), wk =   0.0006662
        k(  786) = (   0.4283333   0.4128054   0.0000000), wk =   0.0006662
        k(  787) = (   0.4286667   0.4122281   0.0000000), wk =   0.0006662
        k(  788) = (   0.4290000   0.4116507   0.0000000), wk =   0.0006662
        k(  789) = (   0.4293333   0.4110734   0.0000000), wk =   0.0006662
        k(  790) = (   0.4296667   0.4104960   0.0000000), wk =   0.0006662
        k(  791) = (   0.4300000   0.4099187   0.0000000), wk =   0.0006662
        k(  792) = (   0.4303333   0.4093413   0.0000000), wk =   0.0006662
        k(  793) = (   0.4306667   0.4087640   0.0000000), wk =   0.0006662
        k(  794) = (   0.4310000   0.4081866   0.0000000), wk =   0.0006662
        k(  795) = (   0.4313333   0.4076093   0.0000000), wk =   0.0006662
        k(  796) = (   0.4316667   0.4070319   0.0000000), wk =   0.0006662
        k(  797) = (   0.4320000   0.4064546   0.0000000), wk =   0.0006662
        k(  798) = (   0.4323333   0.4058772   0.0000000), wk =   0.0006662
        k(  799) = (   0.4326667   0.4052999   0.0000000), wk =   0.0006662
        k(  800) = (   0.4330000   0.4047225   0.0000000), wk =   0.0006662
        k(  801) = (   0.4333333   0.4041452   0.0000000), wk =   0.0006662
        k(  802) = (   0.4336667   0.4035678   0.0000000), wk =   0.0006662
        k(  803) = (   0.4340000   0.4029905   0.0000000), wk =   0.0006662
        k(  804) = (   0.4343333   0.4024131   0.0000000), wk =   0.0006662
        k(  805) = (   0.4346667   0.4018358   0.0000000), wk =   0.0006662
        k(  806) = (   0.4350000   0.4012584   0.0000000), wk =   0.0006662
        k(  807) = (   0.4353333   0.4006811   0.0000000), wk =   0.0006662
        k(  808) = (   0.4356667   0.4001037   0.0000000), wk =   0.0006662
        k(  809) = (   0.4360000   0.3995264   0.0000000), wk =   0.0006662
        k(  810) = (   0.4363333   0.3989490   0.0000000), wk =   0.0006662
        k(  811) = (   0.4366667   0.3983717   0.0000000), wk =   0.0006662
        k(  812) = (   0.4370000   0.3977943   0.0000000), wk =   0.0006662
        k(  813) = (   0.4373333   0.3972170   0.0000000), wk =   0.0006662
        k(  814) = (   0.4376667   0.3966396   0.0000000), wk =   0.0006662
        k(  815) = (   0.4380000   0.3960623   0.0000000), wk =   0.0006662
        k(  816) = (   0.4383333   0.3954849   0.0000000), wk =   0.0006662
        k(  817) = (   0.4386667   0.3949076   0.0000000), wk =   0.0006662
        k(  818) = (   0.4390000   0.3943302   0.0000000), wk =   0.0006662
        k(  819) = (   0.4393333   0.3937529   0.0000000), wk =   0.0006662
        k(  820) = (   0.4396667   0.3931755   0.0000000), wk =   0.0006662
        k(  821) = (   0.4400000   0.3925982   0.0000000), wk =   0.0006662
        k(  822) = (   0.4403333   0.3920208   0.0000000), wk =   0.0006662
        k(  823) = (   0.4406667   0.3914435   0.0000000), wk =   0.0006662
        k(  824) = (   0.4410000   0.3908661   0.0000000), wk =   0.0006662
        k(  825) = (   0.4413333   0.3902888   0.0000000), wk =   0.0006662
        k(  826) = (   0.4416667   0.3897114   0.0000000), wk =   0.0006662
        k(  827) = (   0.4420000   0.3891341   0.0000000), wk =   0.0006662
        k(  828) = (   0.4423333   0.3885567   0.0000000), wk =   0.0006662
        k(  829) = (   0.4426667   0.3879794   0.0000000), wk =   0.0006662
        k(  830) = (   0.4430000   0.3874020   0.0000000), wk =   0.0006662
        k(  831) = (   0.4433333   0.3868247   0.0000000), wk =   0.0006662
        k(  832) = (   0.4436667   0.3862473   0.0000000), wk =   0.0006662
        k(  833) = (   0.4440000   0.3856700   0.0000000), wk =   0.0006662
        k(  834) = (   0.4443333   0.3850926   0.0000000), wk =   0.0006662
        k(  835) = (   0.4446667   0.3845153   0.0000000), wk =   0.0006662
        k(  836) = (   0.4450000   0.3839379   0.0000000), wk =   0.0006662
        k(  837) = (   0.4453333   0.3833606   0.0000000), wk =   0.0006662
        k(  838) = (   0.4456667   0.3827832   0.0000000), wk =   0.0006662
        k(  839) = (   0.4460000   0.3822059   0.0000000), wk =   0.0006662
        k(  840) = (   0.4463333   0.3816285   0.0000000), wk =   0.0006662
        k(  841) = (   0.4466667   0.3810512   0.0000000), wk =   0.0006662
        k(  842) = (   0.4470000   0.3804738   0.0000000), wk =   0.0006662
        k(  843) = (   0.4473333   0.3798965   0.0000000), wk =   0.0006662
        k(  844) = (   0.4476667   0.3793191   0.0000000), wk =   0.0006662
        k(  845) = (   0.4480000   0.3787418   0.0000000), wk =   0.0006662
        k(  846) = (   0.4483333   0.3781644   0.0000000), wk =   0.0006662
        k(  847) = (   0.4486667   0.3775871   0.0000000), wk =   0.0006662
        k(  848) = (   0.4490000   0.3770097   0.0000000), wk =   0.0006662
        k(  849) = (   0.4493333   0.3764324   0.0000000), wk =   0.0006662
        k(  850) = (   0.4496667   0.3758550   0.0000000), wk =   0.0006662
        k(  851) = (   0.4500000   0.3752777   0.0000000), wk =   0.0006662
        k(  852) = (   0.4503333   0.3747003   0.0000000), wk =   0.0006662
        k(  853) = (   0.4506667   0.3741230   0.0000000), wk =   0.0006662
        k(  854) = (   0.4510000   0.3735456   0.0000000), wk =   0.0006662
        k(  855) = (   0.4513333   0.3729683   0.0000000), wk =   0.0006662
        k(  856) = (   0.4516667   0.3723909   0.0000000), wk =   0.0006662
        k(  857) = (   0.4520000   0.3718136   0.0000000), wk =   0.0006662
        k(  858) = (   0.4523333   0.3712362   0.0000000), wk =   0.0006662
        k(  859) = (   0.4526667   0.3706589   0.0000000), wk =   0.0006662
        k(  860) = (   0.4530000   0.3700815   0.0000000), wk =   0.0006662
        k(  861) = (   0.4533333   0.3695042   0.0000000), wk =   0.0006662
        k(  862) = (   0.4536667   0.3689268   0.0000000), wk =   0.0006662
        k(  863) = (   0.4540000   0.3683495   0.0000000), wk =   0.0006662
        k(  864) = (   0.4543333   0.3677721   0.0000000), wk =   0.0006662
        k(  865) = (   0.4546667   0.3671948   0.0000000), wk =   0.0006662
        k(  866) = (   0.4550000   0.3666174   0.0000000), wk =   0.0006662
        k(  867) = (   0.4553333   0.3660401   0.0000000), wk =   0.0006662
        k(  868) = (   0.4556667   0.3654627   0.0000000), wk =   0.0006662
        k(  869) = (   0.4560000   0.3648854   0.0000000), wk =   0.0006662
        k(  870) = (   0.4563333   0.3643080   0.0000000), wk =   0.0006662
        k(  871) = (   0.4566667   0.3637307   0.0000000), wk =   0.0006662
        k(  872) = (   0.4570000   0.3631533   0.0000000), wk =   0.0006662
        k(  873) = (   0.4573333   0.3625760   0.0000000), wk =   0.0006662
        k(  874) = (   0.4576667   0.3619986   0.0000000), wk =   0.0006662
        k(  875) = (   0.4580000   0.3614213   0.0000000), wk =   0.0006662
        k(  876) = (   0.4583333   0.3608439   0.0000000), wk =   0.0006662
        k(  877) = (   0.4586667   0.3602666   0.0000000), wk =   0.0006662
        k(  878) = (   0.4590000   0.3596892   0.0000000), wk =   0.0006662
        k(  879) = (   0.4593333   0.3591119   0.0000000), wk =   0.0006662
        k(  880) = (   0.4596667   0.3585345   0.0000000), wk =   0.0006662
        k(  881) = (   0.4600000   0.3579572   0.0000000), wk =   0.0006662
        k(  882) = (   0.4603333   0.3573798   0.0000000), wk =   0.0006662
        k(  883) = (   0.4606667   0.3568025   0.0000000), wk =   0.0006662
        k(  884) = (   0.4610000   0.3562251   0.0000000), wk =   0.0006662
        k(  885) = (   0.4613333   0.3556478   0.0000000), wk =   0.0006662
        k(  886) = (   0.4616667   0.3550704   0.0000000), wk =   0.0006662
        k(  887) = (   0.4620000   0.3544931   0.0000000), wk =   0.0006662
        k(  888) = (   0.4623333   0.3539157   0.0000000), wk =   0.0006662
        k(  889) = (   0.4626667   0.3533384   0.0000000), wk =   0.0006662
        k(  890) = (   0.4630000   0.3527610   0.0000000), wk =   0.0006662
        k(  891) = (   0.4633333   0.3521837   0.0000000), wk =   0.0006662
        k(  892) = (   0.4636667   0.3516063   0.0000000), wk =   0.0006662
        k(  893) = (   0.4640000   0.3510290   0.0000000), wk =   0.0006662
        k(  894) = (   0.4643333   0.3504516   0.0000000), wk =   0.0006662
        k(  895) = (   0.4646667   0.3498743   0.0000000), wk =   0.0006662
        k(  896) = (   0.4650000   0.3492969   0.0000000), wk =   0.0006662
        k(  897) = (   0.4653333   0.3487196   0.0000000), wk =   0.0006662
        k(  898) = (   0.4656667   0.3481422   0.0000000), wk =   0.0006662
        k(  899) = (   0.4660000   0.3475649   0.0000000), wk =   0.0006662
        k(  900) = (   0.4663333   0.3469875   0.0000000), wk =   0.0006662
        k(  901) = (   0.4666667   0.3464102   0.0000000), wk =   0.0006662
        k(  902) = (   0.4670000   0.3458328   0.0000000), wk =   0.0006662
        k(  903) = (   0.4673333   0.3452555   0.0000000), wk =   0.0006662
        k(  904) = (   0.4676667   0.3446781   0.0000000), wk =   0.0006662
        k(  905) = (   0.4680000   0.3441008   0.0000000), wk =   0.0006662
        k(  906) = (   0.4683333   0.3435234   0.0000000), wk =   0.0006662
        k(  907) = (   0.4686667   0.3429461   0.0000000), wk =   0.0006662
        k(  908) = (   0.4690000   0.3423687   0.0000000), wk =   0.0006662
        k(  909) = (   0.4693333   0.3417914   0.0000000), wk =   0.0006662
        k(  910) = (   0.4696667   0.3412140   0.0000000), wk =   0.0006662
        k(  911) = (   0.4700000   0.3406367   0.0000000), wk =   0.0006662
        k(  912) = (   0.4703333   0.3400593   0.0000000), wk =   0.0006662
        k(  913) = (   0.4706667   0.3394820   0.0000000), wk =   0.0006662
        k(  914) = (   0.4710000   0.3389046   0.0000000), wk =   0.0006662
        k(  915) = (   0.4713333   0.3383273   0.0000000), wk =   0.0006662
        k(  916) = (   0.4716667   0.3377499   0.0000000), wk =   0.0006662
        k(  917) = (   0.4720000   0.3371726   0.0000000), wk =   0.0006662
        k(  918) = (   0.4723333   0.3365952   0.0000000), wk =   0.0006662
        k(  919) = (   0.4726667   0.3360179   0.0000000), wk =   0.0006662
        k(  920) = (   0.4730000   0.3354405   0.0000000), wk =   0.0006662
        k(  921) = (   0.4733333   0.3348632   0.0000000), wk =   0.0006662
        k(  922) = (   0.4736667   0.3342858   0.0000000), wk =   0.0006662
        k(  923) = (   0.4740000   0.3337085   0.0000000), wk =   0.0006662
        k(  924) = (   0.4743333   0.3331311   0.0000000), wk =   0.0006662
        k(  925) = (   0.4746667   0.3325538   0.0000000), wk =   0.0006662
        k(  926) = (   0.4750000   0.3319764   0.0000000), wk =   0.0006662
        k(  927) = (   0.4753333   0.3313991   0.0000000), wk =   0.0006662
        k(  928) = (   0.4756667   0.3308217   0.0000000), wk =   0.0006662
        k(  929) = (   0.4760000   0.3302444   0.0000000), wk =   0.0006662
        k(  930) = (   0.4763333   0.3296670   0.0000000), wk =   0.0006662
        k(  931) = (   0.4766667   0.3290897   0.0000000), wk =   0.0006662
        k(  932) = (   0.4770000   0.3285123   0.0000000), wk =   0.0006662
        k(  933) = (   0.4773333   0.3279350   0.0000000), wk =   0.0006662
        k(  934) = (   0.4776667   0.3273576   0.0000000), wk =   0.0006662
        k(  935) = (   0.4780000   0.3267803   0.0000000), wk =   0.0006662
        k(  936) = (   0.4783333   0.3262029   0.0000000), wk =   0.0006662
        k(  937) = (   0.4786667   0.3256256   0.0000000), wk =   0.0006662
        k(  938) = (   0.4790000   0.3250482   0.0000000), wk =   0.0006662
        k(  939) = (   0.4793333   0.3244709   0.0000000), wk =   0.0006662
        k(  940) = (   0.4796667   0.3238935   0.0000000), wk =   0.0006662
        k(  941) = (   0.4800000   0.3233162   0.0000000), wk =   0.0006662
        k(  942) = (   0.4803333   0.3227388   0.0000000), wk =   0.0006662
        k(  943) = (   0.4806667   0.3221615   0.0000000), wk =   0.0006662
        k(  944) = (   0.4810000   0.3215841   0.0000000), wk =   0.0006662
        k(  945) = (   0.4813333   0.3210067   0.0000000), wk =   0.0006662
        k(  946) = (   0.4816667   0.3204294   0.0000000), wk =   0.0006662
        k(  947) = (   0.4820000   0.3198520   0.0000000), wk =   0.0006662
        k(  948) = (   0.4823333   0.3192747   0.0000000), wk =   0.0006662
        k(  949) = (   0.4826667   0.3186973   0.0000000), wk =   0.0006662
        k(  950) = (   0.4830000   0.3181200   0.0000000), wk =   0.0006662
        k(  951) = (   0.4833333   0.3175426   0.0000000), wk =   0.0006662
        k(  952) = (   0.4836667   0.3169653   0.0000000), wk =   0.0006662
        k(  953) = (   0.4840000   0.3163879   0.0000000), wk =   0.0006662
        k(  954) = (   0.4843333   0.3158106   0.0000000), wk =   0.0006662
        k(  955) = (   0.4846667   0.3152332   0.0000000), wk =   0.0006662
        k(  956) = (   0.4850000   0.3146559   0.0000000), wk =   0.0006662
        k(  957) = (   0.4853333   0.3140785   0.0000000), wk =   0.0006662
        k(  958) = (   0.4856667   0.3135012   0.0000000), wk =   0.0006662
        k(  959) = (   0.4860000   0.3129238   0.0000000), wk =   0.0006662
        k(  960) = (   0.4863333   0.3123465   0.0000000), wk =   0.0006662
        k(  961) = (   0.4866667   0.3117691   0.0000000), wk =   0.0006662
        k(  962) = (   0.4870000   0.3111918   0.0000000), wk =   0.0006662
        k(  963) = (   0.4873333   0.3106144   0.0000000), wk =   0.0006662
        k(  964) = (   0.4876667   0.3100371   0.0000000), wk =   0.0006662
        k(  965) = (   0.4880000   0.3094597   0.0000000), wk =   0.0006662
        k(  966) = (   0.4883333   0.3088824   0.0000000), wk =   0.0006662
        k(  967) = (   0.4886667   0.3083050   0.0000000), wk =   0.0006662
        k(  968) = (   0.4890000   0.3077277   0.0000000), wk =   0.0006662
        k(  969) = (   0.4893333   0.3071503   0.0000000), wk =   0.0006662
        k(  970) = (   0.4896667   0.3065730   0.0000000), wk =   0.0006662
        k(  971) = (   0.4900000   0.3059956   0.0000000), wk =   0.0006662
        k(  972) = (   0.4903333   0.3054183   0.0000000), wk =   0.0006662
        k(  973) = (   0.4906667   0.3048409   0.0000000), wk =   0.0006662
        k(  974) = (   0.4910000   0.3042636   0.0000000), wk =   0.0006662
        k(  975) = (   0.4913333   0.3036862   0.0000000), wk =   0.0006662
        k(  976) = (   0.4916667   0.3031089   0.0000000), wk =   0.0006662
        k(  977) = (   0.4920000   0.3025315   0.0000000), wk =   0.0006662
        k(  978) = (   0.4923333   0.3019542   0.0000000), wk =   0.0006662
        k(  979) = (   0.4926667   0.3013768   0.0000000), wk =   0.0006662
        k(  980) = (   0.4930000   0.3007995   0.0000000), wk =   0.0006662
        k(  981) = (   0.4933333   0.3002221   0.0000000), wk =   0.0006662
        k(  982) = (   0.4936667   0.2996448   0.0000000), wk =   0.0006662
        k(  983) = (   0.4940000   0.2990674   0.0000000), wk =   0.0006662
        k(  984) = (   0.4943333   0.2984901   0.0000000), wk =   0.0006662
        k(  985) = (   0.4946667   0.2979127   0.0000000), wk =   0.0006662
        k(  986) = (   0.4950000   0.2973354   0.0000000), wk =   0.0006662
        k(  987) = (   0.4953333   0.2967580   0.0000000), wk =   0.0006662
        k(  988) = (   0.4956667   0.2961807   0.0000000), wk =   0.0006662
        k(  989) = (   0.4960000   0.2956033   0.0000000), wk =   0.0006662
        k(  990) = (   0.4963333   0.2950260   0.0000000), wk =   0.0006662
        k(  991) = (   0.4966667   0.2944486   0.0000000), wk =   0.0006662
        k(  992) = (   0.4970000   0.2938713   0.0000000), wk =   0.0006662
        k(  993) = (   0.4973333   0.2932939   0.0000000), wk =   0.0006662
        k(  994) = (   0.4976667   0.2927166   0.0000000), wk =   0.0006662
        k(  995) = (   0.4980000   0.2921392   0.0000000), wk =   0.0006662
        k(  996) = (   0.4983333   0.2915619   0.0000000), wk =   0.0006662
        k(  997) = (   0.4986667   0.2909845   0.0000000), wk =   0.0006662
        k(  998) = (   0.4990000   0.2904072   0.0000000), wk =   0.0006662
        k(  999) = (   0.4993333   0.2898298   0.0000000), wk =   0.0006662
        k( 1000) = (   0.4996667   0.2892525   0.0000000), wk =   0.0006662
        k( 1001) = (   0.5000000   0.2886751   0.0000000), wk =   0.0006662
        k( 1002) = (   0.4990000   0.2880978   0.0000000), wk =   0.0006662
        k( 1003) = (   0.4980000   0.2875204   0.0000000), wk =   0.0006662
        k( 1004) = (   0.4970000   0.2869431   0.0000000), wk =   0.0006662
        k( 1005) = (   0.4960000   0.2863657   0.0000000), wk =   0.0006662
        k( 1006) = (   0.4950000   0.2857884   0.0000000), wk =   0.0006662
        k( 1007) = (   0.4940000   0.2852110   0.0000000), wk =   0.0006662
        k( 1008) = (   0.4930000   0.2846337   0.0000000), wk =   0.0006662
        k( 1009) = (   0.4920000   0.2840563   0.0000000), wk =   0.0006662
        k( 1010) = (   0.4910000   0.2834790   0.0000000), wk =   0.0006662
        k( 1011) = (   0.4900000   0.2829016   0.0000000), wk =   0.0006662
        k( 1012) = (   0.4890000   0.2823243   0.0000000), wk =   0.0006662
        k( 1013) = (   0.4880000   0.2817469   0.0000000), wk =   0.0006662
        k( 1014) = (   0.4870000   0.2811696   0.0000000), wk =   0.0006662
        k( 1015) = (   0.4860000   0.2805922   0.0000000), wk =   0.0006662
        k( 1016) = (   0.4850000   0.2800149   0.0000000), wk =   0.0006662
        k( 1017) = (   0.4840000   0.2794375   0.0000000), wk =   0.0006662
        k( 1018) = (   0.4830000   0.2788602   0.0000000), wk =   0.0006662
        k( 1019) = (   0.4820000   0.2782828   0.0000000), wk =   0.0006662
        k( 1020) = (   0.4810000   0.2777055   0.0000000), wk =   0.0006662
        k( 1021) = (   0.4800000   0.2771281   0.0000000), wk =   0.0006662
        k( 1022) = (   0.4790000   0.2765508   0.0000000), wk =   0.0006662
        k( 1023) = (   0.4780000   0.2759734   0.0000000), wk =   0.0006662
        k( 1024) = (   0.4770000   0.2753961   0.0000000), wk =   0.0006662
        k( 1025) = (   0.4760000   0.2748187   0.0000000), wk =   0.0006662
        k( 1026) = (   0.4750000   0.2742414   0.0000000), wk =   0.0006662
        k( 1027) = (   0.4740000   0.2736640   0.0000000), wk =   0.0006662
        k( 1028) = (   0.4730000   0.2730867   0.0000000), wk =   0.0006662
        k( 1029) = (   0.4720000   0.2725093   0.0000000), wk =   0.0006662
        k( 1030) = (   0.4710000   0.2719320   0.0000000), wk =   0.0006662
        k( 1031) = (   0.4700000   0.2713546   0.0000000), wk =   0.0006662
        k( 1032) = (   0.4690000   0.2707773   0.0000000), wk =   0.0006662
        k( 1033) = (   0.4680000   0.2701999   0.0000000), wk =   0.0006662
        k( 1034) = (   0.4670000   0.2696226   0.0000000), wk =   0.0006662
        k( 1035) = (   0.4660000   0.2690452   0.0000000), wk =   0.0006662
        k( 1036) = (   0.4650000   0.2684679   0.0000000), wk =   0.0006662
        k( 1037) = (   0.4640000   0.2678905   0.0000000), wk =   0.0006662
        k( 1038) = (   0.4630000   0.2673132   0.0000000), wk =   0.0006662
        k( 1039) = (   0.4620000   0.2667358   0.0000000), wk =   0.0006662
        k( 1040) = (   0.4610000   0.2661585   0.0000000), wk =   0.0006662
        k( 1041) = (   0.4600000   0.2655811   0.0000000), wk =   0.0006662
        k( 1042) = (   0.4590000   0.2650038   0.0000000), wk =   0.0006662
        k( 1043) = (   0.4580000   0.2644264   0.0000000), wk =   0.0006662
        k( 1044) = (   0.4570000   0.2638491   0.0000000), wk =   0.0006662
        k( 1045) = (   0.4560000   0.2632717   0.0000000), wk =   0.0006662
        k( 1046) = (   0.4550000   0.2626944   0.0000000), wk =   0.0006662
        k( 1047) = (   0.4540000   0.2621170   0.0000000), wk =   0.0006662
        k( 1048) = (   0.4530000   0.2615397   0.0000000), wk =   0.0006662
        k( 1049) = (   0.4520000   0.2609623   0.0000000), wk =   0.0006662
        k( 1050) = (   0.4510000   0.2603850   0.0000000), wk =   0.0006662
        k( 1051) = (   0.4500000   0.2598076   0.0000000), wk =   0.0006662
        k( 1052) = (   0.4490000   0.2592303   0.0000000), wk =   0.0006662
        k( 1053) = (   0.4480000   0.2586529   0.0000000), wk =   0.0006662
        k( 1054) = (   0.4470000   0.2580756   0.0000000), wk =   0.0006662
        k( 1055) = (   0.4460000   0.2574982   0.0000000), wk =   0.0006662
        k( 1056) = (   0.4450000   0.2569209   0.0000000), wk =   0.0006662
        k( 1057) = (   0.4440000   0.2563435   0.0000000), wk =   0.0006662
        k( 1058) = (   0.4430000   0.2557662   0.0000000), wk =   0.0006662
        k( 1059) = (   0.4420000   0.2551888   0.0000000), wk =   0.0006662
        k( 1060) = (   0.4410000   0.2546115   0.0000000), wk =   0.0006662
        k( 1061) = (   0.4400000   0.2540341   0.0000000), wk =   0.0006662
        k( 1062) = (   0.4390000   0.2534568   0.0000000), wk =   0.0006662
        k( 1063) = (   0.4380000   0.2528794   0.0000000), wk =   0.0006662
        k( 1064) = (   0.4370000   0.2523021   0.0000000), wk =   0.0006662
        k( 1065) = (   0.4360000   0.2517247   0.0000000), wk =   0.0006662
        k( 1066) = (   0.4350000   0.2511474   0.0000000), wk =   0.0006662
        k( 1067) = (   0.4340000   0.2505700   0.0000000), wk =   0.0006662
        k( 1068) = (   0.4330000   0.2499927   0.0000000), wk =   0.0006662
        k( 1069) = (   0.4320000   0.2494153   0.0000000), wk =   0.0006662
        k( 1070) = (   0.4310000   0.2488380   0.0000000), wk =   0.0006662
        k( 1071) = (   0.4300000   0.2482606   0.0000000), wk =   0.0006662
        k( 1072) = (   0.4290000   0.2476833   0.0000000), wk =   0.0006662
        k( 1073) = (   0.4280000   0.2471059   0.0000000), wk =   0.0006662
        k( 1074) = (   0.4270000   0.2465286   0.0000000), wk =   0.0006662
        k( 1075) = (   0.4260000   0.2459512   0.0000000), wk =   0.0006662
        k( 1076) = (   0.4250000   0.2453739   0.0000000), wk =   0.0006662
        k( 1077) = (   0.4240000   0.2447965   0.0000000), wk =   0.0006662
        k( 1078) = (   0.4230000   0.2442192   0.0000000), wk =   0.0006662
        k( 1079) = (   0.4220000   0.2436418   0.0000000), wk =   0.0006662
        k( 1080) = (   0.4210000   0.2430645   0.0000000), wk =   0.0006662
        k( 1081) = (   0.4200000   0.2424871   0.0000000), wk =   0.0006662
        k( 1082) = (   0.4190000   0.2419098   0.0000000), wk =   0.0006662
        k( 1083) = (   0.4180000   0.2413324   0.0000000), wk =   0.0006662
        k( 1084) = (   0.4170000   0.2407551   0.0000000), wk =   0.0006662
        k( 1085) = (   0.4160000   0.2401777   0.0000000), wk =   0.0006662
        k( 1086) = (   0.4150000   0.2396004   0.0000000), wk =   0.0006662
        k( 1087) = (   0.4140000   0.2390230   0.0000000), wk =   0.0006662
        k( 1088) = (   0.4130000   0.2384457   0.0000000), wk =   0.0006662
        k( 1089) = (   0.4120000   0.2378683   0.0000000), wk =   0.0006662
        k( 1090) = (   0.4110000   0.2372910   0.0000000), wk =   0.0006662
        k( 1091) = (   0.4100000   0.2367136   0.0000000), wk =   0.0006662
        k( 1092) = (   0.4090000   0.2361363   0.0000000), wk =   0.0006662
        k( 1093) = (   0.4080000   0.2355589   0.0000000), wk =   0.0006662
        k( 1094) = (   0.4070000   0.2349816   0.0000000), wk =   0.0006662
        k( 1095) = (   0.4060000   0.2344042   0.0000000), wk =   0.0006662
        k( 1096) = (   0.4050000   0.2338269   0.0000000), wk =   0.0006662
        k( 1097) = (   0.4040000   0.2332495   0.0000000), wk =   0.0006662
        k( 1098) = (   0.4030000   0.2326722   0.0000000), wk =   0.0006662
        k( 1099) = (   0.4020000   0.2320948   0.0000000), wk =   0.0006662
        k( 1100) = (   0.4010000   0.2315175   0.0000000), wk =   0.0006662
        k( 1101) = (   0.4000000   0.2309401   0.0000000), wk =   0.0006662
        k( 1102) = (   0.3990000   0.2303628   0.0000000), wk =   0.0006662
        k( 1103) = (   0.3980000   0.2297854   0.0000000), wk =   0.0006662
        k( 1104) = (   0.3970000   0.2292081   0.0000000), wk =   0.0006662
        k( 1105) = (   0.3960000   0.2286307   0.0000000), wk =   0.0006662
        k( 1106) = (   0.3950000   0.2280534   0.0000000), wk =   0.0006662
        k( 1107) = (   0.3940000   0.2274760   0.0000000), wk =   0.0006662
        k( 1108) = (   0.3930000   0.2268987   0.0000000), wk =   0.0006662
        k( 1109) = (   0.3920000   0.2263213   0.0000000), wk =   0.0006662
        k( 1110) = (   0.3910000   0.2257440   0.0000000), wk =   0.0006662
        k( 1111) = (   0.3900000   0.2251666   0.0000000), wk =   0.0006662
        k( 1112) = (   0.3890000   0.2245893   0.0000000), wk =   0.0006662
        k( 1113) = (   0.3880000   0.2240119   0.0000000), wk =   0.0006662
        k( 1114) = (   0.3870000   0.2234346   0.0000000), wk =   0.0006662
        k( 1115) = (   0.3860000   0.2228572   0.0000000), wk =   0.0006662
        k( 1116) = (   0.3850000   0.2222799   0.0000000), wk =   0.0006662
        k( 1117) = (   0.3840000   0.2217025   0.0000000), wk =   0.0006662
        k( 1118) = (   0.3830000   0.2211252   0.0000000), wk =   0.0006662
        k( 1119) = (   0.3820000   0.2205478   0.0000000), wk =   0.0006662
        k( 1120) = (   0.3810000   0.2199705   0.0000000), wk =   0.0006662
        k( 1121) = (   0.3800000   0.2193931   0.0000000), wk =   0.0006662
        k( 1122) = (   0.3790000   0.2188158   0.0000000), wk =   0.0006662
        k( 1123) = (   0.3780000   0.2182384   0.0000000), wk =   0.0006662
        k( 1124) = (   0.3770000   0.2176611   0.0000000), wk =   0.0006662
        k( 1125) = (   0.3760000   0.2170837   0.0000000), wk =   0.0006662
        k( 1126) = (   0.3750000   0.2165064   0.0000000), wk =   0.0006662
        k( 1127) = (   0.3740000   0.2159290   0.0000000), wk =   0.0006662
        k( 1128) = (   0.3730000   0.2153517   0.0000000), wk =   0.0006662
        k( 1129) = (   0.3720000   0.2147743   0.0000000), wk =   0.0006662
        k( 1130) = (   0.3710000   0.2141969   0.0000000), wk =   0.0006662
        k( 1131) = (   0.3700000   0.2136196   0.0000000), wk =   0.0006662
        k( 1132) = (   0.3690000   0.2130422   0.0000000), wk =   0.0006662
        k( 1133) = (   0.3680000   0.2124649   0.0000000), wk =   0.0006662
        k( 1134) = (   0.3670000   0.2118875   0.0000000), wk =   0.0006662
        k( 1135) = (   0.3660000   0.2113102   0.0000000), wk =   0.0006662
        k( 1136) = (   0.3650000   0.2107328   0.0000000), wk =   0.0006662
        k( 1137) = (   0.3640000   0.2101555   0.0000000), wk =   0.0006662
        k( 1138) = (   0.3630000   0.2095781   0.0000000), wk =   0.0006662
        k( 1139) = (   0.3620000   0.2090008   0.0000000), wk =   0.0006662
        k( 1140) = (   0.3610000   0.2084234   0.0000000), wk =   0.0006662
        k( 1141) = (   0.3600000   0.2078461   0.0000000), wk =   0.0006662
        k( 1142) = (   0.3590000   0.2072687   0.0000000), wk =   0.0006662
        k( 1143) = (   0.3580000   0.2066914   0.0000000), wk =   0.0006662
        k( 1144) = (   0.3570000   0.2061140   0.0000000), wk =   0.0006662
        k( 1145) = (   0.3560000   0.2055367   0.0000000), wk =   0.0006662
        k( 1146) = (   0.3550000   0.2049593   0.0000000), wk =   0.0006662
        k( 1147) = (   0.3540000   0.2043820   0.0000000), wk =   0.0006662
        k( 1148) = (   0.3530000   0.2038046   0.0000000), wk =   0.0006662
        k( 1149) = (   0.3520000   0.2032273   0.0000000), wk =   0.0006662
        k( 1150) = (   0.3510000   0.2026499   0.0000000), wk =   0.0006662
        k( 1151) = (   0.3500000   0.2020726   0.0000000), wk =   0.0006662
        k( 1152) = (   0.3490000   0.2014952   0.0000000), wk =   0.0006662
        k( 1153) = (   0.3480000   0.2009179   0.0000000), wk =   0.0006662
        k( 1154) = (   0.3470000   0.2003405   0.0000000), wk =   0.0006662
        k( 1155) = (   0.3460000   0.1997632   0.0000000), wk =   0.0006662
        k( 1156) = (   0.3450000   0.1991858   0.0000000), wk =   0.0006662
        k( 1157) = (   0.3440000   0.1986085   0.0000000), wk =   0.0006662
        k( 1158) = (   0.3430000   0.1980311   0.0000000), wk =   0.0006662
        k( 1159) = (   0.3420000   0.1974538   0.0000000), wk =   0.0006662
        k( 1160) = (   0.3410000   0.1968764   0.0000000), wk =   0.0006662
        k( 1161) = (   0.3400000   0.1962991   0.0000000), wk =   0.0006662
        k( 1162) = (   0.3390000   0.1957217   0.0000000), wk =   0.0006662
        k( 1163) = (   0.3380000   0.1951444   0.0000000), wk =   0.0006662
        k( 1164) = (   0.3370000   0.1945670   0.0000000), wk =   0.0006662
        k( 1165) = (   0.3360000   0.1939897   0.0000000), wk =   0.0006662
        k( 1166) = (   0.3350000   0.1934123   0.0000000), wk =   0.0006662
        k( 1167) = (   0.3340000   0.1928350   0.0000000), wk =   0.0006662
        k( 1168) = (   0.3330000   0.1922576   0.0000000), wk =   0.0006662
        k( 1169) = (   0.3320000   0.1916803   0.0000000), wk =   0.0006662
        k( 1170) = (   0.3310000   0.1911029   0.0000000), wk =   0.0006662
        k( 1171) = (   0.3300000   0.1905256   0.0000000), wk =   0.0006662
        k( 1172) = (   0.3290000   0.1899482   0.0000000), wk =   0.0006662
        k( 1173) = (   0.3280000   0.1893709   0.0000000), wk =   0.0006662
        k( 1174) = (   0.3270000   0.1887935   0.0000000), wk =   0.0006662
        k( 1175) = (   0.3260000   0.1882162   0.0000000), wk =   0.0006662
        k( 1176) = (   0.3250000   0.1876388   0.0000000), wk =   0.0006662
        k( 1177) = (   0.3240000   0.1870615   0.0000000), wk =   0.0006662
        k( 1178) = (   0.3230000   0.1864841   0.0000000), wk =   0.0006662
        k( 1179) = (   0.3220000   0.1859068   0.0000000), wk =   0.0006662
        k( 1180) = (   0.3210000   0.1853294   0.0000000), wk =   0.0006662
        k( 1181) = (   0.3200000   0.1847521   0.0000000), wk =   0.0006662
        k( 1182) = (   0.3190000   0.1841747   0.0000000), wk =   0.0006662
        k( 1183) = (   0.3180000   0.1835974   0.0000000), wk =   0.0006662
        k( 1184) = (   0.3170000   0.1830200   0.0000000), wk =   0.0006662
        k( 1185) = (   0.3160000   0.1824427   0.0000000), wk =   0.0006662
        k( 1186) = (   0.3150000   0.1818653   0.0000000), wk =   0.0006662
        k( 1187) = (   0.3140000   0.1812880   0.0000000), wk =   0.0006662
        k( 1188) = (   0.3130000   0.1807106   0.0000000), wk =   0.0006662
        k( 1189) = (   0.3120000   0.1801333   0.0000000), wk =   0.0006662
        k( 1190) = (   0.3110000   0.1795559   0.0000000), wk =   0.0006662
        k( 1191) = (   0.3100000   0.1789786   0.0000000), wk =   0.0006662
        k( 1192) = (   0.3090000   0.1784012   0.0000000), wk =   0.0006662
        k( 1193) = (   0.3080000   0.1778239   0.0000000), wk =   0.0006662
        k( 1194) = (   0.3070000   0.1772465   0.0000000), wk =   0.0006662
        k( 1195) = (   0.3060000   0.1766692   0.0000000), wk =   0.0006662
        k( 1196) = (   0.3050000   0.1760918   0.0000000), wk =   0.0006662
        k( 1197) = (   0.3040000   0.1755145   0.0000000), wk =   0.0006662
        k( 1198) = (   0.3030000   0.1749371   0.0000000), wk =   0.0006662
        k( 1199) = (   0.3020000   0.1743598   0.0000000), wk =   0.0006662
        k( 1200) = (   0.3010000   0.1737824   0.0000000), wk =   0.0006662
        k( 1201) = (   0.3000000   0.1732051   0.0000000), wk =   0.0006662
        k( 1202) = (   0.2990000   0.1726277   0.0000000), wk =   0.0006662
        k( 1203) = (   0.2980000   0.1720504   0.0000000), wk =   0.0006662
        k( 1204) = (   0.2970000   0.1714730   0.0000000), wk =   0.0006662
        k( 1205) = (   0.2960000   0.1708957   0.0000000), wk =   0.0006662
        k( 1206) = (   0.2950000   0.1703183   0.0000000), wk =   0.0006662
        k( 1207) = (   0.2940000   0.1697410   0.0000000), wk =   0.0006662
        k( 1208) = (   0.2930000   0.1691636   0.0000000), wk =   0.0006662
        k( 1209) = (   0.2920000   0.1685863   0.0000000), wk =   0.0006662
        k( 1210) = (   0.2910000   0.1680089   0.0000000), wk =   0.0006662
        k( 1211) = (   0.2900000   0.1674316   0.0000000), wk =   0.0006662
        k( 1212) = (   0.2890000   0.1668542   0.0000000), wk =   0.0006662
        k( 1213) = (   0.2880000   0.1662769   0.0000000), wk =   0.0006662
        k( 1214) = (   0.2870000   0.1656995   0.0000000), wk =   0.0006662
        k( 1215) = (   0.2860000   0.1651222   0.0000000), wk =   0.0006662
        k( 1216) = (   0.2850000   0.1645448   0.0000000), wk =   0.0006662
        k( 1217) = (   0.2840000   0.1639675   0.0000000), wk =   0.0006662
        k( 1218) = (   0.2830000   0.1633901   0.0000000), wk =   0.0006662
        k( 1219) = (   0.2820000   0.1628128   0.0000000), wk =   0.0006662
        k( 1220) = (   0.2810000   0.1622354   0.0000000), wk =   0.0006662
        k( 1221) = (   0.2800000   0.1616581   0.0000000), wk =   0.0006662
        k( 1222) = (   0.2790000   0.1610807   0.0000000), wk =   0.0006662
        k( 1223) = (   0.2780000   0.1605034   0.0000000), wk =   0.0006662
        k( 1224) = (   0.2770000   0.1599260   0.0000000), wk =   0.0006662
        k( 1225) = (   0.2760000   0.1593487   0.0000000), wk =   0.0006662
        k( 1226) = (   0.2750000   0.1587713   0.0000000), wk =   0.0006662
        k( 1227) = (   0.2740000   0.1581940   0.0000000), wk =   0.0006662
        k( 1228) = (   0.2730000   0.1576166   0.0000000), wk =   0.0006662
        k( 1229) = (   0.2720000   0.1570393   0.0000000), wk =   0.0006662
        k( 1230) = (   0.2710000   0.1564619   0.0000000), wk =   0.0006662
        k( 1231) = (   0.2700000   0.1558846   0.0000000), wk =   0.0006662
        k( 1232) = (   0.2690000   0.1553072   0.0000000), wk =   0.0006662
        k( 1233) = (   0.2680000   0.1547299   0.0000000), wk =   0.0006662
        k( 1234) = (   0.2670000   0.1541525   0.0000000), wk =   0.0006662
        k( 1235) = (   0.2660000   0.1535752   0.0000000), wk =   0.0006662
        k( 1236) = (   0.2650000   0.1529978   0.0000000), wk =   0.0006662
        k( 1237) = (   0.2640000   0.1524205   0.0000000), wk =   0.0006662
        k( 1238) = (   0.2630000   0.1518431   0.0000000), wk =   0.0006662
        k( 1239) = (   0.2620000   0.1512658   0.0000000), wk =   0.0006662
        k( 1240) = (   0.2610000   0.1506884   0.0000000), wk =   0.0006662
        k( 1241) = (   0.2600000   0.1501111   0.0000000), wk =   0.0006662
        k( 1242) = (   0.2590000   0.1495337   0.0000000), wk =   0.0006662
        k( 1243) = (   0.2580000   0.1489564   0.0000000), wk =   0.0006662
        k( 1244) = (   0.2570000   0.1483790   0.0000000), wk =   0.0006662
        k( 1245) = (   0.2560000   0.1478017   0.0000000), wk =   0.0006662
        k( 1246) = (   0.2550000   0.1472243   0.0000000), wk =   0.0006662
        k( 1247) = (   0.2540000   0.1466470   0.0000000), wk =   0.0006662
        k( 1248) = (   0.2530000   0.1460696   0.0000000), wk =   0.0006662
        k( 1249) = (   0.2520000   0.1454923   0.0000000), wk =   0.0006662
        k( 1250) = (   0.2510000   0.1449149   0.0000000), wk =   0.0006662
        k( 1251) = (   0.2500000   0.1443376   0.0000000), wk =   0.0006662
        k( 1252) = (   0.2490000   0.1437602   0.0000000), wk =   0.0006662
        k( 1253) = (   0.2480000   0.1431829   0.0000000), wk =   0.0006662
        k( 1254) = (   0.2470000   0.1426055   0.0000000), wk =   0.0006662
        k( 1255) = (   0.2460000   0.1420282   0.0000000), wk =   0.0006662
        k( 1256) = (   0.2450000   0.1414508   0.0000000), wk =   0.0006662
        k( 1257) = (   0.2440000   0.1408735   0.0000000), wk =   0.0006662
        k( 1258) = (   0.2430000   0.1402961   0.0000000), wk =   0.0006662
        k( 1259) = (   0.2420000   0.1397188   0.0000000), wk =   0.0006662
        k( 1260) = (   0.2410000   0.1391414   0.0000000), wk =   0.0006662
        k( 1261) = (   0.2400000   0.1385641   0.0000000), wk =   0.0006662
        k( 1262) = (   0.2390000   0.1379867   0.0000000), wk =   0.0006662
        k( 1263) = (   0.2380000   0.1374094   0.0000000), wk =   0.0006662
        k( 1264) = (   0.2370000   0.1368320   0.0000000), wk =   0.0006662
        k( 1265) = (   0.2360000   0.1362547   0.0000000), wk =   0.0006662
        k( 1266) = (   0.2350000   0.1356773   0.0000000), wk =   0.0006662
        k( 1267) = (   0.2340000   0.1351000   0.0000000), wk =   0.0006662
        k( 1268) = (   0.2330000   0.1345226   0.0000000), wk =   0.0006662
        k( 1269) = (   0.2320000   0.1339453   0.0000000), wk =   0.0006662
        k( 1270) = (   0.2310000   0.1333679   0.0000000), wk =   0.0006662
        k( 1271) = (   0.2300000   0.1327906   0.0000000), wk =   0.0006662
        k( 1272) = (   0.2290000   0.1322132   0.0000000), wk =   0.0006662
        k( 1273) = (   0.2280000   0.1316359   0.0000000), wk =   0.0006662
        k( 1274) = (   0.2270000   0.1310585   0.0000000), wk =   0.0006662
        k( 1275) = (   0.2260000   0.1304812   0.0000000), wk =   0.0006662
        k( 1276) = (   0.2250000   0.1299038   0.0000000), wk =   0.0006662
        k( 1277) = (   0.2240000   0.1293265   0.0000000), wk =   0.0006662
        k( 1278) = (   0.2230000   0.1287491   0.0000000), wk =   0.0006662
        k( 1279) = (   0.2220000   0.1281718   0.0000000), wk =   0.0006662
        k( 1280) = (   0.2210000   0.1275944   0.0000000), wk =   0.0006662
        k( 1281) = (   0.2200000   0.1270171   0.0000000), wk =   0.0006662
        k( 1282) = (   0.2190000   0.1264397   0.0000000), wk =   0.0006662
        k( 1283) = (   0.2180000   0.1258624   0.0000000), wk =   0.0006662
        k( 1284) = (   0.2170000   0.1252850   0.0000000), wk =   0.0006662
        k( 1285) = (   0.2160000   0.1247077   0.0000000), wk =   0.0006662
        k( 1286) = (   0.2150000   0.1241303   0.0000000), wk =   0.0006662
        k( 1287) = (   0.2140000   0.1235530   0.0000000), wk =   0.0006662
        k( 1288) = (   0.2130000   0.1229756   0.0000000), wk =   0.0006662
        k( 1289) = (   0.2120000   0.1223983   0.0000000), wk =   0.0006662
        k( 1290) = (   0.2110000   0.1218209   0.0000000), wk =   0.0006662
        k( 1291) = (   0.2100000   0.1212436   0.0000000), wk =   0.0006662
        k( 1292) = (   0.2090000   0.1206662   0.0000000), wk =   0.0006662
        k( 1293) = (   0.2080000   0.1200889   0.0000000), wk =   0.0006662
        k( 1294) = (   0.2070000   0.1195115   0.0000000), wk =   0.0006662
        k( 1295) = (   0.2060000   0.1189342   0.0000000), wk =   0.0006662
        k( 1296) = (   0.2050000   0.1183568   0.0000000), wk =   0.0006662
        k( 1297) = (   0.2040000   0.1177795   0.0000000), wk =   0.0006662
        k( 1298) = (   0.2030000   0.1172021   0.0000000), wk =   0.0006662
        k( 1299) = (   0.2020000   0.1166248   0.0000000), wk =   0.0006662
        k( 1300) = (   0.2010000   0.1160474   0.0000000), wk =   0.0006662
        k( 1301) = (   0.2000000   0.1154701   0.0000000), wk =   0.0006662
        k( 1302) = (   0.1990000   0.1148927   0.0000000), wk =   0.0006662
        k( 1303) = (   0.1980000   0.1143154   0.0000000), wk =   0.0006662
        k( 1304) = (   0.1970000   0.1137380   0.0000000), wk =   0.0006662
        k( 1305) = (   0.1960000   0.1131607   0.0000000), wk =   0.0006662
        k( 1306) = (   0.1950000   0.1125833   0.0000000), wk =   0.0006662
        k( 1307) = (   0.1940000   0.1120060   0.0000000), wk =   0.0006662
        k( 1308) = (   0.1930000   0.1114286   0.0000000), wk =   0.0006662
        k( 1309) = (   0.1920000   0.1108513   0.0000000), wk =   0.0006662
        k( 1310) = (   0.1910000   0.1102739   0.0000000), wk =   0.0006662
        k( 1311) = (   0.1900000   0.1096966   0.0000000), wk =   0.0006662
        k( 1312) = (   0.1890000   0.1091192   0.0000000), wk =   0.0006662
        k( 1313) = (   0.1880000   0.1085419   0.0000000), wk =   0.0006662
        k( 1314) = (   0.1870000   0.1079645   0.0000000), wk =   0.0006662
        k( 1315) = (   0.1860000   0.1073872   0.0000000), wk =   0.0006662
        k( 1316) = (   0.1850000   0.1068098   0.0000000), wk =   0.0006662
        k( 1317) = (   0.1840000   0.1062324   0.0000000), wk =   0.0006662
        k( 1318) = (   0.1830000   0.1056551   0.0000000), wk =   0.0006662
        k( 1319) = (   0.1820000   0.1050777   0.0000000), wk =   0.0006662
        k( 1320) = (   0.1810000   0.1045004   0.0000000), wk =   0.0006662
        k( 1321) = (   0.1800000   0.1039230   0.0000000), wk =   0.0006662
        k( 1322) = (   0.1790000   0.1033457   0.0000000), wk =   0.0006662
        k( 1323) = (   0.1780000   0.1027683   0.0000000), wk =   0.0006662
        k( 1324) = (   0.1770000   0.1021910   0.0000000), wk =   0.0006662
        k( 1325) = (   0.1760000   0.1016136   0.0000000), wk =   0.0006662
        k( 1326) = (   0.1750000   0.1010363   0.0000000), wk =   0.0006662
        k( 1327) = (   0.1740000   0.1004589   0.0000000), wk =   0.0006662
        k( 1328) = (   0.1730000   0.0998816   0.0000000), wk =   0.0006662
        k( 1329) = (   0.1720000   0.0993042   0.0000000), wk =   0.0006662
        k( 1330) = (   0.1710000   0.0987269   0.0000000), wk =   0.0006662
        k( 1331) = (   0.1700000   0.0981495   0.0000000), wk =   0.0006662
        k( 1332) = (   0.1690000   0.0975722   0.0000000), wk =   0.0006662
        k( 1333) = (   0.1680000   0.0969948   0.0000000), wk =   0.0006662
        k( 1334) = (   0.1670000   0.0964175   0.0000000), wk =   0.0006662
        k( 1335) = (   0.1660000   0.0958401   0.0000000), wk =   0.0006662
        k( 1336) = (   0.1650000   0.0952628   0.0000000), wk =   0.0006662
        k( 1337) = (   0.1640000   0.0946854   0.0000000), wk =   0.0006662
        k( 1338) = (   0.1630000   0.0941081   0.0000000), wk =   0.0006662
        k( 1339) = (   0.1620000   0.0935307   0.0000000), wk =   0.0006662
        k( 1340) = (   0.1610000   0.0929534   0.0000000), wk =   0.0006662
        k( 1341) = (   0.1600000   0.0923760   0.0000000), wk =   0.0006662
        k( 1342) = (   0.1590000   0.0917987   0.0000000), wk =   0.0006662
        k( 1343) = (   0.1580000   0.0912213   0.0000000), wk =   0.0006662
        k( 1344) = (   0.1570000   0.0906440   0.0000000), wk =   0.0006662
        k( 1345) = (   0.1560000   0.0900666   0.0000000), wk =   0.0006662
        k( 1346) = (   0.1550000   0.0894893   0.0000000), wk =   0.0006662
        k( 1347) = (   0.1540000   0.0889119   0.0000000), wk =   0.0006662
        k( 1348) = (   0.1530000   0.0883346   0.0000000), wk =   0.0006662
        k( 1349) = (   0.1520000   0.0877572   0.0000000), wk =   0.0006662
        k( 1350) = (   0.1510000   0.0871799   0.0000000), wk =   0.0006662
        k( 1351) = (   0.1500000   0.0866025   0.0000000), wk =   0.0006662
        k( 1352) = (   0.1490000   0.0860252   0.0000000), wk =   0.0006662
        k( 1353) = (   0.1480000   0.0854478   0.0000000), wk =   0.0006662
        k( 1354) = (   0.1470000   0.0848705   0.0000000), wk =   0.0006662
        k( 1355) = (   0.1460000   0.0842931   0.0000000), wk =   0.0006662
        k( 1356) = (   0.1450000   0.0837158   0.0000000), wk =   0.0006662
        k( 1357) = (   0.1440000   0.0831384   0.0000000), wk =   0.0006662
        k( 1358) = (   0.1430000   0.0825611   0.0000000), wk =   0.0006662
        k( 1359) = (   0.1420000   0.0819837   0.0000000), wk =   0.0006662
        k( 1360) = (   0.1410000   0.0814064   0.0000000), wk =   0.0006662
        k( 1361) = (   0.1400000   0.0808290   0.0000000), wk =   0.0006662
        k( 1362) = (   0.1390000   0.0802517   0.0000000), wk =   0.0006662
        k( 1363) = (   0.1380000   0.0796743   0.0000000), wk =   0.0006662
        k( 1364) = (   0.1370000   0.0790970   0.0000000), wk =   0.0006662
        k( 1365) = (   0.1360000   0.0785196   0.0000000), wk =   0.0006662
        k( 1366) = (   0.1350000   0.0779423   0.0000000), wk =   0.0006662
        k( 1367) = (   0.1340000   0.0773649   0.0000000), wk =   0.0006662
        k( 1368) = (   0.1330000   0.0767876   0.0000000), wk =   0.0006662
        k( 1369) = (   0.1320000   0.0762102   0.0000000), wk =   0.0006662
        k( 1370) = (   0.1310000   0.0756329   0.0000000), wk =   0.0006662
        k( 1371) = (   0.1300000   0.0750555   0.0000000), wk =   0.0006662
        k( 1372) = (   0.1290000   0.0744782   0.0000000), wk =   0.0006662
        k( 1373) = (   0.1280000   0.0739008   0.0000000), wk =   0.0006662
        k( 1374) = (   0.1270000   0.0733235   0.0000000), wk =   0.0006662
        k( 1375) = (   0.1260000   0.0727461   0.0000000), wk =   0.0006662
        k( 1376) = (   0.1250000   0.0721688   0.0000000), wk =   0.0006662
        k( 1377) = (   0.1240000   0.0715914   0.0000000), wk =   0.0006662
        k( 1378) = (   0.1230000   0.0710141   0.0000000), wk =   0.0006662
        k( 1379) = (   0.1220000   0.0704367   0.0000000), wk =   0.0006662
        k( 1380) = (   0.1210000   0.0698594   0.0000000), wk =   0.0006662
        k( 1381) = (   0.1200000   0.0692820   0.0000000), wk =   0.0006662
        k( 1382) = (   0.1190000   0.0687047   0.0000000), wk =   0.0006662
        k( 1383) = (   0.1180000   0.0681273   0.0000000), wk =   0.0006662
        k( 1384) = (   0.1170000   0.0675500   0.0000000), wk =   0.0006662
        k( 1385) = (   0.1160000   0.0669726   0.0000000), wk =   0.0006662
        k( 1386) = (   0.1150000   0.0663953   0.0000000), wk =   0.0006662
        k( 1387) = (   0.1140000   0.0658179   0.0000000), wk =   0.0006662
        k( 1388) = (   0.1130000   0.0652406   0.0000000), wk =   0.0006662
        k( 1389) = (   0.1120000   0.0646632   0.0000000), wk =   0.0006662
        k( 1390) = (   0.1110000   0.0640859   0.0000000), wk =   0.0006662
        k( 1391) = (   0.1100000   0.0635085   0.0000000), wk =   0.0006662
        k( 1392) = (   0.1090000   0.0629312   0.0000000), wk =   0.0006662
        k( 1393) = (   0.1080000   0.0623538   0.0000000), wk =   0.0006662
        k( 1394) = (   0.1070000   0.0617765   0.0000000), wk =   0.0006662
        k( 1395) = (   0.1060000   0.0611991   0.0000000), wk =   0.0006662
        k( 1396) = (   0.1050000   0.0606218   0.0000000), wk =   0.0006662
        k( 1397) = (   0.1040000   0.0600444   0.0000000), wk =   0.0006662
        k( 1398) = (   0.1030000   0.0594671   0.0000000), wk =   0.0006662
        k( 1399) = (   0.1020000   0.0588897   0.0000000), wk =   0.0006662
        k( 1400) = (   0.1010000   0.0583124   0.0000000), wk =   0.0006662
        k( 1401) = (   0.1000000   0.0577350   0.0000000), wk =   0.0006662
        k( 1402) = (   0.0990000   0.0571577   0.0000000), wk =   0.0006662
        k( 1403) = (   0.0980000   0.0565803   0.0000000), wk =   0.0006662
        k( 1404) = (   0.0970000   0.0560030   0.0000000), wk =   0.0006662
        k( 1405) = (   0.0960000   0.0554256   0.0000000), wk =   0.0006662
        k( 1406) = (   0.0950000   0.0548483   0.0000000), wk =   0.0006662
        k( 1407) = (   0.0940000   0.0542709   0.0000000), wk =   0.0006662
        k( 1408) = (   0.0930000   0.0536936   0.0000000), wk =   0.0006662
        k( 1409) = (   0.0920000   0.0531162   0.0000000), wk =   0.0006662
        k( 1410) = (   0.0910000   0.0525389   0.0000000), wk =   0.0006662
        k( 1411) = (   0.0900000   0.0519615   0.0000000), wk =   0.0006662
        k( 1412) = (   0.0890000   0.0513842   0.0000000), wk =   0.0006662
        k( 1413) = (   0.0880000   0.0508068   0.0000000), wk =   0.0006662
        k( 1414) = (   0.0870000   0.0502295   0.0000000), wk =   0.0006662
        k( 1415) = (   0.0860000   0.0496521   0.0000000), wk =   0.0006662
        k( 1416) = (   0.0850000   0.0490748   0.0000000), wk =   0.0006662
        k( 1417) = (   0.0840000   0.0484974   0.0000000), wk =   0.0006662
        k( 1418) = (   0.0830000   0.0479201   0.0000000), wk =   0.0006662
        k( 1419) = (   0.0820000   0.0473427   0.0000000), wk =   0.0006662
        k( 1420) = (   0.0810000   0.0467654   0.0000000), wk =   0.0006662
        k( 1421) = (   0.0800000   0.0461880   0.0000000), wk =   0.0006662
        k( 1422) = (   0.0790000   0.0456107   0.0000000), wk =   0.0006662
        k( 1423) = (   0.0780000   0.0450333   0.0000000), wk =   0.0006662
        k( 1424) = (   0.0770000   0.0444560   0.0000000), wk =   0.0006662
        k( 1425) = (   0.0760000   0.0438786   0.0000000), wk =   0.0006662
        k( 1426) = (   0.0750000   0.0433013   0.0000000), wk =   0.0006662
        k( 1427) = (   0.0740000   0.0427239   0.0000000), wk =   0.0006662
        k( 1428) = (   0.0730000   0.0421466   0.0000000), wk =   0.0006662
        k( 1429) = (   0.0720000   0.0415692   0.0000000), wk =   0.0006662
        k( 1430) = (   0.0710000   0.0409919   0.0000000), wk =   0.0006662
        k( 1431) = (   0.0700000   0.0404145   0.0000000), wk =   0.0006662
        k( 1432) = (   0.0690000   0.0398372   0.0000000), wk =   0.0006662
        k( 1433) = (   0.0680000   0.0392598   0.0000000), wk =   0.0006662
        k( 1434) = (   0.0670000   0.0386825   0.0000000), wk =   0.0006662
        k( 1435) = (   0.0660000   0.0381051   0.0000000), wk =   0.0006662
        k( 1436) = (   0.0650000   0.0375278   0.0000000), wk =   0.0006662
        k( 1437) = (   0.0640000   0.0369504   0.0000000), wk =   0.0006662
        k( 1438) = (   0.0630000   0.0363731   0.0000000), wk =   0.0006662
        k( 1439) = (   0.0620000   0.0357957   0.0000000), wk =   0.0006662
        k( 1440) = (   0.0610000   0.0352184   0.0000000), wk =   0.0006662
        k( 1441) = (   0.0600000   0.0346410   0.0000000), wk =   0.0006662
        k( 1442) = (   0.0590000   0.0340637   0.0000000), wk =   0.0006662
        k( 1443) = (   0.0580000   0.0334863   0.0000000), wk =   0.0006662
        k( 1444) = (   0.0570000   0.0329090   0.0000000), wk =   0.0006662
        k( 1445) = (   0.0560000   0.0323316   0.0000000), wk =   0.0006662
        k( 1446) = (   0.0550000   0.0317543   0.0000000), wk =   0.0006662
        k( 1447) = (   0.0540000   0.0311769   0.0000000), wk =   0.0006662
        k( 1448) = (   0.0530000   0.0305996   0.0000000), wk =   0.0006662
        k( 1449) = (   0.0520000   0.0300222   0.0000000), wk =   0.0006662
        k( 1450) = (   0.0510000   0.0294449   0.0000000), wk =   0.0006662
        k( 1451) = (   0.0500000   0.0288675   0.0000000), wk =   0.0006662
        k( 1452) = (   0.0490000   0.0282902   0.0000000), wk =   0.0006662
        k( 1453) = (   0.0480000   0.0277128   0.0000000), wk =   0.0006662
        k( 1454) = (   0.0470000   0.0271355   0.0000000), wk =   0.0006662
        k( 1455) = (   0.0460000   0.0265581   0.0000000), wk =   0.0006662
        k( 1456) = (   0.0450000   0.0259808   0.0000000), wk =   0.0006662
        k( 1457) = (   0.0440000   0.0254034   0.0000000), wk =   0.0006662
        k( 1458) = (   0.0430000   0.0248261   0.0000000), wk =   0.0006662
        k( 1459) = (   0.0420000   0.0242487   0.0000000), wk =   0.0006662
        k( 1460) = (   0.0410000   0.0236714   0.0000000), wk =   0.0006662
        k( 1461) = (   0.0400000   0.0230940   0.0000000), wk =   0.0006662
        k( 1462) = (   0.0390000   0.0225167   0.0000000), wk =   0.0006662
        k( 1463) = (   0.0380000   0.0219393   0.0000000), wk =   0.0006662
        k( 1464) = (   0.0370000   0.0213620   0.0000000), wk =   0.0006662
        k( 1465) = (   0.0360000   0.0207846   0.0000000), wk =   0.0006662
        k( 1466) = (   0.0350000   0.0202073   0.0000000), wk =   0.0006662
        k( 1467) = (   0.0340000   0.0196299   0.0000000), wk =   0.0006662
        k( 1468) = (   0.0330000   0.0190526   0.0000000), wk =   0.0006662
        k( 1469) = (   0.0320000   0.0184752   0.0000000), wk =   0.0006662
        k( 1470) = (   0.0310000   0.0178979   0.0000000), wk =   0.0006662
        k( 1471) = (   0.0300000   0.0173205   0.0000000), wk =   0.0006662
        k( 1472) = (   0.0290000   0.0167432   0.0000000), wk =   0.0006662
        k( 1473) = (   0.0280000   0.0161658   0.0000000), wk =   0.0006662
        k( 1474) = (   0.0270000   0.0155885   0.0000000), wk =   0.0006662
        k( 1475) = (   0.0260000   0.0150111   0.0000000), wk =   0.0006662
        k( 1476) = (   0.0250000   0.0144338   0.0000000), wk =   0.0006662
        k( 1477) = (   0.0240000   0.0138564   0.0000000), wk =   0.0006662
        k( 1478) = (   0.0230000   0.0132791   0.0000000), wk =   0.0006662
        k( 1479) = (   0.0220000   0.0127017   0.0000000), wk =   0.0006662
        k( 1480) = (   0.0210000   0.0121244   0.0000000), wk =   0.0006662
        k( 1481) = (   0.0200000   0.0115470   0.0000000), wk =   0.0006662
        k( 1482) = (   0.0190000   0.0109697   0.0000000), wk =   0.0006662
        k( 1483) = (   0.0180000   0.0103923   0.0000000), wk =   0.0006662
        k( 1484) = (   0.0170000   0.0098150   0.0000000), wk =   0.0006662
        k( 1485) = (   0.0160000   0.0092376   0.0000000), wk =   0.0006662
        k( 1486) = (   0.0150000   0.0086603   0.0000000), wk =   0.0006662
        k( 1487) = (   0.0140000   0.0080829   0.0000000), wk =   0.0006662
        k( 1488) = (   0.0130000   0.0075056   0.0000000), wk =   0.0006662
        k( 1489) = (   0.0120000   0.0069282   0.0000000), wk =   0.0006662
        k( 1490) = (   0.0110000   0.0063509   0.0000000), wk =   0.0006662
        k( 1491) = (   0.0100000   0.0057735   0.0000000), wk =   0.0006662
        k( 1492) = (   0.0090000   0.0051962   0.0000000), wk =   0.0006662
        k( 1493) = (   0.0080000   0.0046188   0.0000000), wk =   0.0006662
        k( 1494) = (   0.0070000   0.0040415   0.0000000), wk =   0.0006662
        k( 1495) = (   0.0060000   0.0034641   0.0000000), wk =   0.0006662
        k( 1496) = (   0.0050000   0.0028868   0.0000000), wk =   0.0006662
        k( 1497) = (   0.0040000   0.0023094   0.0000000), wk =   0.0006662
        k( 1498) = (   0.0030000   0.0017321   0.0000000), wk =   0.0006662
        k( 1499) = (   0.0020000   0.0011547   0.0000000), wk =   0.0006662
        k( 1500) = (   0.0010000   0.0005774   0.0000000), wk =   0.0006662
        k( 1501) = (   0.0000000   0.0000000   0.0000000), wk =   0.0006662

                       cryst. coord.
        k(    1) = (   0.0000000   0.0000000   0.0000000), wk =   0.0006662
        k(    2) = (   0.0006667   0.0006667   0.0000000), wk =   0.0006662
        k(    3) = (   0.0013333   0.0013333   0.0000000), wk =   0.0006662
        k(    4) = (   0.0020000   0.0020000   0.0000000), wk =   0.0006662
        k(    5) = (   0.0026667   0.0026667   0.0000000), wk =   0.0006662
        k(    6) = (   0.0033333   0.0033333   0.0000000), wk =   0.0006662
        k(    7) = (   0.0040000   0.0040000   0.0000000), wk =   0.0006662
        k(    8) = (   0.0046667   0.0046667   0.0000000), wk =   0.0006662
        k(    9) = (   0.0053333   0.0053333   0.0000000), wk =   0.0006662
        k(   10) = (   0.0060000   0.0060000   0.0000000), wk =   0.0006662
        k(   11) = (   0.0066667   0.0066667   0.0000000), wk =   0.0006662
        k(   12) = (   0.0073333   0.0073333   0.0000000), wk =   0.0006662
        k(   13) = (   0.0080000   0.0080000   0.0000000), wk =   0.0006662
        k(   14) = (   0.0086667   0.0086667   0.0000000), wk =   0.0006662
        k(   15) = (   0.0093333   0.0093333   0.0000000), wk =   0.0006662
        k(   16) = (   0.0100000   0.0100000   0.0000000), wk =   0.0006662
        k(   17) = (   0.0106667   0.0106667   0.0000000), wk =   0.0006662
        k(   18) = (   0.0113333   0.0113333   0.0000000), wk =   0.0006662
        k(   19) = (   0.0120000   0.0120000   0.0000000), wk =   0.0006662
        k(   20) = (   0.0126667   0.0126667   0.0000000), wk =   0.0006662
        k(   21) = (   0.0133333   0.0133333   0.0000000), wk =   0.0006662
        k(   22) = (   0.0140000   0.0140000   0.0000000), wk =   0.0006662
        k(   23) = (   0.0146667   0.0146667   0.0000000), wk =   0.0006662
        k(   24) = (   0.0153333   0.0153333   0.0000000), wk =   0.0006662
        k(   25) = (   0.0160000   0.0160000   0.0000000), wk =   0.0006662
        k(   26) = (   0.0166667   0.0166667   0.0000000), wk =   0.0006662
        k(   27) = (   0.0173333   0.0173333   0.0000000), wk =   0.0006662
        k(   28) = (   0.0180000   0.0180000   0.0000000), wk =   0.0006662
        k(   29) = (   0.0186667   0.0186667   0.0000000), wk =   0.0006662
        k(   30) = (   0.0193333   0.0193333   0.0000000), wk =   0.0006662
        k(   31) = (   0.0200000   0.0200000   0.0000000), wk =   0.0006662
        k(   32) = (   0.0206667   0.0206667   0.0000000), wk =   0.0006662
        k(   33) = (   0.0213333   0.0213333   0.0000000), wk =   0.0006662
        k(   34) = (   0.0220000   0.0220000   0.0000000), wk =   0.0006662
        k(   35) = (   0.0226667   0.0226667   0.0000000), wk =   0.0006662
        k(   36) = (   0.0233333   0.0233333   0.0000000), wk =   0.0006662
        k(   37) = (   0.0240000   0.0240000   0.0000000), wk =   0.0006662
        k(   38) = (   0.0246667   0.0246667   0.0000000), wk =   0.0006662
        k(   39) = (   0.0253333   0.0253333   0.0000000), wk =   0.0006662
        k(   40) = (   0.0260000   0.0260000   0.0000000), wk =   0.0006662
        k(   41) = (   0.0266667   0.0266667   0.0000000), wk =   0.0006662
        k(   42) = (   0.0273333   0.0273333   0.0000000), wk =   0.0006662
        k(   43) = (   0.0280000   0.0280000   0.0000000), wk =   0.0006662
        k(   44) = (   0.0286667   0.0286667   0.0000000), wk =   0.0006662
        k(   45) = (   0.0293333   0.0293333   0.0000000), wk =   0.0006662
        k(   46) = (   0.0300000   0.0300000   0.0000000), wk =   0.0006662
        k(   47) = (   0.0306667   0.0306667   0.0000000), wk =   0.0006662
        k(   48) = (   0.0313333   0.0313333   0.0000000), wk =   0.0006662
        k(   49) = (   0.0320000   0.0320000   0.0000000), wk =   0.0006662
        k(   50) = (   0.0326667   0.0326667   0.0000000), wk =   0.0006662
        k(   51) = (   0.0333333   0.0333333   0.0000000), wk =   0.0006662
        k(   52) = (   0.0340000   0.0340000   0.0000000), wk =   0.0006662
        k(   53) = (   0.0346667   0.0346667   0.0000000), wk =   0.0006662
        k(   54) = (   0.0353333   0.0353333   0.0000000), wk =   0.0006662
        k(   55) = (   0.0360000   0.0360000   0.0000000), wk =   0.0006662
        k(   56) = (   0.0366667   0.0366667   0.0000000), wk =   0.0006662
        k(   57) = (   0.0373333   0.0373333   0.0000000), wk =   0.0006662
        k(   58) = (   0.0380000   0.0380000   0.0000000), wk =   0.0006662
        k(   59) = (   0.0386667   0.0386667   0.0000000), wk =   0.0006662
        k(   60) = (   0.0393333   0.0393333   0.0000000), wk =   0.0006662
        k(   61) = (   0.0400000   0.0400000   0.0000000), wk =   0.0006662
        k(   62) = (   0.0406667   0.0406667   0.0000000), wk =   0.0006662
        k(   63) = (   0.0413333   0.0413333   0.0000000), wk =   0.0006662
        k(   64) = (   0.0420000   0.0420000   0.0000000), wk =   0.0006662
        k(   65) = (   0.0426667   0.0426667   0.0000000), wk =   0.0006662
        k(   66) = (   0.0433333   0.0433333   0.0000000), wk =   0.0006662
        k(   67) = (   0.0440000   0.0440000   0.0000000), wk =   0.0006662
        k(   68) = (   0.0446667   0.0446667   0.0000000), wk =   0.0006662
        k(   69) = (   0.0453333   0.0453333   0.0000000), wk =   0.0006662
        k(   70) = (   0.0460000   0.0460000   0.0000000), wk =   0.0006662
        k(   71) = (   0.0466667   0.0466667   0.0000000), wk =   0.0006662
        k(   72) = (   0.0473333   0.0473333   0.0000000), wk =   0.0006662
        k(   73) = (   0.0480000   0.0480000   0.0000000), wk =   0.0006662
        k(   74) = (   0.0486667   0.0486667   0.0000000), wk =   0.0006662
        k(   75) = (   0.0493333   0.0493333   0.0000000), wk =   0.0006662
        k(   76) = (   0.0500000   0.0500000   0.0000000), wk =   0.0006662
        k(   77) = (   0.0506667   0.0506667   0.0000000), wk =   0.0006662
        k(   78) = (   0.0513333   0.0513333   0.0000000), wk =   0.0006662
        k(   79) = (   0.0520000   0.0520000   0.0000000), wk =   0.0006662
        k(   80) = (   0.0526667   0.0526667   0.0000000), wk =   0.0006662
        k(   81) = (   0.0533333   0.0533333   0.0000000), wk =   0.0006662
        k(   82) = (   0.0540000   0.0540000   0.0000000), wk =   0.0006662
        k(   83) = (   0.0546667   0.0546667   0.0000000), wk =   0.0006662
        k(   84) = (   0.0553333   0.0553333   0.0000000), wk =   0.0006662
        k(   85) = (   0.0560000   0.0560000   0.0000000), wk =   0.0006662
        k(   86) = (   0.0566667   0.0566667   0.0000000), wk =   0.0006662
        k(   87) = (   0.0573333   0.0573333   0.0000000), wk =   0.0006662
        k(   88) = (   0.0580000   0.0580000   0.0000000), wk =   0.0006662
        k(   89) = (   0.0586667   0.0586667   0.0000000), wk =   0.0006662
        k(   90) = (   0.0593333   0.0593333   0.0000000), wk =   0.0006662
        k(   91) = (   0.0600000   0.0600000   0.0000000), wk =   0.0006662
        k(   92) = (   0.0606667   0.0606667   0.0000000), wk =   0.0006662
        k(   93) = (   0.0613333   0.0613333   0.0000000), wk =   0.0006662
        k(   94) = (   0.0620000   0.0620000   0.0000000), wk =   0.0006662
        k(   95) = (   0.0626667   0.0626667   0.0000000), wk =   0.0006662
        k(   96) = (   0.0633333   0.0633333   0.0000000), wk =   0.0006662
        k(   97) = (   0.0640000   0.0640000   0.0000000), wk =   0.0006662
        k(   98) = (   0.0646667   0.0646667   0.0000000), wk =   0.0006662
        k(   99) = (   0.0653333   0.0653333   0.0000000), wk =   0.0006662
        k(  100) = (   0.0660000   0.0660000   0.0000000), wk =   0.0006662
        k(  101) = (   0.0666667   0.0666667   0.0000000), wk =   0.0006662
        k(  102) = (   0.0673333   0.0673333   0.0000000), wk =   0.0006662
        k(  103) = (   0.0680000   0.0680000   0.0000000), wk =   0.0006662
        k(  104) = (   0.0686667   0.0686667   0.0000000), wk =   0.0006662
        k(  105) = (   0.0693333   0.0693333   0.0000000), wk =   0.0006662
        k(  106) = (   0.0700000   0.0700000   0.0000000), wk =   0.0006662
        k(  107) = (   0.0706667   0.0706667   0.0000000), wk =   0.0006662
        k(  108) = (   0.0713333   0.0713333   0.0000000), wk =   0.0006662
        k(  109) = (   0.0720000   0.0720000   0.0000000), wk =   0.0006662
        k(  110) = (   0.0726667   0.0726667   0.0000000), wk =   0.0006662
        k(  111) = (   0.0733333   0.0733333   0.0000000), wk =   0.0006662
        k(  112) = (   0.0740000   0.0740000   0.0000000), wk =   0.0006662
        k(  113) = (   0.0746667   0.0746667   0.0000000), wk =   0.0006662
        k(  114) = (   0.0753333   0.0753333   0.0000000), wk =   0.0006662
        k(  115) = (   0.0760000   0.0760000   0.0000000), wk =   0.0006662
        k(  116) = (   0.0766667   0.0766667   0.0000000), wk =   0.0006662
        k(  117) = (   0.0773333   0.0773333   0.0000000), wk =   0.0006662
        k(  118) = (   0.0780000   0.0780000   0.0000000), wk =   0.0006662
        k(  119) = (   0.0786667   0.0786667   0.0000000), wk =   0.0006662
        k(  120) = (   0.0793333   0.0793333   0.0000000), wk =   0.0006662
        k(  121) = (   0.0800000   0.0800000   0.0000000), wk =   0.0006662
        k(  122) = (   0.0806667   0.0806667   0.0000000), wk =   0.0006662
        k(  123) = (   0.0813333   0.0813333   0.0000000), wk =   0.0006662
        k(  124) = (   0.0820000   0.0820000   0.0000000), wk =   0.0006662
        k(  125) = (   0.0826667   0.0826667   0.0000000), wk =   0.0006662
        k(  126) = (   0.0833333   0.0833333   0.0000000), wk =   0.0006662
        k(  127) = (   0.0840000   0.0840000   0.0000000), wk =   0.0006662
        k(  128) = (   0.0846667   0.0846667   0.0000000), wk =   0.0006662
        k(  129) = (   0.0853333   0.0853333   0.0000000), wk =   0.0006662
        k(  130) = (   0.0860000   0.0860000   0.0000000), wk =   0.0006662
        k(  131) = (   0.0866667   0.0866667   0.0000000), wk =   0.0006662
        k(  132) = (   0.0873333   0.0873333   0.0000000), wk =   0.0006662
        k(  133) = (   0.0880000   0.0880000   0.0000000), wk =   0.0006662
        k(  134) = (   0.0886667   0.0886667   0.0000000), wk =   0.0006662
        k(  135) = (   0.0893333   0.0893333   0.0000000), wk =   0.0006662
        k(  136) = (   0.0900000   0.0900000   0.0000000), wk =   0.0006662
        k(  137) = (   0.0906667   0.0906667   0.0000000), wk =   0.0006662
        k(  138) = (   0.0913333   0.0913333   0.0000000), wk =   0.0006662
        k(  139) = (   0.0920000   0.0920000   0.0000000), wk =   0.0006662
        k(  140) = (   0.0926667   0.0926667   0.0000000), wk =   0.0006662
        k(  141) = (   0.0933333   0.0933333   0.0000000), wk =   0.0006662
        k(  142) = (   0.0940000   0.0940000   0.0000000), wk =   0.0006662
        k(  143) = (   0.0946667   0.0946667   0.0000000), wk =   0.0006662
        k(  144) = (   0.0953333   0.0953333   0.0000000), wk =   0.0006662
        k(  145) = (   0.0960000   0.0960000   0.0000000), wk =   0.0006662
        k(  146) = (   0.0966667   0.0966667   0.0000000), wk =   0.0006662
        k(  147) = (   0.0973333   0.0973333   0.0000000), wk =   0.0006662
        k(  148) = (   0.0980000   0.0980000   0.0000000), wk =   0.0006662
        k(  149) = (   0.0986667   0.0986667   0.0000000), wk =   0.0006662
        k(  150) = (   0.0993333   0.0993333   0.0000000), wk =   0.0006662
        k(  151) = (   0.1000000   0.1000000   0.0000000), wk =   0.0006662
        k(  152) = (   0.1006667   0.1006667   0.0000000), wk =   0.0006662
        k(  153) = (   0.1013333   0.1013333   0.0000000), wk =   0.0006662
        k(  154) = (   0.1020000   0.1020000   0.0000000), wk =   0.0006662
        k(  155) = (   0.1026667   0.1026667   0.0000000), wk =   0.0006662
        k(  156) = (   0.1033333   0.1033333   0.0000000), wk =   0.0006662
        k(  157) = (   0.1040000   0.1040000   0.0000000), wk =   0.0006662
        k(  158) = (   0.1046667   0.1046667   0.0000000), wk =   0.0006662
        k(  159) = (   0.1053333   0.1053333   0.0000000), wk =   0.0006662
        k(  160) = (   0.1060000   0.1060000   0.0000000), wk =   0.0006662
        k(  161) = (   0.1066667   0.1066667   0.0000000), wk =   0.0006662
        k(  162) = (   0.1073333   0.1073333   0.0000000), wk =   0.0006662
        k(  163) = (   0.1080000   0.1080000   0.0000000), wk =   0.0006662
        k(  164) = (   0.1086667   0.1086667   0.0000000), wk =   0.0006662
        k(  165) = (   0.1093333   0.1093333   0.0000000), wk =   0.0006662
        k(  166) = (   0.1100000   0.1100000   0.0000000), wk =   0.0006662
        k(  167) = (   0.1106667   0.1106667   0.0000000), wk =   0.0006662
        k(  168) = (   0.1113333   0.1113333   0.0000000), wk =   0.0006662
        k(  169) = (   0.1120000   0.1120000   0.0000000), wk =   0.0006662
        k(  170) = (   0.1126667   0.1126667   0.0000000), wk =   0.0006662
        k(  171) = (   0.1133333   0.1133333   0.0000000), wk =   0.0006662
        k(  172) = (   0.1140000   0.1140000   0.0000000), wk =   0.0006662
        k(  173) = (   0.1146667   0.1146667   0.0000000), wk =   0.0006662
        k(  174) = (   0.1153333   0.1153333   0.0000000), wk =   0.0006662
        k(  175) = (   0.1160000   0.1160000   0.0000000), wk =   0.0006662
        k(  176) = (   0.1166667   0.1166667   0.0000000), wk =   0.0006662
        k(  177) = (   0.1173333   0.1173333   0.0000000), wk =   0.0006662
        k(  178) = (   0.1180000   0.1180000   0.0000000), wk =   0.0006662
        k(  179) = (   0.1186667   0.1186667   0.0000000), wk =   0.0006662
        k(  180) = (   0.1193333   0.1193333   0.0000000), wk =   0.0006662
        k(  181) = (   0.1200000   0.1200000   0.0000000), wk =   0.0006662
        k(  182) = (   0.1206667   0.1206667   0.0000000), wk =   0.0006662
        k(  183) = (   0.1213333   0.1213333   0.0000000), wk =   0.0006662
        k(  184) = (   0.1220000   0.1220000   0.0000000), wk =   0.0006662
        k(  185) = (   0.1226667   0.1226667   0.0000000), wk =   0.0006662
        k(  186) = (   0.1233333   0.1233333   0.0000000), wk =   0.0006662
        k(  187) = (   0.1240000   0.1240000   0.0000000), wk =   0.0006662
        k(  188) = (   0.1246667   0.1246667   0.0000000), wk =   0.0006662
        k(  189) = (   0.1253333   0.1253333   0.0000000), wk =   0.0006662
        k(  190) = (   0.1260000   0.1260000   0.0000000), wk =   0.0006662
        k(  191) = (   0.1266667   0.1266667   0.0000000), wk =   0.0006662
        k(  192) = (   0.1273333   0.1273333   0.0000000), wk =   0.0006662
        k(  193) = (   0.1280000   0.1280000   0.0000000), wk =   0.0006662
        k(  194) = (   0.1286667   0.1286667   0.0000000), wk =   0.0006662
        k(  195) = (   0.1293333   0.1293333   0.0000000), wk =   0.0006662
        k(  196) = (   0.1300000   0.1300000   0.0000000), wk =   0.0006662
        k(  197) = (   0.1306667   0.1306667   0.0000000), wk =   0.0006662
        k(  198) = (   0.1313333   0.1313333   0.0000000), wk =   0.0006662
        k(  199) = (   0.1320000   0.1320000   0.0000000), wk =   0.0006662
        k(  200) = (   0.1326667   0.1326667   0.0000000), wk =   0.0006662
        k(  201) = (   0.1333333   0.1333333   0.0000000), wk =   0.0006662
        k(  202) = (   0.1340000   0.1340000   0.0000000), wk =   0.0006662
        k(  203) = (   0.1346667   0.1346667   0.0000000), wk =   0.0006662
        k(  204) = (   0.1353333   0.1353333   0.0000000), wk =   0.0006662
        k(  205) = (   0.1360000   0.1360000   0.0000000), wk =   0.0006662
        k(  206) = (   0.1366667   0.1366667   0.0000000), wk =   0.0006662
        k(  207) = (   0.1373333   0.1373333   0.0000000), wk =   0.0006662
        k(  208) = (   0.1380000   0.1380000   0.0000000), wk =   0.0006662
        k(  209) = (   0.1386667   0.1386667   0.0000000), wk =   0.0006662
        k(  210) = (   0.1393333   0.1393333   0.0000000), wk =   0.0006662
        k(  211) = (   0.1400000   0.1400000   0.0000000), wk =   0.0006662
        k(  212) = (   0.1406667   0.1406667   0.0000000), wk =   0.0006662
        k(  213) = (   0.1413333   0.1413333   0.0000000), wk =   0.0006662
        k(  214) = (   0.1420000   0.1420000   0.0000000), wk =   0.0006662
        k(  215) = (   0.1426667   0.1426667   0.0000000), wk =   0.0006662
        k(  216) = (   0.1433333   0.1433333   0.0000000), wk =   0.0006662
        k(  217) = (   0.1440000   0.1440000   0.0000000), wk =   0.0006662
        k(  218) = (   0.1446667   0.1446667   0.0000000), wk =   0.0006662
        k(  219) = (   0.1453333   0.1453333   0.0000000), wk =   0.0006662
        k(  220) = (   0.1460000   0.1460000   0.0000000), wk =   0.0006662
        k(  221) = (   0.1466667   0.1466667   0.0000000), wk =   0.0006662
        k(  222) = (   0.1473333   0.1473333   0.0000000), wk =   0.0006662
        k(  223) = (   0.1480000   0.1480000   0.0000000), wk =   0.0006662
        k(  224) = (   0.1486667   0.1486667   0.0000000), wk =   0.0006662
        k(  225) = (   0.1493333   0.1493333   0.0000000), wk =   0.0006662
        k(  226) = (   0.1500000   0.1500000   0.0000000), wk =   0.0006662
        k(  227) = (   0.1506667   0.1506667   0.0000000), wk =   0.0006662
        k(  228) = (   0.1513333   0.1513333   0.0000000), wk =   0.0006662
        k(  229) = (   0.1520000   0.1520000   0.0000000), wk =   0.0006662
        k(  230) = (   0.1526667   0.1526667   0.0000000), wk =   0.0006662
        k(  231) = (   0.1533333   0.1533333   0.0000000), wk =   0.0006662
        k(  232) = (   0.1540000   0.1540000   0.0000000), wk =   0.0006662
        k(  233) = (   0.1546667   0.1546667   0.0000000), wk =   0.0006662
        k(  234) = (   0.1553333   0.1553333   0.0000000), wk =   0.0006662
        k(  235) = (   0.1560000   0.1560000   0.0000000), wk =   0.0006662
        k(  236) = (   0.1566667   0.1566667   0.0000000), wk =   0.0006662
        k(  237) = (   0.1573333   0.1573333   0.0000000), wk =   0.0006662
        k(  238) = (   0.1580000   0.1580000   0.0000000), wk =   0.0006662
        k(  239) = (   0.1586667   0.1586667   0.0000000), wk =   0.0006662
        k(  240) = (   0.1593333   0.1593333   0.0000000), wk =   0.0006662
        k(  241) = (   0.1600000   0.1600000   0.0000000), wk =   0.0006662
        k(  242) = (   0.1606667   0.1606667   0.0000000), wk =   0.0006662
        k(  243) = (   0.1613333   0.1613333   0.0000000), wk =   0.0006662
        k(  244) = (   0.1620000   0.1620000   0.0000000), wk =   0.0006662
        k(  245) = (   0.1626667   0.1626667   0.0000000), wk =   0.0006662
        k(  246) = (   0.1633333   0.1633333   0.0000000), wk =   0.0006662
        k(  247) = (   0.1640000   0.1640000   0.0000000), wk =   0.0006662
        k(  248) = (   0.1646667   0.1646667   0.0000000), wk =   0.0006662
        k(  249) = (   0.1653333   0.1653333   0.0000000), wk =   0.0006662
        k(  250) = (   0.1660000   0.1660000   0.0000000), wk =   0.0006662
        k(  251) = (   0.1666667   0.1666667   0.0000000), wk =   0.0006662
        k(  252) = (   0.1673333   0.1673333   0.0000000), wk =   0.0006662
        k(  253) = (   0.1680000   0.1680000   0.0000000), wk =   0.0006662
        k(  254) = (   0.1686667   0.1686667   0.0000000), wk =   0.0006662
        k(  255) = (   0.1693333   0.1693333   0.0000000), wk =   0.0006662
        k(  256) = (   0.1700000   0.1700000   0.0000000), wk =   0.0006662
        k(  257) = (   0.1706667   0.1706667   0.0000000), wk =   0.0006662
        k(  258) = (   0.1713333   0.1713333   0.0000000), wk =   0.0006662
        k(  259) = (   0.1720000   0.1720000   0.0000000), wk =   0.0006662
        k(  260) = (   0.1726667   0.1726667   0.0000000), wk =   0.0006662
        k(  261) = (   0.1733333   0.1733333   0.0000000), wk =   0.0006662
        k(  262) = (   0.1740000   0.1740000   0.0000000), wk =   0.0006662
        k(  263) = (   0.1746667   0.1746667   0.0000000), wk =   0.0006662
        k(  264) = (   0.1753333   0.1753333   0.0000000), wk =   0.0006662
        k(  265) = (   0.1760000   0.1760000   0.0000000), wk =   0.0006662
        k(  266) = (   0.1766667   0.1766667   0.0000000), wk =   0.0006662
        k(  267) = (   0.1773333   0.1773333   0.0000000), wk =   0.0006662
        k(  268) = (   0.1780000   0.1780000   0.0000000), wk =   0.0006662
        k(  269) = (   0.1786667   0.1786667   0.0000000), wk =   0.0006662
        k(  270) = (   0.1793333   0.1793333   0.0000000), wk =   0.0006662
        k(  271) = (   0.1800000   0.1800000   0.0000000), wk =   0.0006662
        k(  272) = (   0.1806667   0.1806667   0.0000000), wk =   0.0006662
        k(  273) = (   0.1813333   0.1813333   0.0000000), wk =   0.0006662
        k(  274) = (   0.1820000   0.1820000   0.0000000), wk =   0.0006662
        k(  275) = (   0.1826667   0.1826667   0.0000000), wk =   0.0006662
        k(  276) = (   0.1833333   0.1833333   0.0000000), wk =   0.0006662
        k(  277) = (   0.1840000   0.1840000   0.0000000), wk =   0.0006662
        k(  278) = (   0.1846667   0.1846667   0.0000000), wk =   0.0006662
        k(  279) = (   0.1853333   0.1853333   0.0000000), wk =   0.0006662
        k(  280) = (   0.1860000   0.1860000   0.0000000), wk =   0.0006662
        k(  281) = (   0.1866667   0.1866667   0.0000000), wk =   0.0006662
        k(  282) = (   0.1873333   0.1873333   0.0000000), wk =   0.0006662
        k(  283) = (   0.1880000   0.1880000   0.0000000), wk =   0.0006662
        k(  284) = (   0.1886667   0.1886667   0.0000000), wk =   0.0006662
        k(  285) = (   0.1893333   0.1893333   0.0000000), wk =   0.0006662
        k(  286) = (   0.1900000   0.1900000   0.0000000), wk =   0.0006662
        k(  287) = (   0.1906667   0.1906667   0.0000000), wk =   0.0006662
        k(  288) = (   0.1913333   0.1913333   0.0000000), wk =   0.0006662
        k(  289) = (   0.1920000   0.1920000   0.0000000), wk =   0.0006662
        k(  290) = (   0.1926667   0.1926667   0.0000000), wk =   0.0006662
        k(  291) = (   0.1933333   0.1933333   0.0000000), wk =   0.0006662
        k(  292) = (   0.1940000   0.1940000   0.0000000), wk =   0.0006662
        k(  293) = (   0.1946667   0.1946667   0.0000000), wk =   0.0006662
        k(  294) = (   0.1953333   0.1953333   0.0000000), wk =   0.0006662
        k(  295) = (   0.1960000   0.1960000   0.0000000), wk =   0.0006662
        k(  296) = (   0.1966667   0.1966667   0.0000000), wk =   0.0006662
        k(  297) = (   0.1973333   0.1973333   0.0000000), wk =   0.0006662
        k(  298) = (   0.1980000   0.1980000   0.0000000), wk =   0.0006662
        k(  299) = (   0.1986667   0.1986667   0.0000000), wk =   0.0006662
        k(  300) = (   0.1993333   0.1993333   0.0000000), wk =   0.0006662
        k(  301) = (   0.2000000   0.2000000   0.0000000), wk =   0.0006662
        k(  302) = (   0.2006667   0.2006667   0.0000000), wk =   0.0006662
        k(  303) = (   0.2013333   0.2013333   0.0000000), wk =   0.0006662
        k(  304) = (   0.2020000   0.2020000   0.0000000), wk =   0.0006662
        k(  305) = (   0.2026667   0.2026667   0.0000000), wk =   0.0006662
        k(  306) = (   0.2033333   0.2033333   0.0000000), wk =   0.0006662
        k(  307) = (   0.2040000   0.2040000   0.0000000), wk =   0.0006662
        k(  308) = (   0.2046667   0.2046667   0.0000000), wk =   0.0006662
        k(  309) = (   0.2053333   0.2053333   0.0000000), wk =   0.0006662
        k(  310) = (   0.2060000   0.2060000   0.0000000), wk =   0.0006662
        k(  311) = (   0.2066667   0.2066667   0.0000000), wk =   0.0006662
        k(  312) = (   0.2073333   0.2073333   0.0000000), wk =   0.0006662
        k(  313) = (   0.2080000   0.2080000   0.0000000), wk =   0.0006662
        k(  314) = (   0.2086667   0.2086667   0.0000000), wk =   0.0006662
        k(  315) = (   0.2093333   0.2093333   0.0000000), wk =   0.0006662
        k(  316) = (   0.2100000   0.2100000   0.0000000), wk =   0.0006662
        k(  317) = (   0.2106667   0.2106667   0.0000000), wk =   0.0006662
        k(  318) = (   0.2113333   0.2113333   0.0000000), wk =   0.0006662
        k(  319) = (   0.2120000   0.2120000   0.0000000), wk =   0.0006662
        k(  320) = (   0.2126667   0.2126667   0.0000000), wk =   0.0006662
        k(  321) = (   0.2133333   0.2133333   0.0000000), wk =   0.0006662
        k(  322) = (   0.2140000   0.2140000   0.0000000), wk =   0.0006662
        k(  323) = (   0.2146667   0.2146667   0.0000000), wk =   0.0006662
        k(  324) = (   0.2153333   0.2153333   0.0000000), wk =   0.0006662
        k(  325) = (   0.2160000   0.2160000   0.0000000), wk =   0.0006662
        k(  326) = (   0.2166667   0.2166667   0.0000000), wk =   0.0006662
        k(  327) = (   0.2173333   0.2173333   0.0000000), wk =   0.0006662
        k(  328) = (   0.2180000   0.2180000   0.0000000), wk =   0.0006662
        k(  329) = (   0.2186667   0.2186667   0.0000000), wk =   0.0006662
        k(  330) = (   0.2193333   0.2193333   0.0000000), wk =   0.0006662
        k(  331) = (   0.2200000   0.2200000   0.0000000), wk =   0.0006662
        k(  332) = (   0.2206667   0.2206667   0.0000000), wk =   0.0006662
        k(  333) = (   0.2213333   0.2213333   0.0000000), wk =   0.0006662
        k(  334) = (   0.2220000   0.2220000   0.0000000), wk =   0.0006662
        k(  335) = (   0.2226667   0.2226667   0.0000000), wk =   0.0006662
        k(  336) = (   0.2233333   0.2233333   0.0000000), wk =   0.0006662
        k(  337) = (   0.2240000   0.2240000   0.0000000), wk =   0.0006662
        k(  338) = (   0.2246667   0.2246667   0.0000000), wk =   0.0006662
        k(  339) = (   0.2253333   0.2253333   0.0000000), wk =   0.0006662
        k(  340) = (   0.2260000   0.2260000   0.0000000), wk =   0.0006662
        k(  341) = (   0.2266667   0.2266667   0.0000000), wk =   0.0006662
        k(  342) = (   0.2273333   0.2273333   0.0000000), wk =   0.0006662
        k(  343) = (   0.2280000   0.2280000   0.0000000), wk =   0.0006662
        k(  344) = (   0.2286667   0.2286667   0.0000000), wk =   0.0006662
        k(  345) = (   0.2293333   0.2293333   0.0000000), wk =   0.0006662
        k(  346) = (   0.2300000   0.2300000   0.0000000), wk =   0.0006662
        k(  347) = (   0.2306667   0.2306667   0.0000000), wk =   0.0006662
        k(  348) = (   0.2313333   0.2313333   0.0000000), wk =   0.0006662
        k(  349) = (   0.2320000   0.2320000   0.0000000), wk =   0.0006662
        k(  350) = (   0.2326667   0.2326667   0.0000000), wk =   0.0006662
        k(  351) = (   0.2333333   0.2333333   0.0000000), wk =   0.0006662
        k(  352) = (   0.2340000   0.2340000   0.0000000), wk =   0.0006662
        k(  353) = (   0.2346667   0.2346667   0.0000000), wk =   0.0006662
        k(  354) = (   0.2353333   0.2353333   0.0000000), wk =   0.0006662
        k(  355) = (   0.2360000   0.2360000   0.0000000), wk =   0.0006662
        k(  356) = (   0.2366667   0.2366667   0.0000000), wk =   0.0006662
        k(  357) = (   0.2373333   0.2373333   0.0000000), wk =   0.0006662
        k(  358) = (   0.2380000   0.2380000   0.0000000), wk =   0.0006662
        k(  359) = (   0.2386667   0.2386667   0.0000000), wk =   0.0006662
        k(  360) = (   0.2393333   0.2393333   0.0000000), wk =   0.0006662
        k(  361) = (   0.2400000   0.2400000   0.0000000), wk =   0.0006662
        k(  362) = (   0.2406667   0.2406667   0.0000000), wk =   0.0006662
        k(  363) = (   0.2413333   0.2413333   0.0000000), wk =   0.0006662
        k(  364) = (   0.2420000   0.2420000   0.0000000), wk =   0.0006662
        k(  365) = (   0.2426667   0.2426667   0.0000000), wk =   0.0006662
        k(  366) = (   0.2433333   0.2433333   0.0000000), wk =   0.0006662
        k(  367) = (   0.2440000   0.2440000   0.0000000), wk =   0.0006662
        k(  368) = (   0.2446667   0.2446667   0.0000000), wk =   0.0006662
        k(  369) = (   0.2453333   0.2453333   0.0000000), wk =   0.0006662
        k(  370) = (   0.2460000   0.2460000   0.0000000), wk =   0.0006662
        k(  371) = (   0.2466667   0.2466667   0.0000000), wk =   0.0006662
        k(  372) = (   0.2473333   0.2473333   0.0000000), wk =   0.0006662
        k(  373) = (   0.2480000   0.2480000   0.0000000), wk =   0.0006662
        k(  374) = (   0.2486667   0.2486667   0.0000000), wk =   0.0006662
        k(  375) = (   0.2493333   0.2493333   0.0000000), wk =   0.0006662
        k(  376) = (   0.2500000   0.2500000   0.0000000), wk =   0.0006662
        k(  377) = (   0.2506667   0.2506667   0.0000000), wk =   0.0006662
        k(  378) = (   0.2513333   0.2513333   0.0000000), wk =   0.0006662
        k(  379) = (   0.2520000   0.2520000   0.0000000), wk =   0.0006662
        k(  380) = (   0.2526667   0.2526667   0.0000000), wk =   0.0006662
        k(  381) = (   0.2533333   0.2533333   0.0000000), wk =   0.0006662
        k(  382) = (   0.2540000   0.2540000   0.0000000), wk =   0.0006662
        k(  383) = (   0.2546667   0.2546667   0.0000000), wk =   0.0006662
        k(  384) = (   0.2553333   0.2553333   0.0000000), wk =   0.0006662
        k(  385) = (   0.2560000   0.2560000   0.0000000), wk =   0.0006662
        k(  386) = (   0.2566667   0.2566667   0.0000000), wk =   0.0006662
        k(  387) = (   0.2573333   0.2573333   0.0000000), wk =   0.0006662
        k(  388) = (   0.2580000   0.2580000   0.0000000), wk =   0.0006662
        k(  389) = (   0.2586667   0.2586667   0.0000000), wk =   0.0006662
        k(  390) = (   0.2593333   0.2593333   0.0000000), wk =   0.0006662
        k(  391) = (   0.2600000   0.2600000   0.0000000), wk =   0.0006662
        k(  392) = (   0.2606667   0.2606667   0.0000000), wk =   0.0006662
        k(  393) = (   0.2613333   0.2613333   0.0000000), wk =   0.0006662
        k(  394) = (   0.2620000   0.2620000   0.0000000), wk =   0.0006662
        k(  395) = (   0.2626667   0.2626667   0.0000000), wk =   0.0006662
        k(  396) = (   0.2633333   0.2633333   0.0000000), wk =   0.0006662
        k(  397) = (   0.2640000   0.2640000   0.0000000), wk =   0.0006662
        k(  398) = (   0.2646667   0.2646667   0.0000000), wk =   0.0006662
        k(  399) = (   0.2653333   0.2653333   0.0000000), wk =   0.0006662
        k(  400) = (   0.2660000   0.2660000   0.0000000), wk =   0.0006662
        k(  401) = (   0.2666667   0.2666667   0.0000000), wk =   0.0006662
        k(  402) = (   0.2673333   0.2673333   0.0000000), wk =   0.0006662
        k(  403) = (   0.2680000   0.2680000   0.0000000), wk =   0.0006662
        k(  404) = (   0.2686667   0.2686667   0.0000000), wk =   0.0006662
        k(  405) = (   0.2693333   0.2693333   0.0000000), wk =   0.0006662
        k(  406) = (   0.2700000   0.2700000   0.0000000), wk =   0.0006662
        k(  407) = (   0.2706667   0.2706667   0.0000000), wk =   0.0006662
        k(  408) = (   0.2713333   0.2713333   0.0000000), wk =   0.0006662
        k(  409) = (   0.2720000   0.2720000   0.0000000), wk =   0.0006662
        k(  410) = (   0.2726667   0.2726667   0.0000000), wk =   0.0006662
        k(  411) = (   0.2733333   0.2733333   0.0000000), wk =   0.0006662
        k(  412) = (   0.2740000   0.2740000   0.0000000), wk =   0.0006662
        k(  413) = (   0.2746667   0.2746667   0.0000000), wk =   0.0006662
        k(  414) = (   0.2753333   0.2753333   0.0000000), wk =   0.0006662
        k(  415) = (   0.2760000   0.2760000   0.0000000), wk =   0.0006662
        k(  416) = (   0.2766667   0.2766667   0.0000000), wk =   0.0006662
        k(  417) = (   0.2773333   0.2773333   0.0000000), wk =   0.0006662
        k(  418) = (   0.2780000   0.2780000   0.0000000), wk =   0.0006662
        k(  419) = (   0.2786667   0.2786667   0.0000000), wk =   0.0006662
        k(  420) = (   0.2793333   0.2793333   0.0000000), wk =   0.0006662
        k(  421) = (   0.2800000   0.2800000   0.0000000), wk =   0.0006662
        k(  422) = (   0.2806667   0.2806667   0.0000000), wk =   0.0006662
        k(  423) = (   0.2813333   0.2813333   0.0000000), wk =   0.0006662
        k(  424) = (   0.2820000   0.2820000   0.0000000), wk =   0.0006662
        k(  425) = (   0.2826667   0.2826667   0.0000000), wk =   0.0006662
        k(  426) = (   0.2833333   0.2833333   0.0000000), wk =   0.0006662
        k(  427) = (   0.2840000   0.2840000   0.0000000), wk =   0.0006662
        k(  428) = (   0.2846667   0.2846667   0.0000000), wk =   0.0006662
        k(  429) = (   0.2853333   0.2853333   0.0000000), wk =   0.0006662
        k(  430) = (   0.2860000   0.2860000   0.0000000), wk =   0.0006662
        k(  431) = (   0.2866667   0.2866667   0.0000000), wk =   0.0006662
        k(  432) = (   0.2873333   0.2873333   0.0000000), wk =   0.0006662
        k(  433) = (   0.2880000   0.2880000   0.0000000), wk =   0.0006662
        k(  434) = (   0.2886667   0.2886667   0.0000000), wk =   0.0006662
        k(  435) = (   0.2893333   0.2893333   0.0000000), wk =   0.0006662
        k(  436) = (   0.2900000   0.2900000   0.0000000), wk =   0.0006662
        k(  437) = (   0.2906667   0.2906667   0.0000000), wk =   0.0006662
        k(  438) = (   0.2913333   0.2913333   0.0000000), wk =   0.0006662
        k(  439) = (   0.2920000   0.2920000   0.0000000), wk =   0.0006662
        k(  440) = (   0.2926667   0.2926667   0.0000000), wk =   0.0006662
        k(  441) = (   0.2933333   0.2933333   0.0000000), wk =   0.0006662
        k(  442) = (   0.2940000   0.2940000   0.0000000), wk =   0.0006662
        k(  443) = (   0.2946667   0.2946667   0.0000000), wk =   0.0006662
        k(  444) = (   0.2953333   0.2953333   0.0000000), wk =   0.0006662
        k(  445) = (   0.2960000   0.2960000   0.0000000), wk =   0.0006662
        k(  446) = (   0.2966667   0.2966667   0.0000000), wk =   0.0006662
        k(  447) = (   0.2973333   0.2973333   0.0000000), wk =   0.0006662
        k(  448) = (   0.2980000   0.2980000   0.0000000), wk =   0.0006662
        k(  449) = (   0.2986667   0.2986667   0.0000000), wk =   0.0006662
        k(  450) = (   0.2993333   0.2993333   0.0000000), wk =   0.0006662
        k(  451) = (   0.3000000   0.3000000   0.0000000), wk =   0.0006662
        k(  452) = (   0.3006667   0.3006667   0.0000000), wk =   0.0006662
        k(  453) = (   0.3013333   0.3013333   0.0000000), wk =   0.0006662
        k(  454) = (   0.3020000   0.3020000   0.0000000), wk =   0.0006662
        k(  455) = (   0.3026667   0.3026667   0.0000000), wk =   0.0006662
        k(  456) = (   0.3033333   0.3033333   0.0000000), wk =   0.0006662
        k(  457) = (   0.3040000   0.3040000   0.0000000), wk =   0.0006662
        k(  458) = (   0.3046667   0.3046667   0.0000000), wk =   0.0006662
        k(  459) = (   0.3053333   0.3053333   0.0000000), wk =   0.0006662
        k(  460) = (   0.3060000   0.3060000   0.0000000), wk =   0.0006662
        k(  461) = (   0.3066667   0.3066667   0.0000000), wk =   0.0006662
        k(  462) = (   0.3073333   0.3073333   0.0000000), wk =   0.0006662
        k(  463) = (   0.3080000   0.3080000   0.0000000), wk =   0.0006662
        k(  464) = (   0.3086667   0.3086667   0.0000000), wk =   0.0006662
        k(  465) = (   0.3093333   0.3093333   0.0000000), wk =   0.0006662
        k(  466) = (   0.3100000   0.3100000   0.0000000), wk =   0.0006662
        k(  467) = (   0.3106667   0.3106667   0.0000000), wk =   0.0006662
        k(  468) = (   0.3113333   0.3113333   0.0000000), wk =   0.0006662
        k(  469) = (   0.3120000   0.3120000   0.0000000), wk =   0.0006662
        k(  470) = (   0.3126667   0.3126667   0.0000000), wk =   0.0006662
        k(  471) = (   0.3133333   0.3133333   0.0000000), wk =   0.0006662
        k(  472) = (   0.3140000   0.3140000   0.0000000), wk =   0.0006662
        k(  473) = (   0.3146667   0.3146667   0.0000000), wk =   0.0006662
        k(  474) = (   0.3153333   0.3153333   0.0000000), wk =   0.0006662
        k(  475) = (   0.3160000   0.3160000   0.0000000), wk =   0.0006662
        k(  476) = (   0.3166667   0.3166667   0.0000000), wk =   0.0006662
        k(  477) = (   0.3173333   0.3173333   0.0000000), wk =   0.0006662
        k(  478) = (   0.3180000   0.3180000   0.0000000), wk =   0.0006662
        k(  479) = (   0.3186667   0.3186667   0.0000000), wk =   0.0006662
        k(  480) = (   0.3193333   0.3193333   0.0000000), wk =   0.0006662
        k(  481) = (   0.3200000   0.3200000   0.0000000), wk =   0.0006662
        k(  482) = (   0.3206667   0.3206667   0.0000000), wk =   0.0006662
        k(  483) = (   0.3213333   0.3213333   0.0000000), wk =   0.0006662
        k(  484) = (   0.3220000   0.3220000   0.0000000), wk =   0.0006662
        k(  485) = (   0.3226667   0.3226667   0.0000000), wk =   0.0006662
        k(  486) = (   0.3233333   0.3233333   0.0000000), wk =   0.0006662
        k(  487) = (   0.3240000   0.3240000   0.0000000), wk =   0.0006662
        k(  488) = (   0.3246667   0.3246667   0.0000000), wk =   0.0006662
        k(  489) = (   0.3253333   0.3253333   0.0000000), wk =   0.0006662
        k(  490) = (   0.3260000   0.3260000   0.0000000), wk =   0.0006662
        k(  491) = (   0.3266667   0.3266667   0.0000000), wk =   0.0006662
        k(  492) = (   0.3273333   0.3273333   0.0000000), wk =   0.0006662
        k(  493) = (   0.3280000   0.3280000   0.0000000), wk =   0.0006662
        k(  494) = (   0.3286667   0.3286667   0.0000000), wk =   0.0006662
        k(  495) = (   0.3293333   0.3293333   0.0000000), wk =   0.0006662
        k(  496) = (   0.3300000   0.3300000   0.0000000), wk =   0.0006662
        k(  497) = (   0.3306667   0.3306667   0.0000000), wk =   0.0006662
        k(  498) = (   0.3313333   0.3313333   0.0000000), wk =   0.0006662
        k(  499) = (   0.3320000   0.3320000   0.0000000), wk =   0.0006662
        k(  500) = (   0.3326667   0.3326667   0.0000000), wk =   0.0006662
        k(  501) = (   0.3333333   0.3333333   0.0000000), wk =   0.0006662
        k(  502) = (   0.3336667   0.3326667   0.0000000), wk =   0.0006662
        k(  503) = (   0.3340000   0.3320000   0.0000000), wk =   0.0006662
        k(  504) = (   0.3343333   0.3313333   0.0000000), wk =   0.0006662
        k(  505) = (   0.3346667   0.3306667   0.0000000), wk =   0.0006662
        k(  506) = (   0.3350000   0.3300000   0.0000000), wk =   0.0006662
        k(  507) = (   0.3353333   0.3293333   0.0000000), wk =   0.0006662
        k(  508) = (   0.3356667   0.3286667   0.0000000), wk =   0.0006662
        k(  509) = (   0.3360000   0.3280000   0.0000000), wk =   0.0006662
        k(  510) = (   0.3363333   0.3273333   0.0000000), wk =   0.0006662
        k(  511) = (   0.3366667   0.3266667   0.0000000), wk =   0.0006662
        k(  512) = (   0.3370000   0.3260000   0.0000000), wk =   0.0006662
        k(  513) = (   0.3373333   0.3253333   0.0000000), wk =   0.0006662
        k(  514) = (   0.3376667   0.3246667   0.0000000), wk =   0.0006662
        k(  515) = (   0.3380000   0.3240000   0.0000000), wk =   0.0006662
        k(  516) = (   0.3383333   0.3233333   0.0000000), wk =   0.0006662
        k(  517) = (   0.3386667   0.3226667   0.0000000), wk =   0.0006662
        k(  518) = (   0.3390000   0.3220000   0.0000000), wk =   0.0006662
        k(  519) = (   0.3393333   0.3213333   0.0000000), wk =   0.0006662
        k(  520) = (   0.3396667   0.3206667   0.0000000), wk =   0.0006662
        k(  521) = (   0.3400000   0.3200000   0.0000000), wk =   0.0006662
        k(  522) = (   0.3403333   0.3193333   0.0000000), wk =   0.0006662
        k(  523) = (   0.3406667   0.3186667   0.0000000), wk =   0.0006662
        k(  524) = (   0.3410000   0.3180000   0.0000000), wk =   0.0006662
        k(  525) = (   0.3413333   0.3173333   0.0000000), wk =   0.0006662
        k(  526) = (   0.3416667   0.3166667   0.0000000), wk =   0.0006662
        k(  527) = (   0.3420000   0.3160000   0.0000000), wk =   0.0006662
        k(  528) = (   0.3423333   0.3153333   0.0000000), wk =   0.0006662
        k(  529) = (   0.3426667   0.3146667   0.0000000), wk =   0.0006662
        k(  530) = (   0.3430000   0.3140000   0.0000000), wk =   0.0006662
        k(  531) = (   0.3433333   0.3133333   0.0000000), wk =   0.0006662
        k(  532) = (   0.3436667   0.3126667   0.0000000), wk =   0.0006662
        k(  533) = (   0.3440000   0.3120000   0.0000000), wk =   0.0006662
        k(  534) = (   0.3443333   0.3113333   0.0000000), wk =   0.0006662
        k(  535) = (   0.3446667   0.3106667   0.0000000), wk =   0.0006662
        k(  536) = (   0.3450000   0.3100000   0.0000000), wk =   0.0006662
        k(  537) = (   0.3453333   0.3093333   0.0000000), wk =   0.0006662
        k(  538) = (   0.3456667   0.3086667   0.0000000), wk =   0.0006662
        k(  539) = (   0.3460000   0.3080000   0.0000000), wk =   0.0006662
        k(  540) = (   0.3463333   0.3073333   0.0000000), wk =   0.0006662
        k(  541) = (   0.3466667   0.3066667   0.0000000), wk =   0.0006662
        k(  542) = (   0.3470000   0.3060000   0.0000000), wk =   0.0006662
        k(  543) = (   0.3473333   0.3053333   0.0000000), wk =   0.0006662
        k(  544) = (   0.3476667   0.3046667   0.0000000), wk =   0.0006662
        k(  545) = (   0.3480000   0.3040000   0.0000000), wk =   0.0006662
        k(  546) = (   0.3483333   0.3033333   0.0000000), wk =   0.0006662
        k(  547) = (   0.3486667   0.3026667   0.0000000), wk =   0.0006662
        k(  548) = (   0.3490000   0.3020000   0.0000000), wk =   0.0006662
        k(  549) = (   0.3493333   0.3013333   0.0000000), wk =   0.0006662
        k(  550) = (   0.3496667   0.3006667   0.0000000), wk =   0.0006662
        k(  551) = (   0.3500000   0.3000000   0.0000000), wk =   0.0006662
        k(  552) = (   0.3503333   0.2993333   0.0000000), wk =   0.0006662
        k(  553) = (   0.3506667   0.2986667   0.0000000), wk =   0.0006662
        k(  554) = (   0.3510000   0.2980000   0.0000000), wk =   0.0006662
        k(  555) = (   0.3513333   0.2973333   0.0000000), wk =   0.0006662
        k(  556) = (   0.3516667   0.2966667   0.0000000), wk =   0.0006662
        k(  557) = (   0.3520000   0.2960000   0.0000000), wk =   0.0006662
        k(  558) = (   0.3523333   0.2953333   0.0000000), wk =   0.0006662
        k(  559) = (   0.3526667   0.2946667   0.0000000), wk =   0.0006662
        k(  560) = (   0.3530000   0.2940000   0.0000000), wk =   0.0006662
        k(  561) = (   0.3533333   0.2933333   0.0000000), wk =   0.0006662
        k(  562) = (   0.3536667   0.2926667   0.0000000), wk =   0.0006662
        k(  563) = (   0.3540000   0.2920000   0.0000000), wk =   0.0006662
        k(  564) = (   0.3543333   0.2913333   0.0000000), wk =   0.0006662
        k(  565) = (   0.3546667   0.2906667   0.0000000), wk =   0.0006662
        k(  566) = (   0.3550000   0.2900000   0.0000000), wk =   0.0006662
        k(  567) = (   0.3553333   0.2893333   0.0000000), wk =   0.0006662
        k(  568) = (   0.3556667   0.2886667   0.0000000), wk =   0.0006662
        k(  569) = (   0.3560000   0.2880000   0.0000000), wk =   0.0006662
        k(  570) = (   0.3563333   0.2873333   0.0000000), wk =   0.0006662
        k(  571) = (   0.3566667   0.2866667   0.0000000), wk =   0.0006662
        k(  572) = (   0.3570000   0.2860000   0.0000000), wk =   0.0006662
        k(  573) = (   0.3573333   0.2853333   0.0000000), wk =   0.0006662
        k(  574) = (   0.3576667   0.2846667   0.0000000), wk =   0.0006662
        k(  575) = (   0.3580000   0.2840000   0.0000000), wk =   0.0006662
        k(  576) = (   0.3583333   0.2833333   0.0000000), wk =   0.0006662
        k(  577) = (   0.3586667   0.2826667   0.0000000), wk =   0.0006662
        k(  578) = (   0.3590000   0.2820000   0.0000000), wk =   0.0006662
        k(  579) = (   0.3593333   0.2813333   0.0000000), wk =   0.0006662
        k(  580) = (   0.3596667   0.2806667   0.0000000), wk =   0.0006662
        k(  581) = (   0.3600000   0.2800000   0.0000000), wk =   0.0006662
        k(  582) = (   0.3603333   0.2793333   0.0000000), wk =   0.0006662
        k(  583) = (   0.3606667   0.2786667   0.0000000), wk =   0.0006662
        k(  584) = (   0.3610000   0.2780000   0.0000000), wk =   0.0006662
        k(  585) = (   0.3613333   0.2773333   0.0000000), wk =   0.0006662
        k(  586) = (   0.3616667   0.2766667   0.0000000), wk =   0.0006662
        k(  587) = (   0.3620000   0.2760000   0.0000000), wk =   0.0006662
        k(  588) = (   0.3623333   0.2753333   0.0000000), wk =   0.0006662
        k(  589) = (   0.3626667   0.2746667   0.0000000), wk =   0.0006662
        k(  590) = (   0.3630000   0.2740000   0.0000000), wk =   0.0006662
        k(  591) = (   0.3633333   0.2733333   0.0000000), wk =   0.0006662
        k(  592) = (   0.3636667   0.2726667   0.0000000), wk =   0.0006662
        k(  593) = (   0.3640000   0.2720000   0.0000000), wk =   0.0006662
        k(  594) = (   0.3643333   0.2713333   0.0000000), wk =   0.0006662
        k(  595) = (   0.3646667   0.2706667   0.0000000), wk =   0.0006662
        k(  596) = (   0.3650000   0.2700000   0.0000000), wk =   0.0006662
        k(  597) = (   0.3653333   0.2693333   0.0000000), wk =   0.0006662
        k(  598) = (   0.3656667   0.2686667   0.0000000), wk =   0.0006662
        k(  599) = (   0.3660000   0.2680000   0.0000000), wk =   0.0006662
        k(  600) = (   0.3663333   0.2673333   0.0000000), wk =   0.0006662
        k(  601) = (   0.3666667   0.2666667   0.0000000), wk =   0.0006662
        k(  602) = (   0.3670000   0.2660000   0.0000000), wk =   0.0006662
        k(  603) = (   0.3673333   0.2653333   0.0000000), wk =   0.0006662
        k(  604) = (   0.3676667   0.2646667   0.0000000), wk =   0.0006662
        k(  605) = (   0.3680000   0.2640000   0.0000000), wk =   0.0006662
        k(  606) = (   0.3683333   0.2633333   0.0000000), wk =   0.0006662
        k(  607) = (   0.3686667   0.2626667   0.0000000), wk =   0.0006662
        k(  608) = (   0.3690000   0.2620000   0.0000000), wk =   0.0006662
        k(  609) = (   0.3693333   0.2613333   0.0000000), wk =   0.0006662
        k(  610) = (   0.3696667   0.2606667   0.0000000), wk =   0.0006662
        k(  611) = (   0.3700000   0.2600000   0.0000000), wk =   0.0006662
        k(  612) = (   0.3703333   0.2593333   0.0000000), wk =   0.0006662
        k(  613) = (   0.3706667   0.2586667   0.0000000), wk =   0.0006662
        k(  614) = (   0.3710000   0.2580000   0.0000000), wk =   0.0006662
        k(  615) = (   0.3713333   0.2573333   0.0000000), wk =   0.0006662
        k(  616) = (   0.3716667   0.2566667   0.0000000), wk =   0.0006662
        k(  617) = (   0.3720000   0.2560000   0.0000000), wk =   0.0006662
        k(  618) = (   0.3723333   0.2553333   0.0000000), wk =   0.0006662
        k(  619) = (   0.3726667   0.2546667   0.0000000), wk =   0.0006662
        k(  620) = (   0.3730000   0.2540000   0.0000000), wk =   0.0006662
        k(  621) = (   0.3733333   0.2533333   0.0000000), wk =   0.0006662
        k(  622) = (   0.3736667   0.2526667   0.0000000), wk =   0.0006662
        k(  623) = (   0.3740000   0.2520000   0.0000000), wk =   0.0006662
        k(  624) = (   0.3743333   0.2513333   0.0000000), wk =   0.0006662
        k(  625) = (   0.3746667   0.2506667   0.0000000), wk =   0.0006662
        k(  626) = (   0.3750000   0.2500000   0.0000000), wk =   0.0006662
        k(  627) = (   0.3753333   0.2493333   0.0000000), wk =   0.0006662
        k(  628) = (   0.3756667   0.2486667   0.0000000), wk =   0.0006662
        k(  629) = (   0.3760000   0.2480000   0.0000000), wk =   0.0006662
        k(  630) = (   0.3763333   0.2473333   0.0000000), wk =   0.0006662
        k(  631) = (   0.3766667   0.2466667   0.0000000), wk =   0.0006662
        k(  632) = (   0.3770000   0.2460000   0.0000000), wk =   0.0006662
        k(  633) = (   0.3773333   0.2453333   0.0000000), wk =   0.0006662
        k(  634) = (   0.3776667   0.2446667   0.0000000), wk =   0.0006662
        k(  635) = (   0.3780000   0.2440000   0.0000000), wk =   0.0006662
        k(  636) = (   0.3783333   0.2433333   0.0000000), wk =   0.0006662
        k(  637) = (   0.3786667   0.2426667   0.0000000), wk =   0.0006662
        k(  638) = (   0.3790000   0.2420000   0.0000000), wk =   0.0006662
        k(  639) = (   0.3793333   0.2413333   0.0000000), wk =   0.0006662
        k(  640) = (   0.3796667   0.2406667   0.0000000), wk =   0.0006662
        k(  641) = (   0.3800000   0.2400000   0.0000000), wk =   0.0006662
        k(  642) = (   0.3803333   0.2393333   0.0000000), wk =   0.0006662
        k(  643) = (   0.3806667   0.2386667   0.0000000), wk =   0.0006662
        k(  644) = (   0.3810000   0.2380000   0.0000000), wk =   0.0006662
        k(  645) = (   0.3813333   0.2373333   0.0000000), wk =   0.0006662
        k(  646) = (   0.3816667   0.2366667   0.0000000), wk =   0.0006662
        k(  647) = (   0.3820000   0.2360000   0.0000000), wk =   0.0006662
        k(  648) = (   0.3823333   0.2353333   0.0000000), wk =   0.0006662
        k(  649) = (   0.3826667   0.2346667   0.0000000), wk =   0.0006662
        k(  650) = (   0.3830000   0.2340000   0.0000000), wk =   0.0006662
        k(  651) = (   0.3833333   0.2333333   0.0000000), wk =   0.0006662
        k(  652) = (   0.3836667   0.2326667   0.0000000), wk =   0.0006662
        k(  653) = (   0.3840000   0.2320000   0.0000000), wk =   0.0006662
        k(  654) = (   0.3843333   0.2313333   0.0000000), wk =   0.0006662
        k(  655) = (   0.3846667   0.2306667   0.0000000), wk =   0.0006662
        k(  656) = (   0.3850000   0.2300000   0.0000000), wk =   0.0006662
        k(  657) = (   0.3853333   0.2293333   0.0000000), wk =   0.0006662
        k(  658) = (   0.3856667   0.2286667   0.0000000), wk =   0.0006662
        k(  659) = (   0.3860000   0.2280000   0.0000000), wk =   0.0006662
        k(  660) = (   0.3863333   0.2273333   0.0000000), wk =   0.0006662
        k(  661) = (   0.3866667   0.2266667   0.0000000), wk =   0.0006662
        k(  662) = (   0.3870000   0.2260000   0.0000000), wk =   0.0006662
        k(  663) = (   0.3873333   0.2253333   0.0000000), wk =   0.0006662
        k(  664) = (   0.3876667   0.2246667   0.0000000), wk =   0.0006662
        k(  665) = (   0.3880000   0.2240000   0.0000000), wk =   0.0006662
        k(  666) = (   0.3883333   0.2233333   0.0000000), wk =   0.0006662
        k(  667) = (   0.3886667   0.2226667   0.0000000), wk =   0.0006662
        k(  668) = (   0.3890000   0.2220000   0.0000000), wk =   0.0006662
        k(  669) = (   0.3893333   0.2213333   0.0000000), wk =   0.0006662
        k(  670) = (   0.3896667   0.2206667   0.0000000), wk =   0.0006662
        k(  671) = (   0.3900000   0.2200000   0.0000000), wk =   0.0006662
        k(  672) = (   0.3903333   0.2193333   0.0000000), wk =   0.0006662
        k(  673) = (   0.3906667   0.2186667   0.0000000), wk =   0.0006662
        k(  674) = (   0.3910000   0.2180000   0.0000000), wk =   0.0006662
        k(  675) = (   0.3913333   0.2173333   0.0000000), wk =   0.0006662
        k(  676) = (   0.3916667   0.2166667   0.0000000), wk =   0.0006662
        k(  677) = (   0.3920000   0.2160000   0.0000000), wk =   0.0006662
        k(  678) = (   0.3923333   0.2153333   0.0000000), wk =   0.0006662
        k(  679) = (   0.3926667   0.2146667   0.0000000), wk =   0.0006662
        k(  680) = (   0.3930000   0.2140000   0.0000000), wk =   0.0006662
        k(  681) = (   0.3933333   0.2133333   0.0000000), wk =   0.0006662
        k(  682) = (   0.3936667   0.2126667   0.0000000), wk =   0.0006662
        k(  683) = (   0.3940000   0.2120000   0.0000000), wk =   0.0006662
        k(  684) = (   0.3943333   0.2113333   0.0000000), wk =   0.0006662
        k(  685) = (   0.3946667   0.2106667   0.0000000), wk =   0.0006662
        k(  686) = (   0.3950000   0.2100000   0.0000000), wk =   0.0006662
        k(  687) = (   0.3953333   0.2093333   0.0000000), wk =   0.0006662
        k(  688) = (   0.3956667   0.2086667   0.0000000), wk =   0.0006662
        k(  689) = (   0.3960000   0.2080000   0.0000000), wk =   0.0006662
        k(  690) = (   0.3963333   0.2073333   0.0000000), wk =   0.0006662
        k(  691) = (   0.3966667   0.2066667   0.0000000), wk =   0.0006662
        k(  692) = (   0.3970000   0.2060000   0.0000000), wk =   0.0006662
        k(  693) = (   0.3973333   0.2053333   0.0000000), wk =   0.0006662
        k(  694) = (   0.3976667   0.2046667   0.0000000), wk =   0.0006662
        k(  695) = (   0.3980000   0.2040000   0.0000000), wk =   0.0006662
        k(  696) = (   0.3983333   0.2033333   0.0000000), wk =   0.0006662
        k(  697) = (   0.3986667   0.2026667   0.0000000), wk =   0.0006662
        k(  698) = (   0.3990000   0.2020000   0.0000000), wk =   0.0006662
        k(  699) = (   0.3993333   0.2013333   0.0000000), wk =   0.0006662
        k(  700) = (   0.3996667   0.2006667   0.0000000), wk =   0.0006662
        k(  701) = (   0.4000000   0.2000000   0.0000000), wk =   0.0006662
        k(  702) = (   0.4003333   0.1993333   0.0000000), wk =   0.0006662
        k(  703) = (   0.4006667   0.1986667   0.0000000), wk =   0.0006662
        k(  704) = (   0.4010000   0.1980000   0.0000000), wk =   0.0006662
        k(  705) = (   0.4013333   0.1973333   0.0000000), wk =   0.0006662
        k(  706) = (   0.4016667   0.1966667   0.0000000), wk =   0.0006662
        k(  707) = (   0.4020000   0.1960000   0.0000000), wk =   0.0006662
        k(  708) = (   0.4023333   0.1953333   0.0000000), wk =   0.0006662
        k(  709) = (   0.4026667   0.1946667   0.0000000), wk =   0.0006662
        k(  710) = (   0.4030000   0.1940000   0.0000000), wk =   0.0006662
        k(  711) = (   0.4033333   0.1933333   0.0000000), wk =   0.0006662
        k(  712) = (   0.4036667   0.1926667   0.0000000), wk =   0.0006662
        k(  713) = (   0.4040000   0.1920000   0.0000000), wk =   0.0006662
        k(  714) = (   0.4043333   0.1913333   0.0000000), wk =   0.0006662
        k(  715) = (   0.4046667   0.1906667   0.0000000), wk =   0.0006662
        k(  716) = (   0.4050000   0.1900000   0.0000000), wk =   0.0006662
        k(  717) = (   0.4053333   0.1893333   0.0000000), wk =   0.0006662
        k(  718) = (   0.4056667   0.1886667   0.0000000), wk =   0.0006662
        k(  719) = (   0.4060000   0.1880000   0.0000000), wk =   0.0006662
        k(  720) = (   0.4063333   0.1873333   0.0000000), wk =   0.0006662
        k(  721) = (   0.4066667   0.1866667   0.0000000), wk =   0.0006662
        k(  722) = (   0.4070000   0.1860000   0.0000000), wk =   0.0006662
        k(  723) = (   0.4073333   0.1853333   0.0000000), wk =   0.0006662
        k(  724) = (   0.4076667   0.1846667   0.0000000), wk =   0.0006662
        k(  725) = (   0.4080000   0.1840000   0.0000000), wk =   0.0006662
        k(  726) = (   0.4083333   0.1833333   0.0000000), wk =   0.0006662
        k(  727) = (   0.4086667   0.1826667   0.0000000), wk =   0.0006662
        k(  728) = (   0.4090000   0.1820000   0.0000000), wk =   0.0006662
        k(  729) = (   0.4093333   0.1813333   0.0000000), wk =   0.0006662
        k(  730) = (   0.4096667   0.1806667   0.0000000), wk =   0.0006662
        k(  731) = (   0.4100000   0.1800000   0.0000000), wk =   0.0006662
        k(  732) = (   0.4103333   0.1793333   0.0000000), wk =   0.0006662
        k(  733) = (   0.4106667   0.1786667   0.0000000), wk =   0.0006662
        k(  734) = (   0.4110000   0.1780000   0.0000000), wk =   0.0006662
        k(  735) = (   0.4113333   0.1773333   0.0000000), wk =   0.0006662
        k(  736) = (   0.4116667   0.1766667   0.0000000), wk =   0.0006662
        k(  737) = (   0.4120000   0.1760000   0.0000000), wk =   0.0006662
        k(  738) = (   0.4123333   0.1753333   0.0000000), wk =   0.0006662
        k(  739) = (   0.4126667   0.1746667   0.0000000), wk =   0.0006662
        k(  740) = (   0.4130000   0.1740000   0.0000000), wk =   0.0006662
        k(  741) = (   0.4133333   0.1733333   0.0000000), wk =   0.0006662
        k(  742) = (   0.4136667   0.1726667   0.0000000), wk =   0.0006662
        k(  743) = (   0.4140000   0.1720000   0.0000000), wk =   0.0006662
        k(  744) = (   0.4143333   0.1713333   0.0000000), wk =   0.0006662
        k(  745) = (   0.4146667   0.1706667   0.0000000), wk =   0.0006662
        k(  746) = (   0.4150000   0.1700000   0.0000000), wk =   0.0006662
        k(  747) = (   0.4153333   0.1693333   0.0000000), wk =   0.0006662
        k(  748) = (   0.4156667   0.1686667   0.0000000), wk =   0.0006662
        k(  749) = (   0.4160000   0.1680000   0.0000000), wk =   0.0006662
        k(  750) = (   0.4163333   0.1673333   0.0000000), wk =   0.0006662
        k(  751) = (   0.4166667   0.1666667   0.0000000), wk =   0.0006662
        k(  752) = (   0.4170000   0.1660000   0.0000000), wk =   0.0006662
        k(  753) = (   0.4173333   0.1653333   0.0000000), wk =   0.0006662
        k(  754) = (   0.4176667   0.1646667   0.0000000), wk =   0.0006662
        k(  755) = (   0.4180000   0.1640000   0.0000000), wk =   0.0006662
        k(  756) = (   0.4183333   0.1633333   0.0000000), wk =   0.0006662
        k(  757) = (   0.4186667   0.1626667   0.0000000), wk =   0.0006662
        k(  758) = (   0.4190000   0.1620000   0.0000000), wk =   0.0006662
        k(  759) = (   0.4193333   0.1613333   0.0000000), wk =   0.0006662
        k(  760) = (   0.4196667   0.1606667   0.0000000), wk =   0.0006662
        k(  761) = (   0.4200000   0.1600000   0.0000000), wk =   0.0006662
        k(  762) = (   0.4203333   0.1593333   0.0000000), wk =   0.0006662
        k(  763) = (   0.4206667   0.1586667   0.0000000), wk =   0.0006662
        k(  764) = (   0.4210000   0.1580000   0.0000000), wk =   0.0006662
        k(  765) = (   0.4213333   0.1573333   0.0000000), wk =   0.0006662
        k(  766) = (   0.4216667   0.1566667   0.0000000), wk =   0.0006662
        k(  767) = (   0.4220000   0.1560000   0.0000000), wk =   0.0006662
        k(  768) = (   0.4223333   0.1553333   0.0000000), wk =   0.0006662
        k(  769) = (   0.4226667   0.1546667   0.0000000), wk =   0.0006662
        k(  770) = (   0.4230000   0.1540000   0.0000000), wk =   0.0006662
        k(  771) = (   0.4233333   0.1533333   0.0000000), wk =   0.0006662
        k(  772) = (   0.4236667   0.1526667   0.0000000), wk =   0.0006662
        k(  773) = (   0.4240000   0.1520000   0.0000000), wk =   0.0006662
        k(  774) = (   0.4243333   0.1513333   0.0000000), wk =   0.0006662
        k(  775) = (   0.4246667   0.1506667   0.0000000), wk =   0.0006662
        k(  776) = (   0.4250000   0.1500000   0.0000000), wk =   0.0006662
        k(  777) = (   0.4253333   0.1493333   0.0000000), wk =   0.0006662
        k(  778) = (   0.4256667   0.1486667   0.0000000), wk =   0.0006662
        k(  779) = (   0.4260000   0.1480000   0.0000000), wk =   0.0006662
        k(  780) = (   0.4263333   0.1473333   0.0000000), wk =   0.0006662
        k(  781) = (   0.4266667   0.1466667   0.0000000), wk =   0.0006662
        k(  782) = (   0.4270000   0.1460000   0.0000000), wk =   0.0006662
        k(  783) = (   0.4273333   0.1453333   0.0000000), wk =   0.0006662
        k(  784) = (   0.4276667   0.1446667   0.0000000), wk =   0.0006662
        k(  785) = (   0.4280000   0.1440000   0.0000000), wk =   0.0006662
        k(  786) = (   0.4283333   0.1433333   0.0000000), wk =   0.0006662
        k(  787) = (   0.4286667   0.1426667   0.0000000), wk =   0.0006662
        k(  788) = (   0.4290000   0.1420000   0.0000000), wk =   0.0006662
        k(  789) = (   0.4293333   0.1413333   0.0000000), wk =   0.0006662
        k(  790) = (   0.4296667   0.1406667   0.0000000), wk =   0.0006662
        k(  791) = (   0.4300000   0.1400000   0.0000000), wk =   0.0006662
        k(  792) = (   0.4303333   0.1393333   0.0000000), wk =   0.0006662
        k(  793) = (   0.4306667   0.1386667   0.0000000), wk =   0.0006662
        k(  794) = (   0.4310000   0.1380000   0.0000000), wk =   0.0006662
        k(  795) = (   0.4313333   0.1373333   0.0000000), wk =   0.0006662
        k(  796) = (   0.4316667   0.1366667   0.0000000), wk =   0.0006662
        k(  797) = (   0.4320000   0.1360000   0.0000000), wk =   0.0006662
        k(  798) = (   0.4323333   0.1353333   0.0000000), wk =   0.0006662
        k(  799) = (   0.4326667   0.1346667   0.0000000), wk =   0.0006662
        k(  800) = (   0.4330000   0.1340000   0.0000000), wk =   0.0006662
        k(  801) = (   0.4333333   0.1333333   0.0000000), wk =   0.0006662
        k(  802) = (   0.4336667   0.1326667   0.0000000), wk =   0.0006662
        k(  803) = (   0.4340000   0.1320000   0.0000000), wk =   0.0006662
        k(  804) = (   0.4343333   0.1313333   0.0000000), wk =   0.0006662
        k(  805) = (   0.4346667   0.1306667   0.0000000), wk =   0.0006662
        k(  806) = (   0.4350000   0.1300000   0.0000000), wk =   0.0006662
        k(  807) = (   0.4353333   0.1293333   0.0000000), wk =   0.0006662
        k(  808) = (   0.4356667   0.1286667   0.0000000), wk =   0.0006662
        k(  809) = (   0.4360000   0.1280000   0.0000000), wk =   0.0006662
        k(  810) = (   0.4363333   0.1273333   0.0000000), wk =   0.0006662
        k(  811) = (   0.4366667   0.1266667   0.0000000), wk =   0.0006662
        k(  812) = (   0.4370000   0.1260000   0.0000000), wk =   0.0006662
        k(  813) = (   0.4373333   0.1253333   0.0000000), wk =   0.0006662
        k(  814) = (   0.4376667   0.1246667   0.0000000), wk =   0.0006662
        k(  815) = (   0.4380000   0.1240000   0.0000000), wk =   0.0006662
        k(  816) = (   0.4383333   0.1233333   0.0000000), wk =   0.0006662
        k(  817) = (   0.4386667   0.1226667   0.0000000), wk =   0.0006662
        k(  818) = (   0.4390000   0.1220000   0.0000000), wk =   0.0006662
        k(  819) = (   0.4393333   0.1213333   0.0000000), wk =   0.0006662
        k(  820) = (   0.4396667   0.1206667   0.0000000), wk =   0.0006662
        k(  821) = (   0.4400000   0.1200000   0.0000000), wk =   0.0006662
        k(  822) = (   0.4403333   0.1193333   0.0000000), wk =   0.0006662
        k(  823) = (   0.4406667   0.1186667   0.0000000), wk =   0.0006662
        k(  824) = (   0.4410000   0.1180000   0.0000000), wk =   0.0006662
        k(  825) = (   0.4413333   0.1173333   0.0000000), wk =   0.0006662
        k(  826) = (   0.4416667   0.1166667   0.0000000), wk =   0.0006662
        k(  827) = (   0.4420000   0.1160000   0.0000000), wk =   0.0006662
        k(  828) = (   0.4423333   0.1153333   0.0000000), wk =   0.0006662
        k(  829) = (   0.4426667   0.1146667   0.0000000), wk =   0.0006662
        k(  830) = (   0.4430000   0.1140000   0.0000000), wk =   0.0006662
        k(  831) = (   0.4433333   0.1133333   0.0000000), wk =   0.0006662
        k(  832) = (   0.4436667   0.1126667   0.0000000), wk =   0.0006662
        k(  833) = (   0.4440000   0.1120000   0.0000000), wk =   0.0006662
        k(  834) = (   0.4443333   0.1113333   0.0000000), wk =   0.0006662
        k(  835) = (   0.4446667   0.1106667   0.0000000), wk =   0.0006662
        k(  836) = (   0.4450000   0.1100000   0.0000000), wk =   0.0006662
        k(  837) = (   0.4453333   0.1093333   0.0000000), wk =   0.0006662
        k(  838) = (   0.4456667   0.1086667   0.0000000), wk =   0.0006662
        k(  839) = (   0.4460000   0.1080000   0.0000000), wk =   0.0006662
        k(  840) = (   0.4463333   0.1073333   0.0000000), wk =   0.0006662
        k(  841) = (   0.4466667   0.1066667   0.0000000), wk =   0.0006662
        k(  842) = (   0.4470000   0.1060000   0.0000000), wk =   0.0006662
        k(  843) = (   0.4473333   0.1053333   0.0000000), wk =   0.0006662
        k(  844) = (   0.4476667   0.1046667   0.0000000), wk =   0.0006662
        k(  845) = (   0.4480000   0.1040000   0.0000000), wk =   0.0006662
        k(  846) = (   0.4483333   0.1033333   0.0000000), wk =   0.0006662
        k(  847) = (   0.4486667   0.1026667   0.0000000), wk =   0.0006662
        k(  848) = (   0.4490000   0.1020000   0.0000000), wk =   0.0006662
        k(  849) = (   0.4493333   0.1013333   0.0000000), wk =   0.0006662
        k(  850) = (   0.4496667   0.1006667   0.0000000), wk =   0.0006662
        k(  851) = (   0.4500000   0.1000000   0.0000000), wk =   0.0006662
        k(  852) = (   0.4503333   0.0993333   0.0000000), wk =   0.0006662
        k(  853) = (   0.4506667   0.0986667   0.0000000), wk =   0.0006662
        k(  854) = (   0.4510000   0.0980000   0.0000000), wk =   0.0006662
        k(  855) = (   0.4513333   0.0973333   0.0000000), wk =   0.0006662
        k(  856) = (   0.4516667   0.0966667   0.0000000), wk =   0.0006662
        k(  857) = (   0.4520000   0.0960000   0.0000000), wk =   0.0006662
        k(  858) = (   0.4523333   0.0953333   0.0000000), wk =   0.0006662
        k(  859) = (   0.4526667   0.0946667   0.0000000), wk =   0.0006662
        k(  860) = (   0.4530000   0.0940000   0.0000000), wk =   0.0006662
        k(  861) = (   0.4533333   0.0933333   0.0000000), wk =   0.0006662
        k(  862) = (   0.4536667   0.0926667   0.0000000), wk =   0.0006662
        k(  863) = (   0.4540000   0.0920000   0.0000000), wk =   0.0006662
        k(  864) = (   0.4543333   0.0913333   0.0000000), wk =   0.0006662
        k(  865) = (   0.4546667   0.0906667   0.0000000), wk =   0.0006662
        k(  866) = (   0.4550000   0.0900000   0.0000000), wk =   0.0006662
        k(  867) = (   0.4553333   0.0893333   0.0000000), wk =   0.0006662
        k(  868) = (   0.4556667   0.0886667   0.0000000), wk =   0.0006662
        k(  869) = (   0.4560000   0.0880000   0.0000000), wk =   0.0006662
        k(  870) = (   0.4563333   0.0873333   0.0000000), wk =   0.0006662
        k(  871) = (   0.4566667   0.0866667   0.0000000), wk =   0.0006662
        k(  872) = (   0.4570000   0.0860000   0.0000000), wk =   0.0006662
        k(  873) = (   0.4573333   0.0853333   0.0000000), wk =   0.0006662
        k(  874) = (   0.4576667   0.0846667   0.0000000), wk =   0.0006662
        k(  875) = (   0.4580000   0.0840000   0.0000000), wk =   0.0006662
        k(  876) = (   0.4583333   0.0833333   0.0000000), wk =   0.0006662
        k(  877) = (   0.4586667   0.0826667   0.0000000), wk =   0.0006662
        k(  878) = (   0.4590000   0.0820000   0.0000000), wk =   0.0006662
        k(  879) = (   0.4593333   0.0813333   0.0000000), wk =   0.0006662
        k(  880) = (   0.4596667   0.0806667   0.0000000), wk =   0.0006662
        k(  881) = (   0.4600000   0.0800000   0.0000000), wk =   0.0006662
        k(  882) = (   0.4603333   0.0793333   0.0000000), wk =   0.0006662
        k(  883) = (   0.4606667   0.0786667   0.0000000), wk =   0.0006662
        k(  884) = (   0.4610000   0.0780000   0.0000000), wk =   0.0006662
        k(  885) = (   0.4613333   0.0773333   0.0000000), wk =   0.0006662
        k(  886) = (   0.4616667   0.0766667   0.0000000), wk =   0.0006662
        k(  887) = (   0.4620000   0.0760000   0.0000000), wk =   0.0006662
        k(  888) = (   0.4623333   0.0753333   0.0000000), wk =   0.0006662
        k(  889) = (   0.4626667   0.0746667   0.0000000), wk =   0.0006662
        k(  890) = (   0.4630000   0.0740000   0.0000000), wk =   0.0006662
        k(  891) = (   0.4633333   0.0733333   0.0000000), wk =   0.0006662
        k(  892) = (   0.4636667   0.0726667   0.0000000), wk =   0.0006662
        k(  893) = (   0.4640000   0.0720000   0.0000000), wk =   0.0006662
        k(  894) = (   0.4643333   0.0713333   0.0000000), wk =   0.0006662
        k(  895) = (   0.4646667   0.0706667   0.0000000), wk =   0.0006662
        k(  896) = (   0.4650000   0.0700000   0.0000000), wk =   0.0006662
        k(  897) = (   0.4653333   0.0693333   0.0000000), wk =   0.0006662
        k(  898) = (   0.4656667   0.0686667   0.0000000), wk =   0.0006662
        k(  899) = (   0.4660000   0.0680000   0.0000000), wk =   0.0006662
        k(  900) = (   0.4663333   0.0673333   0.0000000), wk =   0.0006662
        k(  901) = (   0.4666667   0.0666667   0.0000000), wk =   0.0006662
        k(  902) = (   0.4670000   0.0660000   0.0000000), wk =   0.0006662
        k(  903) = (   0.4673333   0.0653333   0.0000000), wk =   0.0006662
        k(  904) = (   0.4676667   0.0646667   0.0000000), wk =   0.0006662
        k(  905) = (   0.4680000   0.0640000   0.0000000), wk =   0.0006662
        k(  906) = (   0.4683333   0.0633333   0.0000000), wk =   0.0006662
        k(  907) = (   0.4686667   0.0626667   0.0000000), wk =   0.0006662
        k(  908) = (   0.4690000   0.0620000   0.0000000), wk =   0.0006662
        k(  909) = (   0.4693333   0.0613333   0.0000000), wk =   0.0006662
        k(  910) = (   0.4696667   0.0606667   0.0000000), wk =   0.0006662
        k(  911) = (   0.4700000   0.0600000   0.0000000), wk =   0.0006662
        k(  912) = (   0.4703333   0.0593333   0.0000000), wk =   0.0006662
        k(  913) = (   0.4706667   0.0586667   0.0000000), wk =   0.0006662
        k(  914) = (   0.4710000   0.0580000   0.0000000), wk =   0.0006662
        k(  915) = (   0.4713333   0.0573333   0.0000000), wk =   0.0006662
        k(  916) = (   0.4716667   0.0566667   0.0000000), wk =   0.0006662
        k(  917) = (   0.4720000   0.0560000   0.0000000), wk =   0.0006662
        k(  918) = (   0.4723333   0.0553333   0.0000000), wk =   0.0006662
        k(  919) = (   0.4726667   0.0546667   0.0000000), wk =   0.0006662
        k(  920) = (   0.4730000   0.0540000   0.0000000), wk =   0.0006662
        k(  921) = (   0.4733333   0.0533333   0.0000000), wk =   0.0006662
        k(  922) = (   0.4736667   0.0526667   0.0000000), wk =   0.0006662
        k(  923) = (   0.4740000   0.0520000   0.0000000), wk =   0.0006662
        k(  924) = (   0.4743333   0.0513333   0.0000000), wk =   0.0006662
        k(  925) = (   0.4746667   0.0506667   0.0000000), wk =   0.0006662
        k(  926) = (   0.4750000   0.0500000   0.0000000), wk =   0.0006662
        k(  927) = (   0.4753333   0.0493333   0.0000000), wk =   0.0006662
        k(  928) = (   0.4756667   0.0486667   0.0000000), wk =   0.0006662
        k(  929) = (   0.4760000   0.0480000   0.0000000), wk =   0.0006662
        k(  930) = (   0.4763333   0.0473333   0.0000000), wk =   0.0006662
        k(  931) = (   0.4766667   0.0466667   0.0000000), wk =   0.0006662
        k(  932) = (   0.4770000   0.0460000   0.0000000), wk =   0.0006662
        k(  933) = (   0.4773333   0.0453333   0.0000000), wk =   0.0006662
        k(  934) = (   0.4776667   0.0446667   0.0000000), wk =   0.0006662
        k(  935) = (   0.4780000   0.0440000   0.0000000), wk =   0.0006662
        k(  936) = (   0.4783333   0.0433333   0.0000000), wk =   0.0006662
        k(  937) = (   0.4786667   0.0426667   0.0000000), wk =   0.0006662
        k(  938) = (   0.4790000   0.0420000   0.0000000), wk =   0.0006662
        k(  939) = (   0.4793333   0.0413333   0.0000000), wk =   0.0006662
        k(  940) = (   0.4796667   0.0406667   0.0000000), wk =   0.0006662
        k(  941) = (   0.4800000   0.0400000   0.0000000), wk =   0.0006662
        k(  942) = (   0.4803333   0.0393333   0.0000000), wk =   0.0006662
        k(  943) = (   0.4806667   0.0386667   0.0000000), wk =   0.0006662
        k(  944) = (   0.4810000   0.0380000   0.0000000), wk =   0.0006662
        k(  945) = (   0.4813333   0.0373333   0.0000000), wk =   0.0006662
        k(  946) = (   0.4816667   0.0366667   0.0000000), wk =   0.0006662
        k(  947) = (   0.4820000   0.0360000   0.0000000), wk =   0.0006662
        k(  948) = (   0.4823333   0.0353333   0.0000000), wk =   0.0006662
        k(  949) = (   0.4826667   0.0346667   0.0000000), wk =   0.0006662
        k(  950) = (   0.4830000   0.0340000   0.0000000), wk =   0.0006662
        k(  951) = (   0.4833333   0.0333333   0.0000000), wk =   0.0006662
        k(  952) = (   0.4836667   0.0326667   0.0000000), wk =   0.0006662
        k(  953) = (   0.4840000   0.0320000   0.0000000), wk =   0.0006662
        k(  954) = (   0.4843333   0.0313333   0.0000000), wk =   0.0006662
        k(  955) = (   0.4846667   0.0306667   0.0000000), wk =   0.0006662
        k(  956) = (   0.4850000   0.0300000   0.0000000), wk =   0.0006662
        k(  957) = (   0.4853333   0.0293333   0.0000000), wk =   0.0006662
        k(  958) = (   0.4856667   0.0286667   0.0000000), wk =   0.0006662
        k(  959) = (   0.4860000   0.0280000   0.0000000), wk =   0.0006662
        k(  960) = (   0.4863333   0.0273333   0.0000000), wk =   0.0006662
        k(  961) = (   0.4866667   0.0266667   0.0000000), wk =   0.0006662
        k(  962) = (   0.4870000   0.0260000   0.0000000), wk =   0.0006662
        k(  963) = (   0.4873333   0.0253333   0.0000000), wk =   0.0006662
        k(  964) = (   0.4876667   0.0246667   0.0000000), wk =   0.0006662
        k(  965) = (   0.4880000   0.0240000   0.0000000), wk =   0.0006662
        k(  966) = (   0.4883333   0.0233333   0.0000000), wk =   0.0006662
        k(  967) = (   0.4886667   0.0226667   0.0000000), wk =   0.0006662
        k(  968) = (   0.4890000   0.0220000   0.0000000), wk =   0.0006662
        k(  969) = (   0.4893333   0.0213333   0.0000000), wk =   0.0006662
        k(  970) = (   0.4896667   0.0206667   0.0000000), wk =   0.0006662
        k(  971) = (   0.4900000   0.0200000   0.0000000), wk =   0.0006662
        k(  972) = (   0.4903333   0.0193333   0.0000000), wk =   0.0006662
        k(  973) = (   0.4906667   0.0186667   0.0000000), wk =   0.0006662
        k(  974) = (   0.4910000   0.0180000   0.0000000), wk =   0.0006662
        k(  975) = (   0.4913333   0.0173333   0.0000000), wk =   0.0006662
        k(  976) = (   0.4916667   0.0166667   0.0000000), wk =   0.0006662
        k(  977) = (   0.4920000   0.0160000   0.0000000), wk =   0.0006662
        k(  978) = (   0.4923333   0.0153333   0.0000000), wk =   0.0006662
        k(  979) = (   0.4926667   0.0146667   0.0000000), wk =   0.0006662
        k(  980) = (   0.4930000   0.0140000   0.0000000), wk =   0.0006662
        k(  981) = (   0.4933333   0.0133333   0.0000000), wk =   0.0006662
        k(  982) = (   0.4936667   0.0126667   0.0000000), wk =   0.0006662
        k(  983) = (   0.4940000   0.0120000   0.0000000), wk =   0.0006662
        k(  984) = (   0.4943333   0.0113333   0.0000000), wk =   0.0006662
        k(  985) = (   0.4946667   0.0106667   0.0000000), wk =   0.0006662
        k(  986) = (   0.4950000   0.0100000   0.0000000), wk =   0.0006662
        k(  987) = (   0.4953333   0.0093333   0.0000000), wk =   0.0006662
        k(  988) = (   0.4956667   0.0086667   0.0000000), wk =   0.0006662
        k(  989) = (   0.4960000   0.0080000   0.0000000), wk =   0.0006662
        k(  990) = (   0.4963333   0.0073333   0.0000000), wk =   0.0006662
        k(  991) = (   0.4966667   0.0066667   0.0000000), wk =   0.0006662
        k(  992) = (   0.4970000   0.0060000   0.0000000), wk =   0.0006662
        k(  993) = (   0.4973333   0.0053333   0.0000000), wk =   0.0006662
        k(  994) = (   0.4976667   0.0046667   0.0000000), wk =   0.0006662
        k(  995) = (   0.4980000   0.0040000   0.0000000), wk =   0.0006662
        k(  996) = (   0.4983333   0.0033333   0.0000000), wk =   0.0006662
        k(  997) = (   0.4986667   0.0026667   0.0000000), wk =   0.0006662
        k(  998) = (   0.4990000   0.0020000   0.0000000), wk =   0.0006662
        k(  999) = (   0.4993333   0.0013333   0.0000000), wk =   0.0006662
        k( 1000) = (   0.4996667   0.0006667   0.0000000), wk =   0.0006662
        k( 1001) = (   0.5000000   0.0000000   0.0000000), wk =   0.0006662
        k( 1002) = (   0.4990000   0.0000000   0.0000000), wk =   0.0006662
        k( 1003) = (   0.4980000   0.0000000   0.0000000), wk =   0.0006662
        k( 1004) = (   0.4970000   0.0000000   0.0000000), wk =   0.0006662
        k( 1005) = (   0.4960000   0.0000000   0.0000000), wk =   0.0006662
        k( 1006) = (   0.4950000   0.0000000   0.0000000), wk =   0.0006662
        k( 1007) = (   0.4940000   0.0000000   0.0000000), wk =   0.0006662
        k( 1008) = (   0.4930000   0.0000000   0.0000000), wk =   0.0006662
        k( 1009) = (   0.4920000   0.0000000   0.0000000), wk =   0.0006662
        k( 1010) = (   0.4910000   0.0000000   0.0000000), wk =   0.0006662
        k( 1011) = (   0.4900000   0.0000000   0.0000000), wk =   0.0006662
        k( 1012) = (   0.4890000   0.0000000   0.0000000), wk =   0.0006662
        k( 1013) = (   0.4880000   0.0000000   0.0000000), wk =   0.0006662
        k( 1014) = (   0.4870000   0.0000000   0.0000000), wk =   0.0006662
        k( 1015) = (   0.4860000   0.0000000   0.0000000), wk =   0.0006662
        k( 1016) = (   0.4850000   0.0000000   0.0000000), wk =   0.0006662
        k( 1017) = (   0.4840000   0.0000000   0.0000000), wk =   0.0006662
        k( 1018) = (   0.4830000   0.0000000   0.0000000), wk =   0.0006662
        k( 1019) = (   0.4820000   0.0000000   0.0000000), wk =   0.0006662
        k( 1020) = (   0.4810000   0.0000000   0.0000000), wk =   0.0006662
        k( 1021) = (   0.4800000   0.0000000   0.0000000), wk =   0.0006662
        k( 1022) = (   0.4790000   0.0000000   0.0000000), wk =   0.0006662
        k( 1023) = (   0.4780000   0.0000000   0.0000000), wk =   0.0006662
        k( 1024) = (   0.4770000   0.0000000   0.0000000), wk =   0.0006662
        k( 1025) = (   0.4760000   0.0000000   0.0000000), wk =   0.0006662
        k( 1026) = (   0.4750000   0.0000000   0.0000000), wk =   0.0006662
        k( 1027) = (   0.4740000   0.0000000   0.0000000), wk =   0.0006662
        k( 1028) = (   0.4730000   0.0000000   0.0000000), wk =   0.0006662
        k( 1029) = (   0.4720000   0.0000000   0.0000000), wk =   0.0006662
        k( 1030) = (   0.4710000   0.0000000   0.0000000), wk =   0.0006662
        k( 1031) = (   0.4700000   0.0000000   0.0000000), wk =   0.0006662
        k( 1032) = (   0.4690000   0.0000000   0.0000000), wk =   0.0006662
        k( 1033) = (   0.4680000   0.0000000   0.0000000), wk =   0.0006662
        k( 1034) = (   0.4670000   0.0000000   0.0000000), wk =   0.0006662
        k( 1035) = (   0.4660000   0.0000000   0.0000000), wk =   0.0006662
        k( 1036) = (   0.4650000   0.0000000   0.0000000), wk =   0.0006662
        k( 1037) = (   0.4640000   0.0000000   0.0000000), wk =   0.0006662
        k( 1038) = (   0.4630000   0.0000000   0.0000000), wk =   0.0006662
        k( 1039) = (   0.4620000   0.0000000   0.0000000), wk =   0.0006662
        k( 1040) = (   0.4610000   0.0000000   0.0000000), wk =   0.0006662
        k( 1041) = (   0.4600000   0.0000000   0.0000000), wk =   0.0006662
        k( 1042) = (   0.4590000   0.0000000   0.0000000), wk =   0.0006662
        k( 1043) = (   0.4580000   0.0000000   0.0000000), wk =   0.0006662
        k( 1044) = (   0.4570000   0.0000000   0.0000000), wk =   0.0006662
        k( 1045) = (   0.4560000   0.0000000   0.0000000), wk =   0.0006662
        k( 1046) = (   0.4550000   0.0000000   0.0000000), wk =   0.0006662
        k( 1047) = (   0.4540000   0.0000000   0.0000000), wk =   0.0006662
        k( 1048) = (   0.4530000   0.0000000   0.0000000), wk =   0.0006662
        k( 1049) = (   0.4520000   0.0000000   0.0000000), wk =   0.0006662
        k( 1050) = (   0.4510000   0.0000000   0.0000000), wk =   0.0006662
        k( 1051) = (   0.4500000   0.0000000   0.0000000), wk =   0.0006662
        k( 1052) = (   0.4490000   0.0000000   0.0000000), wk =   0.0006662
        k( 1053) = (   0.4480000   0.0000000   0.0000000), wk =   0.0006662
        k( 1054) = (   0.4470000   0.0000000   0.0000000), wk =   0.0006662
        k( 1055) = (   0.4460000   0.0000000   0.0000000), wk =   0.0006662
        k( 1056) = (   0.4450000   0.0000000   0.0000000), wk =   0.0006662
        k( 1057) = (   0.4440000   0.0000000   0.0000000), wk =   0.0006662
        k( 1058) = (   0.4430000   0.0000000   0.0000000), wk =   0.0006662
        k( 1059) = (   0.4420000   0.0000000   0.0000000), wk =   0.0006662
        k( 1060) = (   0.4410000   0.0000000   0.0000000), wk =   0.0006662
        k( 1061) = (   0.4400000   0.0000000   0.0000000), wk =   0.0006662
        k( 1062) = (   0.4390000   0.0000000   0.0000000), wk =   0.0006662
        k( 1063) = (   0.4380000   0.0000000   0.0000000), wk =   0.0006662
        k( 1064) = (   0.4370000   0.0000000   0.0000000), wk =   0.0006662
        k( 1065) = (   0.4360000   0.0000000   0.0000000), wk =   0.0006662
        k( 1066) = (   0.4350000   0.0000000   0.0000000), wk =   0.0006662
        k( 1067) = (   0.4340000   0.0000000   0.0000000), wk =   0.0006662
        k( 1068) = (   0.4330000   0.0000000   0.0000000), wk =   0.0006662
        k( 1069) = (   0.4320000   0.0000000   0.0000000), wk =   0.0006662
        k( 1070) = (   0.4310000   0.0000000   0.0000000), wk =   0.0006662
        k( 1071) = (   0.4300000   0.0000000   0.0000000), wk =   0.0006662
        k( 1072) = (   0.4290000   0.0000000   0.0000000), wk =   0.0006662
        k( 1073) = (   0.4280000   0.0000000   0.0000000), wk =   0.0006662
        k( 1074) = (   0.4270000   0.0000000   0.0000000), wk =   0.0006662
        k( 1075) = (   0.4260000   0.0000000   0.0000000), wk =   0.0006662
        k( 1076) = (   0.4250000   0.0000000   0.0000000), wk =   0.0006662
        k( 1077) = (   0.4240000   0.0000000   0.0000000), wk =   0.0006662
        k( 1078) = (   0.4230000   0.0000000   0.0000000), wk =   0.0006662
        k( 1079) = (   0.4220000   0.0000000   0.0000000), wk =   0.0006662
        k( 1080) = (   0.4210000   0.0000000   0.0000000), wk =   0.0006662
        k( 1081) = (   0.4200000   0.0000000   0.0000000), wk =   0.0006662
        k( 1082) = (   0.4190000   0.0000000   0.0000000), wk =   0.0006662
        k( 1083) = (   0.4180000   0.0000000   0.0000000), wk =   0.0006662
        k( 1084) = (   0.4170000   0.0000000   0.0000000), wk =   0.0006662
        k( 1085) = (   0.4160000   0.0000000   0.0000000), wk =   0.0006662
        k( 1086) = (   0.4150000   0.0000000   0.0000000), wk =   0.0006662
        k( 1087) = (   0.4140000   0.0000000   0.0000000), wk =   0.0006662
        k( 1088) = (   0.4130000   0.0000000   0.0000000), wk =   0.0006662
        k( 1089) = (   0.4120000   0.0000000   0.0000000), wk =   0.0006662
        k( 1090) = (   0.4110000   0.0000000   0.0000000), wk =   0.0006662
        k( 1091) = (   0.4100000   0.0000000   0.0000000), wk =   0.0006662
        k( 1092) = (   0.4090000   0.0000000   0.0000000), wk =   0.0006662
        k( 1093) = (   0.4080000   0.0000000   0.0000000), wk =   0.0006662
        k( 1094) = (   0.4070000   0.0000000   0.0000000), wk =   0.0006662
        k( 1095) = (   0.4060000   0.0000000   0.0000000), wk =   0.0006662
        k( 1096) = (   0.4050000   0.0000000   0.0000000), wk =   0.0006662
        k( 1097) = (   0.4040000   0.0000000   0.0000000), wk =   0.0006662
        k( 1098) = (   0.4030000   0.0000000   0.0000000), wk =   0.0006662
        k( 1099) = (   0.4020000   0.0000000   0.0000000), wk =   0.0006662
        k( 1100) = (   0.4010000   0.0000000   0.0000000), wk =   0.0006662
        k( 1101) = (   0.4000000   0.0000000   0.0000000), wk =   0.0006662
        k( 1102) = (   0.3990000   0.0000000   0.0000000), wk =   0.0006662
        k( 1103) = (   0.3980000   0.0000000   0.0000000), wk =   0.0006662
        k( 1104) = (   0.3970000   0.0000000   0.0000000), wk =   0.0006662
        k( 1105) = (   0.3960000   0.0000000   0.0000000), wk =   0.0006662
        k( 1106) = (   0.3950000   0.0000000   0.0000000), wk =   0.0006662
        k( 1107) = (   0.3940000   0.0000000   0.0000000), wk =   0.0006662
        k( 1108) = (   0.3930000   0.0000000   0.0000000), wk =   0.0006662
        k( 1109) = (   0.3920000   0.0000000   0.0000000), wk =   0.0006662
        k( 1110) = (   0.3910000   0.0000000   0.0000000), wk =   0.0006662
        k( 1111) = (   0.3900000   0.0000000   0.0000000), wk =   0.0006662
        k( 1112) = (   0.3890000   0.0000000   0.0000000), wk =   0.0006662
        k( 1113) = (   0.3880000   0.0000000   0.0000000), wk =   0.0006662
        k( 1114) = (   0.3870000   0.0000000   0.0000000), wk =   0.0006662
        k( 1115) = (   0.3860000   0.0000000   0.0000000), wk =   0.0006662
        k( 1116) = (   0.3850000   0.0000000   0.0000000), wk =   0.0006662
        k( 1117) = (   0.3840000   0.0000000   0.0000000), wk =   0.0006662
        k( 1118) = (   0.3830000   0.0000000   0.0000000), wk =   0.0006662
        k( 1119) = (   0.3820000   0.0000000   0.0000000), wk =   0.0006662
        k( 1120) = (   0.3810000   0.0000000   0.0000000), wk =   0.0006662
        k( 1121) = (   0.3800000   0.0000000   0.0000000), wk =   0.0006662
        k( 1122) = (   0.3790000   0.0000000   0.0000000), wk =   0.0006662
        k( 1123) = (   0.3780000   0.0000000   0.0000000), wk =   0.0006662
        k( 1124) = (   0.3770000   0.0000000   0.0000000), wk =   0.0006662
        k( 1125) = (   0.3760000   0.0000000   0.0000000), wk =   0.0006662
        k( 1126) = (   0.3750000   0.0000000   0.0000000), wk =   0.0006662
        k( 1127) = (   0.3740000   0.0000000   0.0000000), wk =   0.0006662
        k( 1128) = (   0.3730000   0.0000000   0.0000000), wk =   0.0006662
        k( 1129) = (   0.3720000   0.0000000   0.0000000), wk =   0.0006662
        k( 1130) = (   0.3710000   0.0000000   0.0000000), wk =   0.0006662
        k( 1131) = (   0.3700000   0.0000000   0.0000000), wk =   0.0006662
        k( 1132) = (   0.3690000   0.0000000   0.0000000), wk =   0.0006662
        k( 1133) = (   0.3680000   0.0000000   0.0000000), wk =   0.0006662
        k( 1134) = (   0.3670000   0.0000000   0.0000000), wk =   0.0006662
        k( 1135) = (   0.3660000   0.0000000   0.0000000), wk =   0.0006662
        k( 1136) = (   0.3650000   0.0000000   0.0000000), wk =   0.0006662
        k( 1137) = (   0.3640000   0.0000000   0.0000000), wk =   0.0006662
        k( 1138) = (   0.3630000   0.0000000   0.0000000), wk =   0.0006662
        k( 1139) = (   0.3620000   0.0000000   0.0000000), wk =   0.0006662
        k( 1140) = (   0.3610000   0.0000000   0.0000000), wk =   0.0006662
        k( 1141) = (   0.3600000   0.0000000   0.0000000), wk =   0.0006662
        k( 1142) = (   0.3590000   0.0000000   0.0000000), wk =   0.0006662
        k( 1143) = (   0.3580000   0.0000000   0.0000000), wk =   0.0006662
        k( 1144) = (   0.3570000   0.0000000   0.0000000), wk =   0.0006662
        k( 1145) = (   0.3560000   0.0000000   0.0000000), wk =   0.0006662
        k( 1146) = (   0.3550000   0.0000000   0.0000000), wk =   0.0006662
        k( 1147) = (   0.3540000   0.0000000   0.0000000), wk =   0.0006662
        k( 1148) = (   0.3530000   0.0000000   0.0000000), wk =   0.0006662
        k( 1149) = (   0.3520000   0.0000000   0.0000000), wk =   0.0006662
        k( 1150) = (   0.3510000   0.0000000   0.0000000), wk =   0.0006662
        k( 1151) = (   0.3500000   0.0000000   0.0000000), wk =   0.0006662
        k( 1152) = (   0.3490000   0.0000000   0.0000000), wk =   0.0006662
        k( 1153) = (   0.3480000   0.0000000   0.0000000), wk =   0.0006662
        k( 1154) = (   0.3470000   0.0000000   0.0000000), wk =   0.0006662
        k( 1155) = (   0.3460000   0.0000000   0.0000000), wk =   0.0006662
        k( 1156) = (   0.3450000   0.0000000   0.0000000), wk =   0.0006662
        k( 1157) = (   0.3440000   0.0000000   0.0000000), wk =   0.0006662
        k( 1158) = (   0.3430000   0.0000000   0.0000000), wk =   0.0006662
        k( 1159) = (   0.3420000   0.0000000   0.0000000), wk =   0.0006662
        k( 1160) = (   0.3410000   0.0000000   0.0000000), wk =   0.0006662
        k( 1161) = (   0.3400000   0.0000000   0.0000000), wk =   0.0006662
        k( 1162) = (   0.3390000   0.0000000   0.0000000), wk =   0.0006662
        k( 1163) = (   0.3380000   0.0000000   0.0000000), wk =   0.0006662
        k( 1164) = (   0.3370000   0.0000000   0.0000000), wk =   0.0006662
        k( 1165) = (   0.3360000   0.0000000   0.0000000), wk =   0.0006662
        k( 1166) = (   0.3350000   0.0000000   0.0000000), wk =   0.0006662
        k( 1167) = (   0.3340000   0.0000000   0.0000000), wk =   0.0006662
        k( 1168) = (   0.3330000   0.0000000   0.0000000), wk =   0.0006662
        k( 1169) = (   0.3320000   0.0000000   0.0000000), wk =   0.0006662
        k( 1170) = (   0.3310000   0.0000000   0.0000000), wk =   0.0006662
        k( 1171) = (   0.3300000   0.0000000   0.0000000), wk =   0.0006662
        k( 1172) = (   0.3290000   0.0000000   0.0000000), wk =   0.0006662
        k( 1173) = (   0.3280000   0.0000000   0.0000000), wk =   0.0006662
        k( 1174) = (   0.3270000   0.0000000   0.0000000), wk =   0.0006662
        k( 1175) = (   0.3260000   0.0000000   0.0000000), wk =   0.0006662
        k( 1176) = (   0.3250000   0.0000000   0.0000000), wk =   0.0006662
        k( 1177) = (   0.3240000   0.0000000   0.0000000), wk =   0.0006662
        k( 1178) = (   0.3230000   0.0000000   0.0000000), wk =   0.0006662
        k( 1179) = (   0.3220000   0.0000000   0.0000000), wk =   0.0006662
        k( 1180) = (   0.3210000   0.0000000   0.0000000), wk =   0.0006662
        k( 1181) = (   0.3200000   0.0000000   0.0000000), wk =   0.0006662
        k( 1182) = (   0.3190000   0.0000000   0.0000000), wk =   0.0006662
        k( 1183) = (   0.3180000   0.0000000   0.0000000), wk =   0.0006662
        k( 1184) = (   0.3170000   0.0000000   0.0000000), wk =   0.0006662
        k( 1185) = (   0.3160000   0.0000000   0.0000000), wk =   0.0006662
        k( 1186) = (   0.3150000   0.0000000   0.0000000), wk =   0.0006662
        k( 1187) = (   0.3140000   0.0000000   0.0000000), wk =   0.0006662
        k( 1188) = (   0.3130000   0.0000000   0.0000000), wk =   0.0006662
        k( 1189) = (   0.3120000   0.0000000   0.0000000), wk =   0.0006662
        k( 1190) = (   0.3110000   0.0000000   0.0000000), wk =   0.0006662
        k( 1191) = (   0.3100000   0.0000000   0.0000000), wk =   0.0006662
        k( 1192) = (   0.3090000   0.0000000   0.0000000), wk =   0.0006662
        k( 1193) = (   0.3080000   0.0000000   0.0000000), wk =   0.0006662
        k( 1194) = (   0.3070000   0.0000000   0.0000000), wk =   0.0006662
        k( 1195) = (   0.3060000   0.0000000   0.0000000), wk =   0.0006662
        k( 1196) = (   0.3050000   0.0000000   0.0000000), wk =   0.0006662
        k( 1197) = (   0.3040000   0.0000000   0.0000000), wk =   0.0006662
        k( 1198) = (   0.3030000   0.0000000   0.0000000), wk =   0.0006662
        k( 1199) = (   0.3020000   0.0000000   0.0000000), wk =   0.0006662
        k( 1200) = (   0.3010000   0.0000000   0.0000000), wk =   0.0006662
        k( 1201) = (   0.3000000   0.0000000   0.0000000), wk =   0.0006662
        k( 1202) = (   0.2990000   0.0000000   0.0000000), wk =   0.0006662
        k( 1203) = (   0.2980000   0.0000000   0.0000000), wk =   0.0006662
        k( 1204) = (   0.2970000   0.0000000   0.0000000), wk =   0.0006662
        k( 1205) = (   0.2960000   0.0000000   0.0000000), wk =   0.0006662
        k( 1206) = (   0.2950000   0.0000000   0.0000000), wk =   0.0006662
        k( 1207) = (   0.2940000   0.0000000   0.0000000), wk =   0.0006662
        k( 1208) = (   0.2930000   0.0000000   0.0000000), wk =   0.0006662
        k( 1209) = (   0.2920000   0.0000000   0.0000000), wk =   0.0006662
        k( 1210) = (   0.2910000   0.0000000   0.0000000), wk =   0.0006662
        k( 1211) = (   0.2900000   0.0000000   0.0000000), wk =   0.0006662
        k( 1212) = (   0.2890000   0.0000000   0.0000000), wk =   0.0006662
        k( 1213) = (   0.2880000   0.0000000   0.0000000), wk =   0.0006662
        k( 1214) = (   0.2870000   0.0000000   0.0000000), wk =   0.0006662
        k( 1215) = (   0.2860000   0.0000000   0.0000000), wk =   0.0006662
        k( 1216) = (   0.2850000   0.0000000   0.0000000), wk =   0.0006662
        k( 1217) = (   0.2840000   0.0000000   0.0000000), wk =   0.0006662
        k( 1218) = (   0.2830000   0.0000000   0.0000000), wk =   0.0006662
        k( 1219) = (   0.2820000   0.0000000   0.0000000), wk =   0.0006662
        k( 1220) = (   0.2810000   0.0000000   0.0000000), wk =   0.0006662
        k( 1221) = (   0.2800000   0.0000000   0.0000000), wk =   0.0006662
        k( 1222) = (   0.2790000   0.0000000   0.0000000), wk =   0.0006662
        k( 1223) = (   0.2780000   0.0000000   0.0000000), wk =   0.0006662
        k( 1224) = (   0.2770000   0.0000000   0.0000000), wk =   0.0006662
        k( 1225) = (   0.2760000   0.0000000   0.0000000), wk =   0.0006662
        k( 1226) = (   0.2750000   0.0000000   0.0000000), wk =   0.0006662
        k( 1227) = (   0.2740000   0.0000000   0.0000000), wk =   0.0006662
        k( 1228) = (   0.2730000   0.0000000   0.0000000), wk =   0.0006662
        k( 1229) = (   0.2720000   0.0000000   0.0000000), wk =   0.0006662
        k( 1230) = (   0.2710000   0.0000000   0.0000000), wk =   0.0006662
        k( 1231) = (   0.2700000   0.0000000   0.0000000), wk =   0.0006662
        k( 1232) = (   0.2690000   0.0000000   0.0000000), wk =   0.0006662
        k( 1233) = (   0.2680000   0.0000000   0.0000000), wk =   0.0006662
        k( 1234) = (   0.2670000   0.0000000   0.0000000), wk =   0.0006662
        k( 1235) = (   0.2660000   0.0000000   0.0000000), wk =   0.0006662
        k( 1236) = (   0.2650000   0.0000000   0.0000000), wk =   0.0006662
        k( 1237) = (   0.2640000   0.0000000   0.0000000), wk =   0.0006662
        k( 1238) = (   0.2630000   0.0000000   0.0000000), wk =   0.0006662
        k( 1239) = (   0.2620000   0.0000000   0.0000000), wk =   0.0006662
        k( 1240) = (   0.2610000   0.0000000   0.0000000), wk =   0.0006662
        k( 1241) = (   0.2600000   0.0000000   0.0000000), wk =   0.0006662
        k( 1242) = (   0.2590000   0.0000000   0.0000000), wk =   0.0006662
        k( 1243) = (   0.2580000   0.0000000   0.0000000), wk =   0.0006662
        k( 1244) = (   0.2570000   0.0000000   0.0000000), wk =   0.0006662
        k( 1245) = (   0.2560000   0.0000000   0.0000000), wk =   0.0006662
        k( 1246) = (   0.2550000   0.0000000   0.0000000), wk =   0.0006662
        k( 1247) = (   0.2540000   0.0000000   0.0000000), wk =   0.0006662
        k( 1248) = (   0.2530000   0.0000000   0.0000000), wk =   0.0006662
        k( 1249) = (   0.2520000   0.0000000   0.0000000), wk =   0.0006662
        k( 1250) = (   0.2510000   0.0000000   0.0000000), wk =   0.0006662
        k( 1251) = (   0.2500000   0.0000000   0.0000000), wk =   0.0006662
        k( 1252) = (   0.2490000   0.0000000   0.0000000), wk =   0.0006662
        k( 1253) = (   0.2480000   0.0000000   0.0000000), wk =   0.0006662
        k( 1254) = (   0.2470000   0.0000000   0.0000000), wk =   0.0006662
        k( 1255) = (   0.2460000   0.0000000   0.0000000), wk =   0.0006662
        k( 1256) = (   0.2450000   0.0000000   0.0000000), wk =   0.0006662
        k( 1257) = (   0.2440000   0.0000000   0.0000000), wk =   0.0006662
        k( 1258) = (   0.2430000   0.0000000   0.0000000), wk =   0.0006662
        k( 1259) = (   0.2420000   0.0000000   0.0000000), wk =   0.0006662
        k( 1260) = (   0.2410000   0.0000000   0.0000000), wk =   0.0006662
        k( 1261) = (   0.2400000   0.0000000   0.0000000), wk =   0.0006662
        k( 1262) = (   0.2390000   0.0000000   0.0000000), wk =   0.0006662
        k( 1263) = (   0.2380000   0.0000000   0.0000000), wk =   0.0006662
        k( 1264) = (   0.2370000   0.0000000   0.0000000), wk =   0.0006662
        k( 1265) = (   0.2360000   0.0000000   0.0000000), wk =   0.0006662
        k( 1266) = (   0.2350000   0.0000000   0.0000000), wk =   0.0006662
        k( 1267) = (   0.2340000   0.0000000   0.0000000), wk =   0.0006662
        k( 1268) = (   0.2330000   0.0000000   0.0000000), wk =   0.0006662
        k( 1269) = (   0.2320000   0.0000000   0.0000000), wk =   0.0006662
        k( 1270) = (   0.2310000   0.0000000   0.0000000), wk =   0.0006662
        k( 1271) = (   0.2300000   0.0000000   0.0000000), wk =   0.0006662
        k( 1272) = (   0.2290000   0.0000000   0.0000000), wk =   0.0006662
        k( 1273) = (   0.2280000   0.0000000   0.0000000), wk =   0.0006662
        k( 1274) = (   0.2270000   0.0000000   0.0000000), wk =   0.0006662
        k( 1275) = (   0.2260000   0.0000000   0.0000000), wk =   0.0006662
        k( 1276) = (   0.2250000   0.0000000   0.0000000), wk =   0.0006662
        k( 1277) = (   0.2240000   0.0000000   0.0000000), wk =   0.0006662
        k( 1278) = (   0.2230000   0.0000000   0.0000000), wk =   0.0006662
        k( 1279) = (   0.2220000   0.0000000   0.0000000), wk =   0.0006662
        k( 1280) = (   0.2210000   0.0000000   0.0000000), wk =   0.0006662
        k( 1281) = (   0.2200000   0.0000000   0.0000000), wk =   0.0006662
        k( 1282) = (   0.2190000   0.0000000   0.0000000), wk =   0.0006662
        k( 1283) = (   0.2180000   0.0000000   0.0000000), wk =   0.0006662
        k( 1284) = (   0.2170000   0.0000000   0.0000000), wk =   0.0006662
        k( 1285) = (   0.2160000   0.0000000   0.0000000), wk =   0.0006662
        k( 1286) = (   0.2150000   0.0000000   0.0000000), wk =   0.0006662
        k( 1287) = (   0.2140000   0.0000000   0.0000000), wk =   0.0006662
        k( 1288) = (   0.2130000   0.0000000   0.0000000), wk =   0.0006662
        k( 1289) = (   0.2120000   0.0000000   0.0000000), wk =   0.0006662
        k( 1290) = (   0.2110000   0.0000000   0.0000000), wk =   0.0006662
        k( 1291) = (   0.2100000   0.0000000   0.0000000), wk =   0.0006662
        k( 1292) = (   0.2090000   0.0000000   0.0000000), wk =   0.0006662
        k( 1293) = (   0.2080000   0.0000000   0.0000000), wk =   0.0006662
        k( 1294) = (   0.2070000   0.0000000   0.0000000), wk =   0.0006662
        k( 1295) = (   0.2060000   0.0000000   0.0000000), wk =   0.0006662
        k( 1296) = (   0.2050000   0.0000000   0.0000000), wk =   0.0006662
        k( 1297) = (   0.2040000   0.0000000   0.0000000), wk =   0.0006662
        k( 1298) = (   0.2030000   0.0000000   0.0000000), wk =   0.0006662
        k( 1299) = (   0.2020000   0.0000000   0.0000000), wk =   0.0006662
        k( 1300) = (   0.2010000   0.0000000   0.0000000), wk =   0.0006662
        k( 1301) = (   0.2000000   0.0000000   0.0000000), wk =   0.0006662
        k( 1302) = (   0.1990000   0.0000000   0.0000000), wk =   0.0006662
        k( 1303) = (   0.1980000   0.0000000   0.0000000), wk =   0.0006662
        k( 1304) = (   0.1970000   0.0000000   0.0000000), wk =   0.0006662
        k( 1305) = (   0.1960000   0.0000000   0.0000000), wk =   0.0006662
        k( 1306) = (   0.1950000   0.0000000   0.0000000), wk =   0.0006662
        k( 1307) = (   0.1940000   0.0000000   0.0000000), wk =   0.0006662
        k( 1308) = (   0.1930000   0.0000000   0.0000000), wk =   0.0006662
        k( 1309) = (   0.1920000   0.0000000   0.0000000), wk =   0.0006662
        k( 1310) = (   0.1910000   0.0000000   0.0000000), wk =   0.0006662
        k( 1311) = (   0.1900000   0.0000000   0.0000000), wk =   0.0006662
        k( 1312) = (   0.1890000   0.0000000   0.0000000), wk =   0.0006662
        k( 1313) = (   0.1880000   0.0000000   0.0000000), wk =   0.0006662
        k( 1314) = (   0.1870000   0.0000000   0.0000000), wk =   0.0006662
        k( 1315) = (   0.1860000   0.0000000   0.0000000), wk =   0.0006662
        k( 1316) = (   0.1850000   0.0000000   0.0000000), wk =   0.0006662
        k( 1317) = (   0.1840000   0.0000000   0.0000000), wk =   0.0006662
        k( 1318) = (   0.1830000   0.0000000   0.0000000), wk =   0.0006662
        k( 1319) = (   0.1820000   0.0000000   0.0000000), wk =   0.0006662
        k( 1320) = (   0.1810000   0.0000000   0.0000000), wk =   0.0006662
        k( 1321) = (   0.1800000   0.0000000   0.0000000), wk =   0.0006662
        k( 1322) = (   0.1790000   0.0000000   0.0000000), wk =   0.0006662
        k( 1323) = (   0.1780000   0.0000000   0.0000000), wk =   0.0006662
        k( 1324) = (   0.1770000   0.0000000   0.0000000), wk =   0.0006662
        k( 1325) = (   0.1760000   0.0000000   0.0000000), wk =   0.0006662
        k( 1326) = (   0.1750000   0.0000000   0.0000000), wk =   0.0006662
        k( 1327) = (   0.1740000   0.0000000   0.0000000), wk =   0.0006662
        k( 1328) = (   0.1730000   0.0000000   0.0000000), wk =   0.0006662
        k( 1329) = (   0.1720000   0.0000000   0.0000000), wk =   0.0006662
        k( 1330) = (   0.1710000   0.0000000   0.0000000), wk =   0.0006662
        k( 1331) = (   0.1700000   0.0000000   0.0000000), wk =   0.0006662
        k( 1332) = (   0.1690000   0.0000000   0.0000000), wk =   0.0006662
        k( 1333) = (   0.1680000   0.0000000   0.0000000), wk =   0.0006662
        k( 1334) = (   0.1670000   0.0000000   0.0000000), wk =   0.0006662
        k( 1335) = (   0.1660000   0.0000000   0.0000000), wk =   0.0006662
        k( 1336) = (   0.1650000   0.0000000   0.0000000), wk =   0.0006662
        k( 1337) = (   0.1640000   0.0000000   0.0000000), wk =   0.0006662
        k( 1338) = (   0.1630000   0.0000000   0.0000000), wk =   0.0006662
        k( 1339) = (   0.1620000   0.0000000   0.0000000), wk =   0.0006662
        k( 1340) = (   0.1610000   0.0000000   0.0000000), wk =   0.0006662
        k( 1341) = (   0.1600000   0.0000000   0.0000000), wk =   0.0006662
        k( 1342) = (   0.1590000   0.0000000   0.0000000), wk =   0.0006662
        k( 1343) = (   0.1580000   0.0000000   0.0000000), wk =   0.0006662
        k( 1344) = (   0.1570000   0.0000000   0.0000000), wk =   0.0006662
        k( 1345) = (   0.1560000   0.0000000   0.0000000), wk =   0.0006662
        k( 1346) = (   0.1550000   0.0000000   0.0000000), wk =   0.0006662
        k( 1347) = (   0.1540000   0.0000000   0.0000000), wk =   0.0006662
        k( 1348) = (   0.1530000   0.0000000   0.0000000), wk =   0.0006662
        k( 1349) = (   0.1520000   0.0000000   0.0000000), wk =   0.0006662
        k( 1350) = (   0.1510000   0.0000000   0.0000000), wk =   0.0006662
        k( 1351) = (   0.1500000   0.0000000   0.0000000), wk =   0.0006662
        k( 1352) = (   0.1490000   0.0000000   0.0000000), wk =   0.0006662
        k( 1353) = (   0.1480000   0.0000000   0.0000000), wk =   0.0006662
        k( 1354) = (   0.1470000   0.0000000   0.0000000), wk =   0.0006662
        k( 1355) = (   0.1460000   0.0000000   0.0000000), wk =   0.0006662
        k( 1356) = (   0.1450000   0.0000000   0.0000000), wk =   0.0006662
        k( 1357) = (   0.1440000   0.0000000   0.0000000), wk =   0.0006662
        k( 1358) = (   0.1430000   0.0000000   0.0000000), wk =   0.0006662
        k( 1359) = (   0.1420000   0.0000000   0.0000000), wk =   0.0006662
        k( 1360) = (   0.1410000   0.0000000   0.0000000), wk =   0.0006662
        k( 1361) = (   0.1400000   0.0000000   0.0000000), wk =   0.0006662
        k( 1362) = (   0.1390000   0.0000000   0.0000000), wk =   0.0006662
        k( 1363) = (   0.1380000   0.0000000   0.0000000), wk =   0.0006662
        k( 1364) = (   0.1370000   0.0000000   0.0000000), wk =   0.0006662
        k( 1365) = (   0.1360000   0.0000000   0.0000000), wk =   0.0006662
        k( 1366) = (   0.1350000   0.0000000   0.0000000), wk =   0.0006662
        k( 1367) = (   0.1340000   0.0000000   0.0000000), wk =   0.0006662
        k( 1368) = (   0.1330000   0.0000000   0.0000000), wk =   0.0006662
        k( 1369) = (   0.1320000   0.0000000   0.0000000), wk =   0.0006662
        k( 1370) = (   0.1310000   0.0000000   0.0000000), wk =   0.0006662
        k( 1371) = (   0.1300000   0.0000000   0.0000000), wk =   0.0006662
        k( 1372) = (   0.1290000   0.0000000   0.0000000), wk =   0.0006662
        k( 1373) = (   0.1280000   0.0000000   0.0000000), wk =   0.0006662
        k( 1374) = (   0.1270000   0.0000000   0.0000000), wk =   0.0006662
        k( 1375) = (   0.1260000   0.0000000   0.0000000), wk =   0.0006662
        k( 1376) = (   0.1250000   0.0000000   0.0000000), wk =   0.0006662
        k( 1377) = (   0.1240000   0.0000000   0.0000000), wk =   0.0006662
        k( 1378) = (   0.1230000   0.0000000   0.0000000), wk =   0.0006662
        k( 1379) = (   0.1220000   0.0000000   0.0000000), wk =   0.0006662
        k( 1380) = (   0.1210000   0.0000000   0.0000000), wk =   0.0006662
        k( 1381) = (   0.1200000   0.0000000   0.0000000), wk =   0.0006662
        k( 1382) = (   0.1190000   0.0000000   0.0000000), wk =   0.0006662
        k( 1383) = (   0.1180000   0.0000000   0.0000000), wk =   0.0006662
        k( 1384) = (   0.1170000   0.0000000   0.0000000), wk =   0.0006662
        k( 1385) = (   0.1160000   0.0000000   0.0000000), wk =   0.0006662
        k( 1386) = (   0.1150000   0.0000000   0.0000000), wk =   0.0006662
        k( 1387) = (   0.1140000   0.0000000   0.0000000), wk =   0.0006662
        k( 1388) = (   0.1130000   0.0000000   0.0000000), wk =   0.0006662
        k( 1389) = (   0.1120000   0.0000000   0.0000000), wk =   0.0006662
        k( 1390) = (   0.1110000   0.0000000   0.0000000), wk =   0.0006662
        k( 1391) = (   0.1100000   0.0000000   0.0000000), wk =   0.0006662
        k( 1392) = (   0.1090000   0.0000000   0.0000000), wk =   0.0006662
        k( 1393) = (   0.1080000   0.0000000   0.0000000), wk =   0.0006662
        k( 1394) = (   0.1070000   0.0000000   0.0000000), wk =   0.0006662
        k( 1395) = (   0.1060000   0.0000000   0.0000000), wk =   0.0006662
        k( 1396) = (   0.1050000   0.0000000   0.0000000), wk =   0.0006662
        k( 1397) = (   0.1040000   0.0000000   0.0000000), wk =   0.0006662
        k( 1398) = (   0.1030000   0.0000000   0.0000000), wk =   0.0006662
        k( 1399) = (   0.1020000   0.0000000   0.0000000), wk =   0.0006662
        k( 1400) = (   0.1010000   0.0000000   0.0000000), wk =   0.0006662
        k( 1401) = (   0.1000000   0.0000000   0.0000000), wk =   0.0006662
        k( 1402) = (   0.0990000   0.0000000   0.0000000), wk =   0.0006662
        k( 1403) = (   0.0980000   0.0000000   0.0000000), wk =   0.0006662
        k( 1404) = (   0.0970000   0.0000000   0.0000000), wk =   0.0006662
        k( 1405) = (   0.0960000   0.0000000   0.0000000), wk =   0.0006662
        k( 1406) = (   0.0950000   0.0000000   0.0000000), wk =   0.0006662
        k( 1407) = (   0.0940000   0.0000000   0.0000000), wk =   0.0006662
        k( 1408) = (   0.0930000   0.0000000   0.0000000), wk =   0.0006662
        k( 1409) = (   0.0920000   0.0000000   0.0000000), wk =   0.0006662
        k( 1410) = (   0.0910000   0.0000000   0.0000000), wk =   0.0006662
        k( 1411) = (   0.0900000   0.0000000   0.0000000), wk =   0.0006662
        k( 1412) = (   0.0890000   0.0000000   0.0000000), wk =   0.0006662
        k( 1413) = (   0.0880000   0.0000000   0.0000000), wk =   0.0006662
        k( 1414) = (   0.0870000   0.0000000   0.0000000), wk =   0.0006662
        k( 1415) = (   0.0860000   0.0000000   0.0000000), wk =   0.0006662
        k( 1416) = (   0.0850000   0.0000000   0.0000000), wk =   0.0006662
        k( 1417) = (   0.0840000   0.0000000   0.0000000), wk =   0.0006662
        k( 1418) = (   0.0830000   0.0000000   0.0000000), wk =   0.0006662
        k( 1419) = (   0.0820000   0.0000000   0.0000000), wk =   0.0006662
        k( 1420) = (   0.0810000   0.0000000   0.0000000), wk =   0.0006662
        k( 1421) = (   0.0800000   0.0000000   0.0000000), wk =   0.0006662
        k( 1422) = (   0.0790000   0.0000000   0.0000000), wk =   0.0006662
        k( 1423) = (   0.0780000   0.0000000   0.0000000), wk =   0.0006662
        k( 1424) = (   0.0770000   0.0000000   0.0000000), wk =   0.0006662
        k( 1425) = (   0.0760000   0.0000000   0.0000000), wk =   0.0006662
        k( 1426) = (   0.0750000   0.0000000   0.0000000), wk =   0.0006662
        k( 1427) = (   0.0740000   0.0000000   0.0000000), wk =   0.0006662
        k( 1428) = (   0.0730000   0.0000000   0.0000000), wk =   0.0006662
        k( 1429) = (   0.0720000   0.0000000   0.0000000), wk =   0.0006662
        k( 1430) = (   0.0710000   0.0000000   0.0000000), wk =   0.0006662
        k( 1431) = (   0.0700000   0.0000000   0.0000000), wk =   0.0006662
        k( 1432) = (   0.0690000   0.0000000   0.0000000), wk =   0.0006662
        k( 1433) = (   0.0680000   0.0000000   0.0000000), wk =   0.0006662
        k( 1434) = (   0.0670000   0.0000000   0.0000000), wk =   0.0006662
        k( 1435) = (   0.0660000   0.0000000   0.0000000), wk =   0.0006662
        k( 1436) = (   0.0650000   0.0000000   0.0000000), wk =   0.0006662
        k( 1437) = (   0.0640000   0.0000000   0.0000000), wk =   0.0006662
        k( 1438) = (   0.0630000   0.0000000   0.0000000), wk =   0.0006662
        k( 1439) = (   0.0620000   0.0000000   0.0000000), wk =   0.0006662
        k( 1440) = (   0.0610000   0.0000000   0.0000000), wk =   0.0006662
        k( 1441) = (   0.0600000   0.0000000   0.0000000), wk =   0.0006662
        k( 1442) = (   0.0590000   0.0000000   0.0000000), wk =   0.0006662
        k( 1443) = (   0.0580000   0.0000000   0.0000000), wk =   0.0006662
        k( 1444) = (   0.0570000   0.0000000   0.0000000), wk =   0.0006662
        k( 1445) = (   0.0560000   0.0000000   0.0000000), wk =   0.0006662
        k( 1446) = (   0.0550000   0.0000000   0.0000000), wk =   0.0006662
        k( 1447) = (   0.0540000   0.0000000   0.0000000), wk =   0.0006662
        k( 1448) = (   0.0530000   0.0000000   0.0000000), wk =   0.0006662
        k( 1449) = (   0.0520000   0.0000000   0.0000000), wk =   0.0006662
        k( 1450) = (   0.0510000   0.0000000   0.0000000), wk =   0.0006662
        k( 1451) = (   0.0500000   0.0000000   0.0000000), wk =   0.0006662
        k( 1452) = (   0.0490000   0.0000000   0.0000000), wk =   0.0006662
        k( 1453) = (   0.0480000   0.0000000   0.0000000), wk =   0.0006662
        k( 1454) = (   0.0470000   0.0000000   0.0000000), wk =   0.0006662
        k( 1455) = (   0.0460000   0.0000000   0.0000000), wk =   0.0006662
        k( 1456) = (   0.0450000   0.0000000   0.0000000), wk =   0.0006662
        k( 1457) = (   0.0440000   0.0000000   0.0000000), wk =   0.0006662
        k( 1458) = (   0.0430000   0.0000000   0.0000000), wk =   0.0006662
        k( 1459) = (   0.0420000   0.0000000   0.0000000), wk =   0.0006662
        k( 1460) = (   0.0410000   0.0000000   0.0000000), wk =   0.0006662
        k( 1461) = (   0.0400000   0.0000000   0.0000000), wk =   0.0006662
        k( 1462) = (   0.0390000   0.0000000   0.0000000), wk =   0.0006662
        k( 1463) = (   0.0380000   0.0000000   0.0000000), wk =   0.0006662
        k( 1464) = (   0.0370000   0.0000000   0.0000000), wk =   0.0006662
        k( 1465) = (   0.0360000   0.0000000   0.0000000), wk =   0.0006662
        k( 1466) = (   0.0350000   0.0000000   0.0000000), wk =   0.0006662
        k( 1467) = (   0.0340000   0.0000000   0.0000000), wk =   0.0006662
        k( 1468) = (   0.0330000   0.0000000   0.0000000), wk =   0.0006662
        k( 1469) = (   0.0320000   0.0000000   0.0000000), wk =   0.0006662
        k( 1470) = (   0.0310000   0.0000000   0.0000000), wk =   0.0006662
        k( 1471) = (   0.0300000   0.0000000   0.0000000), wk =   0.0006662
        k( 1472) = (   0.0290000   0.0000000   0.0000000), wk =   0.0006662
        k( 1473) = (   0.0280000   0.0000000   0.0000000), wk =   0.0006662
        k( 1474) = (   0.0270000   0.0000000   0.0000000), wk =   0.0006662
        k( 1475) = (   0.0260000   0.0000000   0.0000000), wk =   0.0006662
        k( 1476) = (   0.0250000   0.0000000   0.0000000), wk =   0.0006662
        k( 1477) = (   0.0240000   0.0000000   0.0000000), wk =   0.0006662
        k( 1478) = (   0.0230000   0.0000000   0.0000000), wk =   0.0006662
        k( 1479) = (   0.0220000   0.0000000   0.0000000), wk =   0.0006662
        k( 1480) = (   0.0210000   0.0000000   0.0000000), wk =   0.0006662
        k( 1481) = (   0.0200000   0.0000000   0.0000000), wk =   0.0006662
        k( 1482) = (   0.0190000   0.0000000   0.0000000), wk =   0.0006662
        k( 1483) = (   0.0180000   0.0000000   0.0000000), wk =   0.0006662
        k( 1484) = (   0.0170000   0.0000000   0.0000000), wk =   0.0006662
        k( 1485) = (   0.0160000   0.0000000   0.0000000), wk =   0.0006662
        k( 1486) = (   0.0150000   0.0000000   0.0000000), wk =   0.0006662
        k( 1487) = (   0.0140000   0.0000000   0.0000000), wk =   0.0006662
        k( 1488) = (   0.0130000   0.0000000   0.0000000), wk =   0.0006662
        k( 1489) = (   0.0120000   0.0000000   0.0000000), wk =   0.0006662
        k( 1490) = (   0.0110000   0.0000000   0.0000000), wk =   0.0006662
        k( 1491) = (   0.0100000   0.0000000   0.0000000), wk =   0.0006662
        k( 1492) = (   0.0090000   0.0000000   0.0000000), wk =   0.0006662
        k( 1493) = (   0.0080000   0.0000000   0.0000000), wk =   0.0006662
        k( 1494) = (   0.0070000   0.0000000   0.0000000), wk =   0.0006662
        k( 1495) = (   0.0060000   0.0000000   0.0000000), wk =   0.0006662
        k( 1496) = (   0.0050000   0.0000000   0.0000000), wk =   0.0006662
        k( 1497) = (   0.0040000   0.0000000   0.0000000), wk =   0.0006662
        k( 1498) = (   0.0030000   0.0000000   0.0000000), wk =   0.0006662
        k( 1499) = (   0.0020000   0.0000000   0.0000000), wk =   0.0006662
        k( 1500) = (   0.0010000   0.0000000   0.0000000), wk =   0.0006662
        k( 1501) = (   0.0000000   0.0000000   0.0000000), wk =   0.0006662

     Dense  grid:   166859 G-vectors     FFT dimensions: (  40,  40, 240)

     Smooth grid:    42343 G-vectors     FFT dimensions: (  25,  25, 160)

     Dynamical RAM for                 wfc:       2.58 MB

     Dynamical RAM for     wfc (w. buffer):       2.58 MB

     Dynamical RAM for           str. fact:       2.55 MB

     Dynamical RAM for           local pot:       0.00 MB

     Dynamical RAM for          nlocal pot:       2.26 MB

     Dynamical RAM for                qrad:       1.27 MB

     Dynamical RAM for          rho,v,vnew:      65.71 MB

     Dynamical RAM for           G-vectors:       9.87 MB

     Dynamical RAM for          h,s,v(r/c):       0.75 MB

     Dynamical RAM for          <psi|beta>:       0.01 MB

     Dynamical RAM for                 psi:      20.62 MB

     Dynamical RAM for                hpsi:      20.62 MB

     Dynamical RAM for                spsi:      20.62 MB

     Dynamical RAM for      wfcinit/wfcrot:       3.87 MB

     Dynamical RAM for           addusdens:     290.25 MB

     Estimated static dynamical RAM per process >     112.76 MB

     Estimated max dynamical RAM per process >     403.01 MB
 ----2D----2D----2D----2D----2D----2D----2D----2D----2D----2D----2D----2D
  The code is running with the 2D cutoff
  Please refer to:
  Sohier, T., Calandra, M., & Mauri, F. (2017), 
  Density functional perturbation theory for gated two-dimensional heterostructures:
  Theoretical developments and application to flexural phonons in graphene.
  Physical Review B, 96(7), 75448. https://doi.org/10.1103/PhysRevB.96.075448
 ----2D----2D----2D----2D----2D----2D----2D----2D----2D----2D----2D----2D

     Atomic positions and unit cell read from directory:
     ./tmp/graphene.save/


     The potential is recalculated from file :
     ./tmp/graphene.save/charge-density


     negative rho (up, down):  7.076E-06 0.000E+00
     Starting wfcs are random

     Band Structure Calculation
     Davidson diagonalization with overlap

     Computing kpt #:     1  of  1501
     total cpu time spent up to now is        8.8 secs

     Computing kpt #:     2  of  1501
     total cpu time spent up to now is       11.8 secs

     Computing kpt #:     3  of  1501
     total cpu time spent up to now is       14.6 secs

     Computing kpt #:     4  of  1501
     total cpu time spent up to now is       17.4 secs

     Computing kpt #:     5  of  1501
     total cpu time spent up to now is       20.4 secs

     Computing kpt #:     6  of  1501
     total cpu time spent up to now is       23.6 secs

     Computing kpt #:     7  of  1501
     total cpu time spent up to now is       26.6 secs

     Computing kpt #:     8  of  1501
     total cpu time spent up to now is       29.5 secs

     Computing kpt #:     9  of  1501
     total cpu time spent up to now is       32.3 secs

     Computing kpt #:    10  of  1501
     total cpu time spent up to now is       35.1 secs

     Computing kpt #:    11  of  1501
     total cpu time spent up to now is       38.0 secs

     Computing kpt #:    12  of  1501
     total cpu time spent up to now is       40.9 secs

     Computing kpt #:    13  of  1501
     total cpu time spent up to now is       43.7 secs

     Computing kpt #:    14  of  1501
     total cpu time spent up to now is       46.6 secs

     Computing kpt #:    15  of  1501
     total cpu time spent up to now is       49.3 secs

     Computing kpt #:    16  of  1501
     total cpu time spent up to now is       52.0 secs

     Computing kpt #:    17  of  1501
     total cpu time spent up to now is       54.8 secs

     Computing kpt #:    18  of  1501
     total cpu time spent up to now is       57.6 secs

     Computing kpt #:    19  of  1501
     total cpu time spent up to now is       60.4 secs

     Computing kpt #:    20  of  1501
     total cpu time spent up to now is       63.3 secs

     Computing kpt #:    21  of  1501
     total cpu time spent up to now is       66.1 secs

     Computing kpt #:    22  of  1501
     total cpu time spent up to now is       68.9 secs

     Computing kpt #:    23  of  1501
     total cpu time spent up to now is       71.7 secs

     Computing kpt #:    24  of  1501
     total cpu time spent up to now is       74.5 secs

     Computing kpt #:    25  of  1501
     total cpu time spent up to now is       77.4 secs

     Computing kpt #:    26  of  1501
     total cpu time spent up to now is       80.2 secs

     Computing kpt #:    27  of  1501
     total cpu time spent up to now is       83.1 secs

     Computing kpt #:    28  of  1501
     total cpu time spent up to now is       85.9 secs

     Computing kpt #:    29  of  1501
     total cpu time spent up to now is       88.8 secs

     Computing kpt #:    30  of  1501
     total cpu time spent up to now is       91.6 secs

     Computing kpt #:    31  of  1501
     total cpu time spent up to now is       94.4 secs

     Computing kpt #:    32  of  1501
     total cpu time spent up to now is       97.2 secs

     Computing kpt #:    33  of  1501
     total cpu time spent up to now is      100.0 secs

     Computing kpt #:    34  of  1501
     total cpu time spent up to now is      102.8 secs

     Computing kpt #:    35  of  1501
     total cpu time spent up to now is      105.6 secs

     Computing kpt #:    36  of  1501
     total cpu time spent up to now is      108.4 secs

     Computing kpt #:    37  of  1501
     total cpu time spent up to now is      111.5 secs

     Computing kpt #:    38  of  1501
     total cpu time spent up to now is      114.3 secs

     Computing kpt #:    39  of  1501
     total cpu time spent up to now is      117.2 secs

     Computing kpt #:    40  of  1501
     total cpu time spent up to now is      120.1 secs

     Computing kpt #:    41  of  1501
     total cpu time spent up to now is      122.9 secs

     Computing kpt #:    42  of  1501
     total cpu time spent up to now is      125.8 secs

     Computing kpt #:    43  of  1501
     total cpu time spent up to now is      128.6 secs

     Computing kpt #:    44  of  1501
     total cpu time spent up to now is      131.3 secs

     Computing kpt #:    45  of  1501
     total cpu time spent up to now is      134.1 secs

     Computing kpt #:    46  of  1501
     total cpu time spent up to now is      136.9 secs

     Computing kpt #:    47  of  1501
     total cpu time spent up to now is      139.7 secs

     Computing kpt #:    48  of  1501
     total cpu time spent up to now is      142.5 secs

     Computing kpt #:    49  of  1501
     total cpu time spent up to now is      145.3 secs

     Computing kpt #:    50  of  1501
     total cpu time spent up to now is      148.1 secs

     Computing kpt #:    51  of  1501
     total cpu time spent up to now is      150.9 secs

     Computing kpt #:    52  of  1501
     total cpu time spent up to now is      153.7 secs

     Computing kpt #:    53  of  1501
     total cpu time spent up to now is      156.5 secs

     Computing kpt #:    54  of  1501
     total cpu time spent up to now is      159.3 secs

     Computing kpt #:    55  of  1501
     total cpu time spent up to now is      162.2 secs

     Computing kpt #:    56  of  1501
     total cpu time spent up to now is      165.0 secs

     Computing kpt #:    57  of  1501
     total cpu time spent up to now is      167.8 secs

     Computing kpt #:    58  of  1501
     total cpu time spent up to now is      170.7 secs

     Computing kpt #:    59  of  1501
     total cpu time spent up to now is      173.6 secs

     Computing kpt #:    60  of  1501
     total cpu time spent up to now is      176.4 secs

     Computing kpt #:    61  of  1501
     total cpu time spent up to now is      179.2 secs

     Computing kpt #:    62  of  1501
     total cpu time spent up to now is      182.0 secs

     Computing kpt #:    63  of  1501
     total cpu time spent up to now is      184.8 secs

     Computing kpt #:    64  of  1501
     total cpu time spent up to now is      187.6 secs

     Computing kpt #:    65  of  1501
     total cpu time spent up to now is      190.4 secs

     Computing kpt #:    66  of  1501
     total cpu time spent up to now is      193.1 secs

     Computing kpt #:    67  of  1501
     total cpu time spent up to now is      196.1 secs

     Computing kpt #:    68  of  1501
     total cpu time spent up to now is      198.8 secs

     Computing kpt #:    69  of  1501
     total cpu time spent up to now is      201.7 secs

     Computing kpt #:    70  of  1501
     total cpu time spent up to now is      204.4 secs

     Computing kpt #:    71  of  1501
     total cpu time spent up to now is      207.2 secs

     Computing kpt #:    72  of  1501
     total cpu time spent up to now is      210.0 secs

     Computing kpt #:    73  of  1501
     total cpu time spent up to now is      212.8 secs

     Computing kpt #:    74  of  1501
     total cpu time spent up to now is      215.6 secs

     Computing kpt #:    75  of  1501
     total cpu time spent up to now is      218.4 secs

     Computing kpt #:    76  of  1501
     total cpu time spent up to now is      221.3 secs

     Computing kpt #:    77  of  1501
     total cpu time spent up to now is      224.2 secs

     Computing kpt #:    78  of  1501
     total cpu time spent up to now is      227.1 secs

     Computing kpt #:    79  of  1501
     total cpu time spent up to now is      230.0 secs

     Computing kpt #:    80  of  1501
     total cpu time spent up to now is      232.8 secs

     Computing kpt #:    81  of  1501
     total cpu time spent up to now is      235.5 secs

     Computing kpt #:    82  of  1501
     total cpu time spent up to now is      238.3 secs

     Computing kpt #:    83  of  1501
     total cpu time spent up to now is      241.1 secs

     Computing kpt #:    84  of  1501
     total cpu time spent up to now is      244.0 secs

     Computing kpt #:    85  of  1501
     total cpu time spent up to now is      246.9 secs

     Computing kpt #:    86  of  1501
     total cpu time spent up to now is      249.8 secs

     Computing kpt #:    87  of  1501
     total cpu time spent up to now is      252.6 secs

     Computing kpt #:    88  of  1501
     total cpu time spent up to now is      255.5 secs

     Computing kpt #:    89  of  1501
     total cpu time spent up to now is      258.2 secs

     Computing kpt #:    90  of  1501
     total cpu time spent up to now is      261.0 secs

     Computing kpt #:    91  of  1501
     total cpu time spent up to now is      263.8 secs

     Computing kpt #:    92  of  1501
     total cpu time spent up to now is      266.5 secs

     Computing kpt #:    93  of  1501
     total cpu time spent up to now is      269.4 secs

     Computing kpt #:    94  of  1501
     total cpu time spent up to now is      272.3 secs

     Computing kpt #:    95  of  1501
     total cpu time spent up to now is      275.1 secs

     Computing kpt #:    96  of  1501
     total cpu time spent up to now is      277.9 secs

     Computing kpt #:    97  of  1501
     total cpu time spent up to now is      280.6 secs

     Computing kpt #:    98  of  1501
     total cpu time spent up to now is      283.5 secs

     Computing kpt #:    99  of  1501
     total cpu time spent up to now is      286.3 secs

     Computing kpt #:   100  of  1501
     total cpu time spent up to now is      289.0 secs

     Computing kpt #:   101  of  1501
     total cpu time spent up to now is      291.8 secs

     Computing kpt #:   102  of  1501
     total cpu time spent up to now is      294.6 secs

     Computing kpt #:   103  of  1501
     total cpu time spent up to now is      297.4 secs

     Computing kpt #:   104  of  1501
     total cpu time spent up to now is      300.2 secs

     Computing kpt #:   105  of  1501
     total cpu time spent up to now is      303.0 secs

     Computing kpt #:   106  of  1501
     total cpu time spent up to now is      305.8 secs

     Computing kpt #:   107  of  1501
     total cpu time spent up to now is      308.6 secs

     Computing kpt #:   108  of  1501
     total cpu time spent up to now is      311.5 secs

     Computing kpt #:   109  of  1501
     total cpu time spent up to now is      314.3 secs

     Computing kpt #:   110  of  1501
     total cpu time spent up to now is      317.1 secs

     Computing kpt #:   111  of  1501
     total cpu time spent up to now is      319.9 secs

     Computing kpt #:   112  of  1501
     total cpu time spent up to now is      322.9 secs

     Computing kpt #:   113  of  1501
     total cpu time spent up to now is      325.7 secs

     Computing kpt #:   114  of  1501
     total cpu time spent up to now is      328.5 secs

     Computing kpt #:   115  of  1501
     total cpu time spent up to now is      331.3 secs

     Computing kpt #:   116  of  1501
     total cpu time spent up to now is      334.1 secs

     Computing kpt #:   117  of  1501
     total cpu time spent up to now is      336.9 secs

     Computing kpt #:   118  of  1501
     total cpu time spent up to now is      339.7 secs

     Computing kpt #:   119  of  1501
     total cpu time spent up to now is      342.6 secs

     Computing kpt #:   120  of  1501
     total cpu time spent up to now is      345.4 secs

     Computing kpt #:   121  of  1501
     total cpu time spent up to now is      348.4 secs

     Computing kpt #:   122  of  1501
     total cpu time spent up to now is      351.2 secs

     Computing kpt #:   123  of  1501
     total cpu time spent up to now is      354.0 secs

     Computing kpt #:   124  of  1501
     total cpu time spent up to now is      356.8 secs

     Computing kpt #:   125  of  1501
     total cpu time spent up to now is      359.7 secs

     Computing kpt #:   126  of  1501
     total cpu time spent up to now is      362.5 secs

     Computing kpt #:   127  of  1501
     total cpu time spent up to now is      365.3 secs

     Computing kpt #:   128  of  1501
     total cpu time spent up to now is      368.1 secs

     Computing kpt #:   129  of  1501
     total cpu time spent up to now is      371.1 secs

     Computing kpt #:   130  of  1501
     total cpu time spent up to now is      373.8 secs

     Computing kpt #:   131  of  1501
     total cpu time spent up to now is      376.7 secs

     Computing kpt #:   132  of  1501
     total cpu time spent up to now is      379.6 secs

     Computing kpt #:   133  of  1501
     total cpu time spent up to now is      382.5 secs

     Computing kpt #:   134  of  1501
     total cpu time spent up to now is      385.5 secs

     Computing kpt #:   135  of  1501
     total cpu time spent up to now is      388.3 secs

     Computing kpt #:   136  of  1501
     total cpu time spent up to now is      391.1 secs

     Computing kpt #:   137  of  1501
     total cpu time spent up to now is      394.0 secs

     Computing kpt #:   138  of  1501
     total cpu time spent up to now is      396.8 secs

     Computing kpt #:   139  of  1501
     total cpu time spent up to now is      399.7 secs

     Computing kpt #:   140  of  1501
     total cpu time spent up to now is      402.6 secs

     Computing kpt #:   141  of  1501
     total cpu time spent up to now is      405.4 secs

     Computing kpt #:   142  of  1501
     total cpu time spent up to now is      408.3 secs

     Computing kpt #:   143  of  1501
     total cpu time spent up to now is      411.1 secs

     Computing kpt #:   144  of  1501
     total cpu time spent up to now is      414.0 secs

     Computing kpt #:   145  of  1501
     total cpu time spent up to now is      416.8 secs

     Computing kpt #:   146  of  1501
     total cpu time spent up to now is      419.7 secs

     Computing kpt #:   147  of  1501
     total cpu time spent up to now is      422.7 secs

     Computing kpt #:   148  of  1501
     total cpu time spent up to now is      425.6 secs

     Computing kpt #:   149  of  1501
     total cpu time spent up to now is      428.5 secs

     Computing kpt #:   150  of  1501
     total cpu time spent up to now is      431.4 secs

     Computing kpt #:   151  of  1501
     total cpu time spent up to now is      434.1 secs

     Computing kpt #:   152  of  1501
     total cpu time spent up to now is      437.0 secs

     Computing kpt #:   153  of  1501
     total cpu time spent up to now is      439.9 secs

     Computing kpt #:   154  of  1501
     total cpu time spent up to now is      442.7 secs

     Computing kpt #:   155  of  1501
     total cpu time spent up to now is      445.8 secs

     Computing kpt #:   156  of  1501
     total cpu time spent up to now is      448.7 secs

     Computing kpt #:   157  of  1501
     total cpu time spent up to now is      451.6 secs

     Computing kpt #:   158  of  1501
     total cpu time spent up to now is      454.5 secs

     Computing kpt #:   159  of  1501
     total cpu time spent up to now is      457.4 secs

     Computing kpt #:   160  of  1501
     total cpu time spent up to now is      460.4 secs

     Computing kpt #:   161  of  1501
     total cpu time spent up to now is      463.3 secs

     Computing kpt #:   162  of  1501
     total cpu time spent up to now is      466.2 secs

     Computing kpt #:   163  of  1501
     total cpu time spent up to now is      469.3 secs

     Computing kpt #:   164  of  1501
     total cpu time spent up to now is      472.3 secs

     Computing kpt #:   165  of  1501
     total cpu time spent up to now is      475.3 secs

     Computing kpt #:   166  of  1501
     total cpu time spent up to now is      478.3 secs

     Computing kpt #:   167  of  1501
     total cpu time spent up to now is      481.3 secs

     Computing kpt #:   168  of  1501
     total cpu time spent up to now is      484.5 secs

     Computing kpt #:   169  of  1501
     total cpu time spent up to now is      487.5 secs

     Computing kpt #:   170  of  1501
     total cpu time spent up to now is      490.7 secs

     Computing kpt #:   171  of  1501
     total cpu time spent up to now is      493.8 secs

     Computing kpt #:   172  of  1501
     total cpu time spent up to now is      497.0 secs

     Computing kpt #:   173  of  1501
     total cpu time spent up to now is      500.1 secs

     Computing kpt #:   174  of  1501
     total cpu time spent up to now is      503.1 secs

     Computing kpt #:   175  of  1501
     total cpu time spent up to now is      506.1 secs

     Computing kpt #:   176  of  1501
     total cpu time spent up to now is      509.2 secs

     Computing kpt #:   177  of  1501
     total cpu time spent up to now is      512.3 secs

     Computing kpt #:   178  of  1501
     total cpu time spent up to now is      515.5 secs

     Computing kpt #:   179  of  1501
     total cpu time spent up to now is      518.6 secs

     Computing kpt #:   180  of  1501
     total cpu time spent up to now is      521.8 secs

     Computing kpt #:   181  of  1501
     total cpu time spent up to now is      525.1 secs

     Computing kpt #:   182  of  1501
     total cpu time spent up to now is      528.5 secs

     Computing kpt #:   183  of  1501
     total cpu time spent up to now is      532.0 secs

     Computing kpt #:   184  of  1501
     total cpu time spent up to now is      535.3 secs

     Computing kpt #:   185  of  1501
     total cpu time spent up to now is      538.8 secs

     Computing kpt #:   186  of  1501
     total cpu time spent up to now is      542.3 secs

     Computing kpt #:   187  of  1501
     total cpu time spent up to now is      545.6 secs

     Computing kpt #:   188  of  1501
     total cpu time spent up to now is      549.1 secs

     Computing kpt #:   189  of  1501
     total cpu time spent up to now is      552.4 secs

     Computing kpt #:   190  of  1501
     total cpu time spent up to now is      555.8 secs

     Computing kpt #:   191  of  1501
     total cpu time spent up to now is      559.1 secs

     Computing kpt #:   192  of  1501
     total cpu time spent up to now is      562.2 secs

     Computing kpt #:   193  of  1501
     total cpu time spent up to now is      565.3 secs

     Computing kpt #:   194  of  1501
     total cpu time spent up to now is      568.4 secs

     Computing kpt #:   195  of  1501
     total cpu time spent up to now is      571.5 secs

     Computing kpt #:   196  of  1501
     total cpu time spent up to now is      574.6 secs

     Computing kpt #:   197  of  1501
     total cpu time spent up to now is      577.7 secs

     Computing kpt #:   198  of  1501
     total cpu time spent up to now is      580.8 secs

     Computing kpt #:   199  of  1501
     total cpu time spent up to now is      583.9 secs

     Computing kpt #:   200  of  1501
     total cpu time spent up to now is      586.9 secs

     Computing kpt #:   201  of  1501
     total cpu time spent up to now is      590.0 secs

     Computing kpt #:   202  of  1501
     total cpu time spent up to now is      593.1 secs

     Computing kpt #:   203  of  1501
     total cpu time spent up to now is      596.1 secs

     Computing kpt #:   204  of  1501
     total cpu time spent up to now is      599.1 secs

     Computing kpt #:   205  of  1501
     total cpu time spent up to now is      602.2 secs

     Computing kpt #:   206  of  1501
     total cpu time spent up to now is      605.3 secs

     Computing kpt #:   207  of  1501
     total cpu time spent up to now is      608.3 secs

     Computing kpt #:   208  of  1501
     total cpu time spent up to now is      611.4 secs

     Computing kpt #:   209  of  1501
     total cpu time spent up to now is      614.4 secs

     Computing kpt #:   210  of  1501
     total cpu time spent up to now is      617.3 secs

     Computing kpt #:   211  of  1501
     total cpu time spent up to now is      620.3 secs

     Computing kpt #:   212  of  1501
     total cpu time spent up to now is      623.3 secs

     Computing kpt #:   213  of  1501
     total cpu time spent up to now is      626.3 secs

     Computing kpt #:   214  of  1501
     total cpu time spent up to now is      629.3 secs

     Computing kpt #:   215  of  1501
     total cpu time spent up to now is      632.2 secs

     Computing kpt #:   216  of  1501
     total cpu time spent up to now is      635.2 secs

     Computing kpt #:   217  of  1501
     total cpu time spent up to now is      638.2 secs

     Computing kpt #:   218  of  1501
     total cpu time spent up to now is      641.2 secs

     Computing kpt #:   219  of  1501
     total cpu time spent up to now is      644.1 secs

     Computing kpt #:   220  of  1501
     total cpu time spent up to now is      647.1 secs

     Computing kpt #:   221  of  1501
     total cpu time spent up to now is      650.1 secs

     Computing kpt #:   222  of  1501
     total cpu time spent up to now is      653.1 secs

     Computing kpt #:   223  of  1501
     total cpu time spent up to now is      656.0 secs

     Computing kpt #:   224  of  1501
     total cpu time spent up to now is      658.9 secs

     Computing kpt #:   225  of  1501
     total cpu time spent up to now is      661.9 secs

     Computing kpt #:   226  of  1501
     total cpu time spent up to now is      664.8 secs

     Computing kpt #:   227  of  1501
     total cpu time spent up to now is      667.7 secs

     Computing kpt #:   228  of  1501
     total cpu time spent up to now is      670.7 secs

     Computing kpt #:   229  of  1501
     total cpu time spent up to now is      673.6 secs

     Computing kpt #:   230  of  1501
     total cpu time spent up to now is      676.6 secs

     Computing kpt #:   231  of  1501
     total cpu time spent up to now is      679.5 secs

     Computing kpt #:   232  of  1501
     total cpu time spent up to now is      682.4 secs

     Computing kpt #:   233  of  1501
     total cpu time spent up to now is      685.3 secs

     Computing kpt #:   234  of  1501
     total cpu time spent up to now is      688.1 secs

     Computing kpt #:   235  of  1501
     total cpu time spent up to now is      691.0 secs

     Computing kpt #:   236  of  1501
     total cpu time spent up to now is      693.9 secs

     Computing kpt #:   237  of  1501
     total cpu time spent up to now is      696.7 secs

     Computing kpt #:   238  of  1501
     total cpu time spent up to now is      699.6 secs

     Computing kpt #:   239  of  1501
     total cpu time spent up to now is      702.5 secs

     Computing kpt #:   240  of  1501
     total cpu time spent up to now is      705.4 secs

     Computing kpt #:   241  of  1501
     total cpu time spent up to now is      708.3 secs

     Computing kpt #:   242  of  1501
     total cpu time spent up to now is      711.2 secs

     Computing kpt #:   243  of  1501
     total cpu time spent up to now is      714.2 secs

     Computing kpt #:   244  of  1501
     total cpu time spent up to now is      717.1 secs

     Computing kpt #:   245  of  1501
     total cpu time spent up to now is      720.0 secs

     Computing kpt #:   246  of  1501
     total cpu time spent up to now is      722.9 secs

     Computing kpt #:   247  of  1501
     total cpu time spent up to now is      725.7 secs

     Computing kpt #:   248  of  1501
     total cpu time spent up to now is      728.5 secs

     Computing kpt #:   249  of  1501
     total cpu time spent up to now is      731.4 secs

     Computing kpt #:   250  of  1501
     total cpu time spent up to now is      734.3 secs

     Computing kpt #:   251  of  1501
     total cpu time spent up to now is      737.1 secs

     Computing kpt #:   252  of  1501
     total cpu time spent up to now is      740.0 secs

     Computing kpt #:   253  of  1501
     total cpu time spent up to now is      742.8 secs

     Computing kpt #:   254  of  1501
     total cpu time spent up to now is      745.9 secs

     Computing kpt #:   255  of  1501
     total cpu time spent up to now is      748.7 secs

     Computing kpt #:   256  of  1501
     total cpu time spent up to now is      751.5 secs

     Computing kpt #:   257  of  1501
     total cpu time spent up to now is      754.3 secs

     Computing kpt #:   258  of  1501
     total cpu time spent up to now is      757.2 secs

     Computing kpt #:   259  of  1501
     total cpu time spent up to now is      760.1 secs

     Computing kpt #:   260  of  1501
     total cpu time spent up to now is      763.0 secs

     Computing kpt #:   261  of  1501
     total cpu time spent up to now is      765.9 secs

     Computing kpt #:   262  of  1501
     total cpu time spent up to now is      768.8 secs

     Computing kpt #:   263  of  1501
     total cpu time spent up to now is      771.7 secs

     Computing kpt #:   264  of  1501
     total cpu time spent up to now is      774.5 secs

     Computing kpt #:   265  of  1501
     total cpu time spent up to now is      777.5 secs

     Computing kpt #:   266  of  1501
     total cpu time spent up to now is      780.4 secs

     Computing kpt #:   267  of  1501
     total cpu time spent up to now is      783.3 secs

     Computing kpt #:   268  of  1501
     total cpu time spent up to now is      786.2 secs

     Computing kpt #:   269  of  1501
     total cpu time spent up to now is      789.1 secs

     Computing kpt #:   270  of  1501
     total cpu time spent up to now is      796.0 secs

     Computing kpt #:   271  of  1501
     total cpu time spent up to now is      798.8 secs

     Computing kpt #:   272  of  1501
     total cpu time spent up to now is      805.8 secs

     Computing kpt #:   273  of  1501
     total cpu time spent up to now is      808.6 secs

     Computing kpt #:   274  of  1501
     total cpu time spent up to now is      815.6 secs

     Computing kpt #:   275  of  1501
     total cpu time spent up to now is      818.5 secs

     Computing kpt #:   276  of  1501
     total cpu time spent up to now is      821.4 secs

     Computing kpt #:   277  of  1501
     total cpu time spent up to now is      824.4 secs

     Computing kpt #:   278  of  1501
     total cpu time spent up to now is      827.2 secs

     Computing kpt #:   279  of  1501
     total cpu time spent up to now is      830.1 secs

     Computing kpt #:   280  of  1501
     total cpu time spent up to now is      833.0 secs

     Computing kpt #:   281  of  1501
     total cpu time spent up to now is      836.0 secs

     Computing kpt #:   282  of  1501
     total cpu time spent up to now is      838.9 secs

     Computing kpt #:   283  of  1501
     total cpu time spent up to now is      841.7 secs

     Computing kpt #:   284  of  1501
     total cpu time spent up to now is      844.6 secs

     Computing kpt #:   285  of  1501
     total cpu time spent up to now is      847.6 secs

     Computing kpt #:   286  of  1501
     total cpu time spent up to now is      850.5 secs

     Computing kpt #:   287  of  1501
     total cpu time spent up to now is      853.4 secs

     Computing kpt #:   288  of  1501
     total cpu time spent up to now is      856.4 secs

     Computing kpt #:   289  of  1501
     total cpu time spent up to now is      859.3 secs

     Computing kpt #:   290  of  1501
     total cpu time spent up to now is      862.2 secs

     Computing kpt #:   291  of  1501
     total cpu time spent up to now is      865.1 secs

     Computing kpt #:   292  of  1501
     total cpu time spent up to now is      868.0 secs

     Computing kpt #:   293  of  1501
     total cpu time spent up to now is      870.9 secs

     Computing kpt #:   294  of  1501
     total cpu time spent up to now is      873.8 secs

     Computing kpt #:   295  of  1501
     total cpu time spent up to now is      880.8 secs

     Computing kpt #:   296  of  1501
     total cpu time spent up to now is      883.7 secs

     Computing kpt #:   297  of  1501
     total cpu time spent up to now is      886.7 secs

     Computing kpt #:   298  of  1501
     total cpu time spent up to now is      889.6 secs

     Computing kpt #:   299  of  1501
     total cpu time spent up to now is      896.5 secs

     Computing kpt #:   300  of  1501
     total cpu time spent up to now is      899.5 secs

     Computing kpt #:   301  of  1501
     total cpu time spent up to now is      902.3 secs

     Computing kpt #:   302  of  1501
     total cpu time spent up to now is      905.3 secs

     Computing kpt #:   303  of  1501
     total cpu time spent up to now is      908.3 secs

     Computing kpt #:   304  of  1501
     total cpu time spent up to now is      911.2 secs

     Computing kpt #:   305  of  1501
     total cpu time spent up to now is      914.3 secs

     Computing kpt #:   306  of  1501
     total cpu time spent up to now is      917.2 secs

     Computing kpt #:   307  of  1501
     total cpu time spent up to now is      920.2 secs

     Computing kpt #:   308  of  1501
     total cpu time spent up to now is      923.1 secs

     Computing kpt #:   309  of  1501
     total cpu time spent up to now is      926.0 secs

     Computing kpt #:   310  of  1501
     total cpu time spent up to now is      928.9 secs

     Computing kpt #:   311  of  1501
     total cpu time spent up to now is      931.9 secs

     Computing kpt #:   312  of  1501
     total cpu time spent up to now is      939.0 secs

     Computing kpt #:   313  of  1501
     total cpu time spent up to now is      941.9 secs

     Computing kpt #:   314  of  1501
     total cpu time spent up to now is      949.1 secs

     Computing kpt #:   315  of  1501
     total cpu time spent up to now is      952.0 secs

     Computing kpt #:   316  of  1501
     total cpu time spent up to now is      955.0 secs

     Computing kpt #:   317  of  1501
     total cpu time spent up to now is      962.1 secs

     Computing kpt #:   318  of  1501
     total cpu time spent up to now is      965.0 secs

     Computing kpt #:   319  of  1501
     total cpu time spent up to now is      972.1 secs

     Computing kpt #:   320  of  1501
     total cpu time spent up to now is      975.0 secs

     Computing kpt #:   321  of  1501
     total cpu time spent up to now is      978.1 secs

     Computing kpt #:   322  of  1501
     total cpu time spent up to now is      981.1 secs

     Computing kpt #:   323  of  1501
     total cpu time spent up to now is      984.0 secs

     Computing kpt #:   324  of  1501
     total cpu time spent up to now is      987.0 secs

     Computing kpt #:   325  of  1501
     total cpu time spent up to now is      990.0 secs

     Computing kpt #:   326  of  1501
     total cpu time spent up to now is      993.0 secs

     Computing kpt #:   327  of  1501
     total cpu time spent up to now is     1000.0 secs

     Computing kpt #:   328  of  1501
     total cpu time spent up to now is     1003.1 secs

     Computing kpt #:   329  of  1501
     total cpu time spent up to now is     1006.1 secs

     Computing kpt #:   330  of  1501
     total cpu time spent up to now is     1013.1 secs

     Computing kpt #:   331  of  1501
     total cpu time spent up to now is     1016.1 secs

     Computing kpt #:   332  of  1501
     total cpu time spent up to now is     1023.2 secs

     Computing kpt #:   333  of  1501
     total cpu time spent up to now is     1026.3 secs

     Computing kpt #:   334  of  1501
     total cpu time spent up to now is     1029.4 secs

     Computing kpt #:   335  of  1501
     total cpu time spent up to now is     1032.6 secs

     Computing kpt #:   336  of  1501
     total cpu time spent up to now is     1035.6 secs

     Computing kpt #:   337  of  1501
     total cpu time spent up to now is     1038.8 secs

     Computing kpt #:   338  of  1501
     total cpu time spent up to now is     1041.8 secs

     Computing kpt #:   339  of  1501
     total cpu time spent up to now is     1045.0 secs

     Computing kpt #:   340  of  1501
     total cpu time spent up to now is     1048.1 secs

     Computing kpt #:   341  of  1501
     total cpu time spent up to now is     1051.2 secs

     Computing kpt #:   342  of  1501
     total cpu time spent up to now is     1054.4 secs

     Computing kpt #:   343  of  1501
     total cpu time spent up to now is     1057.6 secs

     Computing kpt #:   344  of  1501
     total cpu time spent up to now is     1060.7 secs

     Computing kpt #:   345  of  1501
     total cpu time spent up to now is     1063.9 secs

     Computing kpt #:   346  of  1501
     total cpu time spent up to now is     1067.1 secs

     Computing kpt #:   347  of  1501
     total cpu time spent up to now is     1070.3 secs

     Computing kpt #:   348  of  1501
     total cpu time spent up to now is     1073.6 secs

     Computing kpt #:   349  of  1501
     total cpu time spent up to now is     1076.8 secs

     Computing kpt #:   350  of  1501
     total cpu time spent up to now is     1079.9 secs

     Computing kpt #:   351  of  1501
     total cpu time spent up to now is     1083.2 secs

     Computing kpt #:   352  of  1501
     total cpu time spent up to now is     1086.4 secs

     Computing kpt #:   353  of  1501
     total cpu time spent up to now is     1089.5 secs

     Computing kpt #:   354  of  1501
     total cpu time spent up to now is     1092.6 secs

     Computing kpt #:   355  of  1501
     total cpu time spent up to now is     1095.9 secs

     Computing kpt #:   356  of  1501
     total cpu time spent up to now is     1099.2 secs

     Computing kpt #:   357  of  1501
     total cpu time spent up to now is     1102.3 secs

     Computing kpt #:   358  of  1501
     total cpu time spent up to now is     1105.5 secs

     Computing kpt #:   359  of  1501
     total cpu time spent up to now is     1108.7 secs

     Computing kpt #:   360  of  1501
     total cpu time spent up to now is     1112.0 secs

     Computing kpt #:   361  of  1501
     total cpu time spent up to now is     1115.3 secs

     Computing kpt #:   362  of  1501
     total cpu time spent up to now is     1118.5 secs

     Computing kpt #:   363  of  1501
     total cpu time spent up to now is     1121.8 secs

     Computing kpt #:   364  of  1501
     total cpu time spent up to now is     1125.0 secs

     Computing kpt #:   365  of  1501
     total cpu time spent up to now is     1128.4 secs

     Computing kpt #:   366  of  1501
     total cpu time spent up to now is     1131.7 secs

     Computing kpt #:   367  of  1501
     total cpu time spent up to now is     1134.9 secs

     Computing kpt #:   368  of  1501
     total cpu time spent up to now is     1138.2 secs

     Computing kpt #:   369  of  1501
     total cpu time spent up to now is     1141.5 secs

     Computing kpt #:   370  of  1501
     total cpu time spent up to now is     1144.8 secs

     Computing kpt #:   371  of  1501
     total cpu time spent up to now is     1148.2 secs

     Computing kpt #:   372  of  1501
     total cpu time spent up to now is     1151.5 secs

     Computing kpt #:   373  of  1501
     total cpu time spent up to now is     1154.9 secs

     Computing kpt #:   374  of  1501
     total cpu time spent up to now is     1158.4 secs

     Computing kpt #:   375  of  1501
     total cpu time spent up to now is     1162.0 secs

     Computing kpt #:   376  of  1501
     total cpu time spent up to now is     1165.6 secs

     Computing kpt #:   377  of  1501
     total cpu time spent up to now is     1169.0 secs

     Computing kpt #:   378  of  1501
     total cpu time spent up to now is     1172.6 secs

     Computing kpt #:   379  of  1501
     total cpu time spent up to now is     1176.1 secs

     Computing kpt #:   380  of  1501
     total cpu time spent up to now is     1179.8 secs

     Computing kpt #:   381  of  1501
     total cpu time spent up to now is     1184.2 secs

     Computing kpt #:   382  of  1501
     total cpu time spent up to now is     1188.0 secs

     Computing kpt #:   383  of  1501
     total cpu time spent up to now is     1192.6 secs

     Computing kpt #:   384  of  1501
     total cpu time spent up to now is     1196.9 secs

     Computing kpt #:   385  of  1501
     c_bands:  2 eigenvalues not converged
     total cpu time spent up to now is     1201.7 secs

     Computing kpt #:   386  of  1501
     total cpu time spent up to now is     1206.4 secs

     Computing kpt #:   387  of  1501
     total cpu time spent up to now is     1210.1 secs

     Computing kpt #:   388  of  1501
     c_bands:  1 eigenvalues not converged
     total cpu time spent up to now is     1214.6 secs

     Computing kpt #:   389  of  1501
     total cpu time spent up to now is     1218.9 secs

     Computing kpt #:   390  of  1501
     total cpu time spent up to now is     1222.7 secs

     Computing kpt #:   391  of  1501
     total cpu time spent up to now is     1226.1 secs

     Computing kpt #:   392  of  1501
     total cpu time spent up to now is     1230.0 secs

     Computing kpt #:   393  of  1501
     total cpu time spent up to now is     1233.4 secs

     Computing kpt #:   394  of  1501
     total cpu time spent up to now is     1236.9 secs

     Computing kpt #:   395  of  1501
     total cpu time spent up to now is     1240.4 secs

     Computing kpt #:   396  of  1501
     total cpu time spent up to now is     1243.8 secs

     Computing kpt #:   397  of  1501
     total cpu time spent up to now is     1247.3 secs

     Computing kpt #:   398  of  1501
     total cpu time spent up to now is     1250.8 secs

     Computing kpt #:   399  of  1501
     total cpu time spent up to now is     1254.2 secs

     Computing kpt #:   400  of  1501
     total cpu time spent up to now is     1257.9 secs

     Computing kpt #:   401  of  1501
     total cpu time spent up to now is     1261.5 secs

     Computing kpt #:   402  of  1501
     total cpu time spent up to now is     1264.9 secs

     Computing kpt #:   403  of  1501
     total cpu time spent up to now is     1268.3 secs

     Computing kpt #:   404  of  1501
     total cpu time spent up to now is     1271.8 secs

     Computing kpt #:   405  of  1501
     total cpu time spent up to now is     1275.1 secs

     Computing kpt #:   406  of  1501
     total cpu time spent up to now is     1278.4 secs

     Computing kpt #:   407  of  1501
     total cpu time spent up to now is     1281.8 secs

     Computing kpt #:   408  of  1501
     total cpu time spent up to now is     1285.2 secs

     Computing kpt #:   409  of  1501
     total cpu time spent up to now is     1288.7 secs

     Computing kpt #:   410  of  1501
     total cpu time spent up to now is     1292.0 secs

     Computing kpt #:   411  of  1501
     total cpu time spent up to now is     1295.4 secs

     Computing kpt #:   412  of  1501
     total cpu time spent up to now is     1298.8 secs

     Computing kpt #:   413  of  1501
     total cpu time spent up to now is     1302.0 secs

     Computing kpt #:   414  of  1501
     total cpu time spent up to now is     1305.4 secs

     Computing kpt #:   415  of  1501
     total cpu time spent up to now is     1308.7 secs

     Computing kpt #:   416  of  1501
     total cpu time spent up to now is     1312.0 secs

     Computing kpt #:   417  of  1501
     total cpu time spent up to now is     1315.3 secs

     Computing kpt #:   418  of  1501
     total cpu time spent up to now is     1318.6 secs

     Computing kpt #:   419  of  1501
     total cpu time spent up to now is     1322.0 secs

     Computing kpt #:   420  of  1501
     total cpu time spent up to now is     1325.2 secs

     Computing kpt #:   421  of  1501
     total cpu time spent up to now is     1328.4 secs

     Computing kpt #:   422  of  1501
     total cpu time spent up to now is     1331.8 secs

     Computing kpt #:   423  of  1501
     total cpu time spent up to now is     1335.1 secs

     Computing kpt #:   424  of  1501
     total cpu time spent up to now is     1338.3 secs

     Computing kpt #:   425  of  1501
     total cpu time spent up to now is     1341.8 secs

     Computing kpt #:   426  of  1501
     total cpu time spent up to now is     1345.0 secs

     Computing kpt #:   427  of  1501
     total cpu time spent up to now is     1348.3 secs

     Computing kpt #:   428  of  1501
     total cpu time spent up to now is     1351.7 secs

     Computing kpt #:   429  of  1501
     total cpu time spent up to now is     1355.0 secs

     Computing kpt #:   430  of  1501
     total cpu time spent up to now is     1358.3 secs

     Computing kpt #:   431  of  1501
     total cpu time spent up to now is     1361.8 secs

     Computing kpt #:   432  of  1501
     total cpu time spent up to now is     1365.0 secs

     Computing kpt #:   433  of  1501
     total cpu time spent up to now is     1368.4 secs

     Computing kpt #:   434  of  1501
     total cpu time spent up to now is     1371.8 secs

     Computing kpt #:   435  of  1501
     total cpu time spent up to now is     1375.3 secs

     Computing kpt #:   436  of  1501
     total cpu time spent up to now is     1378.8 secs

     Computing kpt #:   437  of  1501
     total cpu time spent up to now is     1382.4 secs

     Computing kpt #:   438  of  1501
     total cpu time spent up to now is     1386.0 secs

     Computing kpt #:   439  of  1501
     total cpu time spent up to now is     1389.5 secs

     Computing kpt #:   440  of  1501
     total cpu time spent up to now is     1393.1 secs

     Computing kpt #:   441  of  1501
     total cpu time spent up to now is     1396.5 secs

     Computing kpt #:   442  of  1501
     total cpu time spent up to now is     1400.1 secs

     Computing kpt #:   443  of  1501
     total cpu time spent up to now is     1403.6 secs

     Computing kpt #:   444  of  1501
     total cpu time spent up to now is     1407.0 secs

     Computing kpt #:   445  of  1501
     total cpu time spent up to now is     1410.5 secs

     Computing kpt #:   446  of  1501
     total cpu time spent up to now is     1414.0 secs

     Computing kpt #:   447  of  1501
     total cpu time spent up to now is     1417.4 secs

     Computing kpt #:   448  of  1501
     total cpu time spent up to now is     1420.9 secs

     Computing kpt #:   449  of  1501
     total cpu time spent up to now is     1424.1 secs

     Computing kpt #:   450  of  1501
     total cpu time spent up to now is     1427.4 secs

     Computing kpt #:   451  of  1501
     total cpu time spent up to now is     1430.7 secs

     Computing kpt #:   452  of  1501
     total cpu time spent up to now is     1434.1 secs

     Computing kpt #:   453  of  1501
     total cpu time spent up to now is     1437.4 secs

     Computing kpt #:   454  of  1501
     total cpu time spent up to now is     1440.9 secs

     Computing kpt #:   455  of  1501
     total cpu time spent up to now is     1444.2 secs

     Computing kpt #:   456  of  1501
     total cpu time spent up to now is     1447.5 secs

     Computing kpt #:   457  of  1501
     total cpu time spent up to now is     1450.8 secs

     Computing kpt #:   458  of  1501
     total cpu time spent up to now is     1454.0 secs

     Computing kpt #:   459  of  1501
     total cpu time spent up to now is     1457.3 secs

     Computing kpt #:   460  of  1501
     total cpu time spent up to now is     1460.5 secs

     Computing kpt #:   461  of  1501
     total cpu time spent up to now is     1463.8 secs

     Computing kpt #:   462  of  1501
     total cpu time spent up to now is     1467.2 secs

     Computing kpt #:   463  of  1501
     total cpu time spent up to now is     1470.5 secs

     Computing kpt #:   464  of  1501
     total cpu time spent up to now is     1473.7 secs

     Computing kpt #:   465  of  1501
     total cpu time spent up to now is     1477.0 secs

     Computing kpt #:   466  of  1501
     total cpu time spent up to now is     1480.2 secs

     Computing kpt #:   467  of  1501
     total cpu time spent up to now is     1483.5 secs

     Computing kpt #:   468  of  1501
     total cpu time spent up to now is     1486.7 secs

     Computing kpt #:   469  of  1501
     total cpu time spent up to now is     1490.0 secs

     Computing kpt #:   470  of  1501
     total cpu time spent up to now is     1493.4 secs

     Computing kpt #:   471  of  1501
     total cpu time spent up to now is     1496.6 secs

     Computing kpt #:   472  of  1501
     total cpu time spent up to now is     1499.9 secs

     Computing kpt #:   473  of  1501
     total cpu time spent up to now is     1503.1 secs

     Computing kpt #:   474  of  1501
     total cpu time spent up to now is     1506.3 secs

     Computing kpt #:   475  of  1501
     total cpu time spent up to now is     1509.6 secs

     Computing kpt #:   476  of  1501
     total cpu time spent up to now is     1512.9 secs

     Computing kpt #:   477  of  1501
     total cpu time spent up to now is     1516.2 secs

     Computing kpt #:   478  of  1501
     total cpu time spent up to now is     1519.4 secs

     Computing kpt #:   479  of  1501
     total cpu time spent up to now is     1522.7 secs

     Computing kpt #:   480  of  1501
     total cpu time spent up to now is     1525.9 secs

     Computing kpt #:   481  of  1501
     total cpu time spent up to now is     1529.2 secs

     Computing kpt #:   482  of  1501
     total cpu time spent up to now is     1532.5 secs

     Computing kpt #:   483  of  1501
     total cpu time spent up to now is     1535.8 secs

     Computing kpt #:   484  of  1501
     total cpu time spent up to now is     1539.0 secs

     Computing kpt #:   485  of  1501
     total cpu time spent up to now is     1542.2 secs

     Computing kpt #:   486  of  1501
     total cpu time spent up to now is     1545.5 secs

     Computing kpt #:   487  of  1501
     total cpu time spent up to now is     1548.8 secs

     Computing kpt #:   488  of  1501
     total cpu time spent up to now is     1552.0 secs

     Computing kpt #:   489  of  1501
     total cpu time spent up to now is     1555.3 secs

     Computing kpt #:   490  of  1501
     total cpu time spent up to now is     1558.5 secs

     Computing kpt #:   491  of  1501
     total cpu time spent up to now is     1561.8 secs

     Computing kpt #:   492  of  1501
     total cpu time spent up to now is     1565.0 secs

     Computing kpt #:   493  of  1501
     total cpu time spent up to now is     1568.3 secs

     Computing kpt #:   494  of  1501
     total cpu time spent up to now is     1571.6 secs

     Computing kpt #:   495  of  1501
     total cpu time spent up to now is     1574.9 secs

     Computing kpt #:   496  of  1501
     total cpu time spent up to now is     1578.1 secs

     Computing kpt #:   497  of  1501
     total cpu time spent up to now is     1581.4 secs

     Computing kpt #:   498  of  1501
     total cpu time spent up to now is     1584.6 secs

     Computing kpt #:   499  of  1501
     total cpu time spent up to now is     1587.9 secs

     Computing kpt #:   500  of  1501
     total cpu time spent up to now is     1591.1 secs

     Computing kpt #:   501  of  1501
     total cpu time spent up to now is     1594.4 secs

     Computing kpt #:   502  of  1501
     total cpu time spent up to now is     1597.7 secs

     Computing kpt #:   503  of  1501
     total cpu time spent up to now is     1601.0 secs

     Computing kpt #:   504  of  1501
     total cpu time spent up to now is     1604.3 secs

     Computing kpt #:   505  of  1501
     total cpu time spent up to now is     1607.6 secs

     Computing kpt #:   506  of  1501
     total cpu time spent up to now is     1610.9 secs

     Computing kpt #:   507  of  1501
     total cpu time spent up to now is     1614.1 secs

     Computing kpt #:   508  of  1501
     total cpu time spent up to now is     1617.4 secs

     Computing kpt #:   509  of  1501
     total cpu time spent up to now is     1620.7 secs

     Computing kpt #:   510  of  1501
     total cpu time spent up to now is     1624.0 secs

     Computing kpt #:   511  of  1501
     total cpu time spent up to now is     1627.3 secs

     Computing kpt #:   512  of  1501
     total cpu time spent up to now is     1630.6 secs

     Computing kpt #:   513  of  1501
     total cpu time spent up to now is     1633.9 secs

     Computing kpt #:   514  of  1501
     total cpu time spent up to now is     1637.1 secs

     Computing kpt #:   515  of  1501
     total cpu time spent up to now is     1640.4 secs

     Computing kpt #:   516  of  1501
     total cpu time spent up to now is     1643.7 secs

     Computing kpt #:   517  of  1501
     total cpu time spent up to now is     1647.0 secs

     Computing kpt #:   518  of  1501
     total cpu time spent up to now is     1650.2 secs

     Computing kpt #:   519  of  1501
     total cpu time spent up to now is     1653.5 secs

     Computing kpt #:   520  of  1501
     total cpu time spent up to now is     1656.8 secs

     Computing kpt #:   521  of  1501
     total cpu time spent up to now is     1660.1 secs

     Computing kpt #:   522  of  1501
     total cpu time spent up to now is     1663.3 secs

     Computing kpt #:   523  of  1501
     total cpu time spent up to now is     1666.6 secs

     Computing kpt #:   524  of  1501
     total cpu time spent up to now is     1669.9 secs

     Computing kpt #:   525  of  1501
     total cpu time spent up to now is     1673.2 secs

     Computing kpt #:   526  of  1501
     total cpu time spent up to now is     1676.5 secs

     Computing kpt #:   527  of  1501
     total cpu time spent up to now is     1679.8 secs

     Computing kpt #:   528  of  1501
     total cpu time spent up to now is     1683.0 secs

     Computing kpt #:   529  of  1501
     total cpu time spent up to now is     1686.3 secs

     Computing kpt #:   530  of  1501
     total cpu time spent up to now is     1689.6 secs

     Computing kpt #:   531  of  1501
     total cpu time spent up to now is     1693.0 secs

     Computing kpt #:   532  of  1501
     total cpu time spent up to now is     1696.3 secs

     Computing kpt #:   533  of  1501
     total cpu time spent up to now is     1699.5 secs

     Computing kpt #:   534  of  1501
     total cpu time spent up to now is     1702.8 secs

     Computing kpt #:   535  of  1501
     total cpu time spent up to now is     1706.2 secs

     Computing kpt #:   536  of  1501
     total cpu time spent up to now is     1709.4 secs

     Computing kpt #:   537  of  1501
     total cpu time spent up to now is     1712.7 secs

     Computing kpt #:   538  of  1501
     total cpu time spent up to now is     1716.0 secs

     Computing kpt #:   539  of  1501
     total cpu time spent up to now is     1719.3 secs

     Computing kpt #:   540  of  1501
     total cpu time spent up to now is     1722.6 secs

     Computing kpt #:   541  of  1501
     total cpu time spent up to now is     1725.8 secs

     Computing kpt #:   542  of  1501
     total cpu time spent up to now is     1729.2 secs

     Computing kpt #:   543  of  1501
     total cpu time spent up to now is     1732.4 secs

     Computing kpt #:   544  of  1501
     total cpu time spent up to now is     1735.7 secs

     Computing kpt #:   545  of  1501
     total cpu time spent up to now is     1738.9 secs

     Computing kpt #:   546  of  1501
     total cpu time spent up to now is     1742.2 secs

     Computing kpt #:   547  of  1501
     total cpu time spent up to now is     1745.6 secs

     Computing kpt #:   548  of  1501
     total cpu time spent up to now is     1748.9 secs

     Computing kpt #:   549  of  1501
     total cpu time spent up to now is     1752.2 secs

     Computing kpt #:   550  of  1501
     total cpu time spent up to now is     1755.5 secs

     Computing kpt #:   551  of  1501
     total cpu time spent up to now is     1758.8 secs

     Computing kpt #:   552  of  1501
     total cpu time spent up to now is     1762.1 secs

     Computing kpt #:   553  of  1501
     total cpu time spent up to now is     1765.4 secs

     Computing kpt #:   554  of  1501
     total cpu time spent up to now is     1768.8 secs

     Computing kpt #:   555  of  1501
     total cpu time spent up to now is     1772.1 secs

     Computing kpt #:   556  of  1501
     total cpu time spent up to now is     1775.4 secs

     Computing kpt #:   557  of  1501
     total cpu time spent up to now is     1778.7 secs

     Computing kpt #:   558  of  1501
     total cpu time spent up to now is     1782.0 secs

     Computing kpt #:   559  of  1501
     total cpu time spent up to now is     1785.4 secs

     Computing kpt #:   560  of  1501
     total cpu time spent up to now is     1788.7 secs

     Computing kpt #:   561  of  1501
     total cpu time spent up to now is     1791.9 secs

     Computing kpt #:   562  of  1501
     total cpu time spent up to now is     1795.3 secs

     Computing kpt #:   563  of  1501
     total cpu time spent up to now is     1798.5 secs

     Computing kpt #:   564  of  1501
     total cpu time spent up to now is     1801.8 secs

     Computing kpt #:   565  of  1501
     total cpu time spent up to now is     1805.2 secs

     Computing kpt #:   566  of  1501
     total cpu time spent up to now is     1808.4 secs

     Computing kpt #:   567  of  1501
     total cpu time spent up to now is     1811.8 secs

     Computing kpt #:   568  of  1501
     total cpu time spent up to now is     1815.1 secs

     Computing kpt #:   569  of  1501
     total cpu time spent up to now is     1818.4 secs

     Computing kpt #:   570  of  1501
     total cpu time spent up to now is     1821.8 secs

     Computing kpt #:   571  of  1501
     total cpu time spent up to now is     1825.1 secs

     Computing kpt #:   572  of  1501
     total cpu time spent up to now is     1828.5 secs

     Computing kpt #:   573  of  1501
     total cpu time spent up to now is     1831.8 secs

     Computing kpt #:   574  of  1501
     total cpu time spent up to now is     1835.2 secs

     Computing kpt #:   575  of  1501
     total cpu time spent up to now is     1838.5 secs

     Computing kpt #:   576  of  1501
     total cpu time spent up to now is     1841.8 secs

     Computing kpt #:   577  of  1501
     total cpu time spent up to now is     1845.1 secs

     Computing kpt #:   578  of  1501
     total cpu time spent up to now is     1848.5 secs

     Computing kpt #:   579  of  1501
     total cpu time spent up to now is     1851.8 secs

     Computing kpt #:   580  of  1501
     total cpu time spent up to now is     1855.1 secs

     Computing kpt #:   581  of  1501
     total cpu time spent up to now is     1858.4 secs

     Computing kpt #:   582  of  1501
     total cpu time spent up to now is     1861.7 secs

     Computing kpt #:   583  of  1501
     total cpu time spent up to now is     1865.0 secs

     Computing kpt #:   584  of  1501
     total cpu time spent up to now is     1868.4 secs

     Computing kpt #:   585  of  1501
     total cpu time spent up to now is     1871.7 secs

     Computing kpt #:   586  of  1501
     total cpu time spent up to now is     1875.0 secs

     Computing kpt #:   587  of  1501
     total cpu time spent up to now is     1878.3 secs

     Computing kpt #:   588  of  1501
     total cpu time spent up to now is     1881.6 secs

     Computing kpt #:   589  of  1501
     total cpu time spent up to now is     1884.9 secs

     Computing kpt #:   590  of  1501
     total cpu time spent up to now is     1888.3 secs

     Computing kpt #:   591  of  1501
     total cpu time spent up to now is     1891.6 secs

     Computing kpt #:   592  of  1501
     total cpu time spent up to now is     1895.0 secs

     Computing kpt #:   593  of  1501
     total cpu time spent up to now is     1898.4 secs

     Computing kpt #:   594  of  1501
     total cpu time spent up to now is     1901.7 secs

     Computing kpt #:   595  of  1501
     total cpu time spent up to now is     1905.1 secs

     Computing kpt #:   596  of  1501
     total cpu time spent up to now is     1908.4 secs

     Computing kpt #:   597  of  1501
     total cpu time spent up to now is     1911.7 secs

     Computing kpt #:   598  of  1501
     total cpu time spent up to now is     1915.1 secs

     Computing kpt #:   599  of  1501
     total cpu time spent up to now is     1918.5 secs

     Computing kpt #:   600  of  1501
     total cpu time spent up to now is     1921.8 secs

     Computing kpt #:   601  of  1501
     total cpu time spent up to now is     1925.1 secs

     Computing kpt #:   602  of  1501
     total cpu time spent up to now is     1928.4 secs

     Computing kpt #:   603  of  1501
     total cpu time spent up to now is     1931.8 secs

     Computing kpt #:   604  of  1501
     total cpu time spent up to now is     1935.1 secs

     Computing kpt #:   605  of  1501
     total cpu time spent up to now is     1938.5 secs

     Computing kpt #:   606  of  1501
     total cpu time spent up to now is     1941.9 secs

     Computing kpt #:   607  of  1501
     total cpu time spent up to now is     1945.3 secs

     Computing kpt #:   608  of  1501
     total cpu time spent up to now is     1948.6 secs

     Computing kpt #:   609  of  1501
     total cpu time spent up to now is     1952.0 secs

     Computing kpt #:   610  of  1501
     total cpu time spent up to now is     1955.3 secs

     Computing kpt #:   611  of  1501
     total cpu time spent up to now is     1958.6 secs

     Computing kpt #:   612  of  1501
     total cpu time spent up to now is     1961.9 secs

     Computing kpt #:   613  of  1501
     total cpu time spent up to now is     1965.2 secs

     Computing kpt #:   614  of  1501
     total cpu time spent up to now is     1968.6 secs

     Computing kpt #:   615  of  1501
     total cpu time spent up to now is     1971.9 secs

     Computing kpt #:   616  of  1501
     total cpu time spent up to now is     1975.2 secs

     Computing kpt #:   617  of  1501
     total cpu time spent up to now is     1978.6 secs

     Computing kpt #:   618  of  1501
     total cpu time spent up to now is     1981.8 secs

     Computing kpt #:   619  of  1501
     total cpu time spent up to now is     1985.2 secs

     Computing kpt #:   620  of  1501
     total cpu time spent up to now is     1988.5 secs

     Computing kpt #:   621  of  1501
     total cpu time spent up to now is     1991.9 secs

     Computing kpt #:   622  of  1501
     total cpu time spent up to now is     1995.2 secs

     Computing kpt #:   623  of  1501
     total cpu time spent up to now is     1998.5 secs

     Computing kpt #:   624  of  1501
     total cpu time spent up to now is     2001.9 secs

     Computing kpt #:   625  of  1501
     total cpu time spent up to now is     2005.1 secs

     Computing kpt #:   626  of  1501
     total cpu time spent up to now is     2008.5 secs

     Computing kpt #:   627  of  1501
     total cpu time spent up to now is     2011.9 secs

     Computing kpt #:   628  of  1501
     total cpu time spent up to now is     2015.2 secs

     Computing kpt #:   629  of  1501
     total cpu time spent up to now is     2018.5 secs

     Computing kpt #:   630  of  1501
     total cpu time spent up to now is     2021.9 secs

     Computing kpt #:   631  of  1501
     total cpu time spent up to now is     2025.2 secs

     Computing kpt #:   632  of  1501
     total cpu time spent up to now is     2028.5 secs

     Computing kpt #:   633  of  1501
     total cpu time spent up to now is     2031.8 secs

     Computing kpt #:   634  of  1501
     total cpu time spent up to now is     2035.1 secs

     Computing kpt #:   635  of  1501
     total cpu time spent up to now is     2038.4 secs

     Computing kpt #:   636  of  1501
     total cpu time spent up to now is     2041.7 secs

     Computing kpt #:   637  of  1501
     total cpu time spent up to now is     2045.1 secs

     Computing kpt #:   638  of  1501
     total cpu time spent up to now is     2048.4 secs

     Computing kpt #:   639  of  1501
     total cpu time spent up to now is     2051.7 secs

     Computing kpt #:   640  of  1501
     total cpu time spent up to now is     2055.0 secs

     Computing kpt #:   641  of  1501
     total cpu time spent up to now is     2058.3 secs

     Computing kpt #:   642  of  1501
     total cpu time spent up to now is     2061.6 secs

     Computing kpt #:   643  of  1501
     total cpu time spent up to now is     2064.9 secs

     Computing kpt #:   644  of  1501
     total cpu time spent up to now is     2068.2 secs

     Computing kpt #:   645  of  1501
     total cpu time spent up to now is     2071.5 secs

     Computing kpt #:   646  of  1501
     total cpu time spent up to now is     2074.8 secs

     Computing kpt #:   647  of  1501
     total cpu time spent up to now is     2078.0 secs

     Computing kpt #:   648  of  1501
     total cpu time spent up to now is     2081.3 secs

     Computing kpt #:   649  of  1501
     total cpu time spent up to now is     2084.7 secs

     Computing kpt #:   650  of  1501
     total cpu time spent up to now is     2088.0 secs

     Computing kpt #:   651  of  1501
     total cpu time spent up to now is     2091.2 secs

     Computing kpt #:   652  of  1501
     total cpu time spent up to now is     2094.5 secs

     Computing kpt #:   653  of  1501
     total cpu time spent up to now is     2097.8 secs

     Computing kpt #:   654  of  1501
     total cpu time spent up to now is     2101.1 secs

     Computing kpt #:   655  of  1501
     total cpu time spent up to now is     2104.5 secs

     Computing kpt #:   656  of  1501
     total cpu time spent up to now is     2107.8 secs

     Computing kpt #:   657  of  1501
     total cpu time spent up to now is     2111.1 secs

     Computing kpt #:   658  of  1501
     total cpu time spent up to now is     2114.4 secs

     Computing kpt #:   659  of  1501
     total cpu time spent up to now is     2117.7 secs

     Computing kpt #:   660  of  1501
     total cpu time spent up to now is     2120.9 secs

     Computing kpt #:   661  of  1501
     total cpu time spent up to now is     2124.3 secs

     Computing kpt #:   662  of  1501
     total cpu time spent up to now is     2127.5 secs

     Computing kpt #:   663  of  1501
     total cpu time spent up to now is     2130.9 secs

     Computing kpt #:   664  of  1501
     total cpu time spent up to now is     2134.2 secs

     Computing kpt #:   665  of  1501
     total cpu time spent up to now is     2137.5 secs

     Computing kpt #:   666  of  1501
     total cpu time spent up to now is     2140.9 secs

     Computing kpt #:   667  of  1501
     total cpu time spent up to now is     2144.3 secs

     Computing kpt #:   668  of  1501
     total cpu time spent up to now is     2147.6 secs

     Computing kpt #:   669  of  1501
     total cpu time spent up to now is     2150.9 secs

     Computing kpt #:   670  of  1501
     total cpu time spent up to now is     2154.3 secs

     Computing kpt #:   671  of  1501
     total cpu time spent up to now is     2157.5 secs

     Computing kpt #:   672  of  1501
     total cpu time spent up to now is     2160.8 secs

     Computing kpt #:   673  of  1501
     total cpu time spent up to now is     2164.1 secs

     Computing kpt #:   674  of  1501
     total cpu time spent up to now is     2167.4 secs

     Computing kpt #:   675  of  1501
     total cpu time spent up to now is     2170.6 secs

     Computing kpt #:   676  of  1501
     total cpu time spent up to now is     2173.9 secs

     Computing kpt #:   677  of  1501
     total cpu time spent up to now is     2177.2 secs

     Computing kpt #:   678  of  1501
     total cpu time spent up to now is     2180.4 secs

     Computing kpt #:   679  of  1501
     total cpu time spent up to now is     2183.7 secs

     Computing kpt #:   680  of  1501
     total cpu time spent up to now is     2187.0 secs

     Computing kpt #:   681  of  1501
     total cpu time spent up to now is     2190.2 secs

     Computing kpt #:   682  of  1501
     total cpu time spent up to now is     2193.4 secs

     Computing kpt #:   683  of  1501
     total cpu time spent up to now is     2196.7 secs

     Computing kpt #:   684  of  1501
     total cpu time spent up to now is     2199.9 secs

     Computing kpt #:   685  of  1501
     total cpu time spent up to now is     2203.3 secs

     Computing kpt #:   686  of  1501
     total cpu time spent up to now is     2206.5 secs

     Computing kpt #:   687  of  1501
     total cpu time spent up to now is     2209.9 secs

     Computing kpt #:   688  of  1501
     total cpu time spent up to now is     2213.2 secs

     Computing kpt #:   689  of  1501
     total cpu time spent up to now is     2216.5 secs

     Computing kpt #:   690  of  1501
     total cpu time spent up to now is     2219.8 secs

     Computing kpt #:   691  of  1501
     total cpu time spent up to now is     2223.0 secs

     Computing kpt #:   692  of  1501
     total cpu time spent up to now is     2226.4 secs

     Computing kpt #:   693  of  1501
     total cpu time spent up to now is     2229.7 secs

     Computing kpt #:   694  of  1501
     total cpu time spent up to now is     2233.0 secs

     Computing kpt #:   695  of  1501
     total cpu time spent up to now is     2236.2 secs

     Computing kpt #:   696  of  1501
     total cpu time spent up to now is     2239.5 secs

     Computing kpt #:   697  of  1501
     total cpu time spent up to now is     2242.9 secs

     Computing kpt #:   698  of  1501
     total cpu time spent up to now is     2246.3 secs

     Computing kpt #:   699  of  1501
     total cpu time spent up to now is     2249.5 secs

     Computing kpt #:   700  of  1501
     total cpu time spent up to now is     2253.0 secs

     Computing kpt #:   701  of  1501
     total cpu time spent up to now is     2256.3 secs

     Computing kpt #:   702  of  1501
     total cpu time spent up to now is     2259.6 secs

     Computing kpt #:   703  of  1501
     total cpu time spent up to now is     2262.9 secs

     Computing kpt #:   704  of  1501
     total cpu time spent up to now is     2266.3 secs

     Computing kpt #:   705  of  1501
     total cpu time spent up to now is     2269.7 secs

     Computing kpt #:   706  of  1501
     total cpu time spent up to now is     2273.0 secs

     Computing kpt #:   707  of  1501
     total cpu time spent up to now is     2276.4 secs

     Computing kpt #:   708  of  1501
     total cpu time spent up to now is     2279.7 secs

     Computing kpt #:   709  of  1501
     total cpu time spent up to now is     2283.1 secs

     Computing kpt #:   710  of  1501
     total cpu time spent up to now is     2286.4 secs

     Computing kpt #:   711  of  1501
     total cpu time spent up to now is     2289.8 secs

     Computing kpt #:   712  of  1501
     total cpu time spent up to now is     2293.2 secs

     Computing kpt #:   713  of  1501
     total cpu time spent up to now is     2296.5 secs

     Computing kpt #:   714  of  1501
     total cpu time spent up to now is     2299.8 secs

     Computing kpt #:   715  of  1501
     total cpu time spent up to now is     2303.1 secs

     Computing kpt #:   716  of  1501
     total cpu time spent up to now is     2306.5 secs

     Computing kpt #:   717  of  1501
     total cpu time spent up to now is     2309.8 secs

     Computing kpt #:   718  of  1501
     total cpu time spent up to now is     2313.2 secs

     Computing kpt #:   719  of  1501
     total cpu time spent up to now is     2316.5 secs

     Computing kpt #:   720  of  1501
     total cpu time spent up to now is     2319.8 secs

     Computing kpt #:   721  of  1501
     total cpu time spent up to now is     2323.1 secs

     Computing kpt #:   722  of  1501
     total cpu time spent up to now is     2326.5 secs

     Computing kpt #:   723  of  1501
     total cpu time spent up to now is     2329.8 secs

     Computing kpt #:   724  of  1501
     total cpu time spent up to now is     2333.0 secs

     Computing kpt #:   725  of  1501
     total cpu time spent up to now is     2336.4 secs

     Computing kpt #:   726  of  1501
     total cpu time spent up to now is     2339.8 secs

     Computing kpt #:   727  of  1501
     total cpu time spent up to now is     2343.1 secs

     Computing kpt #:   728  of  1501
     total cpu time spent up to now is     2346.5 secs

     Computing kpt #:   729  of  1501
     total cpu time spent up to now is     2349.8 secs

     Computing kpt #:   730  of  1501
     total cpu time spent up to now is     2353.2 secs

     Computing kpt #:   731  of  1501
     total cpu time spent up to now is     2356.5 secs

     Computing kpt #:   732  of  1501
     total cpu time spent up to now is     2359.9 secs

     Computing kpt #:   733  of  1501
     total cpu time spent up to now is     2363.2 secs

     Computing kpt #:   734  of  1501
     total cpu time spent up to now is     2366.4 secs

     Computing kpt #:   735  of  1501
     total cpu time spent up to now is     2369.8 secs

     Computing kpt #:   736  of  1501
     total cpu time spent up to now is     2373.2 secs

     Computing kpt #:   737  of  1501
     total cpu time spent up to now is     2376.6 secs

     Computing kpt #:   738  of  1501
     total cpu time spent up to now is     2379.9 secs

     Computing kpt #:   739  of  1501
     total cpu time spent up to now is     2383.2 secs

     Computing kpt #:   740  of  1501
     total cpu time spent up to now is     2386.5 secs

     Computing kpt #:   741  of  1501
     total cpu time spent up to now is     2389.9 secs

     Computing kpt #:   742  of  1501
     total cpu time spent up to now is     2393.2 secs

     Computing kpt #:   743  of  1501
     total cpu time spent up to now is     2396.6 secs

     Computing kpt #:   744  of  1501
     total cpu time spent up to now is     2399.9 secs

     Computing kpt #:   745  of  1501
     total cpu time spent up to now is     2403.3 secs

     Computing kpt #:   746  of  1501
     total cpu time spent up to now is     2406.6 secs

     Computing kpt #:   747  of  1501
     total cpu time spent up to now is     2410.0 secs

     Computing kpt #:   748  of  1501
     total cpu time spent up to now is     2413.3 secs

     Computing kpt #:   749  of  1501
     total cpu time spent up to now is     2416.6 secs

     Computing kpt #:   750  of  1501
     total cpu time spent up to now is     2419.9 secs

     Computing kpt #:   751  of  1501
     total cpu time spent up to now is     2423.2 secs

     Computing kpt #:   752  of  1501
     total cpu time spent up to now is     2426.6 secs

     Computing kpt #:   753  of  1501
     total cpu time spent up to now is     2430.0 secs

     Computing kpt #:   754  of  1501
     total cpu time spent up to now is     2433.4 secs

     Computing kpt #:   755  of  1501
     total cpu time spent up to now is     2436.7 secs

     Computing kpt #:   756  of  1501
     total cpu time spent up to now is     2440.1 secs

     Computing kpt #:   757  of  1501
     total cpu time spent up to now is     2443.5 secs

     Computing kpt #:   758  of  1501
     total cpu time spent up to now is     2446.9 secs

     Computing kpt #:   759  of  1501
     total cpu time spent up to now is     2450.3 secs

     Computing kpt #:   760  of  1501
     total cpu time spent up to now is     2453.7 secs

     Computing kpt #:   761  of  1501
     total cpu time spent up to now is     2457.1 secs

     Computing kpt #:   762  of  1501
     total cpu time spent up to now is     2460.5 secs

     Computing kpt #:   763  of  1501
     total cpu time spent up to now is     2463.9 secs

     Computing kpt #:   764  of  1501
     total cpu time spent up to now is     2467.3 secs

     Computing kpt #:   765  of  1501
     total cpu time spent up to now is     2470.7 secs

     Computing kpt #:   766  of  1501
     total cpu time spent up to now is     2474.1 secs

     Computing kpt #:   767  of  1501
     total cpu time spent up to now is     2477.5 secs

     Computing kpt #:   768  of  1501
     total cpu time spent up to now is     2480.9 secs

     Computing kpt #:   769  of  1501
     total cpu time spent up to now is     2484.4 secs

     Computing kpt #:   770  of  1501
     total cpu time spent up to now is     2487.7 secs

     Computing kpt #:   771  of  1501
     total cpu time spent up to now is     2491.1 secs

     Computing kpt #:   772  of  1501
     total cpu time spent up to now is     2494.5 secs

     Computing kpt #:   773  of  1501
     total cpu time spent up to now is     2497.9 secs

     Computing kpt #:   774  of  1501
     total cpu time spent up to now is     2501.5 secs

     Computing kpt #:   775  of  1501
     total cpu time spent up to now is     2505.0 secs

     Computing kpt #:   776  of  1501
     total cpu time spent up to now is     2508.5 secs

     Computing kpt #:   777  of  1501
     total cpu time spent up to now is     2511.9 secs

     Computing kpt #:   778  of  1501
     total cpu time spent up to now is     2515.4 secs

     Computing kpt #:   779  of  1501
     total cpu time spent up to now is     2518.8 secs

     Computing kpt #:   780  of  1501
     total cpu time spent up to now is     2522.4 secs

     Computing kpt #:   781  of  1501
     total cpu time spent up to now is     2526.0 secs

     Computing kpt #:   782  of  1501
     total cpu time spent up to now is     2529.6 secs

     Computing kpt #:   783  of  1501
     total cpu time spent up to now is     2533.2 secs

     Computing kpt #:   784  of  1501
     total cpu time spent up to now is     2536.6 secs

     Computing kpt #:   785  of  1501
     total cpu time spent up to now is     2540.1 secs

     Computing kpt #:   786  of  1501
     total cpu time spent up to now is     2543.5 secs

     Computing kpt #:   787  of  1501
     total cpu time spent up to now is     2546.8 secs

     Computing kpt #:   788  of  1501
     total cpu time spent up to now is     2550.3 secs

     Computing kpt #:   789  of  1501
     total cpu time spent up to now is     2553.7 secs

     Computing kpt #:   790  of  1501
     total cpu time spent up to now is     2557.1 secs

     Computing kpt #:   791  of  1501
     total cpu time spent up to now is     2560.5 secs

     Computing kpt #:   792  of  1501
     total cpu time spent up to now is     2563.8 secs

     Computing kpt #:   793  of  1501
     total cpu time spent up to now is     2567.2 secs

     Computing kpt #:   794  of  1501
     total cpu time spent up to now is     2570.5 secs

     Computing kpt #:   795  of  1501
     total cpu time spent up to now is     2573.8 secs

     Computing kpt #:   796  of  1501
     total cpu time spent up to now is     2577.2 secs

     Computing kpt #:   797  of  1501
     total cpu time spent up to now is     2580.6 secs

     Computing kpt #:   798  of  1501
     total cpu time spent up to now is     2584.0 secs

     Computing kpt #:   799  of  1501
     total cpu time spent up to now is     2587.3 secs

     Computing kpt #:   800  of  1501
     total cpu time spent up to now is     2590.6 secs

     Computing kpt #:   801  of  1501
     total cpu time spent up to now is     2593.9 secs

     Computing kpt #:   802  of  1501
     total cpu time spent up to now is     2597.2 secs

     Computing kpt #:   803  of  1501
     total cpu time spent up to now is     2600.6 secs

     Computing kpt #:   804  of  1501
     total cpu time spent up to now is     2603.9 secs

     Computing kpt #:   805  of  1501
     total cpu time spent up to now is     2607.2 secs

     Computing kpt #:   806  of  1501
     total cpu time spent up to now is     2610.5 secs

     Computing kpt #:   807  of  1501
     total cpu time spent up to now is     2613.8 secs

     Computing kpt #:   808  of  1501
     total cpu time spent up to now is     2617.1 secs

     Computing kpt #:   809  of  1501
     total cpu time spent up to now is     2620.3 secs

     Computing kpt #:   810  of  1501
     total cpu time spent up to now is     2623.6 secs

     Computing kpt #:   811  of  1501
     total cpu time spent up to now is     2626.9 secs

     Computing kpt #:   812  of  1501
     total cpu time spent up to now is     2630.2 secs

     Computing kpt #:   813  of  1501
     total cpu time spent up to now is     2633.5 secs

     Computing kpt #:   814  of  1501
     total cpu time spent up to now is     2636.8 secs

     Computing kpt #:   815  of  1501
     total cpu time spent up to now is     2640.0 secs

     Computing kpt #:   816  of  1501
     total cpu time spent up to now is     2643.3 secs

     Computing kpt #:   817  of  1501
     total cpu time spent up to now is     2646.6 secs

     Computing kpt #:   818  of  1501
     total cpu time spent up to now is     2649.9 secs

     Computing kpt #:   819  of  1501
     total cpu time spent up to now is     2653.1 secs

     Computing kpt #:   820  of  1501
     total cpu time spent up to now is     2656.4 secs

     Computing kpt #:   821  of  1501
     total cpu time spent up to now is     2659.7 secs

     Computing kpt #:   822  of  1501
     total cpu time spent up to now is     2662.9 secs

     Computing kpt #:   823  of  1501
     total cpu time spent up to now is     2666.2 secs

     Computing kpt #:   824  of  1501
     total cpu time spent up to now is     2669.4 secs

     Computing kpt #:   825  of  1501
     total cpu time spent up to now is     2672.7 secs

     Computing kpt #:   826  of  1501
     total cpu time spent up to now is     2675.9 secs

     Computing kpt #:   827  of  1501
     total cpu time spent up to now is     2679.2 secs

     Computing kpt #:   828  of  1501
     total cpu time spent up to now is     2682.4 secs

     Computing kpt #:   829  of  1501
     total cpu time spent up to now is     2685.6 secs

     Computing kpt #:   830  of  1501
     total cpu time spent up to now is     2688.9 secs

     Computing kpt #:   831  of  1501
     total cpu time spent up to now is     2692.1 secs

     Computing kpt #:   832  of  1501
     total cpu time spent up to now is     2695.3 secs

     Computing kpt #:   833  of  1501
     total cpu time spent up to now is     2698.5 secs

     Computing kpt #:   834  of  1501
     total cpu time spent up to now is     2701.9 secs

     Computing kpt #:   835  of  1501
     total cpu time spent up to now is     2705.1 secs

     Computing kpt #:   836  of  1501
     total cpu time spent up to now is     2708.4 secs

     Computing kpt #:   837  of  1501
     total cpu time spent up to now is     2711.6 secs

     Computing kpt #:   838  of  1501
     total cpu time spent up to now is     2714.8 secs

     Computing kpt #:   839  of  1501
     total cpu time spent up to now is     2718.1 secs

     Computing kpt #:   840  of  1501
     total cpu time spent up to now is     2721.3 secs

     Computing kpt #:   841  of  1501
     total cpu time spent up to now is     2724.6 secs

     Computing kpt #:   842  of  1501
     total cpu time spent up to now is     2727.9 secs

     Computing kpt #:   843  of  1501
     total cpu time spent up to now is     2731.1 secs

     Computing kpt #:   844  of  1501
     total cpu time spent up to now is     2734.4 secs

     Computing kpt #:   845  of  1501
     total cpu time spent up to now is     2737.5 secs

     Computing kpt #:   846  of  1501
     total cpu time spent up to now is     2740.8 secs

     Computing kpt #:   847  of  1501
     total cpu time spent up to now is     2744.0 secs

     Computing kpt #:   848  of  1501
     total cpu time spent up to now is     2747.3 secs

     Computing kpt #:   849  of  1501
     total cpu time spent up to now is     2750.5 secs

     Computing kpt #:   850  of  1501
     total cpu time spent up to now is     2753.8 secs

     Computing kpt #:   851  of  1501
     total cpu time spent up to now is     2756.9 secs

     Computing kpt #:   852  of  1501
     total cpu time spent up to now is     2760.2 secs

     Computing kpt #:   853  of  1501
     total cpu time spent up to now is     2763.3 secs

     Computing kpt #:   854  of  1501
     total cpu time spent up to now is     2766.5 secs

     Computing kpt #:   855  of  1501
     total cpu time spent up to now is     2769.8 secs

     Computing kpt #:   856  of  1501
     total cpu time spent up to now is     2773.1 secs

     Computing kpt #:   857  of  1501
     total cpu time spent up to now is     2776.3 secs

     Computing kpt #:   858  of  1501
     total cpu time spent up to now is     2779.4 secs

     Computing kpt #:   859  of  1501
     total cpu time spent up to now is     2782.6 secs

     Computing kpt #:   860  of  1501
     total cpu time spent up to now is     2785.8 secs

     Computing kpt #:   861  of  1501
     total cpu time spent up to now is     2789.1 secs

     Computing kpt #:   862  of  1501
     total cpu time spent up to now is     2792.3 secs

     Computing kpt #:   863  of  1501
     total cpu time spent up to now is     2795.5 secs

     Computing kpt #:   864  of  1501
     total cpu time spent up to now is     2798.8 secs

     Computing kpt #:   865  of  1501
     total cpu time spent up to now is     2801.9 secs

     Computing kpt #:   866  of  1501
     total cpu time spent up to now is     2805.1 secs

     Computing kpt #:   867  of  1501
     total cpu time spent up to now is     2808.3 secs

     Computing kpt #:   868  of  1501
     total cpu time spent up to now is     2811.5 secs

     Computing kpt #:   869  of  1501
     total cpu time spent up to now is     2814.8 secs

     Computing kpt #:   870  of  1501
     total cpu time spent up to now is     2818.0 secs

     Computing kpt #:   871  of  1501
     total cpu time spent up to now is     2821.2 secs

     Computing kpt #:   872  of  1501
     total cpu time spent up to now is     2824.4 secs

     Computing kpt #:   873  of  1501
     total cpu time spent up to now is     2827.5 secs

     Computing kpt #:   874  of  1501
     total cpu time spent up to now is     2830.7 secs

     Computing kpt #:   875  of  1501
     total cpu time spent up to now is     2833.8 secs

     Computing kpt #:   876  of  1501
     total cpu time spent up to now is     2837.0 secs

     Computing kpt #:   877  of  1501
     total cpu time spent up to now is     2840.2 secs

     Computing kpt #:   878  of  1501
     total cpu time spent up to now is     2843.4 secs

     Computing kpt #:   879  of  1501
     total cpu time spent up to now is     2846.5 secs

     Computing kpt #:   880  of  1501
     total cpu time spent up to now is     2849.8 secs

     Computing kpt #:   881  of  1501
     total cpu time spent up to now is     2852.9 secs

     Computing kpt #:   882  of  1501
     total cpu time spent up to now is     2856.1 secs

     Computing kpt #:   883  of  1501
     total cpu time spent up to now is     2859.3 secs

     Computing kpt #:   884  of  1501
     total cpu time spent up to now is     2862.4 secs

     Computing kpt #:   885  of  1501
     total cpu time spent up to now is     2865.9 secs

     Computing kpt #:   886  of  1501
     total cpu time spent up to now is     2869.0 secs

     Computing kpt #:   887  of  1501
     total cpu time spent up to now is     2872.2 secs

     Computing kpt #:   888  of  1501
     total cpu time spent up to now is     2875.4 secs

     Computing kpt #:   889  of  1501
     total cpu time spent up to now is     2878.5 secs

     Computing kpt #:   890  of  1501
     total cpu time spent up to now is     2881.7 secs

     Computing kpt #:   891  of  1501
     total cpu time spent up to now is     2884.8 secs

     Computing kpt #:   892  of  1501
     total cpu time spent up to now is     2887.9 secs

     Computing kpt #:   893  of  1501
     total cpu time spent up to now is     2891.1 secs

     Computing kpt #:   894  of  1501
     total cpu time spent up to now is     2894.2 secs

     Computing kpt #:   895  of  1501
     total cpu time spent up to now is     2897.3 secs

     Computing kpt #:   896  of  1501
     total cpu time spent up to now is     2900.5 secs

     Computing kpt #:   897  of  1501
     total cpu time spent up to now is     2903.7 secs

     Computing kpt #:   898  of  1501
     total cpu time spent up to now is     2906.8 secs

     Computing kpt #:   899  of  1501
     total cpu time spent up to now is     2909.9 secs

     Computing kpt #:   900  of  1501
     total cpu time spent up to now is     2913.1 secs

     Computing kpt #:   901  of  1501
     total cpu time spent up to now is     2916.3 secs

     Computing kpt #:   902  of  1501
     total cpu time spent up to now is     2919.3 secs

     Computing kpt #:   903  of  1501
     total cpu time spent up to now is     2922.5 secs

     Computing kpt #:   904  of  1501
     total cpu time spent up to now is     2925.6 secs

     Computing kpt #:   905  of  1501
     total cpu time spent up to now is     2928.6 secs

     Computing kpt #:   906  of  1501
     total cpu time spent up to now is     2931.7 secs

     Computing kpt #:   907  of  1501
     total cpu time spent up to now is     2934.9 secs

     Computing kpt #:   908  of  1501
     total cpu time spent up to now is     2938.0 secs

     Computing kpt #:   909  of  1501
     total cpu time spent up to now is     2941.1 secs

     Computing kpt #:   910  of  1501
     total cpu time spent up to now is     2944.2 secs

     Computing kpt #:   911  of  1501
     total cpu time spent up to now is     2947.3 secs

     Computing kpt #:   912  of  1501
     total cpu time spent up to now is     2950.4 secs

     Computing kpt #:   913  of  1501
     total cpu time spent up to now is     2953.6 secs

     Computing kpt #:   914  of  1501
     total cpu time spent up to now is     2956.6 secs

     Computing kpt #:   915  of  1501
     total cpu time spent up to now is     2959.7 secs

     Computing kpt #:   916  of  1501
     total cpu time spent up to now is     2962.8 secs

     Computing kpt #:   917  of  1501
     total cpu time spent up to now is     2965.9 secs

     Computing kpt #:   918  of  1501
     total cpu time spent up to now is     2969.1 secs

     Computing kpt #:   919  of  1501
     total cpu time spent up to now is     2972.2 secs

     Computing kpt #:   920  of  1501
     total cpu time spent up to now is     2975.3 secs

     Computing kpt #:   921  of  1501
     total cpu time spent up to now is     2978.4 secs

     Computing kpt #:   922  of  1501
     total cpu time spent up to now is     2981.5 secs

     Computing kpt #:   923  of  1501
     total cpu time spent up to now is     2984.6 secs

     Computing kpt #:   924  of  1501
     total cpu time spent up to now is     2987.8 secs

     Computing kpt #:   925  of  1501
     total cpu time spent up to now is     2990.8 secs

     Computing kpt #:   926  of  1501
     total cpu time spent up to now is     2993.9 secs

     Computing kpt #:   927  of  1501
     total cpu time spent up to now is     2997.1 secs

     Computing kpt #:   928  of  1501
     total cpu time spent up to now is     3000.2 secs

     Computing kpt #:   929  of  1501
     total cpu time spent up to now is     3003.3 secs

     Computing kpt #:   930  of  1501
     total cpu time spent up to now is     3006.4 secs

     Computing kpt #:   931  of  1501
     total cpu time spent up to now is     3009.6 secs

     Computing kpt #:   932  of  1501
     total cpu time spent up to now is     3012.7 secs

     Computing kpt #:   933  of  1501
     total cpu time spent up to now is     3015.7 secs

     Computing kpt #:   934  of  1501
     total cpu time spent up to now is     3018.8 secs

     Computing kpt #:   935  of  1501
     total cpu time spent up to now is     3021.9 secs

     Computing kpt #:   936  of  1501
     total cpu time spent up to now is     3025.0 secs

     Computing kpt #:   937  of  1501
     total cpu time spent up to now is     3028.1 secs

     Computing kpt #:   938  of  1501
     total cpu time spent up to now is     3031.3 secs

     Computing kpt #:   939  of  1501
     total cpu time spent up to now is     3034.4 secs

     Computing kpt #:   940  of  1501
     total cpu time spent up to now is     3037.5 secs

     Computing kpt #:   941  of  1501
     total cpu time spent up to now is     3040.7 secs

     Computing kpt #:   942  of  1501
     total cpu time spent up to now is     3043.7 secs

     Computing kpt #:   943  of  1501
     total cpu time spent up to now is     3046.8 secs

     Computing kpt #:   944  of  1501
     total cpu time spent up to now is     3049.9 secs

     Computing kpt #:   945  of  1501
     total cpu time spent up to now is     3053.1 secs

     Computing kpt #:   946  of  1501
     total cpu time spent up to now is     3056.2 secs

     Computing kpt #:   947  of  1501
     total cpu time spent up to now is     3059.3 secs

     Computing kpt #:   948  of  1501
     total cpu time spent up to now is     3062.3 secs

     Computing kpt #:   949  of  1501
     total cpu time spent up to now is     3065.4 secs

     Computing kpt #:   950  of  1501
     total cpu time spent up to now is     3068.5 secs

     Computing kpt #:   951  of  1501
     total cpu time spent up to now is     3071.6 secs

     Computing kpt #:   952  of  1501
     total cpu time spent up to now is     3074.7 secs

     Computing kpt #:   953  of  1501
     total cpu time spent up to now is     3077.7 secs

     Computing kpt #:   954  of  1501
     total cpu time spent up to now is     3080.8 secs

     Computing kpt #:   955  of  1501
     total cpu time spent up to now is     3083.9 secs

     Computing kpt #:   956  of  1501
     total cpu time spent up to now is     3087.0 secs

     Computing kpt #:   957  of  1501
     total cpu time spent up to now is     3090.1 secs

     Computing kpt #:   958  of  1501
     total cpu time spent up to now is     3093.2 secs

     Computing kpt #:   959  of  1501
     total cpu time spent up to now is     3096.3 secs

     Computing kpt #:   960  of  1501
     total cpu time spent up to now is     3099.4 secs

     Computing kpt #:   961  of  1501
     total cpu time spent up to now is     3102.5 secs

     Computing kpt #:   962  of  1501
     total cpu time spent up to now is     3105.6 secs

     Computing kpt #:   963  of  1501
     total cpu time spent up to now is     3108.6 secs

     Computing kpt #:   964  of  1501
     total cpu time spent up to now is     3111.7 secs

     Computing kpt #:   965  of  1501
     total cpu time spent up to now is     3114.8 secs

     Computing kpt #:   966  of  1501
     total cpu time spent up to now is     3117.9 secs

     Computing kpt #:   967  of  1501
     total cpu time spent up to now is     3121.0 secs

     Computing kpt #:   968  of  1501
     total cpu time spent up to now is     3124.0 secs

     Computing kpt #:   969  of  1501
     total cpu time spent up to now is     3127.1 secs

     Computing kpt #:   970  of  1501
     total cpu time spent up to now is     3130.3 secs

     Computing kpt #:   971  of  1501
     total cpu time spent up to now is     3133.4 secs

     Computing kpt #:   972  of  1501
     total cpu time spent up to now is     3136.5 secs

     Computing kpt #:   973  of  1501
     total cpu time spent up to now is     3139.6 secs

     Computing kpt #:   974  of  1501
     total cpu time spent up to now is     3142.7 secs

     Computing kpt #:   975  of  1501
     total cpu time spent up to now is     3145.7 secs

     Computing kpt #:   976  of  1501
     total cpu time spent up to now is     3148.8 secs

     Computing kpt #:   977  of  1501
     total cpu time spent up to now is     3151.9 secs

     Computing kpt #:   978  of  1501
     total cpu time spent up to now is     3155.0 secs

     Computing kpt #:   979  of  1501
     total cpu time spent up to now is     3158.1 secs

     Computing kpt #:   980  of  1501
     total cpu time spent up to now is     3161.2 secs

     Computing kpt #:   981  of  1501
     total cpu time spent up to now is     3164.3 secs

     Computing kpt #:   982  of  1501
     total cpu time spent up to now is     3167.4 secs

     Computing kpt #:   983  of  1501
     total cpu time spent up to now is     3170.5 secs

     Computing kpt #:   984  of  1501
     total cpu time spent up to now is     3173.6 secs

     Computing kpt #:   985  of  1501
     total cpu time spent up to now is     3176.7 secs

     Computing kpt #:   986  of  1501
     total cpu time spent up to now is     3179.9 secs

     Computing kpt #:   987  of  1501
     total cpu time spent up to now is     3183.0 secs

     Computing kpt #:   988  of  1501
     total cpu time spent up to now is     3186.0 secs

     Computing kpt #:   989  of  1501
     total cpu time spent up to now is     3189.1 secs

     Computing kpt #:   990  of  1501
     total cpu time spent up to now is     3192.2 secs

     Computing kpt #:   991  of  1501
     total cpu time spent up to now is     3195.3 secs

     Computing kpt #:   992  of  1501
     total cpu time spent up to now is     3198.4 secs

     Computing kpt #:   993  of  1501
     total cpu time spent up to now is     3201.5 secs

     Computing kpt #:   994  of  1501
     total cpu time spent up to now is     3204.5 secs

     Computing kpt #:   995  of  1501
     total cpu time spent up to now is     3207.6 secs

     Computing kpt #:   996  of  1501
     total cpu time spent up to now is     3210.7 secs

     Computing kpt #:   997  of  1501
     total cpu time spent up to now is     3213.8 secs

     Computing kpt #:   998  of  1501
     total cpu time spent up to now is     3216.9 secs

     Computing kpt #:   999  of  1501
     total cpu time spent up to now is     3220.0 secs

     Computing kpt #:  1000  of  1501
     total cpu time spent up to now is     3223.1 secs

     Computing kpt #:  1001  of  1501
     total cpu time spent up to now is     3226.1 secs

     Computing kpt #:  1002  of  1501
     total cpu time spent up to now is     3229.2 secs

     Computing kpt #:  1003  of  1501
     total cpu time spent up to now is     3232.4 secs

     Computing kpt #:  1004  of  1501
     total cpu time spent up to now is     3235.5 secs

     Computing kpt #:  1005  of  1501
     total cpu time spent up to now is     3238.6 secs

     Computing kpt #:  1006  of  1501
     total cpu time spent up to now is     3241.7 secs

     Computing kpt #:  1007  of  1501
     total cpu time spent up to now is     3244.9 secs

     Computing kpt #:  1008  of  1501
     total cpu time spent up to now is     3248.0 secs

     Computing kpt #:  1009  of  1501
     total cpu time spent up to now is     3251.3 secs

     Computing kpt #:  1010  of  1501
     total cpu time spent up to now is     3254.4 secs

     Computing kpt #:  1011  of  1501
     total cpu time spent up to now is     3257.6 secs

     Computing kpt #:  1012  of  1501
     total cpu time spent up to now is     3260.7 secs

     Computing kpt #:  1013  of  1501
     total cpu time spent up to now is     3264.0 secs

     Computing kpt #:  1014  of  1501
     total cpu time spent up to now is     3267.4 secs

     Computing kpt #:  1015  of  1501
     total cpu time spent up to now is     3270.8 secs

     Computing kpt #:  1016  of  1501
     total cpu time spent up to now is     3274.2 secs

     Computing kpt #:  1017  of  1501
     total cpu time spent up to now is     3277.6 secs

     Computing kpt #:  1018  of  1501
     total cpu time spent up to now is     3280.8 secs

     Computing kpt #:  1019  of  1501
     total cpu time spent up to now is     3284.2 secs

     Computing kpt #:  1020  of  1501
     total cpu time spent up to now is     3287.4 secs

     Computing kpt #:  1021  of  1501
     total cpu time spent up to now is     3290.6 secs

     Computing kpt #:  1022  of  1501
     total cpu time spent up to now is     3293.8 secs

     Computing kpt #:  1023  of  1501
     total cpu time spent up to now is     3296.9 secs

     Computing kpt #:  1024  of  1501
     total cpu time spent up to now is     3300.0 secs

     Computing kpt #:  1025  of  1501
     total cpu time spent up to now is     3303.1 secs

     Computing kpt #:  1026  of  1501
     total cpu time spent up to now is     3306.2 secs

     Computing kpt #:  1027  of  1501
     total cpu time spent up to now is     3309.3 secs

     Computing kpt #:  1028  of  1501
     total cpu time spent up to now is     3312.4 secs

     Computing kpt #:  1029  of  1501
     total cpu time spent up to now is     3315.4 secs

     Computing kpt #:  1030  of  1501
     total cpu time spent up to now is     3318.4 secs

     Computing kpt #:  1031  of  1501
     total cpu time spent up to now is     3321.4 secs

     Computing kpt #:  1032  of  1501
     total cpu time spent up to now is     3324.4 secs

     Computing kpt #:  1033  of  1501
     total cpu time spent up to now is     3327.4 secs

     Computing kpt #:  1034  of  1501
     total cpu time spent up to now is     3330.4 secs

     Computing kpt #:  1035  of  1501
     total cpu time spent up to now is     3333.4 secs

     Computing kpt #:  1036  of  1501
     total cpu time spent up to now is     3336.3 secs

     Computing kpt #:  1037  of  1501
     total cpu time spent up to now is     3339.3 secs

     Computing kpt #:  1038  of  1501
     total cpu time spent up to now is     3342.1 secs

     Computing kpt #:  1039  of  1501
     total cpu time spent up to now is     3345.0 secs

     Computing kpt #:  1040  of  1501
     total cpu time spent up to now is     3347.9 secs

     Computing kpt #:  1041  of  1501
     total cpu time spent up to now is     3350.8 secs

     Computing kpt #:  1042  of  1501
     total cpu time spent up to now is     3353.7 secs

     Computing kpt #:  1043  of  1501
     total cpu time spent up to now is     3356.6 secs

     Computing kpt #:  1044  of  1501
     total cpu time spent up to now is     3359.5 secs

     Computing kpt #:  1045  of  1501
     total cpu time spent up to now is     3362.4 secs

     Computing kpt #:  1046  of  1501
     total cpu time spent up to now is     3365.3 secs

     Computing kpt #:  1047  of  1501
     total cpu time spent up to now is     3368.1 secs

     Computing kpt #:  1048  of  1501
     total cpu time spent up to now is     3370.9 secs

     Computing kpt #:  1049  of  1501
     total cpu time spent up to now is     3373.8 secs

     Computing kpt #:  1050  of  1501
     total cpu time spent up to now is     3376.6 secs

     Computing kpt #:  1051  of  1501
     total cpu time spent up to now is     3379.4 secs

     Computing kpt #:  1052  of  1501
     total cpu time spent up to now is     3382.2 secs

     Computing kpt #:  1053  of  1501
     total cpu time spent up to now is     3385.0 secs

     Computing kpt #:  1054  of  1501
     total cpu time spent up to now is     3387.7 secs

     Computing kpt #:  1055  of  1501
     total cpu time spent up to now is     3390.6 secs

     Computing kpt #:  1056  of  1501
     total cpu time spent up to now is     3393.4 secs

     Computing kpt #:  1057  of  1501
     total cpu time spent up to now is     3396.2 secs

     Computing kpt #:  1058  of  1501
     total cpu time spent up to now is     3399.0 secs

     Computing kpt #:  1059  of  1501
     total cpu time spent up to now is     3401.7 secs

     Computing kpt #:  1060  of  1501
     total cpu time spent up to now is     3404.6 secs

     Computing kpt #:  1061  of  1501
     total cpu time spent up to now is     3407.3 secs

     Computing kpt #:  1062  of  1501
     total cpu time spent up to now is     3410.1 secs

     Computing kpt #:  1063  of  1501
     total cpu time spent up to now is     3412.9 secs

     Computing kpt #:  1064  of  1501
     total cpu time spent up to now is     3415.7 secs

     Computing kpt #:  1065  of  1501
     total cpu time spent up to now is     3418.5 secs

     Computing kpt #:  1066  of  1501
     total cpu time spent up to now is     3421.2 secs

     Computing kpt #:  1067  of  1501
     total cpu time spent up to now is     3424.0 secs

     Computing kpt #:  1068  of  1501
     total cpu time spent up to now is     3426.7 secs

     Computing kpt #:  1069  of  1501
     total cpu time spent up to now is     3429.5 secs

     Computing kpt #:  1070  of  1501
     total cpu time spent up to now is     3432.3 secs

     Computing kpt #:  1071  of  1501
     total cpu time spent up to now is     3435.0 secs

     Computing kpt #:  1072  of  1501
     total cpu time spent up to now is     3437.7 secs

     Computing kpt #:  1073  of  1501
     total cpu time spent up to now is     3440.5 secs

     Computing kpt #:  1074  of  1501
     total cpu time spent up to now is     3443.3 secs

     Computing kpt #:  1075  of  1501
     total cpu time spent up to now is     3446.1 secs

     Computing kpt #:  1076  of  1501
     total cpu time spent up to now is     3448.9 secs

     Computing kpt #:  1077  of  1501
     total cpu time spent up to now is     3451.6 secs

     Computing kpt #:  1078  of  1501
     total cpu time spent up to now is     3454.4 secs

     Computing kpt #:  1079  of  1501
     total cpu time spent up to now is     3457.1 secs

     Computing kpt #:  1080  of  1501
     total cpu time spent up to now is     3459.9 secs

     Computing kpt #:  1081  of  1501
     total cpu time spent up to now is     3462.6 secs

     Computing kpt #:  1082  of  1501
     total cpu time spent up to now is     3465.3 secs

     Computing kpt #:  1083  of  1501
     total cpu time spent up to now is     3468.1 secs

     Computing kpt #:  1084  of  1501
     total cpu time spent up to now is     3470.8 secs

     Computing kpt #:  1085  of  1501
     total cpu time spent up to now is     3473.6 secs

     Computing kpt #:  1086  of  1501
     total cpu time spent up to now is     3476.4 secs

     Computing kpt #:  1087  of  1501
     total cpu time spent up to now is     3479.2 secs

     Computing kpt #:  1088  of  1501
     total cpu time spent up to now is     3481.9 secs

     Computing kpt #:  1089  of  1501
     total cpu time spent up to now is     3484.8 secs

     Computing kpt #:  1090  of  1501
     total cpu time spent up to now is     3487.5 secs

     Computing kpt #:  1091  of  1501
     total cpu time spent up to now is     3490.4 secs

     Computing kpt #:  1092  of  1501
     total cpu time spent up to now is     3493.1 secs

     Computing kpt #:  1093  of  1501
     total cpu time spent up to now is     3495.8 secs

     Computing kpt #:  1094  of  1501
     total cpu time spent up to now is     3498.6 secs

     Computing kpt #:  1095  of  1501
     total cpu time spent up to now is     3501.3 secs

     Computing kpt #:  1096  of  1501
     total cpu time spent up to now is     3504.1 secs

     Computing kpt #:  1097  of  1501
     total cpu time spent up to now is     3506.8 secs

     Computing kpt #:  1098  of  1501
     total cpu time spent up to now is     3509.6 secs

     Computing kpt #:  1099  of  1501
     total cpu time spent up to now is     3512.2 secs

     Computing kpt #:  1100  of  1501
     total cpu time spent up to now is     3515.0 secs

     Computing kpt #:  1101  of  1501
     total cpu time spent up to now is     3517.8 secs

     Computing kpt #:  1102  of  1501
     total cpu time spent up to now is     3520.5 secs

     Computing kpt #:  1103  of  1501
     total cpu time spent up to now is     3523.2 secs

     Computing kpt #:  1104  of  1501
     total cpu time spent up to now is     3525.9 secs

     Computing kpt #:  1105  of  1501
     total cpu time spent up to now is     3528.6 secs

     Computing kpt #:  1106  of  1501
     total cpu time spent up to now is     3531.2 secs

     Computing kpt #:  1107  of  1501
     total cpu time spent up to now is     3533.9 secs

     Computing kpt #:  1108  of  1501
     total cpu time spent up to now is     3536.7 secs

     Computing kpt #:  1109  of  1501
     total cpu time spent up to now is     3539.5 secs

     Computing kpt #:  1110  of  1501
     total cpu time spent up to now is     3542.3 secs

     Computing kpt #:  1111  of  1501
     total cpu time spent up to now is     3545.1 secs

     Computing kpt #:  1112  of  1501
     total cpu time spent up to now is     3547.8 secs

     Computing kpt #:  1113  of  1501
     total cpu time spent up to now is     3550.6 secs

     Computing kpt #:  1114  of  1501
     total cpu time spent up to now is     3553.4 secs

     Computing kpt #:  1115  of  1501
     total cpu time spent up to now is     3556.1 secs

     Computing kpt #:  1116  of  1501
     total cpu time spent up to now is     3558.9 secs

     Computing kpt #:  1117  of  1501
     total cpu time spent up to now is     3561.6 secs

     Computing kpt #:  1118  of  1501
     total cpu time spent up to now is     3564.4 secs

     Computing kpt #:  1119  of  1501
     total cpu time spent up to now is     3567.1 secs

     Computing kpt #:  1120  of  1501
     total cpu time spent up to now is     3569.8 secs

     Computing kpt #:  1121  of  1501
     total cpu time spent up to now is     3572.6 secs

     Computing kpt #:  1122  of  1501
     total cpu time spent up to now is     3575.4 secs

     Computing kpt #:  1123  of  1501
     total cpu time spent up to now is     3578.1 secs

     Computing kpt #:  1124  of  1501
     total cpu time spent up to now is     3580.9 secs

     Computing kpt #:  1125  of  1501
     total cpu time spent up to now is     3583.6 secs

     Computing kpt #:  1126  of  1501
     total cpu time spent up to now is     3586.3 secs

     Computing kpt #:  1127  of  1501
     total cpu time spent up to now is     3589.0 secs

     Computing kpt #:  1128  of  1501
     total cpu time spent up to now is     3591.8 secs

     Computing kpt #:  1129  of  1501
     total cpu time spent up to now is     3594.5 secs

     Computing kpt #:  1130  of  1501
     total cpu time spent up to now is     3597.2 secs

     Computing kpt #:  1131  of  1501
     total cpu time spent up to now is     3600.0 secs

     Computing kpt #:  1132  of  1501
     total cpu time spent up to now is     3602.8 secs

     Computing kpt #:  1133  of  1501
     total cpu time spent up to now is     3605.5 secs

     Computing kpt #:  1134  of  1501
     total cpu time spent up to now is     3608.2 secs

     Computing kpt #:  1135  of  1501
     total cpu time spent up to now is     3611.0 secs

     Computing kpt #:  1136  of  1501
     total cpu time spent up to now is     3613.8 secs

     Computing kpt #:  1137  of  1501
     total cpu time spent up to now is     3616.6 secs

     Computing kpt #:  1138  of  1501
     total cpu time spent up to now is     3619.4 secs

     Computing kpt #:  1139  of  1501
     total cpu time spent up to now is     3622.2 secs

     Computing kpt #:  1140  of  1501
     total cpu time spent up to now is     3624.9 secs

     Computing kpt #:  1141  of  1501
     total cpu time spent up to now is     3627.7 secs

     Computing kpt #:  1142  of  1501
     total cpu time spent up to now is     3630.4 secs

     Computing kpt #:  1143  of  1501
     total cpu time spent up to now is     3633.2 secs

     Computing kpt #:  1144  of  1501
     total cpu time spent up to now is     3635.9 secs

     Computing kpt #:  1145  of  1501
     total cpu time spent up to now is     3638.8 secs

     Computing kpt #:  1146  of  1501
     total cpu time spent up to now is     3641.6 secs

     Computing kpt #:  1147  of  1501
     total cpu time spent up to now is     3644.3 secs

     Computing kpt #:  1148  of  1501
     total cpu time spent up to now is     3647.1 secs

     Computing kpt #:  1149  of  1501
     total cpu time spent up to now is     3649.9 secs

     Computing kpt #:  1150  of  1501
     total cpu time spent up to now is     3652.7 secs

     Computing kpt #:  1151  of  1501
     total cpu time spent up to now is     3655.4 secs

     Computing kpt #:  1152  of  1501
     total cpu time spent up to now is     3658.1 secs

     Computing kpt #:  1153  of  1501
     total cpu time spent up to now is     3661.0 secs

     Computing kpt #:  1154  of  1501
     total cpu time spent up to now is     3663.7 secs

     Computing kpt #:  1155  of  1501
     total cpu time spent up to now is     3666.6 secs

     Computing kpt #:  1156  of  1501
     total cpu time spent up to now is     3669.4 secs

     Computing kpt #:  1157  of  1501
     total cpu time spent up to now is     3672.2 secs

     Computing kpt #:  1158  of  1501
     total cpu time spent up to now is     3675.0 secs

     Computing kpt #:  1159  of  1501
     total cpu time spent up to now is     3677.8 secs

     Computing kpt #:  1160  of  1501
     total cpu time spent up to now is     3680.5 secs

     Computing kpt #:  1161  of  1501
     total cpu time spent up to now is     3683.4 secs

     Computing kpt #:  1162  of  1501
     total cpu time spent up to now is     3686.3 secs

     Computing kpt #:  1163  of  1501
     total cpu time spent up to now is     3689.2 secs

     Computing kpt #:  1164  of  1501
     total cpu time spent up to now is     3692.0 secs

     Computing kpt #:  1165  of  1501
     total cpu time spent up to now is     3694.9 secs

     Computing kpt #:  1166  of  1501
     total cpu time spent up to now is     3697.7 secs

     Computing kpt #:  1167  of  1501
     total cpu time spent up to now is     3700.9 secs

     Computing kpt #:  1168  of  1501
     total cpu time spent up to now is     3703.9 secs

     Computing kpt #:  1169  of  1501
     total cpu time spent up to now is     3706.8 secs

     Computing kpt #:  1170  of  1501
     total cpu time spent up to now is     3709.8 secs

     Computing kpt #:  1171  of  1501
     total cpu time spent up to now is     3712.7 secs

     Computing kpt #:  1172  of  1501
     total cpu time spent up to now is     3715.4 secs

     Computing kpt #:  1173  of  1501
     total cpu time spent up to now is     3718.3 secs

     Computing kpt #:  1174  of  1501
     total cpu time spent up to now is     3721.2 secs

     Computing kpt #:  1175  of  1501
     total cpu time spent up to now is     3724.1 secs

     Computing kpt #:  1176  of  1501
     total cpu time spent up to now is     3727.0 secs

     Computing kpt #:  1177  of  1501
     total cpu time spent up to now is     3729.9 secs

     Computing kpt #:  1178  of  1501
     total cpu time spent up to now is     3732.7 secs

     Computing kpt #:  1179  of  1501
     total cpu time spent up to now is     3735.5 secs

     Computing kpt #:  1180  of  1501
     total cpu time spent up to now is     3738.5 secs

     Computing kpt #:  1181  of  1501
     total cpu time spent up to now is     3741.4 secs

     Computing kpt #:  1182  of  1501
     total cpu time spent up to now is     3744.3 secs

     Computing kpt #:  1183  of  1501
     total cpu time spent up to now is     3747.2 secs

     Computing kpt #:  1184  of  1501
     total cpu time spent up to now is     3750.2 secs

     Computing kpt #:  1185  of  1501
     total cpu time spent up to now is     3753.0 secs

     Computing kpt #:  1186  of  1501
     total cpu time spent up to now is     3755.9 secs

     Computing kpt #:  1187  of  1501
     total cpu time spent up to now is     3758.9 secs

     Computing kpt #:  1188  of  1501
     total cpu time spent up to now is     3761.7 secs

     Computing kpt #:  1189  of  1501
     total cpu time spent up to now is     3764.6 secs

     Computing kpt #:  1190  of  1501
     total cpu time spent up to now is     3767.5 secs

     Computing kpt #:  1191  of  1501
     total cpu time spent up to now is     3770.4 secs

     Computing kpt #:  1192  of  1501
     total cpu time spent up to now is     3773.2 secs

     Computing kpt #:  1193  of  1501
     total cpu time spent up to now is     3776.0 secs

     Computing kpt #:  1194  of  1501
     total cpu time spent up to now is     3778.9 secs

     Computing kpt #:  1195  of  1501
     total cpu time spent up to now is     3781.8 secs

     Computing kpt #:  1196  of  1501
     total cpu time spent up to now is     3784.8 secs

     Computing kpt #:  1197  of  1501
     total cpu time spent up to now is     3787.7 secs

     Computing kpt #:  1198  of  1501
     total cpu time spent up to now is     3790.5 secs

     Computing kpt #:  1199  of  1501
     total cpu time spent up to now is     3793.5 secs

     Computing kpt #:  1200  of  1501
     total cpu time spent up to now is     3796.5 secs

     Computing kpt #:  1201  of  1501
     total cpu time spent up to now is     3799.4 secs

     Computing kpt #:  1202  of  1501
     total cpu time spent up to now is     3802.4 secs

     Computing kpt #:  1203  of  1501
     total cpu time spent up to now is     3805.3 secs

     Computing kpt #:  1204  of  1501
     total cpu time spent up to now is     3808.3 secs

     Computing kpt #:  1205  of  1501
     total cpu time spent up to now is     3811.3 secs

     Computing kpt #:  1206  of  1501
     total cpu time spent up to now is     3814.4 secs

     Computing kpt #:  1207  of  1501
     total cpu time spent up to now is     3817.4 secs

     Computing kpt #:  1208  of  1501
     total cpu time spent up to now is     3820.3 secs

     Computing kpt #:  1209  of  1501
     total cpu time spent up to now is     3823.4 secs

     Computing kpt #:  1210  of  1501
     total cpu time spent up to now is     3826.3 secs

     Computing kpt #:  1211  of  1501
     total cpu time spent up to now is     3829.3 secs

     Computing kpt #:  1212  of  1501
     total cpu time spent up to now is     3832.5 secs

     Computing kpt #:  1213  of  1501
     total cpu time spent up to now is     3835.5 secs

     Computing kpt #:  1214  of  1501
     total cpu time spent up to now is     3838.5 secs

     Computing kpt #:  1215  of  1501
     total cpu time spent up to now is     3841.6 secs

     Computing kpt #:  1216  of  1501
     total cpu time spent up to now is     3844.6 secs

     Computing kpt #:  1217  of  1501
     total cpu time spent up to now is     3847.6 secs

     Computing kpt #:  1218  of  1501
     total cpu time spent up to now is     3850.6 secs

     Computing kpt #:  1219  of  1501
     total cpu time spent up to now is     3853.7 secs

     Computing kpt #:  1220  of  1501
     total cpu time spent up to now is     3856.7 secs

     Computing kpt #:  1221  of  1501
     total cpu time spent up to now is     3859.9 secs

     Computing kpt #:  1222  of  1501
     total cpu time spent up to now is     3863.0 secs

     Computing kpt #:  1223  of  1501
     total cpu time spent up to now is     3866.0 secs

     Computing kpt #:  1224  of  1501
     total cpu time spent up to now is     3869.0 secs

     Computing kpt #:  1225  of  1501
     total cpu time spent up to now is     3872.1 secs

     Computing kpt #:  1226  of  1501
     total cpu time spent up to now is     3875.2 secs

     Computing kpt #:  1227  of  1501
     total cpu time spent up to now is     3878.4 secs

     Computing kpt #:  1228  of  1501
     total cpu time spent up to now is     3881.5 secs

     Computing kpt #:  1229  of  1501
     total cpu time spent up to now is     3884.6 secs

     Computing kpt #:  1230  of  1501
     total cpu time spent up to now is     3888.0 secs

     Computing kpt #:  1231  of  1501
     total cpu time spent up to now is     3891.3 secs

     Computing kpt #:  1232  of  1501
     total cpu time spent up to now is     3894.5 secs

     Computing kpt #:  1233  of  1501
     total cpu time spent up to now is     3897.7 secs

     Computing kpt #:  1234  of  1501
     total cpu time spent up to now is     3900.8 secs

     Computing kpt #:  1235  of  1501
     total cpu time spent up to now is     3903.9 secs

     Computing kpt #:  1236  of  1501
     total cpu time spent up to now is     3907.2 secs

     Computing kpt #:  1237  of  1501
     total cpu time spent up to now is     3910.3 secs

     Computing kpt #:  1238  of  1501
     total cpu time spent up to now is     3913.6 secs

     Computing kpt #:  1239  of  1501
     total cpu time spent up to now is     3916.7 secs

     Computing kpt #:  1240  of  1501
     total cpu time spent up to now is     3919.8 secs

     Computing kpt #:  1241  of  1501
     total cpu time spent up to now is     3923.0 secs

     Computing kpt #:  1242  of  1501
     total cpu time spent up to now is     3926.2 secs

     Computing kpt #:  1243  of  1501
     total cpu time spent up to now is     3929.3 secs

     Computing kpt #:  1244  of  1501
     total cpu time spent up to now is     3932.5 secs

     Computing kpt #:  1245  of  1501
     total cpu time spent up to now is     3935.7 secs

     Computing kpt #:  1246  of  1501
     total cpu time spent up to now is     3938.9 secs

     Computing kpt #:  1247  of  1501
     total cpu time spent up to now is     3942.1 secs

     Computing kpt #:  1248  of  1501
     total cpu time spent up to now is     3945.3 secs

     Computing kpt #:  1249  of  1501
     total cpu time spent up to now is     3948.5 secs

     Computing kpt #:  1250  of  1501
     total cpu time spent up to now is     3951.7 secs

     Computing kpt #:  1251  of  1501
     total cpu time spent up to now is     3955.0 secs

     Computing kpt #:  1252  of  1501
     total cpu time spent up to now is     3958.2 secs

     Computing kpt #:  1253  of  1501
     total cpu time spent up to now is     3961.3 secs

     Computing kpt #:  1254  of  1501
     total cpu time spent up to now is     3964.5 secs

     Computing kpt #:  1255  of  1501
     total cpu time spent up to now is     3967.7 secs

     Computing kpt #:  1256  of  1501
     total cpu time spent up to now is     3970.9 secs

     Computing kpt #:  1257  of  1501
     total cpu time spent up to now is     3974.1 secs

     Computing kpt #:  1258  of  1501
     total cpu time spent up to now is     3977.3 secs

     Computing kpt #:  1259  of  1501
     total cpu time spent up to now is     3980.5 secs

     Computing kpt #:  1260  of  1501
     total cpu time spent up to now is     3983.7 secs

     Computing kpt #:  1261  of  1501
     total cpu time spent up to now is     3986.9 secs

     Computing kpt #:  1262  of  1501
     total cpu time spent up to now is     3990.1 secs

     Computing kpt #:  1263  of  1501
     total cpu time spent up to now is     3993.3 secs

     Computing kpt #:  1264  of  1501
     total cpu time spent up to now is     3996.5 secs

     Computing kpt #:  1265  of  1501
     total cpu time spent up to now is     3999.7 secs

     Computing kpt #:  1266  of  1501
     total cpu time spent up to now is     4003.0 secs

     Computing kpt #:  1267  of  1501
     total cpu time spent up to now is     4006.2 secs

     Computing kpt #:  1268  of  1501
     total cpu time spent up to now is     4009.4 secs

     Computing kpt #:  1269  of  1501
     total cpu time spent up to now is     4012.6 secs

     Computing kpt #:  1270  of  1501
     total cpu time spent up to now is     4016.0 secs

     Computing kpt #:  1271  of  1501
     total cpu time spent up to now is     4019.2 secs

     Computing kpt #:  1272  of  1501
     total cpu time spent up to now is     4022.4 secs

     Computing kpt #:  1273  of  1501
     total cpu time spent up to now is     4025.6 secs

     Computing kpt #:  1274  of  1501
     total cpu time spent up to now is     4028.9 secs

     Computing kpt #:  1275  of  1501
     total cpu time spent up to now is     4032.1 secs

     Computing kpt #:  1276  of  1501
     total cpu time spent up to now is     4035.3 secs

     Computing kpt #:  1277  of  1501
     total cpu time spent up to now is     4038.6 secs

     Computing kpt #:  1278  of  1501
     total cpu time spent up to now is     4041.8 secs

     Computing kpt #:  1279  of  1501
     total cpu time spent up to now is     4045.2 secs

     Computing kpt #:  1280  of  1501
     total cpu time spent up to now is     4048.4 secs

     Computing kpt #:  1281  of  1501
     total cpu time spent up to now is     4051.8 secs

     Computing kpt #:  1282  of  1501
     total cpu time spent up to now is     4055.1 secs

     Computing kpt #:  1283  of  1501
     total cpu time spent up to now is     4058.5 secs

     Computing kpt #:  1284  of  1501
     total cpu time spent up to now is     4061.8 secs

     Computing kpt #:  1285  of  1501
     total cpu time spent up to now is     4065.1 secs

     Computing kpt #:  1286  of  1501
     total cpu time spent up to now is     4068.3 secs

     Computing kpt #:  1287  of  1501
     total cpu time spent up to now is     4072.4 secs

     Computing kpt #:  1288  of  1501
     total cpu time spent up to now is     4075.9 secs

     Computing kpt #:  1289  of  1501
     total cpu time spent up to now is     4079.3 secs

     Computing kpt #:  1290  of  1501
     total cpu time spent up to now is     4082.6 secs

     Computing kpt #:  1291  of  1501
     total cpu time spent up to now is     4086.0 secs

     Computing kpt #:  1292  of  1501
     total cpu time spent up to now is     4089.5 secs

     Computing kpt #:  1293  of  1501
     total cpu time spent up to now is     4092.8 secs

     Computing kpt #:  1294  of  1501
     total cpu time spent up to now is     4096.8 secs

     Computing kpt #:  1295  of  1501
     total cpu time spent up to now is     4100.3 secs

     Computing kpt #:  1296  of  1501
     total cpu time spent up to now is     4103.8 secs

     Computing kpt #:  1297  of  1501
     total cpu time spent up to now is     4107.2 secs

     Computing kpt #:  1298  of  1501
     total cpu time spent up to now is     4110.7 secs

     Computing kpt #:  1299  of  1501
     total cpu time spent up to now is     4114.2 secs

     Computing kpt #:  1300  of  1501
     total cpu time spent up to now is     4117.6 secs

     Computing kpt #:  1301  of  1501
     total cpu time spent up to now is     4121.0 secs

     Computing kpt #:  1302  of  1501
     total cpu time spent up to now is     4124.4 secs

     Computing kpt #:  1303  of  1501
     total cpu time spent up to now is     4127.8 secs

     Computing kpt #:  1304  of  1501
     total cpu time spent up to now is     4131.1 secs

     Computing kpt #:  1305  of  1501
     total cpu time spent up to now is     4134.2 secs

     Computing kpt #:  1306  of  1501
     total cpu time spent up to now is     4137.4 secs

     Computing kpt #:  1307  of  1501
     total cpu time spent up to now is     4140.8 secs

     Computing kpt #:  1308  of  1501
     total cpu time spent up to now is     4144.0 secs

     Computing kpt #:  1309  of  1501
     total cpu time spent up to now is     4147.3 secs

     Computing kpt #:  1310  of  1501
     total cpu time spent up to now is     4150.7 secs

     Computing kpt #:  1311  of  1501
     total cpu time spent up to now is     4153.9 secs

     Computing kpt #:  1312  of  1501
     total cpu time spent up to now is     4157.1 secs

     Computing kpt #:  1313  of  1501
     total cpu time spent up to now is     4160.3 secs

     Computing kpt #:  1314  of  1501
     total cpu time spent up to now is     4163.5 secs

     Computing kpt #:  1315  of  1501
     total cpu time spent up to now is     4166.8 secs

     Computing kpt #:  1316  of  1501
     total cpu time spent up to now is     4170.2 secs

     Computing kpt #:  1317  of  1501
     total cpu time spent up to now is     4173.3 secs

     Computing kpt #:  1318  of  1501
     total cpu time spent up to now is     4176.5 secs

     Computing kpt #:  1319  of  1501
     total cpu time spent up to now is     4179.6 secs

     Computing kpt #:  1320  of  1501
     total cpu time spent up to now is     4182.7 secs

     Computing kpt #:  1321  of  1501
     total cpu time spent up to now is     4185.9 secs

     Computing kpt #:  1322  of  1501
     total cpu time spent up to now is     4189.2 secs

     Computing kpt #:  1323  of  1501
     total cpu time spent up to now is     4192.5 secs

     Computing kpt #:  1324  of  1501
     total cpu time spent up to now is     4195.7 secs

     Computing kpt #:  1325  of  1501
     total cpu time spent up to now is     4198.7 secs

     Computing kpt #:  1326  of  1501
     total cpu time spent up to now is     4201.6 secs

     Computing kpt #:  1327  of  1501
     total cpu time spent up to now is     4204.6 secs

     Computing kpt #:  1328  of  1501
     total cpu time spent up to now is     4207.5 secs

     Computing kpt #:  1329  of  1501
     total cpu time spent up to now is     4210.7 secs

     Computing kpt #:  1330  of  1501
     total cpu time spent up to now is     4213.5 secs

     Computing kpt #:  1331  of  1501
     total cpu time spent up to now is     4216.7 secs

     Computing kpt #:  1332  of  1501
     total cpu time spent up to now is     4219.9 secs

     Computing kpt #:  1333  of  1501
     total cpu time spent up to now is     4222.9 secs

     Computing kpt #:  1334  of  1501
     total cpu time spent up to now is     4225.8 secs

     Computing kpt #:  1335  of  1501
     total cpu time spent up to now is     4228.9 secs

     Computing kpt #:  1336  of  1501
     total cpu time spent up to now is     4232.0 secs

     Computing kpt #:  1337  of  1501
     total cpu time spent up to now is     4235.2 secs

     Computing kpt #:  1338  of  1501
     total cpu time spent up to now is     4238.2 secs

     Computing kpt #:  1339  of  1501
     total cpu time spent up to now is     4241.3 secs

     Computing kpt #:  1340  of  1501
     total cpu time spent up to now is     4244.3 secs

     Computing kpt #:  1341  of  1501
     total cpu time spent up to now is     4247.4 secs

     Computing kpt #:  1342  of  1501
     total cpu time spent up to now is     4250.5 secs

     Computing kpt #:  1343  of  1501
     total cpu time spent up to now is     4253.7 secs

     Computing kpt #:  1344  of  1501
     total cpu time spent up to now is     4256.7 secs

     Computing kpt #:  1345  of  1501
     total cpu time spent up to now is     4259.7 secs

     Computing kpt #:  1346  of  1501
     total cpu time spent up to now is     4262.7 secs

     Computing kpt #:  1347  of  1501
     total cpu time spent up to now is     4265.6 secs

     Computing kpt #:  1348  of  1501
     total cpu time spent up to now is     4268.6 secs

     Computing kpt #:  1349  of  1501
     total cpu time spent up to now is     4271.6 secs

     Computing kpt #:  1350  of  1501
     total cpu time spent up to now is     4274.5 secs

     Computing kpt #:  1351  of  1501
     total cpu time spent up to now is     4277.3 secs

     Computing kpt #:  1352  of  1501
     total cpu time spent up to now is     4280.3 secs

     Computing kpt #:  1353  of  1501
     total cpu time spent up to now is     4283.4 secs

     Computing kpt #:  1354  of  1501
     total cpu time spent up to now is     4286.4 secs

     Computing kpt #:  1355  of  1501
     total cpu time spent up to now is     4289.4 secs

     Computing kpt #:  1356  of  1501
     total cpu time spent up to now is     4292.2 secs

     Computing kpt #:  1357  of  1501
     total cpu time spent up to now is     4295.1 secs

     Computing kpt #:  1358  of  1501
     total cpu time spent up to now is     4298.1 secs

     Computing kpt #:  1359  of  1501
     total cpu time spent up to now is     4301.1 secs

     Computing kpt #:  1360  of  1501
     total cpu time spent up to now is     4304.3 secs

     Computing kpt #:  1361  of  1501
     total cpu time spent up to now is     4307.3 secs

     Computing kpt #:  1362  of  1501
     total cpu time spent up to now is     4310.5 secs

     Computing kpt #:  1363  of  1501
     total cpu time spent up to now is     4313.6 secs

     Computing kpt #:  1364  of  1501
     total cpu time spent up to now is     4316.8 secs

     Computing kpt #:  1365  of  1501
     total cpu time spent up to now is     4319.7 secs

     Computing kpt #:  1366  of  1501
     total cpu time spent up to now is     4322.6 secs

     Computing kpt #:  1367  of  1501
     total cpu time spent up to now is     4325.5 secs

     Computing kpt #:  1368  of  1501
     total cpu time spent up to now is     4328.7 secs

     Computing kpt #:  1369  of  1501
     total cpu time spent up to now is     4331.9 secs

     Computing kpt #:  1370  of  1501
     total cpu time spent up to now is     4335.1 secs

     Computing kpt #:  1371  of  1501
     total cpu time spent up to now is     4338.3 secs

     Computing kpt #:  1372  of  1501
     total cpu time spent up to now is     4341.5 secs

     Computing kpt #:  1373  of  1501
     total cpu time spent up to now is     4344.8 secs

     Computing kpt #:  1374  of  1501
     total cpu time spent up to now is     4347.9 secs

     Computing kpt #:  1375  of  1501
     total cpu time spent up to now is     4350.9 secs

     Computing kpt #:  1376  of  1501
     total cpu time spent up to now is     4353.9 secs

     Computing kpt #:  1377  of  1501
     total cpu time spent up to now is     4356.8 secs

     Computing kpt #:  1378  of  1501
     total cpu time spent up to now is     4359.7 secs

     Computing kpt #:  1379  of  1501
     total cpu time spent up to now is     4362.8 secs

     Computing kpt #:  1380  of  1501
     total cpu time spent up to now is     4366.0 secs

     Computing kpt #:  1381  of  1501
     total cpu time spent up to now is     4369.2 secs

     Computing kpt #:  1382  of  1501
     total cpu time spent up to now is     4372.4 secs

     Computing kpt #:  1383  of  1501
     total cpu time spent up to now is     4375.5 secs

     Computing kpt #:  1384  of  1501
     total cpu time spent up to now is     4378.6 secs

     Computing kpt #:  1385  of  1501
     total cpu time spent up to now is     4381.9 secs

     Computing kpt #:  1386  of  1501
     total cpu time spent up to now is     4385.0 secs

     Computing kpt #:  1387  of  1501
     total cpu time spent up to now is     4388.0 secs

     Computing kpt #:  1388  of  1501
     total cpu time spent up to now is     4391.1 secs

     Computing kpt #:  1389  of  1501
     total cpu time spent up to now is     4394.3 secs

     Computing kpt #:  1390  of  1501
     total cpu time spent up to now is     4397.4 secs

     Computing kpt #:  1391  of  1501
     total cpu time spent up to now is     4400.5 secs

     Computing kpt #:  1392  of  1501
     total cpu time spent up to now is     4403.4 secs

     Computing kpt #:  1393  of  1501
     total cpu time spent up to now is     4406.2 secs

     Computing kpt #:  1394  of  1501
     total cpu time spent up to now is     4409.1 secs

     Computing kpt #:  1395  of  1501
     total cpu time spent up to now is     4412.0 secs

     Computing kpt #:  1396  of  1501
     total cpu time spent up to now is     4414.9 secs

     Computing kpt #:  1397  of  1501
     total cpu time spent up to now is     4417.7 secs

     Computing kpt #:  1398  of  1501
     total cpu time spent up to now is     4420.5 secs

     Computing kpt #:  1399  of  1501
     total cpu time spent up to now is     4423.4 secs

     Computing kpt #:  1400  of  1501
     total cpu time spent up to now is     4426.2 secs

     Computing kpt #:  1401  of  1501
     total cpu time spent up to now is     4429.1 secs

     Computing kpt #:  1402  of  1501
     total cpu time spent up to now is     4432.1 secs

     Computing kpt #:  1403  of  1501
     total cpu time spent up to now is     4435.1 secs

     Computing kpt #:  1404  of  1501
     total cpu time spent up to now is     4438.0 secs

     Computing kpt #:  1405  of  1501
     total cpu time spent up to now is     4440.9 secs

     Computing kpt #:  1406  of  1501
     total cpu time spent up to now is     4443.7 secs

     Computing kpt #:  1407  of  1501
     total cpu time spent up to now is     4446.6 secs

     Computing kpt #:  1408  of  1501
     total cpu time spent up to now is     4449.4 secs

     Computing kpt #:  1409  of  1501
     total cpu time spent up to now is     4452.2 secs

     Computing kpt #:  1410  of  1501
     total cpu time spent up to now is     4455.0 secs

     Computing kpt #:  1411  of  1501
     total cpu time spent up to now is     4457.9 secs

     Computing kpt #:  1412  of  1501
     total cpu time spent up to now is     4460.7 secs

     Computing kpt #:  1413  of  1501
     total cpu time spent up to now is     4463.6 secs

     Computing kpt #:  1414  of  1501
     total cpu time spent up to now is     4466.4 secs

     Computing kpt #:  1415  of  1501
     total cpu time spent up to now is     4469.2 secs

     Computing kpt #:  1416  of  1501
     total cpu time spent up to now is     4472.1 secs

     Computing kpt #:  1417  of  1501
     total cpu time spent up to now is     4474.9 secs

     Computing kpt #:  1418  of  1501
     total cpu time spent up to now is     4477.7 secs

     Computing kpt #:  1419  of  1501
     total cpu time spent up to now is     4480.6 secs

     Computing kpt #:  1420  of  1501
     total cpu time spent up to now is     4483.4 secs

     Computing kpt #:  1421  of  1501
     total cpu time spent up to now is     4486.2 secs

     Computing kpt #:  1422  of  1501
     total cpu time spent up to now is     4489.1 secs

     Computing kpt #:  1423  of  1501
     total cpu time spent up to now is     4491.9 secs

     Computing kpt #:  1424  of  1501
     total cpu time spent up to now is     4494.8 secs

     Computing kpt #:  1425  of  1501
     total cpu time spent up to now is     4497.6 secs

     Computing kpt #:  1426  of  1501
     total cpu time spent up to now is     4500.5 secs

     Computing kpt #:  1427  of  1501
     total cpu time spent up to now is     4503.3 secs

     Computing kpt #:  1428  of  1501
     total cpu time spent up to now is     4506.2 secs

     Computing kpt #:  1429  of  1501
     total cpu time spent up to now is     4509.0 secs

     Computing kpt #:  1430  of  1501
     total cpu time spent up to now is     4511.9 secs

     Computing kpt #:  1431  of  1501
     total cpu time spent up to now is     4514.8 secs

     Computing kpt #:  1432  of  1501
     total cpu time spent up to now is     4517.7 secs

     Computing kpt #:  1433  of  1501
     total cpu time spent up to now is     4520.4 secs

     Computing kpt #:  1434  of  1501
     total cpu time spent up to now is     4523.4 secs

     Computing kpt #:  1435  of  1501
     total cpu time spent up to now is     4526.2 secs

     Computing kpt #:  1436  of  1501
     total cpu time spent up to now is     4529.1 secs

     Computing kpt #:  1437  of  1501
     total cpu time spent up to now is     4532.1 secs

     Computing kpt #:  1438  of  1501
     total cpu time spent up to now is     4534.9 secs

     Computing kpt #:  1439  of  1501
     total cpu time spent up to now is     4537.8 secs

     Computing kpt #:  1440  of  1501
     total cpu time spent up to now is     4540.6 secs

     Computing kpt #:  1441  of  1501
     total cpu time spent up to now is     4543.4 secs

     Computing kpt #:  1442  of  1501
     total cpu time spent up to now is     4546.2 secs

     Computing kpt #:  1443  of  1501
     total cpu time spent up to now is     4549.1 secs

     Computing kpt #:  1444  of  1501
     total cpu time spent up to now is     4551.9 secs

     Computing kpt #:  1445  of  1501
     total cpu time spent up to now is     4554.8 secs

     Computing kpt #:  1446  of  1501
     total cpu time spent up to now is     4557.7 secs

     Computing kpt #:  1447  of  1501
     total cpu time spent up to now is     4560.4 secs

     Computing kpt #:  1448  of  1501
     total cpu time spent up to now is     4563.3 secs

     Computing kpt #:  1449  of  1501
     total cpu time spent up to now is     4566.1 secs

     Computing kpt #:  1450  of  1501
     total cpu time spent up to now is     4569.0 secs

     Computing kpt #:  1451  of  1501
     total cpu time spent up to now is     4571.9 secs

     Computing kpt #:  1452  of  1501
     total cpu time spent up to now is     4574.7 secs

     Computing kpt #:  1453  of  1501
     total cpu time spent up to now is     4577.4 secs

     Computing kpt #:  1454  of  1501
     total cpu time spent up to now is     4580.4 secs

     Computing kpt #:  1455  of  1501
     total cpu time spent up to now is     4583.2 secs

     Computing kpt #:  1456  of  1501
     total cpu time spent up to now is     4586.0 secs

     Computing kpt #:  1457  of  1501
     total cpu time spent up to now is     4589.0 secs

     Computing kpt #:  1458  of  1501
     total cpu time spent up to now is     4591.8 secs

     Computing kpt #:  1459  of  1501
     total cpu time spent up to now is     4594.7 secs

     Computing kpt #:  1460  of  1501
     total cpu time spent up to now is     4597.6 secs

     Computing kpt #:  1461  of  1501
     total cpu time spent up to now is     4600.5 secs

     Computing kpt #:  1462  of  1501
     total cpu time spent up to now is     4603.2 secs

     Computing kpt #:  1463  of  1501
     total cpu time spent up to now is     4606.1 secs

     Computing kpt #:  1464  of  1501
     total cpu time spent up to now is     4609.0 secs

     Computing kpt #:  1465  of  1501
     total cpu time spent up to now is     4611.9 secs

     Computing kpt #:  1466  of  1501
     total cpu time spent up to now is     4614.8 secs

     Computing kpt #:  1467  of  1501
     total cpu time spent up to now is     4617.6 secs

     Computing kpt #:  1468  of  1501
     total cpu time spent up to now is     4620.6 secs

     Computing kpt #:  1469  of  1501
     total cpu time spent up to now is     4623.4 secs

     Computing kpt #:  1470  of  1501
     total cpu time spent up to now is     4626.3 secs

     Computing kpt #:  1471  of  1501
     total cpu time spent up to now is     4629.1 secs

     Computing kpt #:  1472  of  1501
     total cpu time spent up to now is     4631.8 secs

     Computing kpt #:  1473  of  1501
     total cpu time spent up to now is     4634.7 secs

     Computing kpt #:  1474  of  1501
     total cpu time spent up to now is     4637.6 secs

     Computing kpt #:  1475  of  1501
     total cpu time spent up to now is     4640.5 secs

     Computing kpt #:  1476  of  1501
     total cpu time spent up to now is     4643.5 secs

     Computing kpt #:  1477  of  1501
     total cpu time spent up to now is     4646.3 secs

     Computing kpt #:  1478  of  1501
     total cpu time spent up to now is     4649.2 secs

     Computing kpt #:  1479  of  1501
     total cpu time spent up to now is     4652.0 secs

     Computing kpt #:  1480  of  1501
     total cpu time spent up to now is     4654.9 secs

     Computing kpt #:  1481  of  1501
     total cpu time spent up to now is     4657.7 secs

     Computing kpt #:  1482  of  1501
     total cpu time spent up to now is     4660.5 secs

     Computing kpt #:  1483  of  1501
     total cpu time spent up to now is     4663.5 secs

     Computing kpt #:  1484  of  1501
     total cpu time spent up to now is     4666.3 secs

     Computing kpt #:  1485  of  1501
     total cpu time spent up to now is     4669.2 secs

     Computing kpt #:  1486  of  1501
     total cpu time spent up to now is     4672.0 secs

     Computing kpt #:  1487  of  1501
     total cpu time spent up to now is     4674.8 secs

     Computing kpt #:  1488  of  1501
     total cpu time spent up to now is     4677.7 secs

     Computing kpt #:  1489  of  1501
     total cpu time spent up to now is     4680.6 secs

     Computing kpt #:  1490  of  1501
     total cpu time spent up to now is     4683.5 secs

     Computing kpt #:  1491  of  1501
     total cpu time spent up to now is     4686.4 secs

     Computing kpt #:  1492  of  1501
     total cpu time spent up to now is     4689.4 secs

     Computing kpt #:  1493  of  1501
     total cpu time spent up to now is     4692.2 secs

     Computing kpt #:  1494  of  1501
     total cpu time spent up to now is     4695.0 secs

     Computing kpt #:  1495  of  1501
     total cpu time spent up to now is     4697.9 secs

     Computing kpt #:  1496  of  1501
     total cpu time spent up to now is     4700.8 secs

     Computing kpt #:  1497  of  1501
     total cpu time spent up to now is     4703.7 secs

     Computing kpt #:  1498  of  1501
     total cpu time spent up to now is     4706.5 secs

     Computing kpt #:  1499  of  1501
     total cpu time spent up to now is     4709.4 secs

     Computing kpt #:  1500  of  1501
     total cpu time spent up to now is     4712.2 secs

     Computing kpt #:  1501  of  1501
     total cpu time spent up to now is     4714.9 secs

     ethr =  1.25E-10,  avg # of iterations = 35.1

     total cpu time spent up to now is     4714.9 secs

     End of band structure calculation

          k = 0.0000 0.0000 0.0000 (  5307 PWs)   bands (ev):

   -23.7606 -23.7606 -11.8558 -11.8558  -7.3106  -7.3106  -7.3013  -7.3013
    -0.9617  -0.9617  -0.0635  -0.0635   1.6723   1.6723   2.5862   2.5862

          k = 0.0007 0.0012 0.0000 (  5295 PWs)   bands (ev):

   -23.7605 -23.7605 -11.8558 -11.8558  -7.3107  -7.3107  -7.3014  -7.3014
    -0.9617  -0.9617  -0.0635  -0.0635   1.6724   1.6724   2.5862   2.5862

          k = 0.0013 0.0023 0.0000 (  5295 PWs)   bands (ev):

   -23.7604 -23.7604 -11.8557 -11.8557  -7.3110  -7.3110  -7.3017  -7.3017
    -0.9616  -0.9616  -0.0634  -0.0634   1.6725   1.6725   2.5864   2.5864

          k = 0.0020 0.0035 0.0000 (  5295 PWs)   bands (ev):

   -23.7603 -23.7603 -11.8555 -11.8555  -7.3115  -7.3115  -7.3022  -7.3022
    -0.9613  -0.9613  -0.0632  -0.0632   1.6727   1.6727   2.5866   2.5866

          k = 0.0027 0.0046 0.0000 (  5295 PWs)   bands (ev):

   -23.7601 -23.7601 -11.8552 -11.8552  -7.3122  -7.3122  -7.3029  -7.3029
    -0.9610  -0.9610  -0.0628  -0.0628   1.6730   1.6730   2.5869   2.5869

          k = 0.0033 0.0058 0.0000 (  5295 PWs)   bands (ev):

   -23.7598 -23.7598 -11.8549 -11.8549  -7.3132  -7.3132  -7.3038  -7.3038
    -0.9607  -0.9607  -0.0625  -0.0625   1.6734   1.6734   2.5873   2.5873

          k = 0.0040 0.0069 0.0000 (  5295 PWs)   bands (ev):

   -23.7594 -23.7594 -11.8545 -11.8545  -7.3143  -7.3143  -7.3048  -7.3048
    -0.9602  -0.9602  -0.0620  -0.0620   1.6739   1.6739   2.5877   2.5877

          k = 0.0047 0.0081 0.0000 (  5299 PWs)   bands (ev):

   -23.7590 -23.7590 -11.8540 -11.8540  -7.3158  -7.3158  -7.3060  -7.3060
    -0.9596  -0.9596  -0.0614  -0.0614   1.6744   1.6744   2.5883   2.5883

          k = 0.0053 0.0092 0.0000 (  5303 PWs)   bands (ev):

   -23.7586 -23.7586 -11.8534 -11.8534  -7.3174  -7.3174  -7.3074  -7.3074
    -0.9590  -0.9590  -0.0608  -0.0608   1.6751   1.6751   2.5889   2.5889

          k = 0.0060 0.0104 0.0000 (  5299 PWs)   bands (ev):

   -23.7580 -23.7580 -11.8528 -11.8528  -7.3194  -7.3194  -7.3088  -7.3088
    -0.9583  -0.9583  -0.0600  -0.0600   1.6758   1.6758   2.5896   2.5896

          k = 0.0067 0.0115 0.0000 (  5299 PWs)   bands (ev):

   -23.7574 -23.7574 -11.8521 -11.8521  -7.3216  -7.3216  -7.3104  -7.3104
    -0.9575  -0.9575  -0.0592  -0.0592   1.6766   1.6766   2.5905   2.5905

          k = 0.0073 0.0127 0.0000 (  5305 PWs)   bands (ev):

   -23.7568 -23.7568 -11.8513 -11.8513  -7.3241  -7.3241  -7.3122  -7.3122
    -0.9566  -0.9566  -0.0583  -0.0583   1.6775   1.6775   2.5914   2.5914

          k = 0.0080 0.0139 0.0000 (  5305 PWs)   bands (ev):

   -23.7560 -23.7560 -11.8504 -11.8504  -7.3268  -7.3268  -7.3140  -7.3140
    -0.9556  -0.9556  -0.0573  -0.0573   1.6785   1.6785   2.5923   2.5923

          k = 0.0087 0.0150 0.0000 (  5301 PWs)   bands (ev):

   -23.7553 -23.7553 -11.8495 -11.8495  -7.3299  -7.3299  -7.3160  -7.3160
    -0.9545  -0.9545  -0.0563  -0.0563   1.6796   1.6796   2.5934   2.5934

          k = 0.0093 0.0162 0.0000 (  5301 PWs)   bands (ev):

   -23.7544 -23.7544 -11.8485 -11.8485  -7.3332  -7.3332  -7.3180  -7.3180
    -0.9534  -0.9534  -0.0551  -0.0551   1.6807   1.6807   2.5946   2.5946

          k = 0.0100 0.0173 0.0000 (  5293 PWs)   bands (ev):

   -23.7535 -23.7535 -11.8474 -11.8474  -7.3369  -7.3369  -7.3202  -7.3202
    -0.9521  -0.9521  -0.0538  -0.0538   1.6820   1.6820   2.5958   2.5958

          k = 0.0107 0.0185 0.0000 (  5293 PWs)   bands (ev):

   -23.7525 -23.7525 -11.8462 -11.8462  -7.3408  -7.3408  -7.3225  -7.3225
    -0.9508  -0.9508  -0.0525  -0.0525   1.6833   1.6833   2.5971   2.5971

          k = 0.0113 0.0196 0.0000 (  5293 PWs)   bands (ev):

   -23.7515 -23.7515 -11.8450 -11.8450  -7.3449  -7.3449  -7.3249  -7.3249
    -0.9494  -0.9494  -0.0511  -0.0511   1.6847   1.6847   2.5985   2.5985

          k = 0.0120 0.0208 0.0000 (  5293 PWs)   bands (ev):

   -23.7504 -23.7504 -11.8436 -11.8436  -7.3494  -7.3494  -7.3274  -7.3274
    -0.9479  -0.9479  -0.0496  -0.0496   1.6862   1.6862   2.6000   2.6000

          k = 0.0127 0.0219 0.0000 (  5293 PWs)   bands (ev):

   -23.7492 -23.7492 -11.8423 -11.8423  -7.3541  -7.3541  -7.3301  -7.3301
    -0.9463  -0.9463  -0.0480  -0.0480   1.6878   1.6878   2.6016   2.6016

          k = 0.0133 0.0231 0.0000 (  5295 PWs)   bands (ev):

   -23.7480 -23.7480 -11.8408 -11.8408  -7.3591  -7.3591  -7.3329  -7.3329
    -0.9447  -0.9447  -0.0463  -0.0463   1.6895   1.6895   2.6033   2.6033

          k = 0.0140 0.0242 0.0000 (  5303 PWs)   bands (ev):

   -23.7467 -23.7467 -11.8392 -11.8392  -7.3643  -7.3643  -7.3358  -7.3358
    -0.9429  -0.9429  -0.0445  -0.0445   1.6913   1.6913   2.6050   2.6050

          k = 0.0147 0.0254 0.0000 (  5301 PWs)   bands (ev):

   -23.7453 -23.7453 -11.8376 -11.8376  -7.3698  -7.3698  -7.3389  -7.3389
    -0.9411  -0.9411  -0.0427  -0.0427   1.6931   1.6931   2.6068   2.6068

          k = 0.0153 0.0266 0.0000 (  5297 PWs)   bands (ev):

   -23.7439 -23.7439 -11.8359 -11.8359  -7.3756  -7.3756  -7.3420  -7.3420
    -0.9392  -0.9392  -0.0407  -0.0407   1.6950   1.6950   2.6088   2.6088

          k = 0.0160 0.0277 0.0000 (  5297 PWs)   bands (ev):

   -23.7425 -23.7425 -11.8342 -11.8342  -7.3816  -7.3816  -7.3453  -7.3453
    -0.9372  -0.9372  -0.0387  -0.0387   1.6970   1.6970   2.6108   2.6108

          k = 0.0167 0.0289 0.0000 (  5297 PWs)   bands (ev):

   -23.7409 -23.7409 -11.8323 -11.8323  -7.3879  -7.3879  -7.3488  -7.3488
    -0.9351  -0.9351  -0.0366  -0.0366   1.6992   1.6992   2.6129   2.6129

          k = 0.0173 0.0300 0.0000 (  5297 PWs)   bands (ev):

   -23.7393 -23.7393 -11.8304 -11.8304  -7.3944  -7.3944  -7.3523  -7.3523
    -0.9329  -0.9329  -0.0344  -0.0344   1.7013   1.7013   2.6150   2.6150

          k = 0.0180 0.0312 0.0000 (  5301 PWs)   bands (ev):

   -23.7376 -23.7376 -11.8284 -11.8284  -7.4012  -7.4012  -7.3560  -7.3560
    -0.9306  -0.9306  -0.0321  -0.0321   1.7036   1.7036   2.6173   2.6173

          k = 0.0187 0.0323 0.0000 (  5301 PWs)   bands (ev):

   -23.7359 -23.7359 -11.8263 -11.8263  -7.4083  -7.4083  -7.3599  -7.3599
    -0.9283  -0.9283  -0.0298  -0.0298   1.7060   1.7060   2.6197   2.6197

          k = 0.0193 0.0335 0.0000 (  5297 PWs)   bands (ev):

   -23.7341 -23.7341 -11.8242 -11.8242  -7.4155  -7.4155  -7.3638  -7.3638
    -0.9259  -0.9259  -0.0273  -0.0273   1.7084   1.7084   2.6221   2.6221

          k = 0.0200 0.0346 0.0000 (  5297 PWs)   bands (ev):

   -23.7323 -23.7323 -11.8220 -11.8220  -7.4231  -7.4231  -7.3679  -7.3679
    -0.9233  -0.9233  -0.0248  -0.0248   1.7110   1.7110   2.6246   2.6246

          k = 0.0207 0.0358 0.0000 (  5297 PWs)   bands (ev):

   -23.7303 -23.7303 -11.8197 -11.8197  -7.4308  -7.4308  -7.3722  -7.3722
    -0.9207  -0.9207  -0.0221  -0.0221   1.7136   1.7136   2.6272   2.6272

          k = 0.0213 0.0370 0.0000 (  5301 PWs)   bands (ev):

   -23.7284 -23.7284 -11.8173 -11.8173  -7.4388  -7.4388  -7.3765  -7.3765
    -0.9181  -0.9181  -0.0194  -0.0194   1.7163   1.7163   2.6299   2.6299

          k = 0.0220 0.0381 0.0000 (  5305 PWs)   bands (ev):

   -23.7263 -23.7263 -11.8149 -11.8149  -7.4471  -7.4471  -7.3810  -7.3810
    -0.9153  -0.9153  -0.0166  -0.0166   1.7191   1.7191   2.6327   2.6327

          k = 0.0227 0.0393 0.0000 (  5301 PWs)   bands (ev):

   -23.7242 -23.7242 -11.8124 -11.8124  -7.4556  -7.4556  -7.3856  -7.3856
    -0.9124  -0.9124  -0.0137  -0.0137   1.7219   1.7219   2.6355   2.6355

          k = 0.0233 0.0404 0.0000 (  5301 PWs)   bands (ev):

   -23.7220 -23.7220 -11.8098 -11.8098  -7.4643  -7.4643  -7.3904  -7.3904
    -0.9095  -0.9095  -0.0108  -0.0108   1.7249   1.7249   2.6385   2.6385

          k = 0.0240 0.0416 0.0000 (  5301 PWs)   bands (ev):

   -23.7198 -23.7198 -11.8071 -11.8071  -7.4733  -7.4733  -7.3953  -7.3953
    -0.9065  -0.9065  -0.0077  -0.0077   1.7279   1.7279   2.6415   2.6415

          k = 0.0247 0.0427 0.0000 (  5301 PWs)   bands (ev):

   -23.7175 -23.7175 -11.8043 -11.8043  -7.4825  -7.4825  -7.4003  -7.4003
    -0.9033  -0.9033  -0.0046  -0.0046   1.7311   1.7311   2.6446   2.6446

          k = 0.0253 0.0439 0.0000 (  5301 PWs)   bands (ev):

   -23.7152 -23.7152 -11.8015 -11.8015  -7.4919  -7.4919  -7.4055  -7.4055
    -0.9001  -0.9001  -0.0013  -0.0013   1.7343   1.7343   2.6478   2.6478

          k = 0.0260 0.0450 0.0000 (  5301 PWs)   bands (ev):

   -23.7127 -23.7127 -11.7986 -11.7986  -7.5016  -7.5016  -7.4108  -7.4108
    -0.8969  -0.8969   0.0020   0.0020   1.7376   1.7376   2.6511   2.6511

          k = 0.0267 0.0462 0.0000 (  5305 PWs)   bands (ev):

   -23.7102 -23.7102 -11.7957 -11.7957  -7.5115  -7.5115  -7.4162  -7.4162
    -0.8935  -0.8935   0.0054   0.0054   1.7410   1.7410   2.6545   2.6545

          k = 0.0273 0.0473 0.0000 (  5305 PWs)   bands (ev):

   -23.7077 -23.7077 -11.7926 -11.7926  -7.5216  -7.5216  -7.4218  -7.4218
    -0.8900  -0.8900   0.0089   0.0089   1.7445   1.7445   2.6579   2.6579

          k = 0.0280 0.0485 0.0000 (  5305 PWs)   bands (ev):

   -23.7051 -23.7051 -11.7895 -11.7895  -7.5319  -7.5319  -7.4275  -7.4275
    -0.8865  -0.8865   0.0124   0.0124   1.7480   1.7480   2.6615   2.6615

          k = 0.0287 0.0497 0.0000 (  5305 PWs)   bands (ev):

   -23.7024 -23.7024 -11.7863 -11.7863  -7.5425  -7.5425  -7.4333  -7.4333
    -0.8829  -0.8829   0.0161   0.0161   1.7517   1.7517   2.6651   2.6651

          k = 0.0293 0.0508 0.0000 (  5297 PWs)   bands (ev):

   -23.6997 -23.6997 -11.7830 -11.7830  -7.5533  -7.5533  -7.4393  -7.4393
    -0.8792  -0.8792   0.0199   0.0199   1.7554   1.7554   2.6688   2.6688

          k = 0.0300 0.0520 0.0000 (  5297 PWs)   bands (ev):

   -23.6969 -23.6969 -11.7797 -11.7797  -7.5643  -7.5643  -7.4453  -7.4453
    -0.8754  -0.8754   0.0237   0.0237   1.7592   1.7592   2.6726   2.6726

          k = 0.0307 0.0531 0.0000 (  5299 PWs)   bands (ev):

   -23.6940 -23.6940 -11.7763 -11.7763  -7.5755  -7.5755  -7.4516  -7.4516
    -0.8715  -0.8715   0.0276   0.0276   1.7631   1.7631   2.6765   2.6765

          k = 0.0313 0.0543 0.0000 (  5299 PWs)   bands (ev):

   -23.6911 -23.6911 -11.7728 -11.7728  -7.5870  -7.5870  -7.4579  -7.4579
    -0.8675  -0.8675   0.0316   0.0316   1.7671   1.7671   2.6805   2.6805

          k = 0.0320 0.0554 0.0000 (  5299 PWs)   bands (ev):

   -23.6881 -23.6881 -11.7692 -11.7692  -7.5986  -7.5986  -7.4644  -7.4644
    -0.8635  -0.8635   0.0357   0.0357   1.7712   1.7712   2.6845   2.6845

          k = 0.0327 0.0566 0.0000 (  5295 PWs)   bands (ev):

   -23.6851 -23.6851 -11.7656 -11.7656  -7.6105  -7.6105  -7.4710  -7.4710
    -0.8593  -0.8593   0.0399   0.0399   1.7754   1.7754   2.6887   2.6887

          k = 0.0333 0.0577 0.0000 (  5295 PWs)   bands (ev):

   -23.6819 -23.6819 -11.7618 -11.7618  -7.6226  -7.6226  -7.4777  -7.4777
    -0.8551  -0.8551   0.0441   0.0441   1.7796   1.7796   2.6929   2.6929

          k = 0.0340 0.0589 0.0000 (  5293 PWs)   bands (ev):

   -23.6788 -23.6788 -11.7580 -11.7580  -7.6349  -7.6349  -7.4846  -7.4846
    -0.8508  -0.8508   0.0485   0.0485   1.7839   1.7839   2.6972   2.6972

          k = 0.0347 0.0600 0.0000 (  5293 PWs)   bands (ev):

   -23.6755 -23.6755 -11.7542 -11.7542  -7.6474  -7.6474  -7.4916  -7.4916
    -0.8464  -0.8464   0.0529   0.0529   1.7884   1.7884   2.7016   2.7016

          k = 0.0353 0.0612 0.0000 (  5293 PWs)   bands (ev):

   -23.6722 -23.6722 -11.7502 -11.7502  -7.6601  -7.6601  -7.4987  -7.4987
    -0.8419  -0.8419   0.0574   0.0574   1.7929   1.7929   2.7061   2.7061

          k = 0.0360 0.0624 0.0000 (  5293 PWs)   bands (ev):

   -23.6689 -23.6689 -11.7462 -11.7462  -7.6730  -7.6730  -7.5060  -7.5060
    -0.8374  -0.8374   0.0621   0.0621   1.7975   1.7975   2.7106   2.7106

          k = 0.0367 0.0635 0.0000 (  5293 PWs)   bands (ev):

   -23.6654 -23.6654 -11.7421 -11.7421  -7.6861  -7.6861  -7.5133  -7.5133
    -0.8327  -0.8327   0.0667   0.0667   1.8021   1.8021   2.7153   2.7153

          k = 0.0373 0.0647 0.0000 (  5293 PWs)   bands (ev):

   -23.6620 -23.6620 -11.7380 -11.7380  -7.6994  -7.6994  -7.5209  -7.5209
    -0.8280  -0.8280   0.0715   0.0715   1.8069   1.8069   2.7200   2.7200

          k = 0.0380 0.0658 0.0000 (  5293 PWs)   bands (ev):

   -23.6584 -23.6584 -11.7337 -11.7337  -7.7129  -7.7129  -7.5285  -7.5285
    -0.8232  -0.8232   0.0764   0.0764   1.8118   1.8118   2.7248   2.7248

          k = 0.0387 0.0670 0.0000 (  5289 PWs)   bands (ev):

   -23.6548 -23.6548 -11.7294 -11.7294  -7.7266  -7.7266  -7.5362  -7.5362
    -0.8182  -0.8182   0.0813   0.0813   1.8167   1.8167   2.7297   2.7297

          k = 0.0393 0.0681 0.0000 (  5289 PWs)   bands (ev):

   -23.6511 -23.6511 -11.7250 -11.7250  -7.7405  -7.7405  -7.5441  -7.5441
    -0.8133  -0.8133   0.0864   0.0864   1.8217   1.8217   2.7347   2.7347

          k = 0.0400 0.0693 0.0000 (  5289 PWs)   bands (ev):

   -23.6474 -23.6474 -11.7205 -11.7205  -7.7546  -7.7546  -7.5521  -7.5521
    -0.8082  -0.8082   0.0915   0.0915   1.8268   1.8268   2.7398   2.7398

          k = 0.0407 0.0704 0.0000 (  5285 PWs)   bands (ev):

   -23.6436 -23.6436 -11.7160 -11.7160  -7.7689  -7.7689  -7.5603  -7.5603
    -0.8030  -0.8030   0.0967   0.0967   1.8320   1.8320   2.7450   2.7450

          k = 0.0413 0.0716 0.0000 (  5289 PWs)   bands (ev):

   -23.6397 -23.6397 -11.7114 -11.7114  -7.7833  -7.7833  -7.5686  -7.5686
    -0.7978  -0.7978   0.1020   0.1020   1.8373   1.8373   2.7502   2.7502

          k = 0.0420 0.0727 0.0000 (  5285 PWs)   bands (ev):

   -23.6358 -23.6358 -11.7067 -11.7067  -7.7980  -7.7980  -7.5769  -7.5769
    -0.7924  -0.7924   0.1074   0.1074   1.8427   1.8427   2.7555   2.7555

          k = 0.0427 0.0739 0.0000 (  5285 PWs)   bands (ev):

   -23.6318 -23.6318 -11.7019 -11.7019  -7.8128  -7.8128  -7.5855  -7.5855
    -0.7870  -0.7870   0.1129   0.1129   1.8481   1.8481   2.7610   2.7610

          k = 0.0433 0.0751 0.0000 (  5285 PWs)   bands (ev):

   -23.6277 -23.6277 -11.6971 -11.6971  -7.8278  -7.8278  -7.5941  -7.5941
    -0.7815  -0.7815   0.1184   0.1184   1.8537   1.8537   2.7665   2.7665

          k = 0.0440 0.0762 0.0000 (  5285 PWs)   bands (ev):

   -23.6236 -23.6236 -11.6922 -11.6922  -7.8430  -7.8430  -7.6029  -7.6029
    -0.7759  -0.7759   0.1241   0.1241   1.8593   1.8593   2.7721   2.7721

          k = 0.0447 0.0774 0.0000 (  5289 PWs)   bands (ev):

   -23.6194 -23.6194 -11.6872 -11.6872  -7.8584  -7.8584  -7.6117  -7.6117
    -0.7703  -0.7703   0.1298   0.1298   1.8650   1.8650   2.7777   2.7777

          k = 0.0453 0.0785 0.0000 (  5285 PWs)   bands (ev):

   -23.6152 -23.6152 -11.6821 -11.6821  -7.8740  -7.8740  -7.6207  -7.6207
    -0.7645  -0.7645   0.1356   0.1356   1.8708   1.8708   2.7835   2.7835

          k = 0.0460 0.0797 0.0000 (  5281 PWs)   bands (ev):

   -23.6109 -23.6109 -11.6770 -11.6770  -7.8897  -7.8897  -7.6299  -7.6299
    -0.7586  -0.7586   0.1415   0.1415   1.8767   1.8767   2.7893   2.7893

          k = 0.0467 0.0808 0.0000 (  5281 PWs)   bands (ev):

   -23.6065 -23.6065 -11.6718 -11.6718  -7.9056  -7.9056  -7.6391  -7.6391
    -0.7527  -0.7527   0.1475   0.1475   1.8826   1.8826   2.7952   2.7952

          k = 0.0473 0.0820 0.0000 (  5281 PWs)   bands (ev):

   -23.6021 -23.6021 -11.6665 -11.6665  -7.9217  -7.9217  -7.6485  -7.6485
    -0.7467  -0.7467   0.1535   0.1535   1.8887   1.8887   2.8013   2.8013

          k = 0.0480 0.0831 0.0000 (  5281 PWs)   bands (ev):

   -23.5976 -23.5976 -11.6611 -11.6611  -7.9379  -7.9379  -7.6580  -7.6580
    -0.7406  -0.7406   0.1597   0.1597   1.8948   1.8948   2.8074   2.8074

          k = 0.0487 0.0843 0.0000 (  5273 PWs)   bands (ev):

   -23.5930 -23.5930 -11.6557 -11.6557  -7.9543  -7.9543  -7.6676  -7.6676
    -0.7344  -0.7344   0.1659   0.1659   1.9011   1.9011   2.8135   2.8135

          k = 0.0493 0.0854 0.0000 (  5269 PWs)   bands (ev):

   -23.5884 -23.5884 -11.6502 -11.6502  -7.9709  -7.9709  -7.6773  -7.6773
    -0.7281  -0.7281   0.1723   0.1723   1.9074   1.9074   2.8198   2.8198

          k = 0.0500 0.0866 0.0000 (  5269 PWs)   bands (ev):

   -23.5837 -23.5837 -11.6446 -11.6446  -7.9876  -7.9876  -7.6872  -7.6872
    -0.7218  -0.7218   0.1787   0.1787   1.9138   1.9138   2.8262   2.8262

          k = 0.0507 0.0878 0.0000 (  5265 PWs)   bands (ev):

   -23.5790 -23.5790 -11.6389 -11.6389  -8.0045  -8.0045  -7.6971  -7.6971
    -0.7153  -0.7153   0.1852   0.1852   1.9203   1.9203   2.8326   2.8326

          k = 0.0513 0.0889 0.0000 (  5265 PWs)   bands (ev):

   -23.5742 -23.5742 -11.6332 -11.6332  -8.0215  -8.0215  -7.7072  -7.7072
    -0.7088  -0.7088   0.1918   0.1918   1.9268   1.9268   2.8391   2.8391

          k = 0.0520 0.0901 0.0000 (  5265 PWs)   bands (ev):

   -23.5693 -23.5693 -11.6274 -11.6274  -8.0387  -8.0387  -7.7174  -7.7174
    -0.7022  -0.7022   0.1984   0.1984   1.9335   1.9335   2.8457   2.8457

          k = 0.0527 0.0912 0.0000 (  5265 PWs)   bands (ev):

   -23.5644 -23.5644 -11.6215 -11.6215  -8.0561  -8.0561  -7.7277  -7.7277
    -0.6955  -0.6955   0.2052   0.2052   1.9402   1.9402   2.8524   2.8524

          k = 0.0533 0.0924 0.0000 (  5265 PWs)   bands (ev):

   -23.5594 -23.5594 -11.6156 -11.6156  -8.0736  -8.0736  -7.7382  -7.7382
    -0.6887  -0.6887   0.2120   0.2120   1.9470   1.9470   2.8592   2.8592

          k = 0.0540 0.0935 0.0000 (  5265 PWs)   bands (ev):

   -23.5544 -23.5544 -11.6095 -11.6095  -8.0912  -8.0912  -7.7487  -7.7487
    -0.6818  -0.6818   0.2190   0.2190   1.9540   1.9540   2.8660   2.8660

          k = 0.0547 0.0947 0.0000 (  5265 PWs)   bands (ev):

   -23.5492 -23.5492 -11.6034 -11.6034  -8.1091  -8.1091  -7.7594  -7.7594
    -0.6749  -0.6749   0.2260   0.2260   1.9610   1.9610   2.8730   2.8730

          k = 0.0553 0.0958 0.0000 (  5265 PWs)   bands (ev):

   -23.5441 -23.5441 -11.5973 -11.5973  -8.1270  -8.1270  -7.7702  -7.7702
    -0.6679  -0.6679   0.2331   0.2331   1.9680   1.9680   2.8800   2.8800

          k = 0.0560 0.0970 0.0000 (  5269 PWs)   bands (ev):

   -23.5388 -23.5388 -11.5910 -11.5910  -8.1451  -8.1451  -7.7811  -7.7811
    -0.6607  -0.6607   0.2403   0.2403   1.9752   1.9752   2.8871   2.8871

          k = 0.0567 0.0981 0.0000 (  5269 PWs)   bands (ev):

   -23.5335 -23.5335 -11.5847 -11.5847  -8.1633  -8.1633  -7.7921  -7.7921
    -0.6535  -0.6535   0.2475   0.2475   1.9825   1.9825   2.8943   2.8943

          k = 0.0573 0.0993 0.0000 (  5271 PWs)   bands (ev):

   -23.5281 -23.5281 -11.5783 -11.5783  -8.1817  -8.1817  -7.8032  -7.8032
    -0.6462  -0.6462   0.2549   0.2549   1.9898   1.9898   2.9016   2.9016

          k = 0.0580 0.1005 0.0000 (  5271 PWs)   bands (ev):

   -23.5227 -23.5227 -11.5718 -11.5718  -8.2002  -8.2002  -7.8144  -7.8144
    -0.6388  -0.6388   0.2623   0.2623   1.9972   1.9972   2.9090   2.9090

          k = 0.0587 0.1016 0.0000 (  5271 PWs)   bands (ev):

   -23.5172 -23.5172 -11.5653 -11.5653  -8.2189  -8.2189  -7.8258  -7.8258
    -0.6314  -0.6314   0.2698   0.2698   2.0048   2.0048   2.9164   2.9164

          k = 0.0593 0.1028 0.0000 (  5271 PWs)   bands (ev):

   -23.5117 -23.5117 -11.5587 -11.5587  -8.2377  -8.2377  -7.8372  -7.8372
    -0.6238  -0.6238   0.2775   0.2775   2.0124   2.0124   2.9240   2.9240

          k = 0.0600 0.1039 0.0000 (  5267 PWs)   bands (ev):

   -23.5060 -23.5060 -11.5520 -11.5520  -8.2566  -8.2566  -7.8488  -7.8488
    -0.6162  -0.6162   0.2852   0.2852   2.0201   2.0201   2.9316   2.9316

          k = 0.0607 0.1051 0.0000 (  5267 PWs)   bands (ev):

   -23.5004 -23.5004 -11.5452 -11.5452  -8.2756  -8.2756  -7.8605  -7.8605
    -0.6085  -0.6085   0.2929   0.2929   2.0278   2.0278   2.9393   2.9393

          k = 0.0613 0.1062 0.0000 (  5267 PWs)   bands (ev):

   -23.4946 -23.4946 -11.5384 -11.5384  -8.2948  -8.2948  -7.8723  -7.8723
    -0.6006  -0.6006   0.3008   0.3008   2.0357   2.0357   2.9471   2.9471

          k = 0.0620 0.1074 0.0000 (  5267 PWs)   bands (ev):

   -23.4888 -23.4888 -11.5314 -11.5314  -8.3141  -8.3141  -7.8842  -7.8842
    -0.5928  -0.5928   0.3088   0.3088   2.0436   2.0436   2.9550   2.9550

          k = 0.0627 0.1085 0.0000 (  5275 PWs)   bands (ev):

   -23.4830 -23.4830 -11.5245 -11.5245  -8.3336  -8.3336  -7.8962  -7.8962
    -0.5848  -0.5848   0.3168   0.3168   2.0517   2.0517   2.9629   2.9629

          k = 0.0633 0.1097 0.0000 (  5275 PWs)   bands (ev):

   -23.4770 -23.4770 -11.5174 -11.5174  -8.3531  -8.3531  -7.9083  -7.9083
    -0.5767  -0.5767   0.3250   0.3250   2.0598   2.0598   2.9710   2.9710

          k = 0.0640 0.1109 0.0000 (  5275 PWs)   bands (ev):

   -23.4710 -23.4710 -11.5103 -11.5103  -8.3728  -8.3728  -7.9205  -7.9205
    -0.5686  -0.5686   0.3332   0.3332   2.0680   2.0680   2.9791   2.9791

          k = 0.0647 0.1120 0.0000 (  5275 PWs)   bands (ev):

   -23.4650 -23.4650 -11.5030 -11.5030  -8.3926  -8.3926  -7.9328  -7.9328
    -0.5603  -0.5603   0.3415   0.3415   2.0763   2.0763   2.9873   2.9873

          k = 0.0653 0.1132 0.0000 (  5265 PWs)   bands (ev):

   -23.4589 -23.4589 -11.4958 -11.4958  -8.4125  -8.4125  -7.9452  -7.9452
    -0.5520  -0.5520   0.3499   0.3499   2.0847   2.0847   2.9956   2.9956

          k = 0.0660 0.1143 0.0000 (  5265 PWs)   bands (ev):

   -23.4527 -23.4527 -11.4884 -11.4884  -8.4325  -8.4325  -7.9578  -7.9578
    -0.5436  -0.5436   0.3583   0.3583   2.0931   2.0931   3.0040   3.0040

          k = 0.0667 0.1155 0.0000 (  5261 PWs)   bands (ev):

   -23.4464 -23.4464 -11.4810 -11.4810  -8.4527  -8.4527  -7.9704  -7.9704
    -0.5351  -0.5351   0.3669   0.3669   2.1017   2.1017   3.0125   3.0125

          k = 0.0673 0.1166 0.0000 (  5263 PWs)   bands (ev):

   -23.4401 -23.4401 -11.4735 -11.4735  -8.4729  -8.4729  -7.9832  -7.9832
    -0.5265  -0.5265   0.3755   0.3755   2.1103   2.1103   3.0210   3.0210

          k = 0.0680 0.1178 0.0000 (  5267 PWs)   bands (ev):

   -23.4338 -23.4338 -11.4659 -11.4659  -8.4933  -8.4933  -7.9960  -7.9960
    -0.5179  -0.5179   0.3842   0.3842   2.1190   2.1190   3.0297   3.0297

          k = 0.0687 0.1189 0.0000 (  5271 PWs)   bands (ev):

   -23.4274 -23.4274 -11.4583 -11.4583  -8.5138  -8.5138  -8.0090  -8.0090
    -0.5091  -0.5091   0.3931   0.3931   2.1278   2.1278   3.0384   3.0384

          k = 0.0693 0.1201 0.0000 (  5271 PWs)   bands (ev):

   -23.4209 -23.4209 -11.4505 -11.4505  -8.5344  -8.5344  -8.0220  -8.0220
    -0.5003  -0.5003   0.4020   0.4020   2.1367   2.1367   3.0472   3.0472

          k = 0.0700 0.1212 0.0000 (  5271 PWs)   bands (ev):

   -23.4143 -23.4143 -11.4427 -11.4427  -8.5550  -8.5550  -8.0352  -8.0352
    -0.4914  -0.4914   0.4109   0.4109   2.1457   2.1457   3.0561   3.0561

          k = 0.0707 0.1224 0.0000 (  5275 PWs)   bands (ev):

   -23.4077 -23.4077 -11.4349 -11.4349  -8.5758  -8.5758  -8.0485  -8.0485
    -0.4824  -0.4824   0.4200   0.4200   2.1548   2.1548   3.0651   3.0651

          k = 0.0713 0.1236 0.0000 (  5275 PWs)   bands (ev):

   -23.4010 -23.4010 -11.4269 -11.4269  -8.5967  -8.5967  -8.0618  -8.0618
    -0.4733  -0.4733   0.4292   0.4292   2.1639   2.1639   3.0741   3.0741

          k = 0.0720 0.1247 0.0000 (  5275 PWs)   bands (ev):

   -23.3943 -23.3943 -11.4189 -11.4189  -8.6177  -8.6177  -8.0753  -8.0753
    -0.4641  -0.4641   0.4384   0.4384   2.1732   2.1732   3.0833   3.0833

          k = 0.0727 0.1259 0.0000 (  5275 PWs)   bands (ev):

   -23.3875 -23.3875 -11.4108 -11.4108  -8.6388  -8.6388  -8.0888  -8.0888
    -0.4548  -0.4548   0.4477   0.4477   2.1825   2.1825   3.0925   3.0925

          k = 0.0733 0.1270 0.0000 (  5271 PWs)   bands (ev):

   -23.3806 -23.3806 -11.4027 -11.4027  -8.6600  -8.6600  -8.1025  -8.1025
    -0.4455  -0.4455   0.4572   0.4572   2.1919   2.1919   3.1018   3.1018

          k = 0.0740 0.1282 0.0000 (  5271 PWs)   bands (ev):

   -23.3737 -23.3737 -11.3944 -11.3944  -8.6813  -8.6813  -8.1162  -8.1162
    -0.4361  -0.4361   0.4667   0.4667   2.2014   2.2014   3.1112   3.1112

          k = 0.0747 0.1293 0.0000 (  5269 PWs)   bands (ev):

   -23.3667 -23.3667 -11.3861 -11.3861  -8.7027  -8.7027  -8.1301  -8.1301
    -0.4265  -0.4265   0.4762   0.4762   2.2110   2.2110   3.1207   3.1207

          k = 0.0753 0.1305 0.0000 (  5273 PWs)   bands (ev):

   -23.3597 -23.3597 -11.3777 -11.3777  -8.7241  -8.7241  -8.1440  -8.1440
    -0.4169  -0.4169   0.4859   0.4859   2.2206   2.2206   3.1303   3.1303

          k = 0.0760 0.1316 0.0000 (  5273 PWs)   bands (ev):

   -23.3526 -23.3526 -11.3693 -11.3693  -8.7457  -8.7457  -8.1581  -8.1581
    -0.4072  -0.4072   0.4957   0.4957   2.2304   2.2304   3.1399   3.1399

          k = 0.0767 0.1328 0.0000 (  5273 PWs)   bands (ev):

   -23.3454 -23.3454 -11.3608 -11.3608  -8.7674  -8.7674  -8.1722  -8.1722
    -0.3975  -0.3975   0.5055   0.5055   2.2402   2.2402   3.1497   3.1497

          k = 0.0773 0.1339 0.0000 (  5271 PWs)   bands (ev):

   -23.3381 -23.3381 -11.3522 -11.3522  -8.7891  -8.7891  -8.1865  -8.1865
    -0.3876  -0.3876   0.5154   0.5154   2.2502   2.2502   3.1595   3.1595

          k = 0.0780 0.1351 0.0000 (  5271 PWs)   bands (ev):

   -23.3308 -23.3308 -11.3435 -11.3435  -8.8109  -8.8109  -8.2008  -8.2008
    -0.3777  -0.3777   0.5254   0.5254   2.2602   2.2602   3.1694   3.1694

          k = 0.0787 0.1363 0.0000 (  5271 PWs)   bands (ev):

   -23.3235 -23.3235 -11.3347 -11.3347  -8.8328  -8.8328  -8.2152  -8.2152
    -0.3676  -0.3676   0.5355   0.5355   2.2703   2.2703   3.1794   3.1794

          k = 0.0793 0.1374 0.0000 (  5271 PWs)   bands (ev):

   -23.3161 -23.3161 -11.3259 -11.3259  -8.8548  -8.8548  -8.2297  -8.2297
    -0.3575  -0.3575   0.5457   0.5457   2.2805   2.2805   3.1894   3.1894

          k = 0.0800 0.1386 0.0000 (  5271 PWs)   bands (ev):

   -23.3086 -23.3086 -11.3170 -11.3170  -8.8769  -8.8769  -8.2443  -8.2443
    -0.3473  -0.3473   0.5560   0.5560   2.2907   2.2907   3.1996   3.1996

          k = 0.0807 0.1397 0.0000 (  5271 PWs)   bands (ev):

   -23.3010 -23.3010 -11.3081 -11.3081  -8.8990  -8.8990  -8.2590  -8.2590
    -0.3370  -0.3370   0.5663   0.5663   2.3011   2.3011   3.2098   3.2098

          k = 0.0813 0.1409 0.0000 (  5271 PWs)   bands (ev):

   -23.2934 -23.2934 -11.2990 -11.2990  -8.9213  -8.9213  -8.2738  -8.2738
    -0.3267  -0.3267   0.5768   0.5768   2.3115   2.3115   3.2202   3.2202

          k = 0.0820 0.1420 0.0000 (  5269 PWs)   bands (ev):

   -23.2858 -23.2858 -11.2899 -11.2899  -8.9436  -8.9436  -8.2887  -8.2887
    -0.3162  -0.3162   0.5873   0.5873   2.3221   2.3221   3.2306   3.2306

          k = 0.0827 0.1432 0.0000 (  5269 PWs)   bands (ev):

   -23.2780 -23.2780 -11.2808 -11.2808  -8.9660  -8.9660  -8.3037  -8.3037
    -0.3057  -0.3057   0.5979   0.5979   2.3327   2.3327   3.2411   3.2411

          k = 0.0833 0.1443 0.0000 (  5269 PWs)   bands (ev):

   -23.2702 -23.2702 -11.2715 -11.2715  -8.9884  -8.9884  -8.3187  -8.3187
    -0.2951  -0.2951   0.6086   0.6086   2.3434   2.3434   3.2516   3.2516

          k = 0.0840 0.1455 0.0000 (  5269 PWs)   bands (ev):

   -23.2624 -23.2624 -11.2622 -11.2622  -9.0110  -9.0110  -8.3339  -8.3339
    -0.2843  -0.2843   0.6194   0.6194   2.3542   2.3542   3.2623   3.2623

          k = 0.0847 0.1466 0.0000 (  5269 PWs)   bands (ev):

   -23.2545 -23.2545 -11.2528 -11.2528  -9.0336  -9.0336  -8.3491  -8.3491
    -0.2735  -0.2735   0.6302   0.6302   2.3650   2.3650   3.2730   3.2730

          k = 0.0853 0.1478 0.0000 (  5269 PWs)   bands (ev):

   -23.2465 -23.2465 -11.2433 -11.2433  -9.0562  -9.0562  -8.3644  -8.3644
    -0.2627  -0.2627   0.6412   0.6412   2.3760   2.3760   3.2839   3.2839

          k = 0.0860 0.1490 0.0000 (  5271 PWs)   bands (ev):

   -23.2384 -23.2384 -11.2338 -11.2338  -9.0790  -9.0790  -8.3798  -8.3798
    -0.2517  -0.2517   0.6522   0.6522   2.3870   2.3870   3.2948   3.2948

          k = 0.0867 0.1501 0.0000 (  5271 PWs)   bands (ev):

   -23.2303 -23.2303 -11.2242 -11.2242  -9.1018  -9.1018  -8.3953  -8.3953
    -0.2406  -0.2406   0.6634   0.6634   2.3982   2.3982   3.3058   3.3058

          k = 0.0873 0.1513 0.0000 (  5277 PWs)   bands (ev):

   -23.2222 -23.2222 -11.2145 -11.2145  -9.1246  -9.1246  -8.4109  -8.4109
    -0.2295  -0.2295   0.6746   0.6746   2.4094   2.4094   3.3168   3.3168

          k = 0.0880 0.1524 0.0000 (  5273 PWs)   bands (ev):

   -23.2140 -23.2140 -11.2047 -11.2047  -9.1476  -9.1476  -8.4265  -8.4265
    -0.2183  -0.2183   0.6859   0.6859   2.4207   2.4207   3.3280   3.3280

          k = 0.0887 0.1536 0.0000 (  5277 PWs)   bands (ev):

   -23.2057 -23.2057 -11.1949 -11.1949  -9.1706  -9.1706  -8.4423  -8.4423
    -0.2070  -0.2070   0.6972   0.6972   2.4321   2.4321   3.3393   3.3393

          k = 0.0893 0.1547 0.0000 (  5277 PWs)   bands (ev):

   -23.1973 -23.1973 -11.1850 -11.1850  -9.1936  -9.1936  -8.4581  -8.4581
    -0.1956  -0.1956   0.7087   0.7087   2.4436   2.4436   3.3506   3.3506

          k = 0.0900 0.1559 0.0000 (  5277 PWs)   bands (ev):

   -23.1889 -23.1889 -11.1750 -11.1750  -9.2167  -9.2167  -8.4740  -8.4740
    -0.1841  -0.1841   0.7202   0.7202   2.4551   2.4551   3.3620   3.3620

          k = 0.0907 0.1570 0.0000 (  5277 PWs)   bands (ev):

   -23.1804 -23.1804 -11.1650 -11.1650  -9.2399  -9.2399  -8.4900  -8.4900
    -0.1725  -0.1725   0.7319   0.7319   2.4668   2.4668   3.3735   3.3735

          k = 0.0913 0.1582 0.0000 (  5273 PWs)   bands (ev):

   -23.1719 -23.1719 -11.1549 -11.1549  -9.2632  -9.2632  -8.5060  -8.5060
    -0.1609  -0.1609   0.7436   0.7436   2.4785   2.4785   3.3851   3.3851

          k = 0.0920 0.1593 0.0000 (  5273 PWs)   bands (ev):

   -23.1633 -23.1633 -11.1447 -11.1447  -9.2865  -9.2865  -8.5222  -8.5222
    -0.1492  -0.1492   0.7554   0.7554   2.4903   2.4903   3.3967   3.3967

          k = 0.0927 0.1605 0.0000 (  5273 PWs)   bands (ev):

   -23.1547 -23.1547 -11.1344 -11.1344  -9.3098  -9.3098  -8.5384  -8.5384
    -0.1373  -0.1373   0.7673   0.7673   2.5022   2.5022   3.4085   3.4085

          k = 0.0933 0.1617 0.0000 (  5269 PWs)   bands (ev):

   -23.1459 -23.1459 -11.1241 -11.1241  -9.3332  -9.3332  -8.5547  -8.5547
    -0.1254  -0.1254   0.7792   0.7792   2.5142   2.5142   3.4203   3.4203

          k = 0.0940 0.1628 0.0000 (  5269 PWs)   bands (ev):

   -23.1372 -23.1372 -11.1137 -11.1137  -9.3567  -9.3567  -8.5711  -8.5711
    -0.1134  -0.1134   0.7913   0.7913   2.5263   2.5263   3.4322   3.4322

          k = 0.0947 0.1640 0.0000 (  5267 PWs)   bands (ev):

   -23.1283 -23.1283 -11.1032 -11.1032  -9.3802  -9.3802  -8.5875  -8.5875
    -0.1014  -0.1014   0.8034   0.8034   2.5385   2.5385   3.4442   3.4442

          k = 0.0953 0.1651 0.0000 (  5267 PWs)   bands (ev):

   -23.1194 -23.1194 -11.0927 -11.0927  -9.4037  -9.4037  -8.6041  -8.6041
    -0.0892  -0.0892   0.8157   0.8157   2.5507   2.5507   3.4563   3.4563

          k = 0.0960 0.1663 0.0000 (  5271 PWs)   bands (ev):

   -23.1104 -23.1104 -11.0821 -11.0821  -9.4273  -9.4273  -8.6207  -8.6207
    -0.0770  -0.0770   0.8280   0.8280   2.5631   2.5631   3.4685   3.4685

          k = 0.0967 0.1674 0.0000 (  5271 PWs)   bands (ev):

   -23.1014 -23.1014 -11.0714 -11.0714  -9.4510  -9.4510  -8.6374  -8.6374
    -0.0646  -0.0646   0.8404   0.8404   2.5755   2.5755   3.4807   3.4807

          k = 0.0973 0.1686 0.0000 (  5271 PWs)   bands (ev):

   -23.0923 -23.0923 -11.0606 -11.0606  -9.4747  -9.4747  -8.6541  -8.6541
    -0.0522  -0.0522   0.8529   0.8529   2.5880   2.5880   3.4930   3.4930

          k = 0.0980 0.1697 0.0000 (  5271 PWs)   bands (ev):

   -23.0832 -23.0832 -11.0498 -11.0498  -9.4984  -9.4984  -8.6709  -8.6709
    -0.0397  -0.0397   0.8654   0.8654   2.6006   2.6006   3.5055   3.5055

          k = 0.0987 0.1709 0.0000 (  5267 PWs)   bands (ev):

   -23.0740 -23.0740 -11.0389 -11.0389  -9.5222  -9.5222  -8.6878  -8.6878
    -0.0271  -0.0271   0.8781   0.8781   2.6133   2.6133   3.5179   3.5179

          k = 0.0993 0.1721 0.0000 (  5267 PWs)   bands (ev):

   -23.0647 -23.0647 -11.0279 -11.0279  -9.5460  -9.5460  -8.7048  -8.7048
    -0.0144  -0.0144   0.8908   0.8908   2.6260   2.6260   3.5305   3.5305

          k = 0.1000 0.1732 0.0000 (  5269 PWs)   bands (ev):

   -23.0554 -23.0554 -11.0169 -11.0169  -9.5699  -9.5699  -8.7219  -8.7219
    -0.0017  -0.0017   0.9036   0.9036   2.6389   2.6389   3.5432   3.5432

          k = 0.1007 0.1744 0.0000 (  5269 PWs)   bands (ev):

   -23.0460 -23.0460 -11.0058 -11.0058  -9.5938  -9.5938  -8.7390  -8.7390
     0.0112   0.0112   0.9165   0.9165   2.6518   2.6518   3.5559   3.5559

          k = 0.1013 0.1755 0.0000 (  5269 PWs)   bands (ev):

   -23.0365 -23.0365 -10.9946 -10.9946  -9.6178  -9.6178  -8.7562  -8.7562
     0.0241   0.0241   0.9295   0.9295   2.6649   2.6649   3.5688   3.5688

          k = 0.1020 0.1767 0.0000 (  5269 PWs)   bands (ev):

   -23.0270 -23.0270 -10.9833 -10.9833  -9.6418  -9.6418  -8.7734  -8.7734
     0.0371   0.0371   0.9426   0.9426   2.6780   2.6780   3.5817   3.5817

          k = 0.1027 0.1778 0.0000 (  5269 PWs)   bands (ev):

   -23.0174 -23.0174 -10.9720 -10.9720  -9.6658  -9.6658  -8.7908  -8.7908
     0.0502   0.0502   0.9558   0.9558   2.6912   2.6912   3.5947   3.5947

          k = 0.1033 0.1790 0.0000 (  5263 PWs)   bands (ev):

   -23.0078 -23.0078 -10.9606 -10.9606  -9.6899  -9.6899  -8.8081  -8.8081
     0.0634   0.0634   0.9690   0.9690   2.7044   2.7044   3.6077   3.6077

          k = 0.1040 0.1801 0.0000 (  5263 PWs)   bands (ev):

   -22.9981 -22.9981 -10.9492 -10.9492  -9.7140  -9.7140  -8.8256  -8.8256
     0.0767   0.0767   0.9823   0.9823   2.7178   2.7178   3.6209   3.6209

          k = 0.1047 0.1813 0.0000 (  5262 PWs)   bands (ev):

   -22.9883 -22.9883 -10.9376 -10.9376  -9.7381  -9.7381  -8.8431  -8.8431
     0.0900   0.0900   0.9957   0.9957   2.7313   2.7313   3.6341   3.6341

          k = 0.1053 0.1824 0.0000 (  5262 PWs)   bands (ev):

   -22.9785 -22.9785 -10.9260 -10.9260  -9.7623  -9.7623  -8.8607  -8.8607
     0.1034   0.1034   1.0092   1.0092   2.7448   2.7448   3.6475   3.6475

          k = 0.1060 0.1836 0.0000 (  5262 PWs)   bands (ev):

   -22.9686 -22.9686 -10.9143 -10.9143  -9.7865  -9.7865  -8.8784  -8.8784
     0.1170   0.1170   1.0228   1.0228   2.7584   2.7584   3.6609   3.6609

          k = 0.1067 0.1848 0.0000 (  5262 PWs)   bands (ev):

   -22.9586 -22.9586 -10.9026 -10.9026  -9.8107  -9.8107  -8.8961  -8.8961
     0.1306   0.1306   1.0365   1.0365   2.7722   2.7722   3.6744   3.6744

          k = 0.1073 0.1859 0.0000 (  5262 PWs)   bands (ev):

   -22.9486 -22.9486 -10.8908 -10.8908  -9.8350  -9.8350  -8.9139  -8.9139
     0.1443   0.1443   1.0502   1.0502   2.7860   2.7860   3.6879   3.6879

          k = 0.1080 0.1871 0.0000 (  5262 PWs)   bands (ev):

   -22.9386 -22.9386 -10.8789 -10.8789  -9.8593  -9.8593  -8.9317  -8.9317
     0.1581   0.1581   1.0641   1.0641   2.7998   2.7998   3.7016   3.7016

          k = 0.1087 0.1882 0.0000 (  5258 PWs)   bands (ev):

   -22.9284 -22.9284 -10.8669 -10.8669  -9.8836  -9.8836  -8.9496  -8.9496
     0.1719   0.1719   1.0780   1.0780   2.8138   2.8138   3.7153   3.7153

          k = 0.1093 0.1894 0.0000 (  5258 PWs)   bands (ev):

   -22.9183 -22.9183 -10.8549 -10.8549  -9.9080  -9.9080  -8.9676  -8.9676
     0.1859   0.1859   1.0920   1.0920   2.8279   2.8279   3.7291   3.7291

          k = 0.1100 0.1905 0.0000 (  5258 PWs)   bands (ev):

   -22.9080 -22.9080 -10.8428 -10.8428  -9.9324  -9.9324  -8.9857  -8.9857
     0.1999   0.1999   1.1061   1.1061   2.8420   2.8420   3.7430   3.7430

          k = 0.1107 0.1917 0.0000 (  5258 PWs)   bands (ev):

   -22.8977 -22.8977 -10.8307 -10.8307  -9.9568  -9.9568  -9.0037  -9.0037
     0.2140   0.2140   1.1203   1.1203   2.8562   2.8562   3.7570   3.7570

          k = 0.1113 0.1928 0.0000 (  5258 PWs)   bands (ev):

   -22.8873 -22.8873 -10.8184 -10.8184  -9.9812  -9.9812  -9.0219  -9.0219
     0.2282   0.2282   1.1345   1.1345   2.8706   2.8706   3.7711   3.7711

          k = 0.1120 0.1940 0.0000 (  5258 PWs)   bands (ev):

   -22.8769 -22.8769 -10.8061 -10.8061 -10.0057 -10.0057  -9.0401  -9.0401
     0.2425   0.2425   1.1489   1.1489   2.8850   2.8850   3.7852   3.7852

          k = 0.1127 0.1951 0.0000 (  5258 PWs)   bands (ev):

   -22.8664 -22.8664 -10.7938 -10.7938 -10.0301 -10.0301  -9.0584  -9.0584
     0.2569   0.2569   1.1633   1.1633   2.8995   2.8995   3.7995   3.7995

          k = 0.1133 0.1963 0.0000 (  5258 PWs)   bands (ev):

   -22.8558 -22.8558 -10.7813 -10.7813 -10.0546 -10.0546  -9.0767  -9.0767
     0.2713   0.2713   1.1778   1.1778   2.9140   2.9140   3.8138   3.8138

          k = 0.1140 0.1975 0.0000 (  5258 PWs)   bands (ev):

   -22.8452 -22.8452 -10.7688 -10.7688 -10.0792 -10.0792  -9.0951  -9.0951
     0.2859   0.2859   1.1924   1.1924   2.9287   2.9287   3.8282   3.8282

          k = 0.1147 0.1986 0.0000 (  5258 PWs)   bands (ev):

   -22.8345 -22.8345 -10.7562 -10.7562 -10.1037 -10.1037  -9.1135  -9.1135
     0.3005   0.3005   1.2071   1.2071   2.9434   2.9434   3.8426   3.8426

          k = 0.1153 0.1998 0.0000 (  5258 PWs)   bands (ev):

   -22.8238 -22.8238 -10.7436 -10.7436 -10.1283 -10.1283  -9.1320  -9.1320
     0.3152   0.3152   1.2218   1.2218   2.9583   2.9583   3.8572   3.8572

          k = 0.1160 0.2009 0.0000 (  5258 PWs)   bands (ev):

   -22.8130 -22.8130 -10.7309 -10.7309 -10.1529 -10.1529  -9.1506  -9.1506
     0.3300   0.3300   1.2367   1.2367   2.9732   2.9732   3.8718   3.8718

          k = 0.1167 0.2021 0.0000 (  5260 PWs)   bands (ev):

   -22.8021 -22.8021 -10.7181 -10.7181 -10.1775 -10.1775  -9.1692  -9.1692
     0.3449   0.3449   1.2516   1.2516   2.9882   2.9882   3.8865   3.8865

          k = 0.1173 0.2032 0.0000 (  5262 PWs)   bands (ev):

   -22.7912 -22.7912 -10.7052 -10.7052 -10.2021 -10.2021  -9.1879  -9.1879
     0.3599   0.3599   1.2666   1.2666   3.0033   3.0033   3.9013   3.9013

          k = 0.1180 0.2044 0.0000 (  5262 PWs)   bands (ev):

   -22.7802 -22.7802 -10.6923 -10.6923 -10.2267 -10.2267  -9.2066  -9.2066
     0.3749   0.3749   1.2817   1.2817   3.0185   3.0185   3.9162   3.9162

          k = 0.1187 0.2055 0.0000 (  5264 PWs)   bands (ev):

   -22.7692 -22.7692 -10.6793 -10.6793 -10.2514 -10.2514  -9.2253  -9.2253
     0.3901   0.3901   1.2969   1.2969   3.0337   3.0337   3.9312   3.9312

          k = 0.1193 0.2067 0.0000 (  5260 PWs)   bands (ev):

   -22.7581 -22.7581 -10.6662 -10.6662 -10.2760 -10.2760  -9.2442  -9.2442
     0.4053   0.4053   1.3122   1.3122   3.0491   3.0491   3.9462   3.9462

          k = 0.1200 0.2078 0.0000 (  5264 PWs)   bands (ev):

   -22.7469 -22.7469 -10.6531 -10.6531 -10.3007 -10.3007  -9.2630  -9.2630
     0.4206   0.4206   1.3275   1.3275   3.0645   3.0645   3.9614   3.9614

          k = 0.1207 0.2090 0.0000 (  5264 PWs)   bands (ev):

   -22.7357 -22.7357 -10.6399 -10.6399 -10.3254 -10.3254  -9.2820  -9.2820
     0.4360   0.4360   1.3429   1.3429   3.0800   3.0800   3.9766   3.9766

          k = 0.1213 0.2102 0.0000 (  5260 PWs)   bands (ev):

   -22.7244 -22.7244 -10.6267 -10.6267 -10.3501 -10.3501  -9.3009  -9.3009
     0.4515   0.4515   1.3585   1.3585   3.0956   3.0956   3.9918   3.9918

          k = 0.1220 0.2113 0.0000 (  5264 PWs)   bands (ev):

   -22.7131 -22.7131 -10.6133 -10.6133 -10.3748 -10.3748  -9.3199  -9.3199
     0.4671   0.4671   1.3741   1.3741   3.1113   3.1113   4.0072   4.0072

          k = 0.1227 0.2125 0.0000 (  5260 PWs)   bands (ev):

   -22.7017 -22.7017 -10.5999 -10.5999 -10.3996 -10.3996  -9.3390  -9.3390
     0.4827   0.4827   1.3898   1.3898   3.1271   3.1271   4.0227   4.0227

          k = 0.1233 0.2136 0.0000 (  5264 PWs)   bands (ev):

   -22.6902 -22.6902 -10.5865 -10.5865 -10.4243 -10.4243  -9.3581  -9.3581
     0.4984   0.4984   1.4055   1.4055   3.1429   3.1429   4.0204   4.0204

          k = 0.1240 0.2148 0.0000 (  5264 PWs)   bands (ev):

   -22.6787 -22.6787 -10.5729 -10.5729 -10.4491 -10.4491  -9.3773  -9.3773
     0.5143   0.5143   1.4214   1.4214   3.1589   3.1589   3.9922   3.9922

          k = 0.1247 0.2159 0.0000 (  5264 PWs)   bands (ev):

   -22.6671 -22.6671 -10.5593 -10.5593 -10.4738 -10.4738  -9.3965  -9.3965
     0.5302   0.5302   1.4373   1.4373   3.1749   3.1749   3.9639   3.9639

          k = 0.1253 0.2171 0.0000 (  5264 PWs)   bands (ev):

   -22.6555 -22.6555 -10.5456 -10.5456 -10.4986 -10.4986  -9.4157  -9.4157
     0.5461   0.5461   1.4533   1.4533   3.1910   3.1910   3.9356   3.9356

          k = 0.1260 0.2182 0.0000 (  5260 PWs)   bands (ev):

   -22.6437 -22.6437 -10.5320 -10.5320 -10.5233 -10.5233  -9.4350  -9.4350
     0.5622   0.5622   1.4694   1.4694   3.2073   3.2073   3.9073   3.9073

          k = 0.1267 0.2194 0.0000 (  5260 PWs)   bands (ev):

   -22.6320 -22.6320 -10.5482 -10.5482 -10.5180 -10.5180  -9.4544  -9.4544
     0.5784   0.5784   1.4856   1.4856   3.2235   3.2235   3.8789   3.8789

          k = 0.1273 0.2205 0.0000 (  5260 PWs)   bands (ev):

   -22.6202 -22.6202 -10.5730 -10.5730 -10.5042 -10.5042  -9.4738  -9.4738
     0.5946   0.5946   1.5019   1.5019   3.2399   3.2399   3.8504   3.8504

          k = 0.1280 0.2217 0.0000 (  5260 PWs)   bands (ev):

   -22.6083 -22.6083 -10.5977 -10.5977 -10.4902 -10.4902  -9.4932  -9.4932
     0.6109   0.6109   1.5182   1.5182   3.2564   3.2564   3.8219   3.8219

          k = 0.1287 0.2229 0.0000 (  5260 PWs)   bands (ev):

   -22.5963 -22.5963 -10.6225 -10.6225 -10.4762 -10.4762  -9.5127  -9.5127
     0.6273   0.6273   1.5347   1.5347   3.2729   3.2729   3.7934   3.7934

          k = 0.1293 0.2240 0.0000 (  5264 PWs)   bands (ev):

   -22.5843 -22.5843 -10.6473 -10.6473 -10.4622 -10.4622  -9.5322  -9.5322
     0.6438   0.6438   1.5512   1.5512   3.2896   3.2896   3.7648   3.7648

          k = 0.1300 0.2252 0.0000 (  5260 PWs)   bands (ev):

   -22.5722 -22.5722 -10.6721 -10.6721 -10.4480 -10.4480  -9.5517  -9.5517
     0.6604   0.6604   1.5678   1.5678   3.3063   3.3063   3.7361   3.7361

          k = 0.1307 0.2263 0.0000 (  5260 PWs)   bands (ev):

   -22.5601 -22.5601 -10.6970 -10.6970 -10.4338 -10.4338  -9.5713  -9.5713
     0.6771   0.6771   1.5845   1.5845   3.3231   3.3231   3.7075   3.7075

          k = 0.1313 0.2275 0.0000 (  5268 PWs)   bands (ev):

   -22.5479 -22.5479 -10.7218 -10.7218 -10.4195 -10.4195  -9.5910  -9.5910
     0.6938   0.6938   1.6013   1.6013   3.3400   3.3400   3.6787   3.6787

          k = 0.1320 0.2286 0.0000 (  5264 PWs)   bands (ev):

   -22.5357 -22.5357 -10.7466 -10.7466 -10.4052 -10.4052  -9.6106  -9.6106
     0.7107   0.7107   1.6181   1.6181   3.3570   3.3570   3.6500   3.6500

          k = 0.1327 0.2298 0.0000 (  5264 PWs)   bands (ev):

   -22.5234 -22.5234 -10.7714 -10.7714 -10.3908 -10.3908  -9.6304  -9.6304
     0.7276   0.7276   1.6350   1.6350   3.3740   3.3740   3.6212   3.6212

          k = 0.1333 0.2309 0.0000 (  5260 PWs)   bands (ev):

   -22.5110 -22.5110 -10.7962 -10.7962 -10.3763 -10.3763  -9.6501  -9.6501
     0.7446   0.7446   1.6521   1.6521   3.3912   3.3912   3.5923   3.5923

          k = 0.1340 0.2321 0.0000 (  5268 PWs)   bands (ev):

   -22.4986 -22.4986 -10.8210 -10.8210 -10.3618 -10.3618  -9.6699  -9.6699
     0.7617   0.7617   1.6692   1.6692   3.4084   3.4084   3.5635   3.5635

          k = 0.1347 0.2332 0.0000 (  5272 PWs)   bands (ev):

   -22.4861 -22.4861 -10.8458 -10.8458 -10.3471 -10.3471  -9.6897  -9.6897
     0.7789   0.7789   1.6863   1.6863   3.4257   3.4257   3.5345   3.5345

          k = 0.1353 0.2344 0.0000 (  5272 PWs)   bands (ev):

   -22.4735 -22.4735 -10.8707 -10.8707 -10.3325 -10.3325  -9.7096  -9.7096
     0.7961   0.7961   1.7036   1.7036   3.4431   3.4431   3.5056   3.5056

          k = 0.1360 0.2356 0.0000 (  5272 PWs)   bands (ev):

   -22.4609 -22.4609 -10.8955 -10.8955 -10.3177 -10.3177  -9.7295  -9.7295
     0.8135   0.8135   1.7209   1.7209   3.4606   3.4606   3.4766   3.4766

          k = 0.1367 0.2367 0.0000 (  5272 PWs)   bands (ev):

   -22.4483 -22.4483 -10.9203 -10.9203 -10.3029 -10.3029  -9.7494  -9.7494
     0.8309   0.8309   1.7384   1.7384   3.4476   3.4476   3.4782   3.4782

          k = 0.1373 0.2379 0.0000 (  5272 PWs)   bands (ev):

   -22.4356 -22.4356 -10.9451 -10.9451 -10.2880 -10.2880  -9.7694  -9.7694
     0.8484   0.8484   1.7559   1.7559   3.4185   3.4185   3.4959   3.4959

          k = 0.1380 0.2390 0.0000 (  5276 PWs)   bands (ev):

   -22.4228 -22.4228 -10.9699 -10.9699 -10.2731 -10.2731  -9.7894  -9.7894
     0.8660   0.8660   1.7735   1.7735   3.3894   3.3894   3.5136   3.5136

          k = 0.1387 0.2402 0.0000 (  5272 PWs)   bands (ev):

   -22.4099 -22.4099 -10.9947 -10.9947 -10.2581 -10.2581  -9.8094  -9.8094
     0.8837   0.8837   1.7912   1.7912   3.3603   3.3603   3.5314   3.5314

          k = 0.1393 0.2413 0.0000 (  5272 PWs)   bands (ev):

   -22.3970 -22.3970 -11.0195 -11.0195 -10.2430 -10.2430  -9.8295  -9.8295
     0.9014   0.9014   1.8089   1.8089   3.3312   3.3312   3.5494   3.5494

          k = 0.1400 0.2425 0.0000 (  5272 PWs)   bands (ev):

   -22.3841 -22.3841 -11.0442 -11.0442 -10.2279 -10.2279  -9.8496  -9.8496
     0.9193   0.9193   1.8268   1.8268   3.3020   3.3020   3.5674   3.5674

          k = 0.1407 0.2436 0.0000 (  5272 PWs)   bands (ev):

   -22.3710 -22.3710 -11.0690 -11.0690 -10.2127 -10.2127  -9.8697  -9.8697
     0.9372   0.9372   1.8447   1.8447   3.2728   3.2728   3.5854   3.5854

          k = 0.1413 0.2448 0.0000 (  5272 PWs)   bands (ev):

   -22.3579 -22.3579 -11.0938 -11.0938 -10.1974 -10.1974  -9.8898  -9.8898
     0.9552   0.9552   1.8627   1.8627   3.2435   3.2435   3.6036   3.6036

          k = 0.1420 0.2460 0.0000 (  5270 PWs)   bands (ev):

   -22.3448 -22.3448 -11.1186 -11.1186 -10.1821 -10.1821  -9.9100  -9.9100
     0.9733   0.9733   1.8808   1.8808   3.2143   3.2143   3.6219   3.6219

          k = 0.1427 0.2471 0.0000 (  5270 PWs)   bands (ev):

   -22.3316 -22.3316 -11.1433 -11.1433 -10.1667 -10.1667  -9.9303  -9.9303
     0.9915   0.9915   1.8990   1.8990   3.1850   3.1850   3.6402   3.6402

          k = 0.1433 0.2483 0.0000 (  5270 PWs)   bands (ev):

   -22.3183 -22.3183 -11.1681 -11.1681 -10.1512 -10.1512  -9.9505  -9.9505
     1.0098   1.0098   1.9172   1.9172   3.1557   3.1557   3.6587   3.6587

          k = 0.1440 0.2494 0.0000 (  5276 PWs)   bands (ev):

   -22.3050 -22.3050 -11.1928 -11.1928 -10.1357 -10.1357  -9.9708  -9.9708
     1.0281   1.0281   1.9356   1.9356   3.1263   3.1263   3.6772   3.6772

          k = 0.1447 0.2506 0.0000 (  5276 PWs)   bands (ev):

   -22.2916 -22.2916 -11.2175 -11.2175 -10.1201 -10.1201  -9.9911  -9.9911
     1.0466   1.0466   1.9540   1.9540   3.0969   3.0969   3.6958   3.6958

          k = 0.1453 0.2517 0.0000 (  5280 PWs)   bands (ev):

   -22.2782 -22.2782 -11.2423 -11.2423 -10.1045 -10.1045 -10.0114 -10.0114
     1.0651   1.0651   1.9725   1.9725   3.0676   3.0676   3.7145   3.7145

          k = 0.1460 0.2529 0.0000 (  5280 PWs)   bands (ev):

   -22.2647 -22.2647 -11.2670 -11.2670 -10.0888 -10.0888 -10.0317 -10.0317
     1.0837   1.0837   1.9910   1.9910   3.0381   3.0381   3.7332   3.7332

          k = 0.1467 0.2540 0.0000 (  5280 PWs)   bands (ev):

   -22.2512 -22.2512 -11.2917 -11.2917 -10.0730 -10.0730 -10.0521 -10.0521
     1.1024   1.1024   2.0097   2.0097   3.0087   3.0087   3.7521   3.7521

          k = 0.1473 0.2552 0.0000 (  5276 PWs)   bands (ev):

   -22.2375 -22.2375 -11.3164 -11.3164 -10.0726 -10.0726 -10.0570 -10.0570
     1.1212   1.1212   2.0285   2.0285   2.9792   2.9792   3.7710   3.7710

          k = 0.1480 0.2563 0.0000 (  5276 PWs)   bands (ev):

   -22.2239 -22.2239 -11.3411 -11.3411 -10.0930 -10.0930 -10.0412 -10.0412
     1.1400   1.1400   2.0473   2.0473   2.9498   2.9498   3.7900   3.7900

          k = 0.1487 0.2575 0.0000 (  5276 PWs)   bands (ev):

   -22.2101 -22.2101 -11.3657 -11.3657 -10.1135 -10.1135 -10.0252 -10.0252
     1.1590   1.1590   2.0662   2.0662   2.9203   2.9203   3.8092   3.8092

          k = 0.1493 0.2587 0.0000 (  5280 PWs)   bands (ev):

   -22.1963 -22.1963 -11.3904 -11.3904 -10.1339 -10.1339 -10.0092 -10.0092
     1.1780   1.1780   2.0852   2.0852   2.8907   2.8907   3.8284   3.8284

          k = 0.1500 0.2598 0.0000 (  5280 PWs)   bands (ev):

   -22.1825 -22.1825 -11.4150 -11.4150 -10.1544 -10.1544  -9.9931  -9.9931
     1.1971   1.1971   2.1042   2.1042   2.8612   2.8612   3.8476   3.8476

          k = 0.1507 0.2610 0.0000 (  5280 PWs)   bands (ev):

   -22.1686 -22.1686 -11.4396 -11.4396 -10.1750 -10.1750  -9.9769  -9.9769
     1.2163   1.2163   2.1234   2.1234   2.8317   2.8317   3.8670   3.8670

          k = 0.1513 0.2621 0.0000 (  5280 PWs)   bands (ev):

   -22.1546 -22.1546 -11.4643 -11.4643 -10.1955 -10.1955  -9.9607  -9.9607
     1.2356   1.2356   2.1426   2.1426   2.8021   2.8021   3.8865   3.8865

          k = 0.1520 0.2633 0.0000 (  5282 PWs)   bands (ev):

   -22.1406 -22.1406 -11.4889 -11.4889 -10.2161 -10.2161  -9.9444  -9.9444
     1.2550   1.2550   2.1619   2.1619   2.7725   2.7725   3.9060   3.9060

          k = 0.1527 0.2644 0.0000 (  5282 PWs)   bands (ev):

   -22.1265 -22.1265 -11.5135 -11.5135 -10.2367 -10.2367  -9.9281  -9.9281
     1.2744   1.2744   2.1813   2.1813   2.7429   2.7429   3.9256   3.9256

          k = 0.1533 0.2656 0.0000 (  5286 PWs)   bands (ev):

   -22.1124 -22.1124 -11.5380 -11.5380 -10.2573 -10.2573  -9.9117  -9.9117
     1.2939   1.2939   2.2008   2.2008   2.7133   2.7133   3.9453   3.9453

          k = 0.1540 0.2667 0.0000 (  5286 PWs)   bands (ev):

   -22.0982 -22.0982 -11.5626 -11.5626 -10.2779 -10.2779  -9.8952  -9.8952
     1.3135   1.3135   2.2203   2.2203   2.6837   2.6837   3.9651   3.9651

          k = 0.1547 0.2679 0.0000 (  5286 PWs)   bands (ev):

   -22.0839 -22.0839 -11.5871 -11.5871 -10.2985 -10.2985  -9.8787  -9.8787
     1.3332   1.3332   2.2400   2.2400   2.6540   2.6540   3.9850   3.9850

          k = 0.1553 0.2690 0.0000 (  5282 PWs)   bands (ev):

   -22.0696 -22.0696 -11.6116 -11.6116 -10.3192 -10.3192  -9.8621  -9.8621
     1.3530   1.3530   2.2597   2.2597   2.6244   2.6244   4.0050   4.0050

          k = 0.1560 0.2702 0.0000 (  5282 PWs)   bands (ev):

   -22.0552 -22.0552 -11.6361 -11.6361 -10.3399 -10.3399  -9.8454  -9.8454
     1.3729   1.3729   2.2795   2.2795   2.5947   2.5947   4.0250   4.0250

          k = 0.1567 0.2714 0.0000 (  5286 PWs)   bands (ev):

   -22.0408 -22.0408 -11.6606 -11.6606 -10.3606 -10.3606  -9.8287  -9.8287
     1.3928   1.3928   2.2994   2.2994   2.5650   2.5650   4.0451   4.0451

          k = 0.1573 0.2725 0.0000 (  5286 PWs)   bands (ev):

   -22.0263 -22.0263 -11.6851 -11.6851 -10.3813 -10.3813  -9.8119  -9.8119
     1.4129   1.4129   2.3193   2.3193   2.5353   2.5353   4.0654   4.0654

          k = 0.1580 0.2737 0.0000 (  5286 PWs)   bands (ev):

   -22.0117 -22.0117 -11.7096 -11.7096 -10.4021 -10.4021  -9.7950  -9.7950
     1.4330   1.4330   2.3393   2.3393   2.5056   2.5056   4.0857   4.0857

          k = 0.1587 0.2748 0.0000 (  5286 PWs)   bands (ev):

   -21.9971 -21.9971 -11.7340 -11.7340 -10.4228 -10.4228  -9.7781  -9.7781
     1.4532   1.4532   2.3595   2.3595   2.4759   2.4759   4.1060   4.1060

          k = 0.1593 0.2760 0.0000 (  5286 PWs)   bands (ev):

   -21.9824 -21.9824 -11.7584 -11.7584 -10.4436 -10.4436  -9.7612  -9.7612
     1.4735   1.4735   2.3797   2.3797   2.4462   2.4462   4.1265   4.1265

          k = 0.1600 0.2771 0.0000 (  5286 PWs)   bands (ev):

   -21.9677 -21.9677 -11.7828 -11.7828 -10.4644 -10.4644  -9.7441  -9.7441
     1.4939   1.4939   2.3999   2.3999   2.4165   2.4165   4.1471   4.1471

          k = 0.1607 0.2783 0.0000 (  5286 PWs)   bands (ev):

   -21.9529 -21.9529 -11.8072 -11.8072 -10.4851 -10.4851  -9.7270  -9.7270
     1.5143   1.5143   2.3868   2.3868   2.4203   2.4203   4.1677   4.1677

          k = 0.1613 0.2794 0.0000 (  5290 PWs)   bands (ev):

   -21.9381 -21.9381 -11.8315 -11.8315 -10.5060 -10.5060  -9.7099  -9.7099
     1.5348   1.5348   2.3571   2.3571   2.4407   2.4407   4.1884   4.1884

          k = 0.1620 0.2806 0.0000 (  5290 PWs)   bands (ev):

   -21.9232 -21.9232 -11.8559 -11.8559 -10.5268 -10.5268  -9.6927  -9.6927
     1.5555   1.5555   2.3273   2.3273   2.4612   2.4612   4.2092   4.2092

          k = 0.1627 0.2817 0.0000 (  5288 PWs)   bands (ev):

   -21.9082 -21.9082 -11.8802 -11.8802 -10.5476 -10.5476  -9.6754  -9.6754
     1.5762   1.5762   2.2976   2.2976   2.4818   2.4818   4.2301   4.2301

          k = 0.1633 0.2829 0.0000 (  5288 PWs)   bands (ev):

   -21.8932 -21.8932 -11.9045 -11.9045 -10.5685 -10.5685  -9.6581  -9.6581
     1.5970   1.5970   2.2678   2.2678   2.5025   2.5025   4.2511   4.2511

          k = 0.1640 0.2841 0.0000 (  5288 PWs)   bands (ev):

   -21.8781 -21.8781 -11.9288 -11.9288 -10.5893 -10.5893  -9.6407  -9.6407
     1.6178   1.6178   2.2381   2.2381   2.5232   2.5232   4.2722   4.2722

          k = 0.1647 0.2852 0.0000 (  5288 PWs)   bands (ev):

   -21.8630 -21.8630 -11.9530 -11.9530 -10.6102 -10.6102  -9.6232  -9.6232
     1.6388   1.6388   2.2083   2.2083   2.5440   2.5440   4.2933   4.2933

          k = 0.1653 0.2864 0.0000 (  5288 PWs)   bands (ev):

   -21.8478 -21.8478 -11.9772 -11.9772 -10.6311 -10.6311  -9.6057  -9.6057
     1.6598   1.6598   2.1786   2.1786   2.5650   2.5650   4.3146   4.3146

          k = 0.1660 0.2875 0.0000 (  5288 PWs)   bands (ev):

   -21.8326 -21.8326 -12.0014 -12.0014 -10.6519 -10.6519  -9.5881  -9.5881
     1.6809   1.6809   2.1488   2.1488   2.5859   2.5859   4.3359   4.3359

          k = 0.1667 0.2887 0.0000 (  5288 PWs)   bands (ev):

   -21.8173 -21.8173 -12.0256 -12.0256 -10.6728 -10.6728  -9.5705  -9.5705
     1.7021   1.7021   2.1191   2.1191   2.6070   2.6070   4.3573   4.3573

          k = 0.1673 0.2898 0.0000 (  5284 PWs)   bands (ev):

   -21.8019 -21.8019 -12.0498 -12.0498 -10.6938 -10.6938  -9.5528  -9.5528
     1.7234   1.7234   2.0893   2.0893   2.6281   2.6281   4.3788   4.3788

          k = 0.1680 0.2910 0.0000 (  5284 PWs)   bands (ev):

   -21.7865 -21.7865 -12.0739 -12.0739 -10.7147 -10.7147  -9.5350  -9.5350
     1.7448   1.7448   2.0596   2.0596   2.6494   2.6494   4.4003   4.4003

          k = 0.1687 0.2921 0.0000 (  5280 PWs)   bands (ev):

   -21.7710 -21.7710 -12.0980 -12.0980 -10.7356 -10.7356  -9.5172  -9.5172
     1.7662   1.7662   2.0298   2.0298   2.6706   2.6706   4.4220   4.4220

          k = 0.1693 0.2933 0.0000 (  5278 PWs)   bands (ev):

   -21.7555 -21.7555 -12.1221 -12.1221 -10.7565 -10.7565  -9.4994  -9.4994
     1.7878   1.7878   2.0001   2.0001   2.6920   2.6920   4.4437   4.4437

          k = 0.1700 0.2944 0.0000 (  5278 PWs)   bands (ev):

   -21.7399 -21.7399 -12.1462 -12.1462 -10.7775 -10.7775  -9.4814  -9.4814
     1.8094   1.8094   1.9704   1.9704   2.7135   2.7135   4.4655   4.4655

          k = 0.1707 0.2956 0.0000 (  5278 PWs)   bands (ev):

   -21.7243 -21.7243 -12.1702 -12.1702 -10.7984 -10.7984  -9.4635  -9.4635
     1.8311   1.8311   1.9406   1.9406   2.7350   2.7350   4.4874   4.4874

          k = 0.1713 0.2968 0.0000 (  5278 PWs)   bands (ev):

   -21.7086 -21.7086 -12.1942 -12.1942 -10.8193 -10.8193  -9.4454  -9.4454
     1.8529   1.8529   1.9109   1.9109   2.7566   2.7566   4.5094   4.5094

          k = 0.1720 0.2979 0.0000 (  5278 PWs)   bands (ev):

   -21.6928 -21.6928 -12.2182 -12.2182 -10.8403 -10.8403  -9.4273  -9.4273
     1.8748   1.8748   1.8811   1.8811   2.7783   2.7783   4.5315   4.5315

          k = 0.1727 0.2991 0.0000 (  5278 PWs)   bands (ev):

   -21.6770 -21.6770 -12.2422 -12.2422 -10.8613 -10.8613  -9.4091  -9.4091
     1.8514   1.8514   1.8967   1.8967   2.8000   2.8000   4.5537   4.5537

          k = 0.1733 0.3002 0.0000 (  5274 PWs)   bands (ev):

   -21.6611 -21.6611 -12.2661 -12.2661 -10.8822 -10.8822  -9.3909  -9.3909
     1.8217   1.8217   1.9187   1.9187   2.8219   2.8219   4.5759   4.5759

          k = 0.1740 0.3014 0.0000 (  5266 PWs)   bands (ev):

   -21.6452 -21.6452 -12.2901 -12.2901 -10.9032 -10.9032  -9.3727  -9.3727
     1.7920   1.7920   1.9409   1.9409   2.8438   2.8438   4.5982   4.5982

          k = 0.1747 0.3025 0.0000 (  5266 PWs)   bands (ev):

   -21.6292 -21.6292 -12.3139 -12.3139 -10.9242 -10.9242  -9.3543  -9.3543
     1.7623   1.7623   1.9631   1.9631   2.8658   2.8658   4.6206   4.6206

          k = 0.1753 0.3037 0.0000 (  5258 PWs)   bands (ev):

   -21.6131 -21.6131 -12.3378 -12.3378 -10.9451 -10.9451  -9.3359  -9.3359
     1.7326   1.7326   1.9854   1.9854   2.8878   2.8878   4.6431   4.6431

          k = 0.1760 0.3048 0.0000 (  5266 PWs)   bands (ev):

   -21.5970 -21.5970 -12.3616 -12.3616 -10.9661 -10.9661  -9.3175  -9.3175
     1.7029   1.7029   2.0077   2.0077   2.9100   2.9100   4.6657   4.6657

          k = 0.1767 0.3060 0.0000 (  5270 PWs)   bands (ev):

   -21.5809 -21.5809 -12.3854 -12.3854 -10.9871 -10.9871  -9.2990  -9.2990
     1.6732   1.6732   2.0302   2.0302   2.9322   2.9322   4.6884   4.6884

          k = 0.1773 0.3072 0.0000 (  5270 PWs)   bands (ev):

   -21.5647 -21.5647 -12.4092 -12.4092 -11.0081 -11.0081  -9.2804  -9.2804
     1.6435   1.6435   2.0527   2.0527   2.9545   2.9545   4.7111   4.7111

          k = 0.1780 0.3083 0.0000 (  5270 PWs)   bands (ev):

   -21.5484 -21.5484 -12.4330 -12.4330 -11.0291 -11.0291  -9.2618  -9.2618
     1.6138   1.6138   2.0753   2.0753   2.9768   2.9768   4.7339   4.7339

          k = 0.1787 0.3095 0.0000 (  5270 PWs)   bands (ev):

   -21.5321 -21.5321 -12.4567 -12.4567 -11.0500 -11.0500  -9.2432  -9.2432
     1.5842   1.5842   2.0980   2.0980   2.9993   2.9993   4.7568   4.7568

          k = 0.1793 0.3106 0.0000 (  5270 PWs)   bands (ev):

   -21.5157 -21.5157 -12.4804 -12.4804 -11.0710 -11.0710  -9.2244  -9.2244
     1.5545   1.5545   2.1208   2.1208   3.0218   3.0218   4.7798   4.7798

          k = 0.1800 0.3118 0.0000 (  5278 PWs)   bands (ev):

   -21.4993 -21.4993 -12.5040 -12.5040 -11.0920 -11.0920  -9.2056  -9.2056
     1.5249   1.5249   2.1436   2.1436   3.0444   3.0444   4.8029   4.8029

          k = 0.1807 0.3129 0.0000 (  5278 PWs)   bands (ev):

   -21.4828 -21.4828 -12.5277 -12.5277 -11.1130 -11.1130  -9.1868  -9.1868
     1.4953   1.4953   2.1666   2.1666   3.0670   3.0670   4.8261   4.8261

          k = 0.1813 0.3141 0.0000 (  5274 PWs)   bands (ev):

   -21.4662 -21.4662 -12.5513 -12.5513 -11.1340 -11.1340  -9.1679  -9.1679
     1.4657   1.4657   2.1896   2.1896   3.0898   3.0898   4.8493   4.8493

          k = 0.1820 0.3152 0.0000 (  5274 PWs)   bands (ev):

   -21.4496 -21.4496 -12.5748 -12.5748 -11.1549 -11.1549  -9.1490  -9.1490
     1.4361   1.4361   2.2127   2.2127   3.1126   3.1126   4.8726   4.8726

          k = 0.1827 0.3164 0.0000 (  5274 PWs)   bands (ev):

   -21.4330 -21.4330 -12.5984 -12.5984 -11.1759 -11.1759  -9.1300  -9.1300
     1.4065   1.4065   2.2359   2.2359   3.1355   3.1355   4.8960   4.8960

          k = 0.1833 0.3175 0.0000 (  5278 PWs)   bands (ev):

   -21.4163 -21.4163 -12.6219 -12.6219 -11.1969 -11.1969  -9.1109  -9.1109
     1.3769   1.3769   2.2592   2.2592   3.1584   3.1584   4.9195   4.9195

          k = 0.1840 0.3187 0.0000 (  5278 PWs)   bands (ev):

   -21.3995 -21.3995 -12.6454 -12.6454 -11.2178 -11.2178  -9.0918  -9.0918
     1.3474   1.3474   2.2825   2.2825   3.1814   3.1814   4.9431   4.9431

          k = 0.1847 0.3199 0.0000 (  5282 PWs)   bands (ev):

   -21.3827 -21.3827 -12.6688 -12.6688 -11.2388 -11.2388  -9.0727  -9.0727
     1.3178   1.3178   2.3060   2.3060   3.2045   3.2045   4.9667   4.9667

          k = 0.1853 0.3210 0.0000 (  5282 PWs)   bands (ev):

   -21.3658 -21.3658 -12.6923 -12.6923 -11.2598 -11.2598  -9.0534  -9.0534
     1.2883   1.2883   2.3295   2.3295   3.2277   3.2277   4.9905   4.9905

          k = 0.1860 0.3222 0.0000 (  5282 PWs)   bands (ev):

   -21.3488 -21.3488 -12.7156 -12.7156 -11.2807 -11.2807  -9.0342  -9.0342
     1.2588   1.2588   2.3531   2.3531   3.2510   3.2510   5.0143   5.0143

          k = 0.1867 0.3233 0.0000 (  5282 PWs)   bands (ev):

   -21.3319 -21.3319 -12.7390 -12.7390 -11.3017 -11.3017  -9.0148  -9.0148
     1.2293   1.2293   2.3768   2.3768   3.2743   3.2743   5.0382   5.0382

          k = 0.1873 0.3245 0.0000 (  5278 PWs)   bands (ev):

   -21.3148 -21.3148 -12.7623 -12.7623 -11.3226 -11.3226  -8.9955  -8.9955
     1.1998   1.1998   2.4006   2.4006   3.2977   3.2977   5.0622   5.0622

          k = 0.1880 0.3256 0.0000 (  5274 PWs)   bands (ev):

   -21.2977 -21.2977 -12.7856 -12.7856 -11.3436 -11.3436  -8.9760  -8.9760
     1.1704   1.1704   2.4244   2.4244   3.3211   3.3211   5.0863   5.0863

          k = 0.1887 0.3268 0.0000 (  5276 PWs)   bands (ev):

   -21.2805 -21.2805 -12.8089 -12.8089 -11.3645 -11.3645  -8.9566  -8.9566
     1.1409   1.1409   2.4483   2.4483   3.3447   3.3447   5.1104   5.1104

          k = 0.1893 0.3279 0.0000 (  5276 PWs)   bands (ev):

   -21.2633 -21.2633 -12.8321 -12.8321 -11.3854 -11.3854  -8.9370  -8.9370
     1.1115   1.1115   2.4723   2.4723   3.3683   3.3683   5.1346   5.1346

          k = 0.1900 0.3291 0.0000 (  5276 PWs)   bands (ev):

   -21.2461 -21.2461 -12.8553 -12.8553 -11.4063 -11.4063  -8.9174  -8.9174
     1.0821   1.0821   2.4964   2.4964   3.3919   3.3919   5.1589   5.1589

          k = 0.1907 0.3302 0.0000 (  5276 PWs)   bands (ev):

   -21.2287 -21.2287 -12.8785 -12.8785 -11.4272 -11.4272  -8.8978  -8.8978
     1.0527   1.0527   2.5206   2.5206   3.4157   3.4157   5.1833   5.1833

          k = 0.1913 0.3314 0.0000 (  5272 PWs)   bands (ev):

   -21.2114 -21.2114 -12.9016 -12.9016 -11.4481 -11.4481  -8.8781  -8.8781
     1.0234   1.0234   2.5449   2.5449   3.4395   3.4395   5.2078   5.2078

          k = 0.1920 0.3326 0.0000 (  5272 PWs)   bands (ev):

   -21.1939 -21.1939 -12.9247 -12.9247 -11.4690 -11.4690  -8.8584  -8.8584
     0.9940   0.9940   2.5692   2.5692   3.4634   3.4634   5.2324   5.2324

          k = 0.1927 0.3337 0.0000 (  5276 PWs)   bands (ev):

   -21.1765 -21.1765 -12.9478 -12.9478 -11.4899 -11.4899  -8.8386  -8.8386
     0.9647   0.9647   2.5936   2.5936   3.4873   3.4873   5.2570   5.2570

          k = 0.1933 0.3349 0.0000 (  5276 PWs)   bands (ev):

   -21.1589 -21.1589 -12.9708 -12.9708 -11.5108 -11.5108  -8.8187  -8.8187
     0.9354   0.9354   2.6181   2.6181   3.5113   3.5113   5.2817   5.2817

          k = 0.1940 0.3360 0.0000 (  5276 PWs)   bands (ev):

   -21.1413 -21.1413 -12.9938 -12.9938 -11.5317 -11.5317  -8.7989  -8.7989
     0.9061   0.9061   2.6427   2.6427   3.5354   3.5354   5.3065   5.3065

          k = 0.1947 0.3372 0.0000 (  5276 PWs)   bands (ev):

   -21.1237 -21.1237 -13.0168 -13.0168 -11.5525 -11.5525  -8.7789  -8.7789
     0.8769   0.8769   2.6674   2.6674   3.5595   3.5595   5.3314   5.3314

          k = 0.1953 0.3383 0.0000 (  5280 PWs)   bands (ev):

   -21.1060 -21.1060 -13.0397 -13.0397 -11.5734 -11.5734  -8.7589  -8.7589
     0.8477   0.8477   2.6921   2.6921   3.5838   3.5838   5.3564   5.3564

          k = 0.1960 0.3395 0.0000 (  5284 PWs)   bands (ev):

   -21.0882 -21.0882 -13.0626 -13.0626 -11.5942 -11.5942  -8.7389  -8.7389
     0.8184   0.8184   2.7169   2.7169   3.6080   3.6080   5.3814   5.3814

          k = 0.1967 0.3406 0.0000 (  5288 PWs)   bands (ev):

   -21.0704 -21.0704 -13.0854 -13.0854 -11.6150 -11.6150  -8.7188  -8.7188
     0.7893   0.7893   2.7418   2.7418   3.6324   3.6324   5.4065   5.4065

          k = 0.1973 0.3418 0.0000 (  5284 PWs)   bands (ev):

   -21.0526 -21.0526 -13.1083 -13.1083 -11.6358 -11.6358  -8.6986  -8.6986
     0.7601   0.7601   2.7668   2.7668   3.6568   3.6568   5.4318   5.4318

          k = 0.1980 0.3429 0.0000 (  5284 PWs)   bands (ev):

   -21.0346 -21.0346 -13.1311 -13.1311 -11.6566 -11.6566  -8.6785  -8.6785
     0.7310   0.7310   2.7919   2.7919   3.6813   3.6813   5.4570   5.4570

          k = 0.1987 0.3441 0.0000 (  5284 PWs)   bands (ev):

   -21.0167 -21.0167 -13.1538 -13.1538 -11.6774 -11.6774  -8.6582  -8.6582
     0.7019   0.7019   2.8170   2.8170   3.7058   3.7058   5.4824   5.4824

          k = 0.1993 0.3453 0.0000 (  5282 PWs)   bands (ev):

   -20.9987 -20.9987 -13.1765 -13.1765 -11.6982 -11.6982  -8.6379  -8.6379
     0.6728   0.6728   2.8423   2.8423   3.7304   3.7304   5.5079   5.5079

          k = 0.2000 0.3464 0.0000 (  5282 PWs)   bands (ev):

   -20.9806 -20.9806 -13.1992 -13.1992 -11.7189 -11.7189  -8.6176  -8.6176
     0.6437   0.6437   2.8676   2.8676   3.7551   3.7551   5.5334   5.5334

          k = 0.2007 0.3476 0.0000 (  5282 PWs)   bands (ev):

   -20.9625 -20.9625 -13.2219 -13.2219 -11.7397 -11.7397  -8.5972  -8.5972
     0.6147   0.6147   2.8930   2.8930   3.7798   3.7798   5.5590   5.5590

          k = 0.2013 0.3487 0.0000 (  5282 PWs)   bands (ev):

   -20.9443 -20.9443 -13.2445 -13.2445 -11.7604 -11.7604  -8.5768  -8.5768
     0.5857   0.5857   2.9184   2.9184   3.8046   3.8046   5.5847   5.5847

          k = 0.2020 0.3499 0.0000 (  5282 PWs)   bands (ev):

   -20.9260 -20.9260 -13.2670 -13.2670 -11.7811 -11.7811  -8.5563  -8.5563
     0.5567   0.5567   2.9440   2.9440   3.8295   3.8295   5.6104   5.6104

          k = 0.2027 0.3510 0.0000 (  5282 PWs)   bands (ev):

   -20.9078 -20.9078 -13.2896 -13.2896 -11.8018 -11.8018  -8.5358  -8.5358
     0.5277   0.5277   2.9696   2.9696   3.8544   3.8544   5.6363   5.6363

          k = 0.2033 0.3522 0.0000 (  5282 PWs)   bands (ev):

   -20.8894 -20.8894 -13.3121 -13.3121 -11.8225 -11.8225  -8.5152  -8.5152
     0.4988   0.4988   2.9953   2.9953   3.8794   3.8794   5.6622   5.6622

          k = 0.2040 0.3533 0.0000 (  5278 PWs)   bands (ev):

   -20.8710 -20.8710 -13.3345 -13.3345 -11.8432 -11.8432  -8.4946  -8.4946
     0.4699   0.4699   3.0211   3.0211   3.9044   3.9044   5.6882   5.6882

          k = 0.2047 0.3545 0.0000 (  5278 PWs)   bands (ev):

   -20.8526 -20.8526 -13.3570 -13.3570 -11.8638 -11.8638  -8.4739  -8.4739
     0.4411   0.4411   3.0470   3.0470   3.9295   3.9295   5.7143   5.7143

          k = 0.2053 0.3556 0.0000 (  5278 PWs)   bands (ev):

   -20.8341 -20.8341 -13.3793 -13.3793 -11.8844 -11.8844  -8.4532  -8.4532
     0.4122   0.4122   3.0729   3.0729   3.9547   3.9547   5.7404   5.7404

          k = 0.2060 0.3568 0.0000 (  5278 PWs)   bands (ev):

   -20.8155 -20.8155 -13.4017 -13.4017 -11.9051 -11.9051  -8.4325  -8.4325
     0.3834   0.3834   3.0990   3.0990   3.9799   3.9799   5.7667   5.7667

          k = 0.2067 0.3580 0.0000 (  5278 PWs)   bands (ev):

   -20.7969 -20.7969 -13.4240 -13.4240 -11.9257 -11.9257  -8.4117  -8.4117
     0.3546   0.3546   3.1251   3.1251   4.0051   4.0051   5.7930   5.7930

          k = 0.2073 0.3591 0.0000 (  5282 PWs)   bands (ev):

   -20.7783 -20.7783 -13.4463 -13.4463 -11.9462 -11.9462  -8.3909  -8.3909
     0.3259   0.3259   3.1513   3.1513   4.0305   4.0305   5.8194   5.8194

          k = 0.2080 0.3603 0.0000 (  5282 PWs)   bands (ev):

   -20.7596 -20.7596 -13.4685 -13.4685 -11.9668 -11.9668  -8.3700  -8.3700
     0.2972   0.2972   3.1775   3.1775   4.0558   4.0558   5.8459   5.8459

          k = 0.2087 0.3614 0.0000 (  5282 PWs)   bands (ev):

   -20.7408 -20.7408 -13.4907 -13.4907 -11.9873 -11.9873  -8.3490  -8.3490
     0.2685   0.2685   3.2039   3.2039   4.0813   4.0813   5.8724   5.8724

          k = 0.2093 0.3626 0.0000 (  5282 PWs)   bands (ev):

   -20.7220 -20.7220 -13.5129 -13.5129 -12.0079 -12.0079  -8.3281  -8.3281
     0.2398   0.2398   3.2303   3.2303   4.1068   4.1068   5.8990   5.8990

          k = 0.2100 0.3637 0.0000 (  5282 PWs)   bands (ev):

   -20.7032 -20.7032 -13.5350 -13.5350 -12.0284 -12.0284  -8.3070  -8.3070
     0.2112   0.2112   3.2568   3.2568   4.1323   4.1323   5.9257   5.9257

          k = 0.2107 0.3649 0.0000 (  5286 PWs)   bands (ev):

   -20.6843 -20.6843 -13.5571 -13.5571 -12.0488 -12.0488  -8.2860  -8.2860
     0.1826   0.1826   3.2834   3.2834   4.1579   4.1579   5.9525   5.9525

          k = 0.2113 0.3660 0.0000 (  5286 PWs)   bands (ev):

   -20.6653 -20.6653 -13.5791 -13.5791 -12.0693 -12.0693  -8.2649  -8.2649
     0.1541   0.1541   3.3101   3.3101   4.1835   4.1835   5.9794   5.9794

          k = 0.2120 0.3672 0.0000 (  5286 PWs)   bands (ev):

   -20.6463 -20.6463 -13.6011 -13.6011 -12.0897 -12.0897  -8.2437  -8.2437
     0.1255   0.1255   3.3368   3.3368   4.2092   4.2092   6.0063   6.0063

          k = 0.2127 0.3683 0.0000 (  5286 PWs)   bands (ev):

   -20.6272 -20.6272 -13.6231 -13.6231 -12.1101 -12.1101  -8.2225  -8.2225
     0.0970   0.0970   3.3636   3.3636   4.2350   4.2350   6.0333   6.0333

          k = 0.2133 0.3695 0.0000 (  5286 PWs)   bands (ev):

   -20.6081 -20.6081 -13.6450 -13.6450 -12.1305 -12.1305  -8.2013  -8.2013
     0.0686   0.0686   3.3906   3.3906   4.2607   4.2607   6.0604   6.0604

          k = 0.2140 0.3707 0.0000 (  5282 PWs)   bands (ev):

   -20.5890 -20.5890 -13.6669 -13.6669 -12.1509 -12.1509  -8.1801  -8.1801
     0.0402   0.0402   3.4175   3.4175   4.2866   4.2866   6.0875   6.0875

          k = 0.2147 0.3718 0.0000 (  5278 PWs)   bands (ev):

   -20.5697 -20.5697 -13.6888 -13.6888 -12.1713 -12.1713  -8.1587  -8.1587
     0.0118   0.0118   3.4446   3.4446   4.3125   4.3125   6.1148   6.1148

          k = 0.2153 0.3730 0.0000 (  5286 PWs)   bands (ev):

   -20.5505 -20.5505 -13.7106 -13.7106 -12.1916 -12.1916  -8.1374  -8.1374
    -0.0166  -0.0166   3.4717   3.4717   4.3384   4.3384   6.1421   6.1421

          k = 0.2160 0.3741 0.0000 (  5286 PWs)   bands (ev):

   -20.5312 -20.5312 -13.7324 -13.7324 -12.2119 -12.2119  -8.1160  -8.1160
    -0.0449  -0.0449   3.4989   3.4989   4.3644   4.3644   6.1694   6.1694

          k = 0.2167 0.3753 0.0000 (  5286 PWs)   bands (ev):

   -20.5118 -20.5118 -13.7541 -13.7541 -12.2322 -12.2322  -8.0946  -8.0946
    -0.0732  -0.0732   3.5262   3.5262   4.3904   4.3904   6.1969   6.1969

          k = 0.2173 0.3764 0.0000 (  5282 PWs)   bands (ev):

   -20.4924 -20.4924 -13.7758 -13.7758 -12.2524 -12.2524  -8.0731  -8.0731
    -0.1014  -0.1014   3.5536   3.5536   4.4164   4.4164   6.2244   6.2244

          k = 0.2180 0.3776 0.0000 (  5282 PWs)   bands (ev):

   -20.4729 -20.4729 -13.7974 -13.7974 -12.2727 -12.2727  -8.0516  -8.0516
    -0.1296  -0.1296   3.5811   3.5811   4.4425   4.4425   6.2520   6.2520

          k = 0.2187 0.3787 0.0000 (  5278 PWs)   bands (ev):

   -20.4534 -20.4534 -13.8190 -13.8190 -12.2929 -12.2929  -8.0300  -8.0300
    -0.1578  -0.1578   3.6086   3.6086   4.4686   4.4686   6.2797   6.2797

          k = 0.2193 0.3799 0.0000 (  5278 PWs)   bands (ev):

   -20.4339 -20.4339 -13.8406 -13.8406 -12.3130 -12.3130  -8.0084  -8.0084
    -0.1859  -0.1859   3.6362   3.6362   4.4948   4.4948   6.3074   6.3074

          k = 0.2200 0.3811 0.0000 (  5278 PWs)   bands (ev):

   -20.4143 -20.4143 -13.8621 -13.8621 -12.3332 -12.3332  -7.9868  -7.9868
    -0.2140  -0.2140   3.6639   3.6639   4.5210   4.5210   6.3352   6.3352

          k = 0.2207 0.3822 0.0000 (  5278 PWs)   bands (ev):

   -20.3946 -20.3946 -13.8836 -13.8836 -12.3533 -12.3533  -7.9652  -7.9652
    -0.2421  -0.2421   3.6916   3.6916   4.5472   4.5472   6.3631   6.3631

          k = 0.2213 0.3834 0.0000 (  5278 PWs)   bands (ev):

   -20.3749 -20.3749 -13.9051 -13.9051 -12.3734 -12.3734  -7.9435  -7.9435
    -0.2701  -0.2701   3.7195   3.7195   4.5735   4.5735   6.3910   6.3910

          k = 0.2220 0.3845 0.0000 (  5278 PWs)   bands (ev):

   -20.3551 -20.3551 -13.9265 -13.9265 -12.3935 -12.3935  -7.9217  -7.9217
    -0.2981  -0.2981   3.7474   3.7474   4.5998   4.5998   6.4190   6.4190

          k = 0.2227 0.3857 0.0000 (  5282 PWs)   bands (ev):

   -20.3353 -20.3353 -13.9478 -13.9478 -12.4135 -12.4135  -7.9000  -7.9000
    -0.3261  -0.3261   3.7754   3.7754   4.6261   4.6261   6.4471   6.4471

          k = 0.2233 0.3868 0.0000 (  5282 PWs)   bands (ev):

   -20.3155 -20.3155 -13.9691 -13.9691 -12.4336 -12.4336  -7.8781  -7.8781
    -0.3540  -0.3540   3.8034   3.8034   4.6525   4.6525   6.4753   6.4753

          k = 0.2240 0.3880 0.0000 (  5282 PWs)   bands (ev):

   -20.2956 -20.2956 -13.9904 -13.9904 -12.4535 -12.4535  -7.8563  -7.8563
    -0.3818  -0.3818   3.8316   3.8316   4.6789   4.6789   6.5035   6.5035

          k = 0.2247 0.3891 0.0000 (  5282 PWs)   bands (ev):

   -20.2756 -20.2756 -14.0117 -14.0117 -12.4735 -12.4735  -7.8344  -7.8344
    -0.4097  -0.4097   3.8598   3.8598   4.7053   4.7053   6.5318   6.5318

          k = 0.2253 0.3903 0.0000 (  5282 PWs)   bands (ev):

   -20.2556 -20.2556 -14.0329 -14.0329 -12.4934 -12.4934  -7.8125  -7.8125
    -0.4375  -0.4375   3.8881   3.8881   4.7317   4.7317   6.5601   6.5601

          k = 0.2260 0.3914 0.0000 (  5282 PWs)   bands (ev):

   -20.2356 -20.2356 -14.0540 -14.0540 -12.5133 -12.5133  -7.7906  -7.7906
    -0.4652  -0.4652   3.9165   3.9165   4.7581   4.7581   6.5885   6.5885

          k = 0.2267 0.3926 0.0000 (  5278 PWs)   bands (ev):

   -20.2155 -20.2155 -14.0751 -14.0751 -12.5332 -12.5332  -7.7686  -7.7686
    -0.4929  -0.4929   3.9449   3.9449   4.7846   4.7846   6.6170   6.6170

          k = 0.2273 0.3938 0.0000 (  5278 PWs)   bands (ev):

   -20.1954 -20.1954 -14.0962 -14.0962 -12.5530 -12.5530  -7.7466  -7.7466
    -0.5206  -0.5206   3.9734   3.9734   4.8111   4.8111   6.6455   6.6455

          k = 0.2280 0.3949 0.0000 (  5278 PWs)   bands (ev):

   -20.1752 -20.1752 -14.1172 -14.1172 -12.5729 -12.5729  -7.7245  -7.7245
    -0.5482  -0.5482   4.0020   4.0020   4.8375   4.8375   6.6741   6.6741

          k = 0.2287 0.3961 0.0000 (  5276 PWs)   bands (ev):

   -20.1550 -20.1550 -14.1382 -14.1382 -12.5926 -12.5926  -7.7024  -7.7024
    -0.5758  -0.5758   4.0307   4.0307   4.8640   4.8640   6.7028   6.7028

          k = 0.2293 0.3972 0.0000 (  5278 PWs)   bands (ev):

   -20.1347 -20.1347 -14.1591 -14.1591 -12.6124 -12.6124  -7.6803  -7.6803
    -0.6033  -0.6033   4.0594   4.0594   4.8905   4.8905   6.7315   6.7315

          k = 0.2300 0.3984 0.0000 (  5278 PWs)   bands (ev):

   -20.1144 -20.1144 -14.1800 -14.1800 -12.6321 -12.6321  -7.6582  -7.6582
    -0.6308  -0.6308   4.0883   4.0883   4.9170   4.9170   6.7603   6.7603

          k = 0.2307 0.3995 0.0000 (  5278 PWs)   bands (ev):

   -20.0940 -20.0940 -14.2009 -14.2009 -12.6518 -12.6518  -7.6360  -7.6360
    -0.6583  -0.6583   4.1172   4.1172   4.9436   4.9436   6.7891   6.7891

          k = 0.2313 0.4007 0.0000 (  5278 PWs)   bands (ev):

   -20.0736 -20.0736 -14.2217 -14.2217 -12.6714 -12.6714  -7.6138  -7.6138
    -0.6857  -0.6857   4.1461   4.1461   4.9701   4.9701   6.8180   6.8180

          k = 0.2320 0.4018 0.0000 (  5278 PWs)   bands (ev):

   -20.0531 -20.0531 -14.2425 -14.2425 -12.6911 -12.6911  -7.5915  -7.5915
    -0.7131  -0.7131   4.1752   4.1752   4.9966   4.9966   6.8469   6.8469

          k = 0.2327 0.4030 0.0000 (  5278 PWs)   bands (ev):

   -20.0326 -20.0326 -14.2632 -14.2632 -12.7106 -12.7106  -7.5693  -7.5693
    -0.7404  -0.7404   4.2043   4.2043   5.0231   5.0231   6.8759   6.8759

          k = 0.2333 0.4041 0.0000 (  5278 PWs)   bands (ev):

   -20.0121 -20.0121 -14.2839 -14.2839 -12.7302 -12.7302  -7.5470  -7.5470
    -0.7677  -0.7677   4.2335   4.2335   5.0495   5.0495   6.9049   6.9049

          k = 0.2340 0.4053 0.0000 (  5278 PWs)   bands (ev):

   -19.9915 -19.9915 -14.3045 -14.3045 -12.7497 -12.7497  -7.5246  -7.5246
    -0.7950  -0.7950   4.2628   4.2628   5.0760   5.0760   6.9340   6.9340

          k = 0.2347 0.4065 0.0000 (  5278 PWs)   bands (ev):

   -19.9709 -19.9709 -14.3251 -14.3251 -12.7692 -12.7692  -7.5023  -7.5023
    -0.8222  -0.8222   4.2921   4.2921   5.1025   5.1025   6.9632   6.9632

          k = 0.2353 0.4076 0.0000 (  5278 PWs)   bands (ev):

   -19.9502 -19.9502 -14.3457 -14.3457 -12.7886 -12.7886  -7.4799  -7.4799
    -0.8493  -0.8493   4.3215   4.3215   5.1289   5.1289   6.9923   6.9923

          k = 0.2360 0.4088 0.0000 (  5278 PWs)   bands (ev):

   -19.9295 -19.9295 -14.3662 -14.3662 -12.8080 -12.8080  -7.4575  -7.4575
    -0.8764  -0.8764   4.3510   4.3510   5.1553   5.1553   7.0215   7.0215

          k = 0.2367 0.4099 0.0000 (  5278 PWs)   bands (ev):

   -19.9087 -19.9087 -14.3867 -14.3867 -12.8274 -12.8274  -7.4351  -7.4351
    -0.9035  -0.9035   4.3806   4.3806   5.1817   5.1817   7.0508   7.0508

          k = 0.2373 0.4111 0.0000 (  5278 PWs)   bands (ev):

   -19.8879 -19.8879 -14.4071 -14.4071 -12.8467 -12.8467  -7.4126  -7.4126
    -0.9305  -0.9305   4.4102   4.4102   5.2080   5.2080   7.0801   7.0801

          k = 0.2380 0.4122 0.0000 (  5278 PWs)   bands (ev):

   -19.8670 -19.8670 -14.4275 -14.4275 -12.8660 -12.8660  -7.3901  -7.3901
    -0.9575  -0.9575   4.4399   4.4399   5.2343   5.2343   7.1094   7.1094

          k = 0.2387 0.4134 0.0000 (  5282 PWs)   bands (ev):

   -19.8461 -19.8461 -14.4478 -14.4478 -12.8853 -12.8853  -7.3676  -7.3676
    -0.9844  -0.9844   4.4697   4.4697   5.2606   5.2606   7.1388   7.1388

          k = 0.2393 0.4145 0.0000 (  5286 PWs)   bands (ev):

   -19.8252 -19.8252 -14.4681 -14.4681 -12.9045 -12.9045  -7.3450  -7.3450
    -1.0113  -1.0113   4.4995   4.4995   5.2868   5.2868   7.1681   7.1681

          k = 0.2400 0.4157 0.0000 (  5286 PWs)   bands (ev):

   -19.8042 -19.8042 -14.4883 -14.4883 -12.9237 -12.9237  -7.3225  -7.3225
    -1.0381  -1.0381   4.5294   4.5294   5.3130   5.3130   7.1975   7.1975

          k = 0.2407 0.4168 0.0000 (  5286 PWs)   bands (ev):

   -19.7832 -19.7832 -14.5085 -14.5085 -12.9429 -12.9429  -7.2999  -7.2999
    -1.0649  -1.0649   4.5594   4.5594   5.3391   5.3391   7.2270   7.2270

          k = 0.2413 0.4180 0.0000 (  5286 PWs)   bands (ev):

   -19.7621 -19.7621 -14.5287 -14.5287 -12.9620 -12.9620  -7.2773  -7.2773
    -1.0917  -1.0917   4.5895   4.5895   5.3651   5.3651   7.2564   7.2564

          k = 0.2420 0.4192 0.0000 (  5286 PWs)   bands (ev):

   -19.7410 -19.7410 -14.5488 -14.5488 -12.9811 -12.9811  -7.2546  -7.2546
    -1.1184  -1.1184   4.6196   4.6196   5.3911   5.3911   7.2858   7.2858

          k = 0.2427 0.4203 0.0000 (  5282 PWs)   bands (ev):

   -19.7199 -19.7199 -14.5689 -14.5689 -13.0001 -13.0001  -7.2320  -7.2320
    -1.1450  -1.1450   4.6498   4.6498   5.4170   5.4170   7.3153   7.3153

          k = 0.2433 0.4215 0.0000 (  5278 PWs)   bands (ev):

   -19.6987 -19.6987 -14.5889 -14.5889 -13.0191 -13.0191  -7.2093  -7.2093
    -1.1716  -1.1716   4.6801   4.6801   5.4428   5.4428   7.3447   7.3447

          k = 0.2440 0.4226 0.0000 (  5278 PWs)   bands (ev):

   -19.6774 -19.6774 -14.6089 -14.6089 -13.0380 -13.0380  -7.1866  -7.1866
    -1.1982  -1.1982   4.7104   4.7104   5.4686   5.4686   7.3742   7.3742

          k = 0.2447 0.4238 0.0000 (  5278 PWs)   bands (ev):

   -19.6562 -19.6562 -14.6288 -14.6288 -13.0569 -13.0569  -7.1639  -7.1639
    -1.2247  -1.2247   4.7408   4.7408   5.4942   5.4942   7.4036   7.4036

          k = 0.2453 0.4249 0.0000 (  5278 PWs)   bands (ev):

   -19.6348 -19.6348 -14.6487 -14.6487 -13.0758 -13.0758  -7.1411  -7.1411
    -1.2512  -1.2512   4.7713   4.7713   5.5198   5.5198   7.4330   7.4330

          k = 0.2460 0.4261 0.0000 (  5278 PWs)   bands (ev):

   -19.6135 -19.6135 -14.6685 -14.6685 -13.0946 -13.0946  -7.1183  -7.1183
    -1.2776  -1.2776   4.8018   4.8018   5.5452   5.5452   7.4624   7.4624

          k = 0.2467 0.4272 0.0000 (  5278 PWs)   bands (ev):

   -19.5921 -19.5921 -14.6883 -14.6883 -13.1134 -13.1134  -7.0956  -7.0956
    -1.3039  -1.3039   4.8324   4.8324   5.5705   5.5705   7.4918   7.4918

          k = 0.2473 0.4284 0.0000 (  5270 PWs)   bands (ev):

   -19.5707 -19.5707 -14.7081 -14.7081 -13.1321 -13.1321  -7.0728  -7.0728
    -1.3303  -1.3303   4.8631   4.8631   5.5957   5.5957   7.5211   7.5211

          k = 0.2480 0.4295 0.0000 (  5270 PWs)   bands (ev):

   -19.5492 -19.5492 -14.7278 -14.7278 -13.1508 -13.1508  -7.0499  -7.0499
    -1.3565  -1.3565   4.8939   4.8939   5.6208   5.6208   7.5504   7.5504

          k = 0.2487 0.4307 0.0000 (  5272 PWs)   bands (ev):

   -19.5277 -19.5277 -14.7475 -14.7475 -13.1695 -13.1695  -7.0271  -7.0271
    -1.3827  -1.3827   4.9247   4.9247   5.6457   5.6457   7.5796   7.5796

          k = 0.2493 0.4319 0.0000 (  5272 PWs)   bands (ev):

   -19.5062 -19.5062 -14.7671 -14.7671 -13.1881 -13.1881  -7.0042  -7.0042
    -1.4089  -1.4089   4.9556   4.9556   5.6705   5.6705   7.6087   7.6087

          k = 0.2500 0.4330 0.0000 (  5268 PWs)   bands (ev):

   -19.4846 -19.4846 -14.7866 -14.7866 -13.2066 -13.2066  -6.9814  -6.9814
    -1.4350  -1.4350   4.9865   4.9865   5.6951   5.6951   7.6378   7.6378

          k = 0.2507 0.4342 0.0000 (  5266 PWs)   bands (ev):

   -19.4630 -19.4630 -14.8062 -14.8062 -13.2252 -13.2252  -6.9585  -6.9585
    -1.4611  -1.4611   5.0175   5.0175   5.7196   5.7196   7.6667   7.6667

          k = 0.2513 0.4353 0.0000 (  5274 PWs)   bands (ev):

   -19.4413 -19.4413 -14.8256 -14.8256 -13.2436 -13.2436  -6.9356  -6.9356
    -1.4871  -1.4871   5.0486   5.0486   5.7439   5.7439   7.6956   7.6956

          k = 0.2520 0.4365 0.0000 (  5274 PWs)   bands (ev):

   -19.4196 -19.4196 -14.8451 -14.8451 -13.2620 -13.2620  -6.9127  -6.9127
    -1.5131  -1.5131   5.0797   5.0797   5.7680   5.7680   7.7243   7.7243

          k = 0.2527 0.4376 0.0000 (  5274 PWs)   bands (ev):

   -19.3979 -19.3979 -14.8644 -14.8644 -13.2804 -13.2804  -6.8897  -6.8897
    -1.5390  -1.5390   5.1109   5.1109   5.7919   5.7919   7.7529   7.7529

          k = 0.2533 0.4388 0.0000 (  5270 PWs)   bands (ev):

   -19.3761 -19.3761 -14.8838 -14.8838 -13.2987 -13.2987  -6.8668  -6.8668
    -1.5648  -1.5648   5.1422   5.1422   5.8156   5.8156   7.7813   7.7813

          k = 0.2540 0.4399 0.0000 (  5270 PWs)   bands (ev):

   -19.3543 -19.3543 -14.9031 -14.9031 -13.3170 -13.3170  -6.8438  -6.8438
    -1.5907  -1.5907   5.1735   5.1735   5.8391   5.8391   7.8095   7.8095

          k = 0.2547 0.4411 0.0000 (  5270 PWs)   bands (ev):

   -19.3325 -19.3325 -14.9223 -14.9223 -13.3353 -13.3353  -6.8209  -6.8209
    -1.6164  -1.6164   5.2049   5.2049   5.8623   5.8623   7.8376   7.8376

          k = 0.2553 0.4423 0.0000 (  5270 PWs)   bands (ev):

   -19.3106 -19.3106 -14.9415 -14.9415 -13.3534 -13.3534  -6.7979  -6.7979
    -1.6421  -1.6421   5.2364   5.2364   5.8853   5.8853   7.8655   7.8655

          k = 0.2560 0.4434 0.0000 (  5270 PWs)   bands (ev):

   -19.2887 -19.2887 -14.9607 -14.9607 -13.3716 -13.3716  -6.7749  -6.7749
    -1.6678  -1.6678   5.2679   5.2679   5.9080   5.9080   7.8931   7.8931

          k = 0.2567 0.4446 0.0000 (  5266 PWs)   bands (ev):

   -19.2668 -19.2668 -14.9798 -14.9798 -13.3897 -13.3897  -6.7519  -6.7519
    -1.6934  -1.6934   5.2995   5.2995   5.9305   5.9305   7.9107   7.9107

          k = 0.2573 0.4457 0.0000 (  5266 PWs)   bands (ev):

   -19.2448 -19.2448 -14.9988 -14.9988 -13.4077 -13.4077  -6.7289  -6.7289
    -1.7190  -1.7190   5.3311   5.3311   5.9527   5.9527   7.9196   7.9196

          k = 0.2580 0.4469 0.0000 (  5266 PWs)   bands (ev):

   -19.2228 -19.2228 -15.0179 -15.0179 -13.4257 -13.4257  -6.7059  -6.7059
    -1.7445  -1.7445   5.3628   5.3628   5.9746   5.9746   7.9284   7.9284

          k = 0.2587 0.4480 0.0000 (  5266 PWs)   bands (ev):

   -19.2008 -19.2008 -15.0368 -15.0368 -13.4436 -13.4436  -6.6828  -6.6828
    -1.7699  -1.7699   5.3946   5.3946   5.9962   5.9962   7.9371   7.9371

          k = 0.2593 0.4492 0.0000 (  5270 PWs)   bands (ev):

   -19.1787 -19.1787 -15.0557 -15.0557 -13.4615 -13.4615  -6.6598  -6.6598
    -1.7953  -1.7953   5.4264   5.4264   6.0175   6.0175   7.9458   7.9458

          k = 0.2600 0.4503 0.0000 (  5270 PWs)   bands (ev):

   -19.1566 -19.1566 -15.0746 -15.0746 -13.4793 -13.4793  -6.6368  -6.6368
    -1.8206  -1.8206   5.4582   5.4582   6.0384   6.0384   7.9545   7.9545

          k = 0.2607 0.4515 0.0000 (  5270 PWs)   bands (ev):

   -19.1345 -19.1345 -15.0934 -15.0934 -13.4971 -13.4971  -6.6137  -6.6137
    -1.8459  -1.8459   5.4902   5.4902   6.0590   6.0590   7.9631   7.9631

          k = 0.2613 0.4526 0.0000 (  5270 PWs)   bands (ev):

   -19.1124 -19.1124 -15.1122 -15.1122 -13.5148 -13.5148  -6.5906  -6.5906
    -1.8712  -1.8712   5.5222   5.5222   6.0792   6.0792   7.9718   7.9718

          k = 0.2620 0.4538 0.0000 (  5266 PWs)   bands (ev):

   -19.0902 -19.0902 -15.1309 -15.1309 -13.5324 -13.5324  -6.5676  -6.5676
    -1.8964  -1.8964   5.5542   5.5542   6.0991   6.0991   7.9806   7.9806

          k = 0.2627 0.4550 0.0000 (  5266 PWs)   bands (ev):

   -19.0680 -19.0680 -15.1496 -15.1496 -13.5500 -13.5500  -6.5445  -6.5445
    -1.9215  -1.9215   5.5863   5.5863   6.1186   6.1186   7.9895   7.9895

          k = 0.2633 0.4561 0.0000 (  5270 PWs)   bands (ev):

   -19.0457 -19.0457 -15.1683 -15.1683 -13.5676 -13.5676  -6.5215  -6.5215
    -1.9466  -1.9466   5.6184   5.6184   6.1376   6.1376   7.9985   7.9985

          k = 0.2640 0.4573 0.0000 (  5262 PWs)   bands (ev):

   -19.0235 -19.0235 -15.1868 -15.1868 -13.5851 -13.5851  -6.4984  -6.4984
    -1.9716  -1.9716   5.6507   5.6507   6.1563   6.1563   8.0076   8.0076

          k = 0.2647 0.4584 0.0000 (  5266 PWs)   bands (ev):

   -19.0012 -19.0012 -15.2054 -15.2054 -13.6025 -13.6025  -6.4753  -6.4753
    -1.9965  -1.9965   5.6829   5.6829   6.1745   6.1745   8.0170   8.0170

          k = 0.2653 0.4596 0.0000 (  5266 PWs)   bands (ev):

   -18.9788 -18.9788 -15.2239 -15.2239 -13.6199 -13.6199  -6.4522  -6.4522
    -2.0215  -2.0215   5.7152   5.7152   6.1923   6.1923   8.0265   8.0265

          k = 0.2660 0.4607 0.0000 (  5266 PWs)   bands (ev):

   -18.9565 -18.9565 -15.2423 -15.2423 -13.6372 -13.6372  -6.4292  -6.4292
    -2.0463  -2.0463   5.7476   5.7476   6.2096   6.2096   8.0363   8.0363

          k = 0.2667 0.4619 0.0000 (  5270 PWs)   bands (ev):

   -18.9341 -18.9341 -15.2607 -15.2607 -13.6545 -13.6545  -6.4061  -6.4061
    -2.0711  -2.0711   5.7800   5.7800   6.2264   6.2264   8.0463   8.0463

          k = 0.2673 0.4630 0.0000 (  5278 PWs)   bands (ev):

   -18.9117 -18.9117 -15.2791 -15.2791 -13.6717 -13.6717  -6.3830  -6.3830
    -2.0959  -2.0959   5.8124   5.8124   6.2428   6.2428   8.0566   8.0566

          k = 0.2680 0.4642 0.0000 (  5282 PWs)   bands (ev):

   -18.8893 -18.8893 -15.2974 -15.2974 -13.6888 -13.6888  -6.3599  -6.3599
    -2.1206  -2.1206   5.8450   5.8450   6.2587   6.2587   8.0673   8.0673

          k = 0.2687 0.4653 0.0000 (  5286 PWs)   bands (ev):

   -18.8669 -18.8669 -15.3156 -15.3156 -13.7059 -13.7059  -6.3369  -6.3369
    -2.1452  -2.1452   5.8775   5.8775   6.2740   6.2740   8.0782   8.0782

          k = 0.2693 0.4665 0.0000 (  5286 PWs)   bands (ev):

   -18.8444 -18.8444 -15.3338 -15.3338 -13.7229 -13.7229  -6.3138  -6.3138
    -2.1698  -2.1698   5.9101   5.9101   6.2889   6.2889   8.0896   8.0896

          k = 0.2700 0.4677 0.0000 (  5286 PWs)   bands (ev):

   -18.8219 -18.8219 -15.3520 -15.3520 -13.7398 -13.7398  -6.2907  -6.2907
    -2.1943  -2.1943   5.9428   5.9428   6.3032   6.3032   8.1013   8.1013

          k = 0.2707 0.4688 0.0000 (  5286 PWs)   bands (ev):

   -18.7994 -18.7994 -15.3701 -15.3701 -13.7567 -13.7567  -6.2677  -6.2677
    -2.2188  -2.2188   5.9754   5.9754   6.3171   6.3171   8.1134   8.1134

          k = 0.2713 0.4700 0.0000 (  5286 PWs)   bands (ev):

   -18.7769 -18.7769 -15.3882 -15.3882 -13.7736 -13.7736  -6.2446  -6.2446
    -2.2432  -2.2432   6.0082   6.0082   6.3303   6.3303   8.1259   8.1259

          k = 0.2720 0.4711 0.0000 (  5288 PWs)   bands (ev):

   -18.7543 -18.7543 -15.4062 -15.4062 -13.7903 -13.7903  -6.2216  -6.2216
    -2.2675  -2.2675   6.0409   6.0409   6.3431   6.3431   8.1389   8.1389

          k = 0.2727 0.4723 0.0000 (  5288 PWs)   bands (ev):

   -18.7318 -18.7318 -15.4242 -15.4242 -13.8070 -13.8070  -6.1985  -6.1985
    -2.2918  -2.2918   6.0738   6.0738   6.3553   6.3553   8.1523   8.1523

          k = 0.2733 0.4734 0.0000 (  5288 PWs)   bands (ev):

   -18.7092 -18.7092 -15.4421 -15.4421 -13.8236 -13.8236  -6.1755  -6.1755
    -2.3161  -2.3161   6.1066   6.1066   6.3669   6.3669   8.1662   8.1662

          k = 0.2740 0.4746 0.0000 (  5288 PWs)   bands (ev):

   -18.6866 -18.6866 -15.4599 -15.4599 -13.8402 -13.8402  -6.1525  -6.1525
    -2.3403  -2.3403   6.1395   6.1395   6.3780   6.3780   8.1806   8.1806

          k = 0.2747 0.4757 0.0000 (  5292 PWs)   bands (ev):

   -18.6640 -18.6640 -15.4778 -15.4778 -13.8567 -13.8567  -6.1295  -6.1295
    -2.3644  -2.3644   6.1724   6.1724   6.3886   6.3886   8.1954   8.1954

          k = 0.2753 0.4769 0.0000 (  5284 PWs)   bands (ev):

   -18.6414 -18.6414 -15.4955 -15.4955 -13.8731 -13.8731  -6.1065  -6.1065
    -2.3885  -2.3885   6.2054   6.2054   6.3986   6.3986   8.2108   8.2108

          k = 0.2760 0.4780 0.0000 (  5284 PWs)   bands (ev):

   -18.6187 -18.6187 -15.5133 -15.5133 -13.8894 -13.8894  -6.0835  -6.0835
    -2.4125  -2.4125   6.2384   6.2384   6.4081   6.4081   8.2266   8.2266

          k = 0.2767 0.4792 0.0000 (  5284 PWs)   bands (ev):

   -18.5961 -18.5961 -15.5309 -15.5309 -13.9057 -13.9057  -6.0605  -6.0605
    -2.4364  -2.4364   6.2714   6.2714   6.4170   6.4170   8.2430   8.2430

          k = 0.2773 0.4804 0.0000 (  5284 PWs)   bands (ev):

   -18.5734 -18.5734 -15.5486 -15.5486 -13.9219 -13.9219  -6.0375  -6.0375
    -2.4603  -2.4603   6.3045   6.3045   6.4254   6.4254   8.2599   8.2599

          k = 0.2780 0.4815 0.0000 (  5284 PWs)   bands (ev):

   -18.5507 -18.5507 -15.5661 -15.5661 -13.9380 -13.9380  -6.0145  -6.0145
    -2.4842  -2.4842   6.3376   6.3376   6.4332   6.4332   8.2773   8.2773

          k = 0.2787 0.4827 0.0000 (  5284 PWs)   bands (ev):

   -18.5280 -18.5280 -15.5837 -15.5837 -13.9541 -13.9541  -5.9916  -5.9916
    -2.5079  -2.5079   6.3707   6.3707   6.4406   6.4406   8.2952   8.2952

          k = 0.2793 0.4838 0.0000 (  5284 PWs)   bands (ev):

   -18.5053 -18.5053 -15.6011 -15.6011 -13.9700 -13.9700  -5.9687  -5.9687
    -2.5317  -2.5317   6.4038   6.4038   6.4474   6.4474   8.3137   8.3137

          k = 0.2800 0.4850 0.0000 (  5284 PWs)   bands (ev):

   -18.4826 -18.4826 -15.6186 -15.6186 -13.9859 -13.9859  -5.9458  -5.9458
    -2.5553  -2.5553   6.4370   6.4370   6.4537   6.4537   8.3327   8.3327

          k = 0.2807 0.4861 0.0000 (  5284 PWs)   bands (ev):

   -18.4599 -18.4599 -15.6360 -15.6360 -14.0017 -14.0017  -5.9229  -5.9229
    -2.5789  -2.5789   6.4595   6.4595   6.4702   6.4702   8.3522   8.3522

          k = 0.2813 0.4873 0.0000 (  5284 PWs)   bands (ev):

   -18.4372 -18.4372 -15.6533 -15.6533 -14.0175 -14.0175  -5.9000  -5.9000
    -2.6025  -2.6025   6.4648   6.4648   6.5034   6.5034   8.3722   8.3722

          k = 0.2820 0.4884 0.0000 (  5284 PWs)   bands (ev):

   -18.4145 -18.4145 -15.6706 -15.6706 -14.0331 -14.0331  -5.8771  -5.8771
    -2.6260  -2.6260   6.4697   6.4697   6.5366   6.5366   8.3927   8.3927

          k = 0.2827 0.4896 0.0000 (  5280 PWs)   bands (ev):

   -18.3917 -18.3917 -15.6878 -15.6878 -14.0487 -14.0487  -5.8543  -5.8543
    -2.6494  -2.6494   6.4740   6.4740   6.5698   6.5698   8.4137   8.4137

          k = 0.2833 0.4907 0.0000 (  5280 PWs)   bands (ev):

   -18.3690 -18.3690 -15.7050 -15.7050 -14.0642 -14.0642  -5.8315  -5.8315
    -2.6728  -2.6728   6.4780   6.4780   6.6031   6.6031   8.4352   8.4352

          k = 0.2840 0.4919 0.0000 (  5280 PWs)   bands (ev):

   -18.3463 -18.3463 -15.7221 -15.7221 -14.0796 -14.0796  -5.8087  -5.8087
    -2.6961  -2.6961   6.4815   6.4815   6.6363   6.6363   8.4572   8.4572

          k = 0.2847 0.4931 0.0000 (  5280 PWs)   bands (ev):

   -18.3235 -18.3235 -15.7392 -15.7392 -14.0950 -14.0950  -5.7859  -5.7859
    -2.7193  -2.7193   6.4845   6.4845   6.6696   6.6696   8.4797   8.4797

          k = 0.2853 0.4942 0.0000 (  5280 PWs)   bands (ev):

   -18.3008 -18.3008 -15.7563 -15.7563 -14.1102 -14.1102  -5.7631  -5.7631
    -2.7425  -2.7425   6.4872   6.4872   6.7029   6.7029   8.5027   8.5027

          k = 0.2860 0.4954 0.0000 (  5280 PWs)   bands (ev):

   -18.2781 -18.2781 -15.7732 -15.7732 -14.1253 -14.1253  -5.7404  -5.7404
    -2.7656  -2.7656   6.4895   6.4895   6.7361   6.7361   8.5261   8.5261

          k = 0.2867 0.4965 0.0000 (  5280 PWs)   bands (ev):

   -18.2554 -18.2554 -15.7902 -15.7902 -14.1404 -14.1404  -5.7177  -5.7177
    -2.7887  -2.7887   6.4914   6.4914   6.7694   6.7694   8.5500   8.5500

          k = 0.2873 0.4977 0.0000 (  5280 PWs)   bands (ev):

   -18.2327 -18.2327 -15.8071 -15.8071 -14.1554 -14.1554  -5.6950  -5.6950
    -2.8117  -2.8117   6.4929   6.4929   6.8027   6.8027   8.5743   8.5743

          k = 0.2880 0.4988 0.0000 (  5280 PWs)   bands (ev):

   -18.2100 -18.2100 -15.8239 -15.8239 -14.1702 -14.1702  -5.6723  -5.6723
    -2.8347  -2.8347   6.4941   6.4941   6.8359   6.8359   8.5991   8.5991

          k = 0.2887 0.5000 0.0000 (  5276 PWs)   bands (ev):

   -18.1873 -18.1873 -15.8407 -15.8407 -14.1850 -14.1850  -5.6497  -5.6497
    -2.8576  -2.8576   6.4950   6.4950   6.8692   6.8692   8.6243   8.6243

          k = 0.2893 0.5011 0.0000 (  5276 PWs)   bands (ev):

   -18.1646 -18.1646 -15.8574 -15.8574 -14.1997 -14.1997  -5.6271  -5.6271
    -2.8804  -2.8804   6.4955   6.4955   6.9025   6.9025   8.6499   8.6499

          k = 0.2900 0.5023 0.0000 (  5280 PWs)   bands (ev):

   -18.1419 -18.1419 -15.8741 -15.8741 -14.2143 -14.2143  -5.6045  -5.6045
    -2.9032  -2.9032   6.4957   6.4957   6.9357   6.9357   8.6759   8.6759

          k = 0.2907 0.5034 0.0000 (  5280 PWs)   bands (ev):

   -18.1193 -18.1193 -15.8908 -15.8908 -14.2288 -14.2288  -5.5820  -5.5820
    -2.9259  -2.9259   6.4957   6.4957   6.9689   6.9689   8.7022   8.7022

          k = 0.2913 0.5046 0.0000 (  5280 PWs)   bands (ev):

   -18.0966 -18.0966 -15.9074 -15.9074 -14.2432 -14.2432  -5.5595  -5.5595
    -2.9485  -2.9485   6.4953   6.4953   7.0021   7.0021   8.7065   8.7065

          k = 0.2920 0.5058 0.0000 (  5280 PWs)   bands (ev):

   -18.0740 -18.0740 -15.9239 -15.9239 -14.2575 -14.2575  -5.5370  -5.5370
    -2.9711  -2.9711   6.4947   6.4947   7.0352   7.0352   8.7097   8.7097

          k = 0.2927 0.5069 0.0000 (  5280 PWs)   bands (ev):

   -18.0514 -18.0514 -15.9404 -15.9404 -14.2716 -14.2716  -5.5146  -5.5146
    -2.9936  -2.9936   6.4939   6.4939   7.0684   7.0684   8.7127   8.7127

          k = 0.2933 0.5081 0.0000 (  5284 PWs)   bands (ev):

   -18.0288 -18.0288 -15.9569 -15.9569 -14.2857 -14.2857  -5.4922  -5.4922
    -3.0161  -3.0161   6.4928   6.4928   7.1015   7.1015   8.7157   8.7157

          k = 0.2940 0.5092 0.0000 (  5284 PWs)   bands (ev):

   -18.0063 -18.0063 -15.9732 -15.9732 -14.2997 -14.2997  -5.4698  -5.4698
    -3.0385  -3.0385   6.4916   6.4916   7.1345   7.1345   8.7185   8.7185

          k = 0.2947 0.5104 0.0000 (  5284 PWs)   bands (ev):

   -17.9837 -17.9837 -15.9896 -15.9896 -14.3135 -14.3135  -5.4474  -5.4474
    -3.0608  -3.0608   6.4901   6.4901   7.1675   7.1675   8.7212   8.7212

          k = 0.2953 0.5115 0.0000 (  5284 PWs)   bands (ev):

   -17.9612 -17.9612 -16.0059 -16.0059 -14.3273 -14.3273  -5.4251  -5.4251
    -3.0831  -3.0831   6.4884   6.4884   7.2005   7.2005   8.7237   8.7237

          k = 0.2960 0.5127 0.0000 (  5284 PWs)   bands (ev):

   -17.9388 -17.9388 -16.0221 -16.0221 -14.3409 -14.3409  -5.4029  -5.4029
    -3.1053  -3.1053   6.4865   6.4865   7.2334   7.2334   8.7261   8.7261

          k = 0.2967 0.5138 0.0000 (  5280 PWs)   bands (ev):

   -17.9163 -17.9163 -16.0383 -16.0383 -14.3544 -14.3544  -5.3806  -5.3806
    -3.1275  -3.1275   6.4845   6.4845   7.2663   7.2663   8.7284   8.7284

          k = 0.2973 0.5150 0.0000 (  5280 PWs)   bands (ev):

   -17.8940 -17.8940 -16.0545 -16.0545 -14.3678 -14.3678  -5.3584  -5.3584
    -3.1495  -3.1495   6.4823   6.4823   7.2990   7.2990   8.7306   8.7306

          k = 0.2980 0.5162 0.0000 (  5280 PWs)   bands (ev):

   -17.8716 -17.8716 -16.0705 -16.0705 -14.3811 -14.3811  -5.3363  -5.3363
    -3.1716  -3.1716   6.4800   6.4800   7.3317   7.3317   8.7326   8.7326

          k = 0.2987 0.5173 0.0000 (  5284 PWs)   bands (ev):

   -17.8493 -17.8493 -16.0866 -16.0866 -14.3942 -14.3942  -5.3142  -5.3142
    -3.1935  -3.1935   6.4776   6.4776   7.3644   7.3644   8.7345   8.7345

          k = 0.2993 0.5185 0.0000 (  5284 PWs)   bands (ev):

   -17.8270 -17.8270 -16.1026 -16.1026 -14.4072 -14.4072  -5.2921  -5.2921
    -3.2154  -3.2154   6.4750   6.4750   7.3969   7.3969   8.7363   8.7363

          k = 0.3000 0.5196 0.0000 (  5284 PWs)   bands (ev):

   -17.8048 -17.8048 -16.1185 -16.1185 -14.4201 -14.4201  -5.2701  -5.2701
    -3.2373  -3.2373   6.4723   6.4723   7.4294   7.4294   8.7379   8.7379

          k = 0.3007 0.5208 0.0000 (  5284 PWs)   bands (ev):

   -17.7826 -17.7826 -16.1344 -16.1344 -14.4329 -14.4329  -5.2481  -5.2481
    -3.2591  -3.2591   6.4695   6.4695   7.4617   7.4617   8.7393   8.7393

          k = 0.3013 0.5219 0.0000 (  5284 PWs)   bands (ev):

   -17.7605 -17.7605 -16.1503 -16.1503 -14.4455 -14.4455  -5.2262  -5.2262
    -3.2808  -3.2808   6.4667   6.4667   7.4940   7.4940   8.7407   8.7407

          k = 0.3020 0.5231 0.0000 (  5284 PWs)   bands (ev):

   -17.7384 -17.7384 -16.1660 -16.1660 -14.4579 -14.4579  -5.2043  -5.2043
    -3.3024  -3.3024   6.4637   6.4637   7.5261   7.5261   8.7418   8.7418

          k = 0.3027 0.5242 0.0000 (  5284 PWs)   bands (ev):

   -17.7164 -17.7164 -16.1818 -16.1818 -14.4703 -14.4703  -5.1825  -5.1825
    -3.3240  -3.3240   6.4607   6.4607   7.5581   7.5581   8.7429   8.7429

          k = 0.3033 0.5254 0.0000 (  5284 PWs)   bands (ev):

   -17.6944 -17.6944 -16.1975 -16.1975 -14.4825 -14.4825  -5.1607  -5.1607
    -3.3455  -3.3455   6.4576   6.4576   7.5900   7.5900   8.7438   8.7438

          k = 0.3040 0.5265 0.0000 (  5284 PWs)   bands (ev):

   -17.6726 -17.6726 -16.2131 -16.2131 -14.4945 -14.4945  -5.1389  -5.1389
    -3.3670  -3.3670   6.4545   6.4545   7.6217   7.6217   8.7445   8.7445

          k = 0.3047 0.5277 0.0000 (  5288 PWs)   bands (ev):

   -17.6507 -17.6507 -16.2287 -16.2287 -14.5064 -14.5064  -5.1172  -5.1172
    -3.3884  -3.3884   6.4514   6.4514   7.6533   7.6533   8.7451   8.7451

          k = 0.3053 0.5289 0.0000 (  5288 PWs)   bands (ev):

   -17.6290 -17.6290 -16.2442 -16.2442 -14.5182 -14.5182  -5.0956  -5.0956
    -3.4097  -3.4097   6.4481   6.4481   7.6848   7.6848   8.7455   8.7455

          k = 0.3060 0.5300 0.0000 (  5284 PWs)   bands (ev):

   -17.6073 -17.6073 -16.2597 -16.2597 -14.5297 -14.5297  -5.0740  -5.0740
    -3.4310  -3.4310   6.4449   6.4449   7.7160   7.7160   8.7458   8.7458

          k = 0.3067 0.5312 0.0000 (  5280 PWs)   bands (ev):

   -17.5857 -17.5857 -16.2751 -16.2751 -14.5411 -14.5411  -5.0525  -5.0525
    -3.4522  -3.4522   6.4417   6.4417   7.7471   7.7471   8.7459   8.7459

          k = 0.3073 0.5323 0.0000 (  5280 PWs)   bands (ev):

   -17.5642 -17.5642 -16.2905 -16.2905 -14.5524 -14.5524  -5.0310  -5.0310
    -3.4733  -3.4733   6.4384   6.4384   7.7780   7.7780   8.7458   8.7458

          k = 0.3080 0.5335 0.0000 (  5280 PWs)   bands (ev):

   -17.5428 -17.5428 -16.3059 -16.3059 -14.5635 -14.5635  -5.0096  -5.0096
    -3.4944  -3.4944   6.4351   6.4351   7.8086   7.8086   8.7457   8.7457

          k = 0.3087 0.5346 0.0000 (  5280 PWs)   bands (ev):

   -17.5215 -17.5215 -16.3211 -16.3211 -14.5744 -14.5744  -4.9882  -4.9882
    -3.5154  -3.5154   6.4319   6.4319   7.8391   7.8391   8.7453   8.7453

          k = 0.3093 0.5358 0.0000 (  5280 PWs)   bands (ev):

   -17.5003 -17.5003 -16.3364 -16.3364 -14.5851 -14.5851  -4.9669  -4.9669
    -3.5364  -3.5364   6.4286   6.4286   7.8693   7.8693   8.7448   8.7448

          k = 0.3100 0.5369 0.0000 (  5280 PWs)   bands (ev):

   -17.4791 -17.4791 -16.3516 -16.3516 -14.5957 -14.5957  -4.9456  -4.9456
    -3.5573  -3.5573   6.4253   6.4253   7.8992   7.8992   8.7441   8.7441

          k = 0.3107 0.5381 0.0000 (  5280 PWs)   bands (ev):

   -17.4581 -17.4581 -16.3667 -16.3667 -14.6060 -14.6060  -4.9245  -4.9245
    -3.5781  -3.5781   6.4221   6.4221   7.9289   7.9289   8.7433   8.7433

          k = 0.3113 0.5392 0.0000 (  5280 PWs)   bands (ev):

   -17.4372 -17.4372 -16.3818 -16.3818 -14.6162 -14.6162  -4.9033  -4.9033
    -3.5988  -3.5988   6.4189   6.4189   7.9583   7.9583   8.7423   8.7423

          k = 0.3120 0.5404 0.0000 (  5280 PWs)   bands (ev):

   -17.4164 -17.4164 -16.3968 -16.3968 -14.6261 -14.6261  -4.8823  -4.8823
    -3.6195  -3.6195   6.4157   6.4157   7.9874   7.9874   8.7411   8.7411

          k = 0.3127 0.5416 0.0000 (  5280 PWs)   bands (ev):

   -17.3958 -17.3958 -16.4118 -16.4118 -14.6359 -14.6359  -4.8612  -4.8612
    -3.6401  -3.6401   6.4126   6.4126   8.0162   8.0162   8.7398   8.7398

          k = 0.3133 0.5427 0.0000 (  5276 PWs)   bands (ev):

   -17.3752 -17.3752 -16.4267 -16.4267 -14.6455 -14.6455  -4.8403  -4.8403
    -3.6607  -3.6607   6.4095   6.4095   8.0447   8.0447   8.7383   8.7383

          k = 0.3140 0.5439 0.0000 (  5276 PWs)   bands (ev):

   -17.3548 -17.3548 -16.4416 -16.4416 -14.6548 -14.6548  -4.8194  -4.8194
    -3.6812  -3.6812   6.4065   6.4065   8.0728   8.0728   8.7366   8.7366

          k = 0.3147 0.5450 0.0000 (  5276 PWs)   bands (ev):

   -17.3345 -17.3345 -16.4564 -16.4564 -14.6639 -14.6639  -4.7986  -4.7986
    -3.7016  -3.7016   6.4035   6.4035   8.1005   8.1005   8.7348   8.7348

          k = 0.3153 0.5462 0.0000 (  5276 PWs)   bands (ev):

   -17.3144 -17.3144 -16.4712 -16.4712 -14.6728 -14.6728  -4.7779  -4.7779
    -3.7220  -3.7220   6.4006   6.4006   8.1278   8.1278   8.7328   8.7328

          k = 0.3160 0.5473 0.0000 (  5276 PWs)   bands (ev):

   -17.2944 -17.2944 -16.4859 -16.4859 -14.6815 -14.6815  -4.7572  -4.7572
    -3.7423  -3.7423   6.3977   6.3977   8.1547   8.1547   8.7306   8.7306

          k = 0.3167 0.5485 0.0000 (  5276 PWs)   bands (ev):

   -17.2746 -17.2746 -16.5006 -16.5006 -14.6900 -14.6900  -4.7366  -4.7366
    -3.7625  -3.7625   6.3949   6.3949   8.1811   8.1811   8.7283   8.7283

          k = 0.3173 0.5496 0.0000 (  5276 PWs)   bands (ev):

   -17.2549 -17.2549 -16.5152 -16.5152 -14.6982 -14.6982  -4.7160  -4.7160
    -3.7827  -3.7827   6.3921   6.3921   8.2071   8.2071   8.7258   8.7258

          k = 0.3180 0.5508 0.0000 (  5278 PWs)   bands (ev):

   -17.2354 -17.2354 -16.5297 -16.5297 -14.7061 -14.7061  -4.6956  -4.6956
    -3.8028  -3.8028   6.3895   6.3895   8.2326   8.2326   8.7232   8.7232

          k = 0.3187 0.5519 0.0000 (  5278 PWs)   bands (ev):

   -17.2161 -17.2161 -16.5443 -16.5443 -14.7138 -14.7138  -4.6752  -4.6752
    -3.8228  -3.8228   6.3869   6.3869   8.2575   8.2575   8.7203   8.7203

          k = 0.3193 0.5531 0.0000 (  5278 PWs)   bands (ev):

   -17.1970 -17.1970 -16.5587 -16.5587 -14.7212 -14.7212  -4.6549  -4.6549
    -3.8428  -3.8428   6.3844   6.3844   8.2819   8.2819   8.7173   8.7173

          k = 0.3200 0.5543 0.0000 (  5278 PWs)   bands (ev):

   -17.1780 -17.1780 -16.5731 -16.5731 -14.7284 -14.7284  -4.6346  -4.6346
    -3.8627  -3.8627   6.3820   6.3820   8.3057   8.3057   8.7142   8.7142

          k = 0.3207 0.5554 0.0000 (  5278 PWs)   bands (ev):

   -17.1592 -17.1592 -16.5875 -16.5875 -14.7353 -14.7353  -4.6144  -4.6144
    -3.8825  -3.8825   6.3797   6.3797   8.3289   8.3289   8.7108   8.7108

          k = 0.3213 0.5566 0.0000 (  5278 PWs)   bands (ev):

   -17.1407 -17.1407 -16.6018 -16.6018 -14.7419 -14.7419  -4.5943  -4.5943
    -3.9023  -3.9023   6.3775   6.3775   8.3515   8.3515   8.7073   8.7073

          k = 0.3220 0.5577 0.0000 (  5278 PWs)   bands (ev):

   -17.1224 -17.1224 -16.6161 -16.6161 -14.7482 -14.7482  -4.5743  -4.5743
    -3.9220  -3.9220   6.3753   6.3753   8.3733   8.3733   8.7037   8.7037

          k = 0.3227 0.5589 0.0000 (  5278 PWs)   bands (ev):

   -17.1042 -17.1042 -16.6303 -16.6303 -14.7542 -14.7542  -4.5544  -4.5544
    -3.9416  -3.9416   6.3733   6.3733   8.3945   8.3945   8.6999   8.6999

          k = 0.3233 0.5600 0.0000 (  5278 PWs)   bands (ev):

   -17.0863 -17.0863 -16.6444 -16.6444 -14.7599 -14.7599  -4.5345  -4.5345
    -3.9612  -3.9612   6.3714   6.3714   8.4150   8.4150   8.6959   8.6959

          k = 0.3240 0.5612 0.0000 (  5274 PWs)   bands (ev):

   -17.0687 -17.0687 -16.6585 -16.6585 -14.7654 -14.7654  -4.5147  -4.5147
    -3.9807  -3.9807   6.3696   6.3696   8.4347   8.4347   8.6917   8.6917

          k = 0.3247 0.5623 0.0000 (  5282 PWs)   bands (ev):

   -17.0513 -17.0513 -16.6726 -16.6726 -14.7704 -14.7704  -4.4950  -4.4950
    -4.0001  -4.0001   6.3678   6.3678   8.4536   8.4536   8.6874   8.6874

          k = 0.3253 0.5635 0.0000 (  5278 PWs)   bands (ev):

   -17.0341 -17.0341 -16.6866 -16.6866 -14.7752 -14.7752  -4.4754  -4.4754
    -4.0195  -4.0195   6.3662   6.3662   8.4716   8.4716   8.6829   8.6829

          k = 0.3260 0.5646 0.0000 (  5280 PWs)   bands (ev):

   -17.0172 -17.0172 -16.7006 -16.7006 -14.7796 -14.7796  -4.4558  -4.4558
    -4.0388  -4.0388   6.3648   6.3648   8.4889   8.4889   8.6783   8.6783

          k = 0.3267 0.5658 0.0000 (  5280 PWs)   bands (ev):

   -17.0005 -17.0005 -16.7145 -16.7145 -14.7837 -14.7837  -4.4364  -4.4364
    -4.0580  -4.0580   6.3634   6.3634   8.5052   8.5052   8.6735   8.6735

          k = 0.3273 0.5670 0.0000 (  5280 PWs)   bands (ev):

   -16.9842 -16.9842 -16.7283 -16.7283 -14.7874 -14.7874  -4.4170  -4.4170
    -4.0772  -4.0772   6.3622   6.3622   8.5207   8.5207   8.6686   8.6686

          k = 0.3280 0.5681 0.0000 (  5280 PWs)   bands (ev):

   -16.9681 -16.9681 -16.7421 -16.7421 -14.7908 -14.7908  -4.3977  -4.3977
    -4.0963  -4.0963   6.3610   6.3610   8.5352   8.5352   8.6635   8.6635

          k = 0.3287 0.5693 0.0000 (  5280 PWs)   bands (ev):

   -16.9523 -16.9523 -16.7558 -16.7558 -14.7938 -14.7938  -4.3785  -4.3785
    -4.1153  -4.1153   6.3600   6.3600   8.5488   8.5488   8.6582   8.6582

          k = 0.3293 0.5704 0.0000 (  5280 PWs)   bands (ev):

   -16.9368 -16.9368 -16.7695 -16.7695 -14.7964 -14.7964  -4.3594  -4.3594
    -4.1343  -4.1343   6.3592   6.3592   8.5614   8.5614   8.6528   8.6528

          k = 0.3300 0.5716 0.0000 (  5280 PWs)   bands (ev):

   -16.9216 -16.9216 -16.7832 -16.7832 -14.7987 -14.7987  -4.3404  -4.3404
    -4.1532  -4.1532   6.3584   6.3584   8.5731   8.5731   8.6472   8.6472

          k = 0.3307 0.5727 0.0000 (  5280 PWs)   bands (ev):

   -16.9067 -16.9067 -16.7967 -16.7967 -14.8005 -14.8005  -4.3214  -4.3214
    -4.1720  -4.1720   6.3578   6.3578   8.5838   8.5838   8.6415   8.6415

          k = 0.3313 0.5739 0.0000 (  5280 PWs)   bands (ev):

   -16.8922 -16.8922 -16.8103 -16.8103 -14.8020 -14.8020  -4.3026  -4.3026
    -4.1907  -4.1907   6.3573   6.3573   8.5936   8.5936   8.6357   8.6357

          k = 0.3320 0.5750 0.0000 (  5284 PWs)   bands (ev):

   -16.8780 -16.8780 -16.8238 -16.8238 -14.8030 -14.8030  -4.2838  -4.2838
    -4.2094  -4.2094   6.3570   6.3570   8.6023   8.6023   8.6297   8.6297

          k = 0.3327 0.5762 0.0000 (  5288 PWs)   bands (ev):

   -16.8641 -16.8641 -16.8372 -16.8372 -14.8037 -14.8037  -4.2652  -4.2652
    -4.2281  -4.2281   6.3568   6.3568   8.6099   8.6099   8.6237   8.6237

          k = 0.3333 0.5774 0.0000 (  5292 PWs)   bands (ev):

   -16.8516 -16.8516 -16.8495 -16.8495 -14.8039 -14.8039  -4.2466  -4.2466
    -4.2466  -4.2466   6.3567   6.3567   8.6150   8.6151   8.6191   8.6191

          k = 0.3337 0.5768 0.0000 (  5284 PWs)   bands (ev):

   -16.8573 -16.8573 -16.8439 -16.8439 -14.8038 -14.8038  -4.2559  -4.2559
    -4.2374  -4.2374   6.3567   6.3567   8.6133   8.6133   8.6208   8.6208

          k = 0.3340 0.5762 0.0000 (  5280 PWs)   bands (ev):

   -16.8639 -16.8639 -16.8374 -16.8374 -14.8037 -14.8037  -4.2651  -4.2651
    -4.2281  -4.2281   6.3568   6.3568   8.6103   8.6103   8.6233   8.6233

          k = 0.3343 0.5756 0.0000 (  5280 PWs)   bands (ev):

   -16.8706 -16.8706 -16.8309 -16.8309 -14.8034 -14.8034  -4.2743  -4.2743
    -4.2189  -4.2189   6.3569   6.3569   8.6071   8.6071   8.6258   8.6258

          k = 0.3347 0.5750 0.0000 (  5280 PWs)   bands (ev):

   -16.8772 -16.8772 -16.8246 -16.8246 -14.8030 -14.8030  -4.2835  -4.2835
    -4.2098  -4.2098   6.3570   6.3570   8.6039   8.6039   8.6281   8.6282

          k = 0.3350 0.5745 0.0000 (  5280 PWs)   bands (ev):

   -16.8838 -16.8838 -16.8183 -16.8183 -14.8025 -14.8025  -4.2927  -4.2927
    -4.2006  -4.2006   6.3571   6.3571   8.6006   8.6006   8.6303   8.6303

          k = 0.3353 0.5739 0.0000 (  5280 PWs)   bands (ev):

   -16.8904 -16.8904 -16.8121 -16.8121 -14.8019 -14.8019  -4.3019  -4.3019
    -4.1915  -4.1915   6.3573   6.3573   8.5972   8.5972   8.6322   8.6322

          k = 0.3357 0.5733 0.0000 (  5280 PWs)   bands (ev):

   -16.8970 -16.8970 -16.8060 -16.8060 -14.8012 -14.8012  -4.3110  -4.3110
    -4.1824  -4.1824   6.3576   6.3576   8.5938   8.5938   8.6338   8.6338

          k = 0.3360 0.5727 0.0000 (  5280 PWs)   bands (ev):

   -16.9036 -16.9036 -16.8001 -16.8001 -14.8004 -14.8004  -4.3202  -4.3202
    -4.1733  -4.1733   6.3578   6.3578   8.5904   8.5904   8.6353   8.6353

          k = 0.3363 0.5722 0.0000 (  5280 PWs)   bands (ev):

   -16.9101 -16.9101 -16.7942 -16.7942 -14.7994 -14.7994  -4.3293  -4.3293
    -4.1642  -4.1642   6.3581   6.3581   8.5869   8.5869   8.6366   8.6366

          k = 0.3367 0.5716 0.0000 (  5280 PWs)   bands (ev):

   -16.9167 -16.9167 -16.7884 -16.7884 -14.7984 -14.7984  -4.3384  -4.3384
    -4.1552  -4.1552   6.3585   6.3585   8.5834   8.5834   8.6376   8.6376

          k = 0.3370 0.5710 0.0000 (  5280 PWs)   bands (ev):

   -16.9232 -16.9232 -16.7827 -16.7827 -14.7972 -14.7972  -4.3475  -4.3475
    -4.1462  -4.1462   6.3589   6.3589   8.5799   8.5799   8.6384   8.6384

          k = 0.3373 0.5704 0.0000 (  5280 PWs)   bands (ev):

   -16.9298 -16.9298 -16.7771 -16.7771 -14.7959 -14.7959  -4.3565  -4.3565
    -4.1372  -4.1372   6.3593   6.3593   8.5763   8.5763   8.6391   8.6391

          k = 0.3377 0.5698 0.0000 (  5280 PWs)   bands (ev):

   -16.9363 -16.9363 -16.7715 -16.7715 -14.7945 -14.7945  -4.3656  -4.3656
    -4.1282  -4.1282   6.3597   6.3597   8.5727   8.5727   8.6395   8.6395

          k = 0.3380 0.5693 0.0000 (  5280 PWs)   bands (ev):

   -16.9428 -16.9428 -16.7661 -16.7661 -14.7930 -14.7930  -4.3746  -4.3746
    -4.1193  -4.1193   6.3602   6.3602   8.5691   8.5691   8.6397   8.6397

          k = 0.3383 0.5687 0.0000 (  5280 PWs)   bands (ev):

   -16.9493 -16.9493 -16.7608 -16.7608 -14.7914 -14.7914  -4.3836  -4.3836
    -4.1104  -4.1104   6.3607   6.3607   8.5654   8.5654   8.6398   8.6398

          k = 0.3387 0.5681 0.0000 (  5280 PWs)   bands (ev):

   -16.9557 -16.9557 -16.7556 -16.7556 -14.7897 -14.7897  -4.3926  -4.3926
    -4.1015  -4.1015   6.3613   6.3613   8.5617   8.5617   8.6396   8.6396

          k = 0.3390 0.5675 0.0000 (  5280 PWs)   bands (ev):

   -16.9622 -16.9622 -16.7505 -16.7505 -14.7878 -14.7878  -4.4016  -4.4016
    -4.0927  -4.0927   6.3619   6.3619   8.5580   8.5580   8.6393   8.6393

          k = 0.3393 0.5670 0.0000 (  5280 PWs)   bands (ev):

   -16.9687 -16.9687 -16.7455 -16.7455 -14.7858 -14.7858  -4.4105  -4.4105
    -4.0838  -4.0838   6.3626   6.3626   8.5542   8.5542   8.6387   8.6387

          k = 0.3397 0.5664 0.0000 (  5280 PWs)   bands (ev):

   -16.9751 -16.9751 -16.7406 -16.7406 -14.7837 -14.7837  -4.4195  -4.4195
    -4.0750  -4.0750   6.3632   6.3632   8.5504   8.5504   8.6380   8.6380

          k = 0.3400 0.5658 0.0000 (  5280 PWs)   bands (ev):

   -16.9815 -16.9815 -16.7358 -16.7358 -14.7815 -14.7815  -4.4284  -4.4284
    -4.0662  -4.0662   6.3640   6.3640   8.5466   8.5466   8.6371   8.6371

          k = 0.3403 0.5652 0.0000 (  5280 PWs)   bands (ev):

   -16.9879 -16.9879 -16.7311 -16.7311 -14.7792 -14.7792  -4.4373  -4.4373
    -4.0575  -4.0575   6.3647   6.3647   8.5427   8.5427   8.6361   8.6361

          k = 0.3407 0.5646 0.0000 (  5276 PWs)   bands (ev):

   -16.9943 -16.9943 -16.7264 -16.7264 -14.7767 -14.7767  -4.4462  -4.4462
    -4.0487  -4.0487   6.3655   6.3655   8.5388   8.5388   8.6349   8.6349

          k = 0.3410 0.5641 0.0000 (  5276 PWs)   bands (ev):

   -17.0007 -17.0007 -16.7219 -16.7219 -14.7741 -14.7741  -4.4551  -4.4551
    -4.0400  -4.0400   6.3663   6.3663   8.5349   8.5349   8.6335   8.6335

          k = 0.3413 0.5635 0.0000 (  5276 PWs)   bands (ev):

   -17.0071 -17.0071 -16.7175 -16.7175 -14.7714 -14.7714  -4.4640  -4.4640
    -4.0314  -4.0314   6.3672   6.3672   8.5310   8.5310   8.6319   8.6319

          k = 0.3417 0.5629 0.0000 (  5280 PWs)   bands (ev):

   -17.0134 -17.0134 -16.7132 -16.7132 -14.7686 -14.7686  -4.4728  -4.4728
    -4.0227  -4.0227   6.3681   6.3681   8.5270   8.5270   8.6302   8.6302

          k = 0.3420 0.5623 0.0000 (  5280 PWs)   bands (ev):

   -17.0198 -17.0198 -16.7090 -16.7090 -14.7657 -14.7657  -4.4816  -4.4816
    -4.0141  -4.0141   6.3691   6.3691   8.5230   8.5230   8.6283   8.6283

          k = 0.3423 0.5618 0.0000 (  5280 PWs)   bands (ev):

   -17.0261 -17.0261 -16.7049 -16.7049 -14.7626 -14.7626  -4.4904  -4.4904
    -4.0055  -4.0055   6.3701   6.3701   8.5190   8.5190   8.6263   8.6263

          k = 0.3427 0.5612 0.0000 (  5280 PWs)   bands (ev):

   -17.0324 -17.0324 -16.7009 -16.7009 -14.7595 -14.7595  -4.4992  -4.4992
    -3.9969  -3.9969   6.3711   6.3711   8.5149   8.5149   8.6241   8.6241

          k = 0.3430 0.5606 0.0000 (  5276 PWs)   bands (ev):

   -17.0387 -17.0387 -16.6970 -16.6970 -14.7562 -14.7562  -4.5080  -4.5080
    -3.9883  -3.9883   6.3721   6.3721   8.5108   8.5109   8.6218   8.6218

          k = 0.3433 0.5600 0.0000 (  5276 PWs)   bands (ev):

   -17.0450 -17.0450 -16.6932 -16.6932 -14.7528 -14.7528  -4.5167  -4.5167
    -3.9798  -3.9798   6.3733   6.3733   8.5067   8.5067   8.6193   8.6193

          k = 0.3437 0.5595 0.0000 (  5276 PWs)   bands (ev):

   -17.0513 -17.0513 -16.6896 -16.6896 -14.7492 -14.7492  -4.5255  -4.5255
    -3.9713  -3.9713   6.3744   6.3744   8.5026   8.5026   8.6167   8.6167

          k = 0.3440 0.5589 0.0000 (  5272 PWs)   bands (ev):

   -17.0576 -17.0576 -16.6860 -16.6860 -14.7456 -14.7456  -4.5342  -4.5342
    -3.9628  -3.9628   6.3756   6.3756   8.4984   8.4984   8.6139   8.6139

          k = 0.3443 0.5583 0.0000 (  5272 PWs)   bands (ev):

   -17.0638 -17.0638 -16.6825 -16.6825 -14.7418 -14.7418  -4.5429  -4.5429
    -3.9544  -3.9544   6.3768   6.3768   8.4943   8.4943   8.6110   8.6110

          k = 0.3447 0.5577 0.0000 (  5276 PWs)   bands (ev):

   -17.0701 -17.0701 -16.6791 -16.6791 -14.7379 -14.7379  -4.5516  -4.5516
    -3.9460  -3.9460   6.3781   6.3781   8.4900   8.4900   8.6080   8.6080

          k = 0.3450 0.5571 0.0000 (  5276 PWs)   bands (ev):

   -17.0763 -17.0763 -16.6758 -16.6758 -14.7339 -14.7339  -4.5602  -4.5602
    -3.9376  -3.9376   6.3794   6.3794   8.4858   8.4858   8.6049   8.6049

          k = 0.3453 0.5566 0.0000 (  5276 PWs)   bands (ev):

   -17.0825 -17.0825 -16.6726 -16.6726 -14.7298 -14.7298  -4.5689  -4.5689
    -3.9292  -3.9292   6.3807   6.3807   8.4815   8.4815   8.6016   8.6016

          k = 0.3457 0.5560 0.0000 (  5276 PWs)   bands (ev):

   -17.0887 -17.0887 -16.6696 -16.6696 -14.7256 -14.7256  -4.5775  -4.5775
    -3.9209  -3.9209   6.3821   6.3821   8.4773   8.4773   8.5982   8.5982

          k = 0.3460 0.5554 0.0000 (  5276 PWs)   bands (ev):

   -17.0949 -17.0949 -16.6666 -16.6666 -14.7212 -14.7212  -4.5861  -4.5861
    -3.9126  -3.9126   6.3835   6.3835   8.4729   8.4729   8.5947   8.5947

          k = 0.3463 0.5548 0.0000 (  5276 PWs)   bands (ev):

   -17.1011 -17.1011 -16.6637 -16.6637 -14.7167 -14.7167  -4.5947  -4.5947
    -3.9043  -3.9043   6.3850   6.3850   8.4686   8.4686   8.5910   8.5910

          k = 0.3467 0.5543 0.0000 (  5276 PWs)   bands (ev):

   -17.1072 -17.1072 -16.6609 -16.6609 -14.7121 -14.7121  -4.6033  -4.6033
    -3.8960  -3.8960   6.3865   6.3865   8.4643   8.4643   8.5872   8.5872

          k = 0.3470 0.5537 0.0000 (  5276 PWs)   bands (ev):

   -17.1134 -17.1134 -16.6583 -16.6583 -14.7074 -14.7074  -4.6119  -4.6119
    -3.8878  -3.8878   6.3880   6.3880   8.4599   8.4599   8.5834   8.5834

          k = 0.3473 0.5531 0.0000 (  5276 PWs)   bands (ev):

   -17.1195 -17.1195 -16.6557 -16.6557 -14.7026 -14.7026  -4.6204  -4.6204
    -3.8796  -3.8796   6.3896   6.3896   8.4555   8.4555   8.5794   8.5794

          k = 0.3477 0.5525 0.0000 (  5276 PWs)   bands (ev):

   -17.1256 -17.1256 -16.6532 -16.6532 -14.6976 -14.6976  -4.6290  -4.6290
    -3.8714  -3.8714   6.3912   6.3912   8.4510   8.4510   8.5752   8.5752

          k = 0.3480 0.5519 0.0000 (  5276 PWs)   bands (ev):

   -17.1317 -17.1317 -16.6508 -16.6508 -14.6926 -14.6926  -4.6375  -4.6375
    -3.8633  -3.8633   6.3929   6.3929   8.4466   8.4466   8.5710   8.5710

          k = 0.3483 0.5514 0.0000 (  5274 PWs)   bands (ev):

   -17.1378 -17.1378 -16.6485 -16.6485 -14.6874 -14.6874  -4.6460  -4.6460
    -3.8552  -3.8552   6.3946   6.3946   8.4421   8.4421   8.5667   8.5667

          k = 0.3487 0.5508 0.0000 (  5274 PWs)   bands (ev):

   -17.1439 -17.1439 -16.6464 -16.6464 -14.6821 -14.6821  -4.6544  -4.6544
    -3.8471  -3.8471   6.3964   6.3964   8.4376   8.4376   8.5622   8.5622

          k = 0.3490 0.5502 0.0000 (  5278 PWs)   bands (ev):

   -17.1500 -17.1500 -16.6443 -16.6443 -14.6767 -14.6767  -4.6629  -4.6629
    -3.8390  -3.8390   6.3981   6.3981   8.4331   8.4331   8.5577   8.5577

          k = 0.3493 0.5496 0.0000 (  5278 PWs)   bands (ev):

   -17.1561 -17.1561 -16.6423 -16.6423 -14.6712 -14.6712  -4.6713  -4.6713
    -3.8310  -3.8310   6.4000   6.4000   8.4286   8.4286   8.5530   8.5530

          k = 0.3497 0.5491 0.0000 (  5278 PWs)   bands (ev):

   -17.1621 -17.1621 -16.6404 -16.6404 -14.6656 -14.6656  -4.6798  -4.6798
    -3.8230  -3.8230   6.4018   6.4018   8.4240   8.4240   8.5482   8.5482

          k = 0.3500 0.5485 0.0000 (  5278 PWs)   bands (ev):

   -17.1681 -17.1681 -16.6386 -16.6386 -14.6598 -14.6598  -4.6882  -4.6882
    -3.8150  -3.8150   6.4037   6.4037   8.4194   8.4194   8.5433   8.5433

          k = 0.3503 0.5479 0.0000 (  5282 PWs)   bands (ev):

   -17.1742 -17.1742 -16.6369 -16.6369 -14.6540 -14.6540  -4.6966  -4.6966
    -3.8070  -3.8070   6.4057   6.4057   8.4148   8.4148   8.5384   8.5384

          k = 0.3507 0.5473 0.0000 (  5282 PWs)   bands (ev):

   -17.1802 -17.1802 -16.6353 -16.6353 -14.6480 -14.6480  -4.7049  -4.7049
    -3.7991  -3.7991   6.4077   6.4077   8.4102   8.4102   8.5333   8.5333

          k = 0.3510 0.5468 0.0000 (  5282 PWs)   bands (ev):

   -17.1861 -17.1861 -16.6337 -16.6337 -14.6420 -14.6420  -4.7133  -4.7133
    -3.7912  -3.7912   6.4097   6.4097   8.4056   8.4056   8.5281   8.5281

          k = 0.3513 0.5462 0.0000 (  5282 PWs)   bands (ev):

   -17.1921 -17.1921 -16.6323 -16.6323 -14.6358 -14.6358  -4.7216  -4.7216
    -3.7834  -3.7834   6.4118   6.4118   8.4009   8.4009   8.5228   8.5228

          k = 0.3517 0.5456 0.0000 (  5282 PWs)   bands (ev):

   -17.1981 -17.1981 -16.6310 -16.6310 -14.6295 -14.6295  -4.7299  -4.7299
    -3.7755  -3.7755   6.4139   6.4139   8.3962   8.3962   8.5174   8.5174

          k = 0.3520 0.5450 0.0000 (  5282 PWs)   bands (ev):

   -17.2040 -17.2040 -16.6297 -16.6297 -14.6231 -14.6231  -4.7382  -4.7382
    -3.7677  -3.7677   6.4160   6.4160   8.3915   8.3915   8.5119   8.5119

          k = 0.3523 0.5444 0.0000 (  5282 PWs)   bands (ev):

   -17.2100 -17.2100 -16.6285 -16.6285 -14.6167 -14.6167  -4.7465  -4.7465
    -3.7599  -3.7599   6.4182   6.4182   8.3868   8.3868   8.5063   8.5063

          k = 0.3527 0.5439 0.0000 (  5282 PWs)   bands (ev):

   -17.2159 -17.2159 -16.6275 -16.6275 -14.6101 -14.6101  -4.7548  -4.7548
    -3.7522  -3.7522   6.4204   6.4204   8.3821   8.3821   8.5006   8.5006

          k = 0.3530 0.5433 0.0000 (  5282 PWs)   bands (ev):

   -17.2218 -17.2218 -16.6265 -16.6265 -14.6034 -14.6034  -4.7630  -4.7630
    -3.7445  -3.7445   6.4227   6.4227   8.3773   8.3773   8.4948   8.4948

          k = 0.3533 0.5427 0.0000 (  5282 PWs)   bands (ev):

   -17.2277 -17.2277 -16.6256 -16.6256 -14.5966 -14.5966  -4.7713  -4.7713
    -3.7368  -3.7368   6.4250   6.4250   8.3726   8.3726   8.4889   8.4889

          k = 0.3537 0.5421 0.0000 (  5282 PWs)   bands (ev):

   -17.2336 -17.2336 -16.6248 -16.6248 -14.5897 -14.5897  -4.7795  -4.7795
    -3.7291  -3.7291   6.4273   6.4273   8.3678   8.3678   8.4829   8.4829

          k = 0.3540 0.5416 0.0000 (  5284 PWs)   bands (ev):

   -17.2395 -17.2395 -16.6240 -16.6240 -14.5827 -14.5827  -4.7877  -4.7877
    -3.7215  -3.7215   6.4297   6.4297   8.3630   8.3630   8.4768   8.4768

          k = 0.3543 0.5410 0.0000 (  5284 PWs)   bands (ev):

   -17.2453 -17.2453 -16.6234 -16.6234 -14.5756 -14.5756  -4.7958  -4.7958
    -3.7138  -3.7138   6.4322   6.4322   8.3582   8.3582   8.4706   8.4706

          k = 0.3547 0.5404 0.0000 (  5284 PWs)   bands (ev):

   -17.2512 -17.2512 -16.6228 -16.6228 -14.5684 -14.5684  -4.8040  -4.8040
    -3.7063  -3.7063   6.4346   6.4346   8.3533   8.3533   8.4642   8.4642

          k = 0.3550 0.5398 0.0000 (  5284 PWs)   bands (ev):

   -17.2570 -17.2570 -16.6223 -16.6223 -14.5611 -14.5611  -4.8121  -4.8121
    -3.6987  -3.6987   6.4371   6.4371   8.3485   8.3485   8.4578   8.4578

          k = 0.3553 0.5392 0.0000 (  5284 PWs)   bands (ev):

   -17.2628 -17.2628 -16.6219 -16.6219 -14.5538 -14.5538  -4.8203  -4.8203
    -3.6912  -3.6912   6.4397   6.4397   8.3436   8.3436   8.4513   8.4513

          k = 0.3557 0.5387 0.0000 (  5284 PWs)   bands (ev):

   -17.2686 -17.2686 -16.6216 -16.6216 -14.5463 -14.5463  -4.8284  -4.8284
    -3.6837  -3.6837   6.4423   6.4423   8.3388   8.3388   8.4447   8.4447

          k = 0.3560 0.5381 0.0000 (  5284 PWs)   bands (ev):

   -17.2744 -17.2744 -16.6213 -16.6213 -14.5387 -14.5387  -4.8365  -4.8365
    -3.6762  -3.6762   6.4449   6.4449   8.3339   8.3339   8.4379   8.4379

          k = 0.3563 0.5375 0.0000 (  5284 PWs)   bands (ev):

   -17.2802 -17.2802 -16.6212 -16.6212 -14.5311 -14.5311  -4.8445  -4.8445
    -3.6688  -3.6688   6.4476   6.4476   8.3290   8.3290   8.4311   8.4311

          k = 0.3567 0.5369 0.0000 (  5284 PWs)   bands (ev):

   -17.2860 -17.2860 -16.6211 -16.6211 -14.5233 -14.5233  -4.8526  -4.8526
    -3.6614  -3.6614   6.4503   6.4503   8.3240   8.3240   8.4241   8.4241

          k = 0.3570 0.5364 0.0000 (  5284 PWs)   bands (ev):

   -17.2917 -17.2917 -16.6210 -16.6210 -14.5155 -14.5155  -4.8606  -4.8606
    -3.6540  -3.6540   6.4530   6.4530   8.3191   8.3191   8.4171   8.4171

          k = 0.3573 0.5358 0.0000 (  5284 PWs)   bands (ev):

   -17.2975 -17.2975 -16.6211 -16.6211 -14.5075 -14.5075  -4.8686  -4.8686
    -3.6467  -3.6467   6.4558   6.4558   8.3142   8.3142   8.4099   8.4099

          k = 0.3577 0.5352 0.0000 (  5284 PWs)   bands (ev):

   -17.3032 -17.3032 -16.6212 -16.6212 -14.4995 -14.4995  -4.8766  -4.8766
    -3.6393  -3.6393   6.4587   6.4587   8.3092   8.3092   8.4026   8.4026

          k = 0.3580 0.5346 0.0000 (  5284 PWs)   bands (ev):

   -17.3089 -17.3089 -16.6214 -16.6214 -14.4914 -14.4914  -4.8846  -4.8846
    -3.6320  -3.6320   6.4615   6.4615   8.3042   8.3042   8.3952   8.3952

          k = 0.3583 0.5340 0.0000 (  5284 PWs)   bands (ev):

   -17.3146 -17.3146 -16.6217 -16.6217 -14.4832 -14.4832  -4.8926  -4.8926
    -3.6248  -3.6248   6.4644   6.4644   8.2992   8.2992   8.3877   8.3877

          k = 0.3587 0.5335 0.0000 (  5288 PWs)   bands (ev):

   -17.3203 -17.3203 -16.6220 -16.6220 -14.4750 -14.4750  -4.9005  -4.9005
    -3.6175  -3.6175   6.4674   6.4674   8.2942   8.2942   8.3800   8.3800

          k = 0.3590 0.5329 0.0000 (  5288 PWs)   bands (ev):

   -17.3260 -17.3260 -16.6224 -16.6224 -14.4666 -14.4666  -4.9085  -4.9085
    -3.6103  -3.6103   6.4704   6.4704   8.2892   8.2892   8.3723   8.3723

          k = 0.3593 0.5323 0.0000 (  5288 PWs)   bands (ev):

   -17.3317 -17.3317 -16.6229 -16.6229 -14.4582 -14.4582  -4.9164  -4.9164
    -3.6032  -3.6032   6.4734   6.4734   8.2842   8.2842   8.3644   8.3644

          k = 0.3597 0.5317 0.0000 (  5288 PWs)   bands (ev):

   -17.3373 -17.3373 -16.6234 -16.6234 -14.4496 -14.4496  -4.9243  -4.9243
    -3.5960  -3.5960   6.4765   6.4765   8.2791   8.2791   8.3564   8.3564

          k = 0.3600 0.5312 0.0000 (  5288 PWs)   bands (ev):

   -17.3430 -17.3430 -16.6240 -16.6240 -14.4410 -14.4410  -4.9321  -4.9321
    -3.5889  -3.5889   6.4796   6.4796   8.2741   8.2741   8.3482   8.3482

          k = 0.3603 0.5306 0.0000 (  5292 PWs)   bands (ev):

   -17.3486 -17.3486 -16.6247 -16.6247 -14.4324 -14.4324  -4.9400  -4.9400
    -3.5818  -3.5818   6.4827   6.4827   8.2690   8.2690   8.3399   8.3399

          k = 0.3607 0.5300 0.0000 (  5292 PWs)   bands (ev):

   -17.3542 -17.3542 -16.6254 -16.6254 -14.4236 -14.4236  -4.9478  -4.9478
    -3.5748  -3.5748   6.4859   6.4859   8.2640   8.2640   8.3316   8.3316

          k = 0.3610 0.5294 0.0000 (  5292 PWs)   bands (ev):

   -17.3598 -17.3598 -16.6262 -16.6262 -14.4148 -14.4148  -4.9557  -4.9557
    -3.5678  -3.5678   6.4891   6.4891   8.2589   8.2589   8.3230   8.3230

          k = 0.3613 0.5289 0.0000 (  5292 PWs)   bands (ev):

   -17.3654 -17.3654 -16.6271 -16.6271 -14.4059 -14.4059  -4.9635  -4.9635
    -3.5608  -3.5608   6.4924   6.4924   8.2538   8.2538   8.3144   8.3144

          k = 0.3617 0.5283 0.0000 (  5288 PWs)   bands (ev):

   -17.3709 -17.3709 -16.6280 -16.6280 -14.3969 -14.3969  -4.9713  -4.9713
    -3.5538  -3.5538   6.4957   6.4957   8.2487   8.2487   8.3056   8.3056

          k = 0.3620 0.5277 0.0000 (  5288 PWs)   bands (ev):

   -17.3765 -17.3765 -16.6289 -16.6289 -14.3879 -14.3879  -4.9790  -4.9790
    -3.5469  -3.5469   6.4990   6.4990   8.2436   8.2436   8.2966   8.2966

          k = 0.3623 0.5271 0.0000 (  5296 PWs)   bands (ev):

   -17.3820 -17.3820 -16.6300 -16.6300 -14.3787 -14.3787  -4.9868  -4.9868
    -3.5400  -3.5400   6.5024   6.5024   8.2384   8.2385   8.2875   8.2875

          k = 0.3627 0.5265 0.0000 (  5296 PWs)   bands (ev):

   -17.3876 -17.3876 -16.6311 -16.6311 -14.3695 -14.3695  -4.9945  -4.9945
    -3.5331  -3.5331   6.5058   6.5058   8.2333   8.2333   8.2783   8.2783

          k = 0.3630 0.5260 0.0000 (  5296 PWs)   bands (ev):

   -17.3931 -17.3931 -16.6322 -16.6322 -14.3603 -14.3603  -5.0022  -5.0022
    -3.5262  -3.5262   6.5093   6.5093   8.2282   8.2282   8.2689   8.2689

          k = 0.3633 0.5254 0.0000 (  5296 PWs)   bands (ev):

   -17.3986 -17.3986 -16.6334 -16.6334 -14.3510 -14.3510  -5.0099  -5.0099
    -3.5194  -3.5194   6.5127   6.5127   8.2230   8.2230   8.2594   8.2594

          k = 0.3637 0.5248 0.0000 (  5296 PWs)   bands (ev):

   -17.4041 -17.4041 -16.6346 -16.6346 -14.3416 -14.3416  -5.0176  -5.0176
    -3.5126  -3.5126   6.5163   6.5163   8.2179   8.2179   8.2498   8.2498

          k = 0.3640 0.5242 0.0000 (  5296 PWs)   bands (ev):

   -17.4096 -17.4096 -16.6359 -16.6359 -14.3321 -14.3321  -5.0253  -5.0253
    -3.5059  -3.5059   6.5198   6.5198   8.2127   8.2127   8.2399   8.2399

          k = 0.3643 0.5237 0.0000 (  5292 PWs)   bands (ev):

   -17.4150 -17.4150 -16.6373 -16.6373 -14.3226 -14.3226  -5.0329  -5.0329
    -3.4991  -3.4991   6.5234   6.5234   8.2075   8.2075   8.2300   8.2300

          k = 0.3647 0.5231 0.0000 (  5292 PWs)   bands (ev):

   -17.4205 -17.4205 -16.6387 -16.6387 -14.3130 -14.3130  -5.0405  -5.0405
    -3.4924  -3.4924   6.5271   6.5271   8.2023   8.2023   8.2199   8.2199

          k = 0.3650 0.5225 0.0000 (  5292 PWs)   bands (ev):

   -17.4259 -17.4259 -16.6402 -16.6402 -14.3033 -14.3033  -5.0481  -5.0481
    -3.4858  -3.4858   6.5308   6.5308   8.1970   8.1970   8.2097   8.2097

          k = 0.3653 0.5219 0.0000 (  5288 PWs)   bands (ev):

   -17.4313 -17.4313 -16.6417 -16.6417 -14.2936 -14.2936  -5.0557  -5.0557
    -3.4791  -3.4791   6.5345   6.5345   8.1917   8.1917   8.1994   8.1994

          k = 0.3657 0.5213 0.0000 (  5288 PWs)   bands (ev):

   -17.4368 -17.4368 -16.6432 -16.6432 -14.2838 -14.2838  -5.0633  -5.0633
    -3.4725  -3.4725   6.5382   6.5382   8.1858   8.1858   8.1895   8.1895

          k = 0.3660 0.5208 0.0000 (  5284 PWs)   bands (ev):

   -17.4422 -17.4422 -16.6448 -16.6448 -14.2740 -14.2740  -5.0709  -5.0709
    -3.4660  -3.4660   6.5420   6.5420   8.1770   8.1770   8.1823   8.1823

          k = 0.3663 0.5202 0.0000 (  5284 PWs)   bands (ev):

   -17.4475 -17.4475 -16.6464 -16.6464 -14.2641 -14.2641  -5.0784  -5.0784
    -3.4594  -3.4594   6.5458   6.5458   8.1664   8.1664   8.1767   8.1767

          k = 0.3667 0.5196 0.0000 (  5284 PWs)   bands (ev):

   -17.4529 -17.4529 -16.6481 -16.6481 -14.2541 -14.2541  -5.0859  -5.0859
    -3.4529  -3.4529   6.5497   6.5497   8.1554   8.1554   8.1714   8.1714

          k = 0.3670 0.5190 0.0000 (  5284 PWs)   bands (ev):

   -17.4583 -17.4583 -16.6499 -16.6499 -14.2441 -14.2441  -5.0934  -5.0934
    -3.4464  -3.4464   6.5536   6.5536   8.1442   8.1442   8.1661   8.1661

          k = 0.3673 0.5185 0.0000 (  5284 PWs)   bands (ev):

   -17.4636 -17.4636 -16.6516 -16.6516 -14.2340 -14.2340  -5.1009  -5.1009
    -3.4399  -3.4399   6.5575   6.5575   8.1328   8.1328   8.1609   8.1609

          k = 0.3677 0.5179 0.0000 (  5286 PWs)   bands (ev):

   -17.4689 -17.4689 -16.6535 -16.6535 -14.2239 -14.2239  -5.1084  -5.1084
    -3.4335  -3.4335   6.5615   6.5615   8.1213   8.1213   8.1556   8.1556

          k = 0.3680 0.5173 0.0000 (  5286 PWs)   bands (ev):

   -17.4743 -17.4743 -16.6553 -16.6553 -14.2137 -14.2137  -5.1158  -5.1158
    -3.4271  -3.4271   6.5655   6.5655   8.1095   8.1095   8.1504   8.1504

          k = 0.3683 0.5167 0.0000 (  5282 PWs)   bands (ev):

   -17.4796 -17.4796 -16.6572 -16.6572 -14.2035 -14.2035  -5.1233  -5.1233
    -3.4208  -3.4208   6.5696   6.5696   8.0977   8.0977   8.1451   8.1451

          k = 0.3687 0.5162 0.0000 (  5282 PWs)   bands (ev):

   -17.4849 -17.4849 -16.6592 -16.6592 -14.1932 -14.1932  -5.1307  -5.1307
    -3.4144  -3.4144   6.5736   6.5736   8.0856   8.0856   8.1399   8.1399

          k = 0.3690 0.5156 0.0000 (  5282 PWs)   bands (ev):

   -17.4901 -17.4901 -16.6611 -16.6611 -14.1829 -14.1829  -5.1381  -5.1381
    -3.4081  -3.4081   6.5777   6.5777   8.0734   8.0734   8.1346   8.1346

          k = 0.3693 0.5150 0.0000 (  5278 PWs)   bands (ev):

   -17.4954 -17.4954 -16.6632 -16.6632 -14.1725 -14.1725  -5.1454  -5.1454
    -3.4018  -3.4018   6.5819   6.5819   8.0610   8.0610   8.1294   8.1294

          k = 0.3697 0.5144 0.0000 (  5278 PWs)   bands (ev):

   -17.5007 -17.5007 -16.6652 -16.6652 -14.1621 -14.1621  -5.1528  -5.1528
    -3.3956  -3.3956   6.5861   6.5861   8.0485   8.0485   8.1241   8.1241

          k = 0.3700 0.5138 0.0000 (  5278 PWs)   bands (ev):

   -17.5059 -17.5059 -16.6673 -16.6673 -14.1516 -14.1516  -5.1601  -5.1601
    -3.3894  -3.3894   6.5903   6.5903   8.0358   8.0358   8.1188   8.1188

          k = 0.3703 0.5133 0.0000 (  5278 PWs)   bands (ev):

   -17.5111 -17.5111 -16.6694 -16.6694 -14.1411 -14.1411  -5.1675  -5.1675
    -3.3832  -3.3832   6.5945   6.5945   8.0230   8.0230   8.1136   8.1136

          k = 0.3707 0.5127 0.0000 (  5278 PWs)   bands (ev):

   -17.5163 -17.5163 -16.6716 -16.6716 -14.1305 -14.1305  -5.1748  -5.1748
    -3.3770  -3.3770   6.5988   6.5988   8.0100   8.0100   8.1083   8.1083

          k = 0.3710 0.5121 0.0000 (  5278 PWs)   bands (ev):

   -17.5215 -17.5215 -16.6738 -16.6738 -14.1199 -14.1199  -5.1820  -5.1820
    -3.3709  -3.3709   6.6031   6.6031   7.9968   7.9968   8.1030   8.1030

          k = 0.3713 0.5115 0.0000 (  5278 PWs)   bands (ev):

   -17.5267 -17.5267 -16.6760 -16.6760 -14.1092 -14.1092  -5.1893  -5.1893
    -3.3648  -3.3648   6.6075   6.6075   7.9835   7.9835   8.0977   8.0977

          k = 0.3717 0.5110 0.0000 (  5278 PWs)   bands (ev):

   -17.5319 -17.5319 -16.6783 -16.6783 -14.0985 -14.0985  -5.1966  -5.1966
    -3.3587  -3.3587   6.6119   6.6119   7.9701   7.9701   8.0925   8.0925

          k = 0.3720 0.5104 0.0000 (  5278 PWs)   bands (ev):

   -17.5371 -17.5371 -16.6806 -16.6806 -14.0877 -14.0877  -5.2038  -5.2038
    -3.3527  -3.3527   6.6163   6.6163   7.9565   7.9565   8.0872   8.0872

          k = 0.3723 0.5098 0.0000 (  5278 PWs)   bands (ev):

   -17.5422 -17.5422 -16.6829 -16.6829 -14.0769 -14.0769  -5.2110  -5.2110
    -3.3467  -3.3467   6.6207   6.6207   7.9428   7.9428   8.0819   8.0819

          k = 0.3727 0.5092 0.0000 (  5278 PWs)   bands (ev):

   -17.5473 -17.5473 -16.6852 -16.6852 -14.0661 -14.0661  -5.2182  -5.2182
    -3.3407  -3.3407   6.6252   6.6252   7.9289   7.9289   8.0766   8.0766

          k = 0.3730 0.5086 0.0000 (  5278 PWs)   bands (ev):

   -17.5525 -17.5525 -16.6876 -16.6876 -14.0552 -14.0552  -5.2254  -5.2254
    -3.3348  -3.3348   6.6297   6.6297   7.9149   7.9149   8.0713   8.0713

          k = 0.3733 0.5081 0.0000 (  5278 PWs)   bands (ev):

   -17.5576 -17.5576 -16.6900 -16.6900 -14.0443 -14.0443  -5.2325  -5.2325
    -3.3289  -3.3289   6.6343   6.6343   7.9007   7.9007   8.0660   8.0660

          k = 0.3737 0.5075 0.0000 (  5278 PWs)   bands (ev):

   -17.5627 -17.5627 -16.6925 -16.6925 -14.0333 -14.0333  -5.2397  -5.2397
    -3.3230  -3.3230   6.6389   6.6389   7.8865   7.8865   8.0607   8.0607

          k = 0.3740 0.5069 0.0000 (  5278 PWs)   bands (ev):

   -17.5677 -17.5677 -16.6949 -16.6949 -14.0223 -14.0223  -5.2468  -5.2468
    -3.3171  -3.3171   6.6435   6.6435   7.8721   7.8721   8.0555   8.0555

          k = 0.3743 0.5063 0.0000 (  5282 PWs)   bands (ev):

   -17.5728 -17.5728 -16.6974 -16.6974 -14.0113 -14.0113  -5.2539  -5.2539
    -3.3113  -3.3113   6.6481   6.6481   7.8575   7.8575   8.0502   8.0502

          k = 0.3747 0.5058 0.0000 (  5282 PWs)   bands (ev):

   -17.5779 -17.5779 -16.7000 -16.7000 -14.0002 -14.0002  -5.2610  -5.2610
    -3.3055  -3.3055   6.6528   6.6528   7.8429   7.8429   8.0449   8.0449

          k = 0.3750 0.5052 0.0000 (  5282 PWs)   bands (ev):

   -17.5829 -17.5829 -16.7025 -16.7025 -13.9891 -13.9891  -5.2681  -5.2681
    -3.2997  -3.2997   6.6575   6.6575   7.8281   7.8281   8.0396   8.0396

          k = 0.3753 0.5046 0.0000 (  5282 PWs)   bands (ev):

   -17.5879 -17.5879 -16.7051 -16.7051 -13.9780 -13.9780  -5.2751  -5.2751
    -3.2940  -3.2940   6.6622   6.6622   7.8132   7.8132   8.0343   8.0343

          k = 0.3757 0.5040 0.0000 (  5282 PWs)   bands (ev):

   -17.5930 -17.5930 -16.7077 -16.7077 -13.9668 -13.9668  -5.2821  -5.2821
    -3.2883  -3.2883   6.6670   6.6670   7.7982   7.7982   8.0290   8.0290

          k = 0.3760 0.5034 0.0000 (  5282 PWs)   bands (ev):

   -17.5980 -17.5980 -16.7103 -16.7103 -13.9556 -13.9556  -5.2892  -5.2892
    -3.2826  -3.2826   6.6718   6.6718   7.7831   7.7831   8.0237   8.0237

          k = 0.3763 0.5029 0.0000 (  5282 PWs)   bands (ev):

   -17.6029 -17.6029 -16.7129 -16.7129 -13.9443 -13.9443  -5.2962  -5.2962
    -3.2770  -3.2770   6.6766   6.6766   7.7679   7.7679   8.0184   8.0184

          k = 0.3767 0.5023 0.0000 (  5282 PWs)   bands (ev):

   -17.6079 -17.6079 -16.7156 -16.7156 -13.9331 -13.9331  -5.3031  -5.3031
    -3.2713  -3.2713   6.6815   6.6815   7.7525   7.7525   8.0131   8.0131

          k = 0.3770 0.5017 0.0000 (  5282 PWs)   bands (ev):

   -17.6129 -17.6129 -16.7183 -16.7183 -13.9218 -13.9218  -5.3101  -5.3101
    -3.2658  -3.2658   6.6863   6.6863   7.7371   7.7371   8.0078   8.0078

          k = 0.3773 0.5011 0.0000 (  5282 PWs)   bands (ev):

   -17.6178 -17.6178 -16.7210 -16.7210 -13.9104 -13.9104  -5.3170  -5.3170
    -3.2602  -3.2602   6.6913   6.6913   7.7216   7.7216   8.0025   8.0025

          k = 0.3777 0.5006 0.0000 (  5282 PWs)   bands (ev):

   -17.6228 -17.6228 -16.7237 -16.7237 -13.8990 -13.8990  -5.3240  -5.3240
    -3.2547  -3.2547   6.6962   6.6962   7.7059   7.7059   7.9972   7.9972

          k = 0.3780 0.5000 0.0000 (  5282 PWs)   bands (ev):

   -17.6277 -17.6277 -16.7265 -16.7265 -13.8876 -13.8876  -5.3309  -5.3309
    -3.2492  -3.2492   6.7012   6.7012   7.6902   7.6902   7.9920   7.9920

          k = 0.3783 0.4994 0.0000 (  5282 PWs)   bands (ev):

   -17.6326 -17.6326 -16.7292 -16.7292 -13.8762 -13.8762  -5.3378  -5.3378
    -3.2437  -3.2437   6.7062   6.7062   7.6744   7.6744   7.9867   7.9867

          k = 0.3787 0.4988 0.0000 (  5282 PWs)   bands (ev):

   -17.6375 -17.6375 -16.7320 -16.7320 -13.8647 -13.8647  -5.3446  -5.3446
    -3.2383  -3.2383   6.7112   6.7112   7.6585   7.6585   7.9814   7.9814

          k = 0.3790 0.4983 0.0000 (  5282 PWs)   bands (ev):

   -17.6424 -17.6424 -16.7348 -16.7348 -13.8533 -13.8533  -5.3515  -5.3515
    -3.2329  -3.2329   6.7162   6.7162   7.6425   7.6425   7.9761   7.9761

          k = 0.3793 0.4977 0.0000 (  5282 PWs)   bands (ev):

   -17.6472 -17.6472 -16.7377 -16.7377 -13.8417 -13.8417  -5.3583  -5.3583
    -3.2275  -3.2275   6.7213   6.7213   7.6264   7.6264   7.9708   7.9708

          k = 0.3797 0.4971 0.0000 (  5278 PWs)   bands (ev):

   -17.6521 -17.6521 -16.7405 -16.7405 -13.8302 -13.8302  -5.3651  -5.3651
    -3.2221  -3.2221   6.7264   6.7264   7.6102   7.6102   7.9656   7.9656

          k = 0.3800 0.4965 0.0000 (  5278 PWs)   bands (ev):

   -17.6569 -17.6569 -16.7434 -16.7434 -13.8186 -13.8186  -5.3719  -5.3719
    -3.2168  -3.2168   6.7316   6.7316   7.5940   7.5940   7.9603   7.9603

          k = 0.3803 0.4959 0.0000 (  5278 PWs)   bands (ev):

   -17.6618 -17.6618 -16.7462 -16.7462 -13.8070 -13.8070  -5.3787  -5.3787
    -3.2115  -3.2115   6.7367   6.7367   7.5777   7.5777   7.9550   7.9550

          k = 0.3807 0.4954 0.0000 (  5282 PWs)   bands (ev):

   -17.6666 -17.6666 -16.7491 -16.7491 -13.7954 -13.7954  -5.3855  -5.3855
    -3.2062  -3.2062   6.7419   6.7419   7.5613   7.5613   7.9497   7.9497

          k = 0.3810 0.4948 0.0000 (  5282 PWs)   bands (ev):

   -17.6714 -17.6714 -16.7520 -16.7520 -13.7838 -13.7838  -5.3922  -5.3922
    -3.2010  -3.2010   6.7471   6.7471   7.5448   7.5448   7.9445   7.9445

          k = 0.3813 0.4942 0.0000 (  5282 PWs)   bands (ev):

   -17.6762 -17.6762 -16.7550 -16.7550 -13.7721 -13.7721  -5.3989  -5.3989
    -3.1958  -3.1958   6.7523   6.7523   7.5283   7.5283   7.9392   7.9392

          k = 0.3817 0.4936 0.0000 (  5282 PWs)   bands (ev):

   -17.6810 -17.6810 -16.7579 -16.7579 -13.7604 -13.7604  -5.4056  -5.4056
    -3.1906  -3.1906   6.7576   6.7576   7.5117   7.5117   7.9339   7.9339

          k = 0.3820 0.4931 0.0000 (  5282 PWs)   bands (ev):

   -17.6857 -17.6857 -16.7608 -16.7608 -13.7487 -13.7487  -5.4123  -5.4123
    -3.1855  -3.1855   6.7629   6.7629   7.4950   7.4950   7.9287   7.9287

          k = 0.3823 0.4925 0.0000 (  5282 PWs)   bands (ev):

   -17.6905 -17.6905 -16.7638 -16.7638 -13.7369 -13.7369  -5.4190  -5.4190
    -3.1804  -3.1804   6.7682   6.7682   7.4782   7.4782   7.9234   7.9234

          k = 0.3827 0.4919 0.0000 (  5282 PWs)   bands (ev):

   -17.6952 -17.6952 -16.7668 -16.7668 -13.7252 -13.7252  -5.4257  -5.4257
    -3.1753  -3.1753   6.7735   6.7735   7.4615   7.4615   7.9182   7.9182

          k = 0.3830 0.4913 0.0000 (  5282 PWs)   bands (ev):

   -17.6999 -17.6999 -16.7698 -16.7698 -13.7134 -13.7134  -5.4323  -5.4323
    -3.1702  -3.1702   6.7789   6.7789   7.4446   7.4446   7.9129   7.9129

          k = 0.3833 0.4907 0.0000 (  5286 PWs)   bands (ev):

   -17.7046 -17.7046 -16.7728 -16.7728 -13.7016 -13.7016  -5.4389  -5.4389
    -3.1652  -3.1652   6.7842   6.7842   7.4277   7.4277   7.9077   7.9077

          k = 0.3837 0.4902 0.0000 (  5286 PWs)   bands (ev):

   -17.7093 -17.7093 -16.7758 -16.7758 -13.6898 -13.6898  -5.4455  -5.4455
    -3.1602  -3.1602   6.7896   6.7896   7.4107   7.4107   7.9024   7.9024

          k = 0.3840 0.4896 0.0000 (  5286 PWs)   bands (ev):

   -17.7140 -17.7140 -16.7788 -16.7788 -13.6779 -13.6779  -5.4521  -5.4521
    -3.1552  -3.1552   6.7950   6.7950   7.3937   7.3937   7.8972   7.8972

          k = 0.3843 0.4890 0.0000 (  5286 PWs)   bands (ev):

   -17.7187 -17.7187 -16.7819 -16.7819 -13.6661 -13.6661  -5.4586  -5.4586
    -3.1503  -3.1503   6.8005   6.8005   7.3766   7.3766   7.8920   7.8920

          k = 0.3847 0.4884 0.0000 (  5286 PWs)   bands (ev):

   -17.7233 -17.7233 -16.7849 -16.7849 -13.6542 -13.6542  -5.4652  -5.4652
    -3.1454  -3.1454   6.8059   6.8059   7.3595   7.3595   7.8867   7.8867

          k = 0.3850 0.4879 0.0000 (  5286 PWs)   bands (ev):

   -17.7280 -17.7280 -16.7880 -16.7880 -13.6423 -13.6423  -5.4717  -5.4717
    -3.1405  -3.1405   6.8114   6.8114   7.3423   7.3423   7.8815   7.8815

          k = 0.3853 0.4873 0.0000 (  5286 PWs)   bands (ev):

   -17.7326 -17.7326 -16.7910 -16.7910 -13.6304 -13.6304  -5.4782  -5.4782
    -3.1356  -3.1356   6.8169   6.8169   7.3251   7.3251   7.8763   7.8763

          k = 0.3857 0.4867 0.0000 (  5286 PWs)   bands (ev):

   -17.7372 -17.7372 -16.7941 -16.7941 -13.6184 -13.6184  -5.4847  -5.4847
    -3.1308  -3.1308   6.8224   6.8224   7.3078   7.3078   7.8711   7.8711

          k = 0.3860 0.4861 0.0000 (  5286 PWs)   bands (ev):

   -17.7418 -17.7418 -16.7972 -16.7972 -13.6065 -13.6065  -5.4912  -5.4912
    -3.1260  -3.1260   6.8280   6.8280   7.2905   7.2905   7.8659   7.8659

          k = 0.3863 0.4856 0.0000 (  5288 PWs)   bands (ev):

   -17.7464 -17.7464 -16.8003 -16.8003 -13.5945 -13.5945  -5.4976  -5.4976
    -3.1212  -3.1212   6.8335   6.8335   7.2731   7.2731   7.8607   7.8607

          k = 0.3867 0.4850 0.0000 (  5288 PWs)   bands (ev):

   -17.7510 -17.7510 -16.8034 -16.8034 -13.5825 -13.5825  -5.5040  -5.5040
    -3.1165  -3.1165   6.8391   6.8391   7.2557   7.2557   7.8555   7.8555

          k = 0.3870 0.4844 0.0000 (  5288 PWs)   bands (ev):

   -17.7556 -17.7556 -16.8065 -16.8065 -13.5705 -13.5705  -5.5105  -5.5105
    -3.1118  -3.1118   6.8447   6.8447   7.2383   7.2383   7.8503   7.8503

          k = 0.3873 0.4838 0.0000 (  5284 PWs)   bands (ev):

   -17.7601 -17.7601 -16.8097 -16.8097 -13.5585 -13.5585  -5.5169  -5.5169
    -3.1071  -3.1071   6.8503   6.8503   7.2208   7.2208   7.8451   7.8451

          k = 0.3877 0.4832 0.0000 (  5280 PWs)   bands (ev):

   -17.7646 -17.7646 -16.8128 -16.8128 -13.5465 -13.5465  -5.5232  -5.5232
    -3.1025  -3.1025   6.8559   6.8559   7.2033   7.2033   7.8399   7.8399

          k = 0.3880 0.4827 0.0000 (  5280 PWs)   bands (ev):

   -17.7692 -17.7692 -16.8159 -16.8159 -13.5344 -13.5344  -5.5296  -5.5296
    -3.0978  -3.0978   6.8616   6.8616   7.1858   7.1858   7.8348   7.8348

          k = 0.3883 0.4821 0.0000 (  5280 PWs)   bands (ev):

   -17.7737 -17.7737 -16.8191 -16.8191 -13.5224 -13.5224  -5.5359  -5.5359
    -3.0932  -3.0932   6.8673   6.8673   7.1682   7.1682   7.8296   7.8296

          k = 0.3887 0.4815 0.0000 (  5280 PWs)   bands (ev):

   -17.7782 -17.7782 -16.8222 -16.8222 -13.5103 -13.5103  -5.5423  -5.5423
    -3.0887  -3.0887   6.8729   6.8729   7.1506   7.1506   7.8244   7.8244

          k = 0.3890 0.4809 0.0000 (  5280 PWs)   bands (ev):

   -17.7827 -17.7827 -16.8254 -16.8254 -13.4982 -13.4982  -5.5486  -5.5486
    -3.0841  -3.0841   6.8786   6.8786   7.1330   7.1330   7.8193   7.8193

          k = 0.3893 0.4804 0.0000 (  5280 PWs)   bands (ev):

   -17.7871 -17.7871 -16.8285 -16.8285 -13.4862 -13.4862  -5.5548  -5.5548
    -3.0796  -3.0796   6.8843   6.8843   7.1153   7.1153   7.8141   7.8141

          k = 0.3897 0.4798 0.0000 (  5280 PWs)   bands (ev):

   -17.7916 -17.7916 -16.8317 -16.8317 -13.4741 -13.4741  -5.5611  -5.5611
    -3.0751  -3.0751   6.8901   6.8901   7.0976   7.0976   7.8090   7.8090

          k = 0.3900 0.4792 0.0000 (  5280 PWs)   bands (ev):

   -17.7960 -17.7960 -16.8349 -16.8349 -13.4619 -13.4619  -5.5674  -5.5674
    -3.0706  -3.0706   6.8958   6.8958   7.0799   7.0799   7.8039   7.8039

          k = 0.3903 0.4786 0.0000 (  5280 PWs)   bands (ev):

   -17.8004 -17.8004 -16.8381 -16.8381 -13.4498 -13.4498  -5.5736  -5.5736
    -3.0662  -3.0662   6.9015   6.9015   7.0621   7.0621   7.7987   7.7987

          k = 0.3907 0.4780 0.0000 (  5280 PWs)   bands (ev):

   -17.8049 -17.8049 -16.8413 -16.8413 -13.4377 -13.4377  -5.5798  -5.5798
    -3.0618  -3.0618   6.9073   6.9073   7.0443   7.0443   7.7936   7.7936

          k = 0.3910 0.4775 0.0000 (  5280 PWs)   bands (ev):

   -17.8093 -17.8093 -16.8444 -16.8444 -13.4255 -13.4255  -5.5860  -5.5860
    -3.0574  -3.0574   6.9131   6.9131   7.0265   7.0265   7.7885   7.7885

          k = 0.3913 0.4769 0.0000 (  5280 PWs)   bands (ev):

   -17.8137 -17.8137 -16.8476 -16.8476 -13.4134 -13.4134  -5.5922  -5.5922
    -3.0531  -3.0531   6.9189   6.9189   7.0087   7.0087   7.7834   7.7834

          k = 0.3917 0.4763 0.0000 (  5280 PWs)   bands (ev):

   -17.8180 -17.8180 -16.8508 -16.8508 -13.4012 -13.4012  -5.5983  -5.5983
    -3.0488  -3.0488   6.9247   6.9247   6.9909   6.9909   7.7783   7.7783

          k = 0.3920 0.4757 0.0000 (  5276 PWs)   bands (ev):

   -17.8224 -17.8224 -16.8540 -16.8540 -13.3890 -13.3890  -5.6045  -5.6045
    -3.0445  -3.0445   6.9305   6.9305   6.9730   6.9730   7.7732   7.7732

          k = 0.3923 0.4752 0.0000 (  5276 PWs)   bands (ev):

   -17.8267 -17.8267 -16.8572 -16.8572 -13.3768 -13.3768  -5.6106  -5.6106
    -3.0402  -3.0402   6.9363   6.9363   6.9551   6.9551   7.7681   7.7681

          k = 0.3927 0.4746 0.0000 (  5272 PWs)   bands (ev):

   -17.8311 -17.8311 -16.8605 -16.8605 -13.3647 -13.3647  -5.6167  -5.6167
    -3.0360  -3.0360   6.9371   6.9371   6.9423   6.9423   7.7630   7.7630

          k = 0.3930 0.4740 0.0000 (  5268 PWs)   bands (ev):

   -17.8354 -17.8354 -16.8637 -16.8637 -13.3525 -13.3525  -5.6228  -5.6228
    -3.0318  -3.0318   6.9193   6.9193   6.9480   6.9480   7.7580   7.7580

          k = 0.3933 0.4734 0.0000 (  5268 PWs)   bands (ev):

   -17.8397 -17.8397 -16.8669 -16.8669 -13.3402 -13.3402  -5.6288  -5.6288
    -3.0276  -3.0276   6.9013   6.9013   6.9539   6.9539   7.7529   7.7529

          k = 0.3937 0.4728 0.0000 (  5268 PWs)   bands (ev):

   -17.8440 -17.8440 -16.8701 -16.8701 -13.3280 -13.3280  -5.6349  -5.6349
    -3.0234  -3.0234   6.8834   6.8834   6.9597   6.9597   7.7479   7.7479

          k = 0.3940 0.4723 0.0000 (  5268 PWs)   bands (ev):

   -17.8483 -17.8483 -16.8733 -16.8733 -13.3158 -13.3158  -5.6409  -5.6409
    -3.0193  -3.0193   6.8654   6.8654   6.9656   6.9656   7.7428   7.7428

          k = 0.3943 0.4717 0.0000 (  5268 PWs)   bands (ev):

   -17.8526 -17.8526 -16.8765 -16.8765 -13.3036 -13.3036  -5.6469  -5.6469
    -3.0152  -3.0152   6.8474   6.8474   6.9715   6.9715   7.7378   7.7378

          k = 0.3947 0.4711 0.0000 (  5268 PWs)   bands (ev):

   -17.8568 -17.8568 -16.8798 -16.8798 -13.2914 -13.2914  -5.6529  -5.6529
    -3.0111  -3.0111   6.8295   6.8295   6.9774   6.9774   7.7328   7.7328

          k = 0.3950 0.4705 0.0000 (  5268 PWs)   bands (ev):

   -17.8611 -17.8611 -16.8830 -16.8830 -13.2791 -13.2791  -5.6589  -5.6589
    -3.0070  -3.0070   6.8115   6.8115   6.9832   6.9832   7.7277   7.7277

          k = 0.3953 0.4700 0.0000 (  5268 PWs)   bands (ev):

   -17.8653 -17.8653 -16.8862 -16.8862 -13.2669 -13.2669  -5.6648  -5.6648
    -3.0030  -3.0030   6.7934   6.7934   6.9891   6.9891   7.7227   7.7227

          k = 0.3957 0.4694 0.0000 (  5268 PWs)   bands (ev):

   -17.8695 -17.8695 -16.8894 -16.8894 -13.2546 -13.2546  -5.6708  -5.6708
    -2.9990  -2.9990   6.7754   6.7754   6.9950   6.9950   7.7177   7.7177

          k = 0.3960 0.4688 0.0000 (  5270 PWs)   bands (ev):

   -17.8737 -17.8737 -16.8927 -16.8927 -13.2424 -13.2424  -5.6767  -5.6767
    -2.9951  -2.9951   6.7574   6.7574   7.0010   7.0010   7.7127   7.7127

          k = 0.3963 0.4682 0.0000 (  5270 PWs)   bands (ev):

   -17.8779 -17.8779 -16.8959 -16.8959 -13.2301 -13.2301  -5.6826  -5.6826
    -2.9911  -2.9911   6.7393   6.7393   7.0069   7.0069   7.7078   7.7078

          k = 0.3967 0.4677 0.0000 (  5274 PWs)   bands (ev):

   -17.8821 -17.8821 -16.8991 -16.8991 -13.2179 -13.2179  -5.6885  -5.6885
    -2.9872  -2.9872   6.7213   6.7213   7.0128   7.0128   7.7028   7.7028

          k = 0.3970 0.4671 0.0000 (  5270 PWs)   bands (ev):

   -17.8862 -17.8862 -16.9023 -16.9023 -13.2056 -13.2056  -5.6943  -5.6943
    -2.9833  -2.9833   6.7032   6.7032   7.0187   7.0187   7.6978   7.6978

          k = 0.3973 0.4665 0.0000 (  5270 PWs)   bands (ev):

   -17.8904 -17.8904 -16.9056 -16.9056 -13.1933 -13.1933  -5.7002  -5.7002
    -2.9794  -2.9794   6.6852   6.6852   7.0246   7.0246   7.6929   7.6929

          k = 0.3977 0.4659 0.0000 (  5270 PWs)   bands (ev):

   -17.8945 -17.8945 -16.9088 -16.9088 -13.1810 -13.1810  -5.7060  -5.7060
    -2.9756  -2.9756   6.6671   6.6671   7.0306   7.0306   7.6879   7.6879

          k = 0.3980 0.4653 0.0000 (  5270 PWs)   bands (ev):

   -17.8986 -17.8986 -16.9120 -16.9120 -13.1688 -13.1688  -5.7118  -5.7118
    -2.9718  -2.9718   6.6490   6.6490   7.0365   7.0365   7.6830   7.6830

          k = 0.3983 0.4648 0.0000 (  5270 PWs)   bands (ev):

   -17.9028 -17.9028 -16.9153 -16.9153 -13.1565 -13.1565  -5.7176  -5.7176
    -2.9680  -2.9680   6.6310   6.6310   7.0424   7.0424   7.6780   7.6780

          k = 0.3987 0.4642 0.0000 (  5270 PWs)   bands (ev):

   -17.9069 -17.9069 -16.9185 -16.9185 -13.1442 -13.1442  -5.7234  -5.7234
    -2.9642  -2.9642   6.6129   6.6129   7.0484   7.0484   7.6731   7.6731

          k = 0.3990 0.4636 0.0000 (  5270 PWs)   bands (ev):

   -17.9109 -17.9109 -16.9217 -16.9217 -13.1319 -13.1319  -5.7291  -5.7291
    -2.9605  -2.9605   6.5948   6.5948   7.0543   7.0543   7.6682   7.6682

          k = 0.3993 0.4630 0.0000 (  5270 PWs)   bands (ev):

   -17.9150 -17.9150 -16.9249 -16.9249 -13.1197 -13.1197  -5.7349  -5.7349
    -2.9568  -2.9568   6.5767   6.5767   7.0602   7.0602   7.6633   7.6633

          k = 0.3997 0.4625 0.0000 (  5266 PWs)   bands (ev):

   -17.9191 -17.9191 -16.9282 -16.9282 -13.1074 -13.1074  -5.7406  -5.7406
    -2.9531  -2.9531   6.5586   6.5586   7.0661   7.0661   7.6584   7.6584

          k = 0.4000 0.4619 0.0000 (  5262 PWs)   bands (ev):

   -17.9231 -17.9231 -16.9314 -16.9314 -13.0951 -13.0951  -5.7463  -5.7463
    -2.9495  -2.9495   6.5406   6.5406   7.0721   7.0721   7.6536   7.6536

          k = 0.4003 0.4613 0.0000 (  5266 PWs)   bands (ev):

   -17.9271 -17.9271 -16.9346 -16.9346 -13.0828 -13.0828  -5.7519  -5.7519
    -2.9458  -2.9458   6.5225   6.5225   7.0780   7.0780   7.6487   7.6487

          k = 0.4007 0.4607 0.0000 (  5266 PWs)   bands (ev):

   -17.9312 -17.9312 -16.9378 -16.9378 -13.0706 -13.0706  -5.7576  -5.7576
    -2.9422  -2.9422   6.5044   6.5044   7.0839   7.0839   7.6438   7.6438

          k = 0.4010 0.4601 0.0000 (  5266 PWs)   bands (ev):

   -17.9352 -17.9352 -16.9410 -16.9410 -13.0583 -13.0583  -5.7632  -5.7632
    -2.9386  -2.9386   6.4863   6.4863   7.0899   7.0899   7.6390   7.6390

          k = 0.4013 0.4596 0.0000 (  5266 PWs)   bands (ev):

   -17.9391 -17.9391 -16.9443 -16.9443 -13.0460 -13.0460  -5.7689  -5.7689
    -2.9351  -2.9351   6.4683   6.4683   7.0958   7.0958   7.6341   7.6341

          k = 0.4017 0.4590 0.0000 (  5266 PWs)   bands (ev):

   -17.9431 -17.9431 -16.9475 -16.9475 -13.0337 -13.0337  -5.7745  -5.7745
    -2.9315  -2.9315   6.4502   6.4502   7.1017   7.1017   7.6293   7.6293

          k = 0.4020 0.4584 0.0000 (  5266 PWs)   bands (ev):

   -17.9471 -17.9471 -16.9507 -16.9507 -13.0214 -13.0214  -5.7800  -5.7800
    -2.9280  -2.9280   6.4321   6.4321   7.1076   7.1076   7.6245   7.6245

          k = 0.4023 0.4578 0.0000 (  5266 PWs)   bands (ev):

   -17.9510 -17.9510 -16.9539 -16.9539 -13.0092 -13.0092  -5.7856  -5.7856
    -2.9245  -2.9245   6.4141   6.4141   7.1135   7.1135   7.6197   7.6197

          k = 0.4027 0.4573 0.0000 (  5266 PWs)   bands (ev):

   -17.9550 -17.9550 -16.9571 -16.9571 -12.9969 -12.9969  -5.7912  -5.7912
    -2.9211  -2.9211   6.3960   6.3960   7.1194   7.1194   7.6149   7.6149

          k = 0.4030 0.4567 0.0000 (  5266 PWs)   bands (ev):

   -17.9589 -17.9589 -16.9603 -16.9603 -12.9846 -12.9846  -5.7967  -5.7967
    -2.9177  -2.9177   6.3780   6.3780   7.1253   7.1253   7.6101   7.6101

          k = 0.4033 0.4561 0.0000 (  5266 PWs)   bands (ev):

   -17.9628 -17.9628 -16.9635 -16.9635 -12.9724 -12.9724  -5.8022  -5.8022
    -2.9142  -2.9142   6.3599   6.3599   7.1312   7.1312   7.6053   7.6053

          k = 0.4037 0.4555 0.0000 (  5266 PWs)   bands (ev):

   -17.9667 -17.9667 -16.9667 -16.9667 -12.9601 -12.9601  -5.8077  -5.8077
    -2.9109  -2.9109   6.3419   6.3419   7.1371   7.1371   7.6006   7.6006

          k = 0.4040 0.4550 0.0000 (  5266 PWs)   bands (ev):

   -17.9706 -17.9706 -16.9699 -16.9699 -12.9478 -12.9478  -5.8132  -5.8132
    -2.9075  -2.9075   6.3238   6.3238   7.1429   7.1429   7.5958   7.5958

          k = 0.4043 0.4544 0.0000 (  5266 PWs)   bands (ev):

   -17.9744 -17.9744 -16.9731 -16.9731 -12.9356 -12.9356  -5.8186  -5.8186
    -2.9042  -2.9042   6.3058   6.3058   7.1488   7.1488   7.5911   7.5911

          k = 0.4047 0.4538 0.0000 (  5266 PWs)   bands (ev):

   -17.9783 -17.9783 -16.9762 -16.9762 -12.9233 -12.9233  -5.8241  -5.8241
    -2.9009  -2.9009   6.2878   6.2878   7.1547   7.1547   7.5864   7.5864

          k = 0.4050 0.4532 0.0000 (  5266 PWs)   bands (ev):

   -17.9821 -17.9821 -16.9794 -16.9794 -12.9111 -12.9111  -5.8295  -5.8295
    -2.8976  -2.8976   6.2698   6.2698   7.1605   7.1605   7.5816   7.5816

          k = 0.4053 0.4526 0.0000 (  5266 PWs)   bands (ev):

   -17.9860 -17.9860 -16.9826 -16.9826 -12.8988 -12.8988  -5.8349  -5.8349
    -2.8943  -2.8943   6.2518   6.2518   7.1663   7.1663   7.5769   7.5769

          k = 0.4057 0.4521 0.0000 (  5266 PWs)   bands (ev):

   -17.9898 -17.9898 -16.9858 -16.9858 -12.8866 -12.8866  -5.8403  -5.8403
    -2.8911  -2.8911   6.2338   6.2338   7.1722   7.1722   7.5722   7.5722

          k = 0.4060 0.4515 0.0000 (  5266 PWs)   bands (ev):

   -17.9936 -17.9936 -16.9889 -16.9889 -12.8744 -12.8744  -5.8456  -5.8456
    -2.8879  -2.8879   6.2159   6.2159   7.1780   7.1780   7.5676   7.5676

          k = 0.4063 0.4509 0.0000 (  5266 PWs)   bands (ev):

   -17.9974 -17.9974 -16.9921 -16.9921 -12.8621 -12.8621  -5.8510  -5.8510
    -2.8847  -2.8847   6.1979   6.1979   7.1838   7.1838   7.5629   7.5629

          k = 0.4067 0.4503 0.0000 (  5266 PWs)   bands (ev):

   -18.0011 -18.0011 -16.9953 -16.9953 -12.8499 -12.8499  -5.8563  -5.8563
    -2.8815  -2.8815   6.1800   6.1800   7.1896   7.1896   7.5582   7.5582

          k = 0.4070 0.4498 0.0000 (  5266 PWs)   bands (ev):

   -18.0049 -18.0049 -16.9984 -16.9984 -12.8377 -12.8377  -5.8616  -5.8616
    -2.8783  -2.8783   6.1620   6.1620   7.1954   7.1954   7.5536   7.5536

          k = 0.4073 0.4492 0.0000 (  5266 PWs)   bands (ev):

   -18.0087 -18.0087 -17.0016 -17.0016 -12.8255 -12.8255  -5.8669  -5.8669
    -2.8752  -2.8752   6.1441   6.1441   7.2011   7.2011   7.5489   7.5489

          k = 0.4077 0.4486 0.0000 (  5262 PWs)   bands (ev):

   -18.0124 -18.0124 -17.0047 -17.0047 -12.8133 -12.8133  -5.8721  -5.8721
    -2.8721  -2.8721   6.1262   6.1262   7.2069   7.2069   7.5443   7.5443

          k = 0.4080 0.4480 0.0000 (  5262 PWs)   bands (ev):

   -18.0161 -18.0161 -17.0079 -17.0079 -12.8011 -12.8011  -5.8774  -5.8774
    -2.8690  -2.8690   6.1083   6.1083   7.2126   7.2126   7.5397   7.5397

          k = 0.4083 0.4474 0.0000 (  5262 PWs)   bands (ev):

   -18.0198 -18.0198 -17.0110 -17.0110 -12.7889 -12.7889  -5.8826  -5.8826
    -2.8660  -2.8660   6.0905   6.0905   7.2183   7.2183   7.5351   7.5351

          k = 0.4087 0.4469 0.0000 (  5262 PWs)   bands (ev):

   -18.0235 -18.0235 -17.0141 -17.0141 -12.7767 -12.7767  -5.8878  -5.8878
    -2.8630  -2.8630   6.0726   6.0726   7.2240   7.2240   7.5305   7.5305

          k = 0.4090 0.4463 0.0000 (  5262 PWs)   bands (ev):

   -18.0272 -18.0272 -17.0173 -17.0173 -12.7645 -12.7645  -5.8930  -5.8930
    -2.8600  -2.8600   6.0548   6.0548   7.2297   7.2297   7.5259   7.5259

          k = 0.4093 0.4457 0.0000 (  5264 PWs)   bands (ev):

   -18.0309 -18.0309 -17.0204 -17.0204 -12.7524 -12.7524  -5.8982  -5.8982
    -2.8570  -2.8570   6.0369   6.0369   7.2354   7.2354   7.5214   7.5214

          k = 0.4097 0.4451 0.0000 (  5264 PWs)   bands (ev):

   -18.0345 -18.0345 -17.0235 -17.0235 -12.7402 -12.7402  -5.9034  -5.9034
    -2.8540  -2.8540   6.0191   6.0191   7.2410   7.2410   7.5168   7.5168

          k = 0.4100 0.4446 0.0000 (  5264 PWs)   bands (ev):

   -18.0382 -18.0382 -17.0266 -17.0266 -12.7280 -12.7280  -5.9085  -5.9085
    -2.8511  -2.8511   6.0013   6.0013   7.2467   7.2467   7.5123   7.5123

          k = 0.4103 0.4440 0.0000 (  5264 PWs)   bands (ev):

   -18.0418 -18.0418 -17.0297 -17.0297 -12.7159 -12.7159  -5.9136  -5.9136
    -2.8482  -2.8482   5.9836   5.9836   7.2523   7.2523   7.5078   7.5078

          k = 0.4107 0.4434 0.0000 (  5268 PWs)   bands (ev):

   -18.0454 -18.0454 -17.0328 -17.0328 -12.7038 -12.7038  -5.9187  -5.9187
    -2.8453  -2.8453   5.9658   5.9658   7.2579   7.2579   7.5032   7.5032

          k = 0.4110 0.4428 0.0000 (  5268 PWs)   bands (ev):

   -18.0490 -18.0490 -17.0359 -17.0359 -12.6916 -12.6916  -5.9238  -5.9238
    -2.8424  -2.8424   5.9481   5.9481   7.2635   7.2635   7.4987   7.4987

          k = 0.4113 0.4423 0.0000 (  5268 PWs)   bands (ev):

   -18.0526 -18.0526 -17.0390 -17.0390 -12.6795 -12.6795  -5.9289  -5.9289
    -2.8395  -2.8395   5.9304   5.9304   7.2690   7.2690   7.4942   7.4942

          k = 0.4117 0.4417 0.0000 (  5268 PWs)   bands (ev):

   -18.0562 -18.0562 -17.0421 -17.0421 -12.6674 -12.6674  -5.9339  -5.9339
    -2.8367  -2.8367   5.9127   5.9127   7.2745   7.2745   7.4898   7.4898

          k = 0.4120 0.4411 0.0000 (  5264 PWs)   bands (ev):

   -18.0597 -18.0597 -17.0451 -17.0451 -12.6553 -12.6553  -5.9389  -5.9389
    -2.8339  -2.8339   5.8950   5.8950   7.2801   7.2801   7.4853   7.4853

          k = 0.4123 0.4405 0.0000 (  5260 PWs)   bands (ev):

   -18.0633 -18.0633 -17.0482 -17.0482 -12.6433 -12.6433  -5.9440  -5.9440
    -2.8311  -2.8311   5.8773   5.8773   7.2856   7.2856   7.4809   7.4809

          k = 0.4127 0.4399 0.0000 (  5260 PWs)   bands (ev):

   -18.0668 -18.0668 -17.0513 -17.0513 -12.6312 -12.6312  -5.9489  -5.9489
    -2.8284  -2.8284   5.8597   5.8597   7.2910   7.2910   7.4764   7.4764

          k = 0.4130 0.4394 0.0000 (  5260 PWs)   bands (ev):

   -18.0703 -18.0703 -17.0543 -17.0543 -12.6191 -12.6191  -5.9539  -5.9539
    -2.8256  -2.8256   5.8421   5.8421   7.2965   7.2965   7.4720   7.4720

          k = 0.4133 0.4388 0.0000 (  5260 PWs)   bands (ev):

   -18.0738 -18.0738 -17.0574 -17.0574 -12.6071 -12.6071  -5.9589  -5.9589
    -2.8229  -2.8229   5.8245   5.8245   7.3019   7.3019   7.4676   7.4676

          k = 0.4137 0.4382 0.0000 (  5264 PWs)   bands (ev):

   -18.0773 -18.0773 -17.0604 -17.0604 -12.5950 -12.5950  -5.9638  -5.9638
    -2.8202  -2.8202   5.8069   5.8069   7.3073   7.3073   7.4632   7.4632

          k = 0.4140 0.4376 0.0000 (  5264 PWs)   bands (ev):

   -18.0808 -18.0808 -17.0634 -17.0634 -12.5830 -12.5830  -5.9687  -5.9687
    -2.8175  -2.8175   5.7894   5.7894   7.3127   7.3127   7.4588   7.4588

          k = 0.4143 0.4371 0.0000 (  5264 PWs)   bands (ev):

   -18.0843 -18.0843 -17.0665 -17.0665 -12.5710 -12.5710  -5.9736  -5.9736
    -2.8149  -2.8149   5.7719   5.7719   7.3180   7.3180   7.4544   7.4544

          k = 0.4147 0.4365 0.0000 (  5264 PWs)   bands (ev):

   -18.0877 -18.0877 -17.0695 -17.0695 -12.5590 -12.5590  -5.9785  -5.9785
    -2.8123  -2.8123   5.7544   5.7544   7.3234   7.3234   7.4501   7.4501

          k = 0.4150 0.4359 0.0000 (  5264 PWs)   bands (ev):

   -18.0912 -18.0912 -17.0725 -17.0725 -12.5470 -12.5470  -5.9833  -5.9833
    -2.8096  -2.8096   5.7369   5.7369   7.3287   7.3287   7.4457   7.4457

          k = 0.4153 0.4353 0.0000 (  5264 PWs)   bands (ev):

   -18.0946 -18.0946 -17.0755 -17.0755 -12.5350 -12.5350  -5.9882  -5.9882
    -2.8071  -2.8071   5.7195   5.7195   7.3339   7.3339   7.4414   7.4414

          k = 0.4157 0.4347 0.0000 (  5264 PWs)   bands (ev):

   -18.0980 -18.0980 -17.0785 -17.0785 -12.5231 -12.5231  -5.9930  -5.9930
    -2.8045  -2.8045   5.7021   5.7021   7.3392   7.3392   7.4371   7.4371

          k = 0.4160 0.4342 0.0000 (  5264 PWs)   bands (ev):

   -18.1014 -18.1014 -17.0815 -17.0815 -12.5111 -12.5111  -5.9978  -5.9978
    -2.8019  -2.8019   5.6847   5.6847   7.3444   7.3444   7.4328   7.4328

          k = 0.4163 0.4336 0.0000 (  5264 PWs)   bands (ev):

   -18.1048 -18.1048 -17.0845 -17.0845 -12.4992 -12.4992  -6.0026  -6.0026
    -2.7994  -2.7994   5.6673   5.6673   7.3496   7.3496   7.4285   7.4285

          k = 0.4167 0.4330 0.0000 (  5264 PWs)   bands (ev):

   -18.1082 -18.1082 -17.0874 -17.0874 -12.4873 -12.4873  -6.0074  -6.0074
    -2.7969  -2.7969   5.6500   5.6500   7.3548   7.3548   7.4242   7.4242

          k = 0.4170 0.4324 0.0000 (  5264 PWs)   bands (ev):

   -18.1115 -18.1115 -17.0904 -17.0904 -12.4754 -12.4754  -6.0121  -6.0121
    -2.7944  -2.7944   5.6327   5.6327   7.3599   7.3599   7.4199   7.4199

          k = 0.4173 0.4319 0.0000 (  5264 PWs)   bands (ev):

   -18.1149 -18.1149 -17.0934 -17.0934 -12.4635 -12.4635  -6.0168  -6.0168
    -2.7919  -2.7919   5.6154   5.6154   7.3650   7.3650   7.4157   7.4157

          k = 0.4177 0.4313 0.0000 (  5264 PWs)   bands (ev):

   -18.1182 -18.1182 -17.0963 -17.0963 -12.4516 -12.4516  -6.0215  -6.0215
    -2.7895  -2.7895   5.5981   5.5981   7.3701   7.3701   7.4114   7.4114

          k = 0.4180 0.4307 0.0000 (  5264 PWs)   bands (ev):

   -18.1215 -18.1215 -17.0993 -17.0993 -12.4397 -12.4397  -6.0262  -6.0262
    -2.7871  -2.7871   5.5809   5.5809   7.3752   7.3752   7.4072   7.4072

          k = 0.4183 0.4301 0.0000 (  5264 PWs)   bands (ev):

   -18.1249 -18.1249 -17.1022 -17.1022 -12.4279 -12.4279  -6.0309  -6.0309
    -2.7847  -2.7847   5.5637   5.5637   7.3802   7.3802   7.4030   7.4030

          k = 0.4187 0.4295 0.0000 (  5264 PWs)   bands (ev):

   -18.1281 -18.1281 -17.1051 -17.1051 -12.4160 -12.4160  -6.0356  -6.0356
    -2.7823  -2.7823   5.5465   5.5465   7.3852   7.3852   7.3988   7.3988

          k = 0.4190 0.4290 0.0000 (  5264 PWs)   bands (ev):

   -18.1314 -18.1314 -17.1080 -17.1080 -12.4042 -12.4042  -6.0402  -6.0402
    -2.7799  -2.7799   5.5294   5.5294   7.3901   7.3901   7.3947   7.3947

          k = 0.4193 0.4284 0.0000 (  5268 PWs)   bands (ev):

   -18.1347 -18.1347 -17.1110 -17.1110 -12.3924 -12.3924  -6.0448  -6.0448
    -2.7775  -2.7775   5.5123   5.5123   7.3904   7.3904   7.3951   7.3951

          k = 0.4197 0.4278 0.0000 (  5268 PWs)   bands (ev):

   -18.1379 -18.1379 -17.1139 -17.1139 -12.3807 -12.3807  -6.0494  -6.0494
    -2.7752  -2.7752   5.4952   5.4952   7.3863   7.3863   7.4000   7.4000

          k = 0.4200 0.4272 0.0000 (  5268 PWs)   bands (ev):

   -18.1412 -18.1412 -17.1168 -17.1168 -12.3689 -12.3689  -6.0540  -6.0540
    -2.7729  -2.7729   5.4781   5.4781   7.3822   7.3822   7.4048   7.4048

          k = 0.4203 0.4267 0.0000 (  5268 PWs)   bands (ev):

   -18.1444 -18.1444 -17.1196 -17.1196 -12.3571 -12.3571  -6.0585  -6.0585
    -2.7706  -2.7706   5.4611   5.4611   7.3780   7.3780   7.4097   7.4097

          k = 0.4207 0.4261 0.0000 (  5270 PWs)   bands (ev):

   -18.1476 -18.1476 -17.1225 -17.1225 -12.3454 -12.3454  -6.0631  -6.0631
    -2.7683  -2.7683   5.4441   5.4441   7.3739   7.3739   7.4145   7.4145

          k = 0.4210 0.4255 0.0000 (  5266 PWs)   bands (ev):

   -18.1508 -18.1508 -17.1254 -17.1254 -12.3337 -12.3337  -6.0676  -6.0676
    -2.7661  -2.7661   5.4272   5.4272   7.3698   7.3698   7.4192   7.4192

          k = 0.4213 0.4249 0.0000 (  5266 PWs)   bands (ev):

   -18.1540 -18.1540 -17.1282 -17.1282 -12.3220 -12.3220  -6.0721  -6.0721
    -2.7639  -2.7639   5.4103   5.4103   7.3658   7.3658   7.4240   7.4240

          k = 0.4217 0.4244 0.0000 (  5266 PWs)   bands (ev):

   -18.1572 -18.1572 -17.1311 -17.1311 -12.3103 -12.3103  -6.0766  -6.0766
    -2.7616  -2.7616   5.3934   5.3934   7.3617   7.3617   7.4287   7.4287

          k = 0.4220 0.4238 0.0000 (  5266 PWs)   bands (ev):

   -18.1603 -18.1603 -17.1339 -17.1339 -12.2987 -12.2987  -6.0810  -6.0810
    -2.7595  -2.7595   5.3765   5.3765   7.3576   7.3576   7.4333   7.4333

          k = 0.4223 0.4232 0.0000 (  5266 PWs)   bands (ev):

   -18.1635 -18.1635 -17.1368 -17.1368 -12.2870 -12.2870  -6.0855  -6.0855
    -2.7573  -2.7573   5.3597   5.3597   7.3536   7.3536   7.4380   7.4380

          k = 0.4227 0.4226 0.0000 (  5266 PWs)   bands (ev):

   -18.1666 -18.1666 -17.1396 -17.1396 -12.2754 -12.2754  -6.0899  -6.0899
    -2.7551  -2.7551   5.3429   5.3429   7.3496   7.3496   7.4426   7.4426

          k = 0.4230 0.4220 0.0000 (  5266 PWs)   bands (ev):

   -18.1697 -18.1697 -17.1424 -17.1424 -12.2638 -12.2638  -6.0943  -6.0943
    -2.7530  -2.7530   5.3262   5.3262   7.3456   7.3456   7.4471   7.4471

          k = 0.4233 0.4215 0.0000 (  5270 PWs)   bands (ev):

   -18.1728 -18.1728 -17.1452 -17.1452 -12.2522 -12.2522  -6.0987  -6.0987
    -2.7509  -2.7509   5.3095   5.3095   7.3416   7.3416   7.4516   7.4516

          k = 0.4237 0.4209 0.0000 (  5270 PWs)   bands (ev):

   -18.1759 -18.1759 -17.1480 -17.1480 -12.2407 -12.2407  -6.1031  -6.1031
    -2.7488  -2.7488   5.2928   5.2928   7.3376   7.3376   7.4561   7.4561

          k = 0.4240 0.4203 0.0000 (  5272 PWs)   bands (ev):

   -18.1790 -18.1790 -17.1508 -17.1508 -12.2291 -12.2291  -6.1074  -6.1074
    -2.7467  -2.7467   5.2761   5.2761   7.3336   7.3336   7.4606   7.4606

          k = 0.4243 0.4197 0.0000 (  5272 PWs)   bands (ev):

   -18.1821 -18.1821 -17.1536 -17.1536 -12.2176 -12.2176  -6.1118  -6.1118
    -2.7446  -2.7446   5.2595   5.2595   7.3297   7.3297   7.4650   7.4650

          k = 0.4247 0.4192 0.0000 (  5272 PWs)   bands (ev):

   -18.1851 -18.1851 -17.1564 -17.1564 -12.2061 -12.2061  -6.1161  -6.1161
    -2.7426  -2.7426   5.2430   5.2430   7.3258   7.3258   7.4694   7.4694

          k = 0.4250 0.4186 0.0000 (  5268 PWs)   bands (ev):

   -18.1882 -18.1882 -17.1591 -17.1591 -12.1946 -12.1946  -6.1204  -6.1204
    -2.7405  -2.7405   5.2264   5.2264   7.3218   7.3218   7.4737   7.4737

          k = 0.4253 0.4180 0.0000 (  5272 PWs)   bands (ev):

   -18.1912 -18.1912 -17.1619 -17.1619 -12.1832 -12.1832  -6.1247  -6.1247
    -2.7385  -2.7385   5.2099   5.2099   7.3179   7.3179   7.4780   7.4780

          k = 0.4257 0.4174 0.0000 (  5276 PWs)   bands (ev):

   -18.1942 -18.1942 -17.1646 -17.1646 -12.1717 -12.1717  -6.1289  -6.1289
    -2.7365  -2.7365   5.1935   5.1935   7.3140   7.3140   7.4823   7.4823

          k = 0.4260 0.4168 0.0000 (  5276 PWs)   bands (ev):

   -18.1972 -18.1972 -17.1674 -17.1674 -12.1603 -12.1603  -6.1332  -6.1332
    -2.7345  -2.7345   5.1770   5.1770   7.3102   7.3102   7.4865   7.4865

          k = 0.4263 0.4163 0.0000 (  5276 PWs)   bands (ev):

   -18.2002 -18.2002 -17.1701 -17.1701 -12.1489 -12.1489  -6.1374  -6.1374
    -2.7326  -2.7326   5.1607   5.1607   7.3063   7.3063   7.4907   7.4907

          k = 0.4267 0.4157 0.0000 (  5280 PWs)   bands (ev):

   -18.2032 -18.2032 -17.1728 -17.1728 -12.1376 -12.1376  -6.1416  -6.1416
    -2.7306  -2.7306   5.1443   5.1443   7.3025   7.3025   7.4933   7.4933

          k = 0.4270 0.4151 0.0000 (  5284 PWs)   bands (ev):

   -18.2061 -18.2061 -17.1755 -17.1755 -12.1262 -12.1262  -6.1458  -6.1458
    -2.7287  -2.7287   5.1280   5.1280   7.2986   7.2986   7.4891   7.4891

          k = 0.4273 0.4145 0.0000 (  5284 PWs)   bands (ev):

   -18.2091 -18.2091 -17.1782 -17.1782 -12.1149 -12.1149  -6.1499  -6.1499
    -2.7268  -2.7268   5.1117   5.1117   7.2948   7.2948   7.4849   7.4849

          k = 0.4277 0.4140 0.0000 (  5284 PWs)   bands (ev):

   -18.2120 -18.2120 -17.1809 -17.1809 -12.1036 -12.1036  -6.1541  -6.1541
    -2.7249  -2.7249   5.0955   5.0955   7.2910   7.2910   7.4808   7.4808

          k = 0.4280 0.4134 0.0000 (  5284 PWs)   bands (ev):

   -18.2149 -18.2149 -17.1836 -17.1836 -12.0923 -12.0923  -6.1582  -6.1582
    -2.7230  -2.7230   5.0793   5.0793   7.2872   7.2872   7.4766   7.4766

          k = 0.4283 0.4128 0.0000 (  5284 PWs)   bands (ev):

   -18.2178 -18.2178 -17.1863 -17.1863 -12.0811 -12.0811  -6.1623  -6.1623
    -2.7212  -2.7212   5.0632   5.0632   7.2835   7.2835   7.4725   7.4725

          k = 0.4287 0.4122 0.0000 (  5284 PWs)   bands (ev):

   -18.2207 -18.2207 -17.1889 -17.1889 -12.0698 -12.0698  -6.1664  -6.1664
    -2.7193  -2.7193   5.0471   5.0471   7.2797   7.2797   7.4684   7.4684

          k = 0.4290 0.4117 0.0000 (  5280 PWs)   bands (ev):

   -18.2236 -18.2236 -17.1916 -17.1916 -12.0586 -12.0586  -6.1705  -6.1705
    -2.7175  -2.7175   5.0310   5.0310   7.2760   7.2760   7.4643   7.4643

          k = 0.4293 0.4111 0.0000 (  5284 PWs)   bands (ev):

   -18.2264 -18.2264 -17.1942 -17.1942 -12.0475 -12.0475  -6.1745  -6.1745
    -2.7157  -2.7157   5.0150   5.0150   7.2722   7.2722   7.4603   7.4603

          k = 0.4297 0.4105 0.0000 (  5284 PWs)   bands (ev):

   -18.2293 -18.2293 -17.1968 -17.1968 -12.0363 -12.0363  -6.1785  -6.1785
    -2.7139  -2.7139   4.9990   4.9990   7.2685   7.2685   7.4562   7.4562

          k = 0.4300 0.4099 0.0000 (  5284 PWs)   bands (ev):

   -18.2321 -18.2321 -17.1994 -17.1994 -12.0252 -12.0252  -6.1826  -6.1826
    -2.7121  -2.7121   4.9831   4.9831   7.2648   7.2648   7.4522   7.4522

          k = 0.4303 0.4093 0.0000 (  5284 PWs)   bands (ev):

   -18.2349 -18.2349 -17.2021 -17.2021 -12.0141 -12.0141  -6.1866  -6.1866
    -2.7104  -2.7104   4.9672   4.9672   7.2612   7.2612   7.4482   7.4482

          k = 0.4307 0.4088 0.0000 (  5284 PWs)   bands (ev):

   -18.2378 -18.2378 -17.2046 -17.2046 -12.0030 -12.0030  -6.1905  -6.1905
    -2.7086  -2.7086   4.9514   4.9514   7.2575   7.2575   7.4442   7.4442

          k = 0.4310 0.4082 0.0000 (  5284 PWs)   bands (ev):

   -18.2406 -18.2406 -17.2072 -17.2072 -11.9919 -11.9919  -6.1945  -6.1945
    -2.7069  -2.7069   4.9356   4.9356   7.2539   7.2539   7.4402   7.4402

          k = 0.4313 0.4076 0.0000 (  5284 PWs)   bands (ev):

   -18.2433 -18.2433 -17.2098 -17.2098 -11.9809 -11.9809  -6.1984  -6.1984
    -2.7052  -2.7052   4.9198   4.9198   7.2502   7.2502   7.4363   7.4363

          k = 0.4317 0.4070 0.0000 (  5292 PWs)   bands (ev):

   -18.2461 -18.2461 -17.2124 -17.2124 -11.9699 -11.9699  -6.2023  -6.2023
    -2.7035  -2.7035   4.9041   4.9041   7.2466   7.2466   7.4323   7.4323

          k = 0.4320 0.4065 0.0000 (  5292 PWs)   bands (ev):

   -18.2489 -18.2489 -17.2149 -17.2149 -11.9589 -11.9589  -6.2062  -6.2062
    -2.7018  -2.7018   4.8884   4.8884   7.2430   7.2430   7.4284   7.4284

          k = 0.4323 0.4059 0.0000 (  5292 PWs)   bands (ev):

   -18.2516 -18.2516 -17.2175 -17.2175 -11.9480 -11.9480  -6.2101  -6.2101
    -2.7001  -2.7001   4.8728   4.8728   7.2394   7.2394   7.4245   7.4245

          k = 0.4327 0.4053 0.0000 (  5292 PWs)   bands (ev):

   -18.2543 -18.2543 -17.2200 -17.2200 -11.9371 -11.9371  -6.2140  -6.2140
    -2.6985  -2.6985   4.8572   4.8572   7.2359   7.2359   7.4206   7.4206

          k = 0.4330 0.4047 0.0000 (  5292 PWs)   bands (ev):

   -18.2571 -18.2571 -17.2225 -17.2225 -11.9262 -11.9262  -6.2178  -6.2178
    -2.6968  -2.6968   4.8417   4.8417   7.2323   7.2323   7.4168   7.4168

          k = 0.4333 0.4041 0.0000 (  5292 PWs)   bands (ev):

   -18.2598 -18.2598 -17.2251 -17.2251 -11.9153 -11.9153  -6.2217  -6.2217
    -2.6952  -2.6952   4.8262   4.8262   7.2288   7.2288   7.4129   7.4129

          k = 0.4337 0.4036 0.0000 (  5292 PWs)   bands (ev):

   -18.2624 -18.2624 -17.2276 -17.2276 -11.9045 -11.9045  -6.2255  -6.2255
    -2.6936  -2.6936   4.8108   4.8108   7.2252   7.2252   7.4091   7.4091

          k = 0.4340 0.4030 0.0000 (  5292 PWs)   bands (ev):

   -18.2651 -18.2651 -17.2301 -17.2301 -11.8936 -11.8936  -6.2293  -6.2293
    -2.6920  -2.6920   4.7954   4.7954   7.2217   7.2217   7.4053   7.4053

          k = 0.4343 0.4024 0.0000 (  5292 PWs)   bands (ev):

   -18.2678 -18.2678 -17.2325 -17.2325 -11.8829 -11.8829  -6.2330  -6.2330
    -2.6905  -2.6905   4.7800   4.7800   7.2183   7.2183   7.4015   7.4015

          k = 0.4347 0.4018 0.0000 (  5292 PWs)   bands (ev):

   -18.2704 -18.2704 -17.2350 -17.2350 -11.8721 -11.8721  -6.2368  -6.2368
    -2.6889  -2.6889   4.7647   4.7647   7.2148   7.2148   7.3977   7.3977

          k = 0.4350 0.4013 0.0000 (  5292 PWs)   bands (ev):

   -18.2731 -18.2731 -17.2375 -17.2375 -11.8614 -11.8614  -6.2405  -6.2405
    -2.6874  -2.6874   4.7495   4.7495   7.2113   7.2113   7.3940   7.3940

          k = 0.4353 0.4007 0.0000 (  5292 PWs)   bands (ev):

   -18.2757 -18.2757 -17.2399 -17.2399 -11.8507 -11.8507  -6.2442  -6.2442
    -2.6858  -2.6858   4.7343   4.7343   7.2079   7.2079   7.3902   7.3902

          k = 0.4357 0.4001 0.0000 (  5292 PWs)   bands (ev):

   -18.2783 -18.2783 -17.2424 -17.2424 -11.8400 -11.8400  -6.2479  -6.2479
    -2.6843  -2.6843   4.7191   4.7191   7.2045   7.2045   7.3865   7.3865

          k = 0.4360 0.3995 0.0000 (  5296 PWs)   bands (ev):

   -18.2809 -18.2809 -17.2448 -17.2448 -11.8294 -11.8294  -6.2516  -6.2516
    -2.6828  -2.6828   4.7040   4.7040   7.2010   7.2010   7.3828   7.3828

          k = 0.4363 0.3989 0.0000 (  5296 PWs)   bands (ev):

   -18.2835 -18.2835 -17.2472 -17.2472 -11.8188 -11.8188  -6.2552  -6.2552
    -2.6813  -2.6813   4.6890   4.6890   7.1977   7.1977   7.3791   7.3791

          k = 0.4367 0.3984 0.0000 (  5296 PWs)   bands (ev):

   -18.2860 -18.2860 -17.2496 -17.2496 -11.8082 -11.8082  -6.2589  -6.2589
    -2.6798  -2.6798   4.6740   4.6740   7.1943   7.1943   7.3755   7.3755

          k = 0.4370 0.3978 0.0000 (  5300 PWs)   bands (ev):

   -18.2886 -18.2886 -17.2520 -17.2520 -11.7977 -11.7977  -6.2625  -6.2625
    -2.6784  -2.6784   4.6590   4.6590   7.1909   7.1909   7.3718   7.3718

          k = 0.4373 0.3972 0.0000 (  5300 PWs)   bands (ev):

   -18.2911 -18.2911 -17.2544 -17.2544 -11.7872 -11.7872  -6.2661  -6.2661
    -2.6769  -2.6769   4.6441   4.6441   7.1876   7.1876   7.3682   7.3682

          k = 0.4377 0.3966 0.0000 (  5300 PWs)   bands (ev):

   -18.2937 -18.2937 -17.2568 -17.2568 -11.7767 -11.7767  -6.2697  -6.2697
    -2.6755  -2.6755   4.6293   4.6293   7.1842   7.1842   7.3646   7.3646

          k = 0.4380 0.3961 0.0000 (  5300 PWs)   bands (ev):

   -18.2962 -18.2962 -17.2591 -17.2591 -11.7663 -11.7663  -6.2732  -6.2732
    -2.6741  -2.6741   4.6145   4.6145   7.1809   7.1809   7.3610   7.3610

          k = 0.4383 0.3955 0.0000 (  5300 PWs)   bands (ev):

   -18.2987 -18.2987 -17.2615 -17.2615 -11.7559 -11.7559  -6.2768  -6.2768
    -2.6727  -2.6727   4.5997   4.5997   7.1776   7.1776   7.3574   7.3574

          k = 0.4387 0.3949 0.0000 (  5304 PWs)   bands (ev):

   -18.3012 -18.3012 -17.2638 -17.2638 -11.7455 -11.7455  -6.2803  -6.2803
    -2.6713  -2.6713   4.5850   4.5850   7.1744   7.1744   7.3539   7.3539

          k = 0.4390 0.3943 0.0000 (  5304 PWs)   bands (ev):

   -18.3036 -18.3036 -17.2662 -17.2662 -11.7351 -11.7351  -6.2838  -6.2838
    -2.6699  -2.6699   4.5704   4.5704   7.1711   7.1711   7.3503   7.3503

          k = 0.4393 0.3938 0.0000 (  5304 PWs)   bands (ev):

   -18.3061 -18.3061 -17.2685 -17.2685 -11.7248 -11.7248  -6.2873  -6.2873
    -2.6686  -2.6686   4.5558   4.5558   7.1679   7.1679   7.3468   7.3468

          k = 0.4397 0.3932 0.0000 (  5304 PWs)   bands (ev):

   -18.3085 -18.3085 -17.2708 -17.2708 -11.7145 -11.7145  -6.2907  -6.2907
    -2.6672  -2.6672   4.5413   4.5413   7.1646   7.1646   7.3433   7.3433

          k = 0.4400 0.3926 0.0000 (  5300 PWs)   bands (ev):

   -18.3110 -18.3110 -17.2731 -17.2731 -11.7043 -11.7043  -6.2942  -6.2942
    -2.6659  -2.6659   4.5268   4.5268   7.1614   7.1614   7.3399   7.3399

          k = 0.4403 0.3920 0.0000 (  5300 PWs)   bands (ev):

   -18.3134 -18.3134 -17.2754 -17.2754 -11.6941 -11.6941  -6.2976  -6.2976
    -2.6646  -2.6646   4.5124   4.5124   7.1582   7.1582   7.3364   7.3364

          k = 0.4407 0.3914 0.0000 (  5300 PWs)   bands (ev):

   -18.3158 -18.3158 -17.2777 -17.2777 -11.6839 -11.6839  -6.3010  -6.3010
    -2.6632  -2.6632   4.4980   4.4980   7.1550   7.1550   7.3330   7.3330

          k = 0.4410 0.3909 0.0000 (  5300 PWs)   bands (ev):

   -18.3182 -18.3182 -17.2799 -17.2799 -11.6737 -11.6737  -6.3044  -6.3044
    -2.6620  -2.6620   4.4837   4.4837   7.1519   7.1519   7.3295   7.3295

          k = 0.4413 0.3903 0.0000 (  5296 PWs)   bands (ev):

   -18.3206 -18.3206 -17.2822 -17.2822 -11.6636 -11.6636  -6.3078  -6.3078
    -2.6607  -2.6607   4.4694   4.4694   7.1487   7.1487   7.3261   7.3261

          k = 0.4417 0.3897 0.0000 (  5296 PWs)   bands (ev):

   -18.3229 -18.3229 -17.2844 -17.2844 -11.6535 -11.6535  -6.3111  -6.3111
    -2.6594  -2.6594   4.4552   4.4552   7.1456   7.1456   7.3227   7.3227

          k = 0.4420 0.3891 0.0000 (  5296 PWs)   bands (ev):

   -18.3253 -18.3253 -17.2867 -17.2867 -11.6435 -11.6435  -6.3145  -6.3145
    -2.6581  -2.6581   4.4410   4.4410   7.1425   7.1425   7.3194   7.3194

          k = 0.4423 0.3886 0.0000 (  5296 PWs)   bands (ev):

   -18.3276 -18.3276 -17.2889 -17.2889 -11.6335 -11.6335  -6.3178  -6.3178
    -2.6569  -2.6569   4.4269   4.4269   7.1394   7.1394   7.3160   7.3160

          k = 0.4427 0.3880 0.0000 (  5296 PWs)   bands (ev):

   -18.3300 -18.3300 -17.2911 -17.2911 -11.6235 -11.6235  -6.3211  -6.3211
    -2.6557  -2.6557   4.4129   4.4129   7.1363   7.1363   7.3127   7.3127

          k = 0.4430 0.3874 0.0000 (  5296 PWs)   bands (ev):

   -18.3323 -18.3323 -17.2933 -17.2933 -11.6136 -11.6136  -6.3243  -6.3243
    -2.6544  -2.6544   4.3989   4.3989   7.1332   7.1332   7.3094   7.3094

          k = 0.4433 0.3868 0.0000 (  5296 PWs)   bands (ev):

   -18.3346 -18.3346 -17.2955 -17.2955 -11.6037 -11.6037  -6.3276  -6.3276
    -2.6532  -2.6532   4.3850   4.3850   7.1302   7.1302   7.3061   7.3061

          k = 0.4437 0.3862 0.0000 (  5296 PWs)   bands (ev):

   -18.3369 -18.3369 -17.2976 -17.2976 -11.5938 -11.5938  -6.3308  -6.3308
    -2.6520  -2.6520   4.3711   4.3711   7.1271   7.1271   7.3028   7.3028

          k = 0.4440 0.3857 0.0000 (  5296 PWs)   bands (ev):

   -18.3391 -18.3391 -17.2998 -17.2998 -11.5840 -11.5840  -6.3341  -6.3341
    -2.6509  -2.6509   4.3573   4.3573   7.1241   7.1241   7.2996   7.2996

          k = 0.4443 0.3851 0.0000 (  5300 PWs)   bands (ev):

   -18.3414 -18.3414 -17.3019 -17.3019 -11.5742 -11.5742  -6.3373  -6.3373
    -2.6497  -2.6497   4.3435   4.3435   7.1211   7.1211   7.2963   7.2963

          k = 0.4447 0.3845 0.0000 (  5300 PWs)   bands (ev):

   -18.3436 -18.3436 -17.3041 -17.3041 -11.5645 -11.5645  -6.3404  -6.3404
    -2.6485  -2.6485   4.3298   4.3298   7.1182   7.1182   7.2931   7.2931

          k = 0.4450 0.3839 0.0000 (  5300 PWs)   bands (ev):

   -18.3459 -18.3459 -17.3062 -17.3062 -11.5548 -11.5548  -6.3436  -6.3436
    -2.6474  -2.6474   4.3162   4.3162   7.1152   7.1152   7.2899   7.2899

          k = 0.4453 0.3834 0.0000 (  5304 PWs)   bands (ev):

   -18.3481 -18.3481 -17.3083 -17.3083 -11.5451 -11.5451  -6.3467  -6.3467
    -2.6462  -2.6462   4.3026   4.3026   7.1122   7.1122   7.2867   7.2867

          k = 0.4457 0.3828 0.0000 (  5304 PWs)   bands (ev):

   -18.3503 -18.3503 -17.3104 -17.3104 -11.5355 -11.5355  -6.3499  -6.3499
    -2.6451  -2.6451   4.2891   4.2891   7.1093   7.1093   7.2836   7.2836

          k = 0.4460 0.3822 0.0000 (  5304 PWs)   bands (ev):

   -18.3525 -18.3525 -17.3125 -17.3125 -11.5259 -11.5259  -6.3530  -6.3530
    -2.6440  -2.6440   4.2756   4.2756   7.1064   7.1064   7.2804   7.2804

          k = 0.4463 0.3816 0.0000 (  5304 PWs)   bands (ev):

   -18.3547 -18.3547 -17.3146 -17.3146 -11.5163 -11.5163  -6.3561  -6.3561
    -2.6429  -2.6429   4.2622   4.2622   7.1035   7.1035   7.2773   7.2773

          k = 0.4467 0.3811 0.0000 (  5304 PWs)   bands (ev):

   -18.3568 -18.3568 -17.3167 -17.3167 -11.5068 -11.5068  -6.3591  -6.3591
    -2.6418  -2.6418   4.2489   4.2489   7.1006   7.1006   7.2742   7.2742

          k = 0.4470 0.3805 0.0000 (  5304 PWs)   bands (ev):

   -18.3590 -18.3590 -17.3187 -17.3187 -11.4973 -11.4973  -6.3622  -6.3622
    -2.6407  -2.6407   4.2356   4.2356   7.0978   7.0978   7.2711   7.2711

          k = 0.4473 0.3799 0.0000 (  5304 PWs)   bands (ev):

   -18.3611 -18.3611 -17.3208 -17.3208 -11.4879 -11.4879  -6.3652  -6.3652
    -2.6397  -2.6397   4.2224   4.2224   7.0949   7.0949   7.2680   7.2680

          k = 0.4477 0.3793 0.0000 (  5304 PWs)   bands (ev):

   -18.3632 -18.3632 -17.3228 -17.3228 -11.4785 -11.4785  -6.3682  -6.3682
    -2.6386  -2.6386   4.2093   4.2093   7.0921   7.0921   7.2650   7.2650

          k = 0.4480 0.3787 0.0000 (  5308 PWs)   bands (ev):

   -18.3653 -18.3653 -17.3248 -17.3248 -11.4691 -11.4691  -6.3712  -6.3712
    -2.6376  -2.6376   4.1962   4.1962   7.0893   7.0893   7.2620   7.2620

          k = 0.4483 0.3782 0.0000 (  5308 PWs)   bands (ev):

   -18.3674 -18.3674 -17.3268 -17.3268 -11.4598 -11.4598  -6.3742  -6.3742
    -2.6366  -2.6366   4.1831   4.1831   7.0865   7.0865   7.2589   7.2589

          k = 0.4487 0.3776 0.0000 (  5308 PWs)   bands (ev):

   -18.3695 -18.3695 -17.3288 -17.3288 -11.4505 -11.4505  -6.3771  -6.3771
    -2.6355  -2.6355   4.1702   4.1702   7.0837   7.0837   7.2559   7.2559

          k = 0.4490 0.3770 0.0000 (  5312 PWs)   bands (ev):

   -18.3716 -18.3716 -17.3308 -17.3308 -11.4413 -11.4413  -6.3801  -6.3801
    -2.6345  -2.6345   4.1573   4.1573   7.0809   7.0809   7.2530   7.2530

          k = 0.4493 0.3764 0.0000 (  5312 PWs)   bands (ev):

   -18.3737 -18.3737 -17.3328 -17.3328 -11.4321 -11.4321  -6.3830  -6.3830
    -2.6335  -2.6335   4.1444   4.1444   7.0782   7.0782   7.2500   7.2500

          k = 0.4497 0.3759 0.0000 (  5312 PWs)   bands (ev):

   -18.3757 -18.3757 -17.3347 -17.3347 -11.4230 -11.4230  -6.3859  -6.3859
    -2.6325  -2.6325   4.1316   4.1316   7.0755   7.0755   7.2471   7.2471

          k = 0.4500 0.3753 0.0000 (  5312 PWs)   bands (ev):

   -18.3777 -18.3777 -17.3367 -17.3367 -11.4138 -11.4138  -6.3887  -6.3887
    -2.6316  -2.6316   4.1189   4.1189   7.0728   7.0728   7.2442   7.2442

          k = 0.4503 0.3747 0.0000 (  5312 PWs)   bands (ev):

   -18.3797 -18.3797 -17.3386 -17.3386 -11.4048 -11.4048  -6.3916  -6.3916
    -2.6306  -2.6306   4.1063   4.1063   7.0701   7.0701   7.2413   7.2413

          k = 0.4507 0.3741 0.0000 (  5312 PWs)   bands (ev):

   -18.3817 -18.3817 -17.3405 -17.3405 -11.3958 -11.3958  -6.3944  -6.3944
    -2.6296  -2.6296   4.0937   4.0937   7.0674   7.0674   7.2384   7.2384

          k = 0.4510 0.3735 0.0000 (  5312 PWs)   bands (ev):

   -18.3837 -18.3837 -17.3425 -17.3425 -11.3868 -11.3868  -6.3973  -6.3973
    -2.6287  -2.6287   4.0812   4.0812   7.0647   7.0647   7.2355   7.2355

          k = 0.4513 0.3730 0.0000 (  5312 PWs)   bands (ev):

   -18.3857 -18.3857 -17.3444 -17.3444 -11.3778 -11.3778  -6.4001  -6.4001
    -2.6277  -2.6277   4.0687   4.0687   7.0621   7.0621   7.2327   7.2327

          k = 0.4517 0.3724 0.0000 (  5312 PWs)   bands (ev):

   -18.3877 -18.3877 -17.3462 -17.3462 -11.3689 -11.3689  -6.4028  -6.4028
    -2.6268  -2.6268   4.0563   4.0563   7.0595   7.0595   7.2299   7.2299

          k = 0.4520 0.3718 0.0000 (  5312 PWs)   bands (ev):

   -18.3896 -18.3896 -17.3481 -17.3481 -11.3601 -11.3601  -6.4056  -6.4056
    -2.6259  -2.6259   4.0440   4.0440   7.0569   7.0569   7.2270   7.2270

          k = 0.4523 0.3712 0.0000 (  5312 PWs)   bands (ev):

   -18.3916 -18.3916 -17.3500 -17.3500 -11.3513 -11.3513  -6.4084  -6.4084
    -2.6250  -2.6250   4.0317   4.0317   7.0543   7.0543   7.2243   7.2243

          k = 0.4527 0.3707 0.0000 (  5308 PWs)   bands (ev):

   -18.3935 -18.3935 -17.3518 -17.3518 -11.3425 -11.3425  -6.4111  -6.4111
    -2.6241  -2.6241   4.0196   4.0196   7.0517   7.0517   7.2215   7.2215

          k = 0.4530 0.3701 0.0000 (  5308 PWs)   bands (ev):

   -18.3954 -18.3954 -17.3537 -17.3537 -11.3338 -11.3338  -6.4138  -6.4138
    -2.6232  -2.6232   4.0074   4.0074   7.0491   7.0491   7.2187   7.2187

          k = 0.4533 0.3695 0.0000 (  5304 PWs)   bands (ev):

   -18.3973 -18.3973 -17.3555 -17.3555 -11.3251 -11.3251  -6.4165  -6.4165
    -2.6223  -2.6223   3.9954   3.9954   7.0466   7.0466   7.2160   7.2160

          k = 0.4537 0.3689 0.0000 (  5304 PWs)   bands (ev):

   -18.3992 -18.3992 -17.3573 -17.3573 -11.3165 -11.3165  -6.4191  -6.4191
    -2.6215  -2.6215   3.9834   3.9834   7.0441   7.0441   7.2133   7.2133

          k = 0.4540 0.3683 0.0000 (  5304 PWs)   bands (ev):

   -18.4010 -18.4010 -17.3591 -17.3591 -11.3079 -11.3079  -6.4218  -6.4218
    -2.6206  -2.6206   3.9715   3.9715   7.0416   7.0416   7.2106   7.2106

          k = 0.4543 0.3678 0.0000 (  5304 PWs)   bands (ev):

   -18.4029 -18.4029 -17.3609 -17.3609 -11.2994 -11.2994  -6.4244  -6.4244
    -2.6198  -2.6198   3.9596   3.9596   7.0391   7.0391   7.2079   7.2079

          k = 0.4547 0.3672 0.0000 (  5304 PWs)   bands (ev):

   -18.4047 -18.4047 -17.3627 -17.3627 -11.2909 -11.2909  -6.4270  -6.4270
    -2.6189  -2.6189   3.9478   3.9478   7.0366   7.0366   7.2053   7.2053

          k = 0.4550 0.3666 0.0000 (  5300 PWs)   bands (ev):

   -18.4065 -18.4065 -17.3645 -17.3645 -11.2825 -11.2825  -6.4296  -6.4296
    -2.6181  -2.6181   3.9361   3.9361   7.0342   7.0342   7.2027   7.2027

          k = 0.4553 0.3660 0.0000 (  5300 PWs)   bands (ev):

   -18.4084 -18.4084 -17.3662 -17.3662 -11.2741 -11.2741  -6.4322  -6.4322
    -2.6173  -2.6173   3.9245   3.9245   7.0317   7.0317   7.2000   7.2000

          k = 0.4557 0.3655 0.0000 (  5292 PWs)   bands (ev):

   -18.4102 -18.4102 -17.3680 -17.3680 -11.2657 -11.2657  -6.4347  -6.4347
    -2.6165  -2.6165   3.9129   3.9129   7.0293   7.0293   7.1975   7.1975

          k = 0.4560 0.3649 0.0000 (  5292 PWs)   bands (ev):

   -18.4119 -18.4119 -17.3697 -17.3697 -11.2574 -11.2574  -6.4373  -6.4373
    -2.6157  -2.6157   3.9014   3.9014   7.0269   7.0269   7.1949   7.1949

          k = 0.4563 0.3643 0.0000 (  5292 PWs)   bands (ev):

   -18.4137 -18.4137 -17.3714 -17.3714 -11.2492 -11.2492  -6.4398  -6.4398
    -2.6149  -2.6149   3.8900   3.8900   7.0245   7.0245   7.1923   7.1923

          k = 0.4567 0.3637 0.0000 (  5292 PWs)   bands (ev):

   -18.4155 -18.4155 -17.3731 -17.3731 -11.2410 -11.2410  -6.4423  -6.4423
    -2.6141  -2.6141   3.8786   3.8786   7.0222   7.0222   7.1898   7.1898

          k = 0.4570 0.3632 0.0000 (  5296 PWs)   bands (ev):

   -18.4172 -18.4172 -17.3748 -17.3748 -11.2328 -11.2328  -6.4448  -6.4448
    -2.6133  -2.6133   3.8673   3.8673   7.0198   7.0198   7.1873   7.1873

          k = 0.4573 0.3626 0.0000 (  5296 PWs)   bands (ev):

   -18.4190 -18.4190 -17.3765 -17.3765 -11.2247 -11.2247  -6.4472  -6.4472
    -2.6126  -2.6126   3.8561   3.8561   7.0175   7.0175   7.1848   7.1848

          k = 0.4577 0.3620 0.0000 (  5296 PWs)   bands (ev):

   -18.4207 -18.4207 -17.3781 -17.3781 -11.2167 -11.2167  -6.4497  -6.4497
    -2.6118  -2.6118   3.8449   3.8449   7.0152   7.0152   7.1823   7.1823

          k = 0.4580 0.3614 0.0000 (  5296 PWs)   bands (ev):

   -18.4224 -18.4224 -17.3798 -17.3798 -11.2086 -11.2086  -6.4521  -6.4521
    -2.6111  -2.6111   3.8338   3.8338   7.0129   7.0129   7.1798   7.1798

          k = 0.4583 0.3608 0.0000 (  5300 PWs)   bands (ev):

   -18.4241 -18.4241 -17.3814 -17.3814 -11.2007 -11.2007  -6.4545  -6.4545
    -2.6103  -2.6103   3.8228   3.8228   7.0106   7.0106   7.1774   7.1774

          k = 0.4587 0.3603 0.0000 (  5300 PWs)   bands (ev):

   -18.4258 -18.4258 -17.3831 -17.3831 -11.1928 -11.1928  -6.4569  -6.4569
    -2.6096  -2.6096   3.8119   3.8119   7.0084   7.0084   7.1749   7.1749

          k = 0.4590 0.3597 0.0000 (  5300 PWs)   bands (ev):

   -18.4274 -18.4274 -17.3847 -17.3847 -11.1849 -11.1849  -6.4592  -6.4592
    -2.6089  -2.6089   3.8010   3.8010   7.0061   7.0061   7.1725   7.1725

          k = 0.4593 0.3591 0.0000 (  5300 PWs)   bands (ev):

   -18.4291 -18.4291 -17.3863 -17.3863 -11.1771 -11.1771  -6.4616  -6.4616
    -2.6082  -2.6082   3.7902   3.7902   7.0039   7.0039   7.1702   7.1702

          k = 0.4597 0.3585 0.0000 (  5300 PWs)   bands (ev):

   -18.4307 -18.4307 -17.3879 -17.3879 -11.1693 -11.1693  -6.4639  -6.4639
    -2.6075  -2.6075   3.7795   3.7795   7.0017   7.0017   7.1678   7.1678

          k = 0.4600 0.3580 0.0000 (  5300 PWs)   bands (ev):

   -18.4323 -18.4323 -17.3895 -17.3895 -11.1616 -11.1616  -6.4662  -6.4662
    -2.6068  -2.6068   3.7689   3.7689   6.9995   6.9995   7.1654   7.1654

          k = 0.4603 0.3574 0.0000 (  5300 PWs)   bands (ev):

   -18.4340 -18.4340 -17.3910 -17.3910 -11.1540 -11.1540  -6.4685  -6.4685
    -2.6061  -2.6061   3.7583   3.7583   6.9973   6.9973   7.1631   7.1631

          k = 0.4607 0.3568 0.0000 (  5300 PWs)   bands (ev):

   -18.4356 -18.4356 -17.3926 -17.3926 -11.1464 -11.1464  -6.4708  -6.4708
    -2.6054  -2.6054   3.7478   3.7478   6.9952   6.9952   7.1608   7.1608

          k = 0.4610 0.3562 0.0000 (  5300 PWs)   bands (ev):

   -18.4371 -18.4371 -17.3941 -17.3941 -11.1388 -11.1388  -6.4730  -6.4730
    -2.6048  -2.6048   3.7374   3.7374   6.9930   6.9930   7.1585   7.1585

          k = 0.4613 0.3556 0.0000 (  5298 PWs)   bands (ev):

   -18.4387 -18.4387 -17.3957 -17.3957 -11.1313 -11.1313  -6.4752  -6.4752
    -2.6041  -2.6041   3.7271   3.7271   6.9909   6.9909   7.1562   7.1562

          k = 0.4617 0.3551 0.0000 (  5298 PWs)   bands (ev):

   -18.4403 -18.4403 -17.3972 -17.3972 -11.1239 -11.1239  -6.4774  -6.4774
    -2.6034  -2.6034   3.7168   3.7168   6.9888   6.9888   7.1540   7.1540

          k = 0.4620 0.3545 0.0000 (  5298 PWs)   bands (ev):

   -18.4418 -18.4418 -17.3987 -17.3987 -11.1165 -11.1165  -6.4796  -6.4796
    -2.6028  -2.6028   3.7066   3.7066   6.9867   6.9867   7.1518   7.1518

          k = 0.4623 0.3539 0.0000 (  5298 PWs)   bands (ev):

   -18.4433 -18.4433 -17.4002 -17.4002 -11.1091 -11.1091  -6.4818  -6.4818
    -2.6022  -2.6022   3.6965   3.6965   6.9847   6.9847   7.1496   7.1496

          k = 0.4627 0.3533 0.0000 (  5298 PWs)   bands (ev):

   -18.4449 -18.4449 -17.4016 -17.4016 -11.1018 -11.1018  -6.4840  -6.4840
    -2.6015  -2.6015   3.6864   3.6864   6.9826   6.9826   7.1474   7.1474

          k = 0.4630 0.3528 0.0000 (  5294 PWs)   bands (ev):

   -18.4464 -18.4464 -17.4031 -17.4031 -11.0946 -11.0946  -6.4861  -6.4861
    -2.6009  -2.6009   3.6765   3.6765   6.9806   6.9806   7.1452   7.1452

          k = 0.4633 0.3522 0.0000 (  5294 PWs)   bands (ev):

   -18.4479 -18.4479 -17.4046 -17.4046 -11.0874 -11.0874  -6.4882  -6.4882
    -2.6003  -2.6003   3.6666   3.6666   6.9786   6.9786   7.1430   7.1430

          k = 0.4637 0.3516 0.0000 (  5298 PWs)   bands (ev):

   -18.4493 -18.4493 -17.4060 -17.4060 -11.0803 -11.0803  -6.4903  -6.4903
    -2.5997  -2.5997   3.6568   3.6568   6.9766   6.9766   7.1409   7.1409

          k = 0.4640 0.3510 0.0000 (  5298 PWs)   bands (ev):

   -18.4508 -18.4508 -17.4074 -17.4074 -11.0732 -11.0732  -6.4924  -6.4924
    -2.5991  -2.5991   3.6470   3.6470   6.9746   6.9746   7.1388   7.1388

          k = 0.4643 0.3505 0.0000 (  5298 PWs)   bands (ev):

   -18.4522 -18.4522 -17.4089 -17.4089 -11.0662 -11.0662  -6.4944  -6.4944
    -2.5985  -2.5985   3.6374   3.6374   6.9727   6.9727   7.1367   7.1367

          k = 0.4647 0.3499 0.0000 (  5298 PWs)   bands (ev):

   -18.4537 -18.4537 -17.4103 -17.4103 -11.0592 -11.0592  -6.4965  -6.4965
    -2.5979  -2.5979   3.6278   3.6278   6.9707   6.9707   7.1346   7.1346

          k = 0.4650 0.3493 0.0000 (  5298 PWs)   bands (ev):

   -18.4551 -18.4551 -17.4116 -17.4116 -11.0523 -11.0523  -6.4985  -6.4985
    -2.5974  -2.5974   3.6183   3.6183   6.9688   6.9688   7.1325   7.1325

          k = 0.4653 0.3487 0.0000 (  5294 PWs)   bands (ev):

   -18.4565 -18.4565 -17.4130 -17.4130 -11.0454 -11.0454  -6.5005  -6.5005
    -2.5968  -2.5968   3.6089   3.6089   6.9669   6.9669   7.1305   7.1305

          k = 0.4657 0.3481 0.0000 (  5294 PWs)   bands (ev):

   -18.4579 -18.4579 -17.4144 -17.4144 -11.0386 -11.0386  -6.5025  -6.5025
    -2.5962  -2.5962   3.5996   3.5996   6.9650   6.9650   7.1285   7.1285

          k = 0.4660 0.3476 0.0000 (  5290 PWs)   bands (ev):

   -18.4593 -18.4593 -17.4157 -17.4157 -11.0319 -11.0319  -6.5044  -6.5044
    -2.5957  -2.5957   3.5903   3.5903   6.9631   6.9631   7.1265   7.1265

          k = 0.4663 0.3470 0.0000 (  5290 PWs)   bands (ev):

   -18.4607 -18.4607 -17.4171 -17.4171 -11.0252 -11.0252  -6.5064  -6.5064
    -2.5951  -2.5951   3.5811   3.5811   6.9613   6.9613   7.1245   7.1245

          k = 0.4667 0.3464 0.0000 (  5290 PWs)   bands (ev):

   -18.4620 -18.4620 -17.4184 -17.4184 -11.0185 -11.0185  -6.5083  -6.5083
    -2.5946  -2.5946   3.5720   3.5720   6.9594   6.9594   7.1225   7.1225

          k = 0.4670 0.3458 0.0000 (  5294 PWs)   bands (ev):

   -18.4634 -18.4634 -17.4197 -17.4197 -11.0120 -11.0120  -6.5102  -6.5102
    -2.5941  -2.5941   3.5630   3.5630   6.9576   6.9576   7.1206   7.1206

          k = 0.4673 0.3453 0.0000 (  5294 PWs)   bands (ev):

   -18.4647 -18.4647 -17.4210 -17.4210 -11.0054 -11.0054  -6.5121  -6.5121
    -2.5935  -2.5935   3.5540   3.5540   6.9558   6.9558   7.1187   7.1187

          k = 0.4677 0.3447 0.0000 (  5290 PWs)   bands (ev):

   -18.4660 -18.4660 -17.4223 -17.4223 -10.9990 -10.9990  -6.5140  -6.5140
    -2.5930  -2.5930   3.5452   3.5452   6.9541   6.9541   7.1168   7.1168

          k = 0.4680 0.3441 0.0000 (  5294 PWs)   bands (ev):

   -18.4673 -18.4673 -17.4236 -17.4236 -10.9926 -10.9926  -6.5158  -6.5158
    -2.5925  -2.5925   3.5364   3.5364   6.9523   6.9523   7.1149   7.1149

          k = 0.4683 0.3435 0.0000 (  5294 PWs)   bands (ev):

   -18.4686 -18.4686 -17.4248 -17.4248 -10.9862 -10.9862  -6.5176  -6.5176
    -2.5920  -2.5920   3.5277   3.5277   6.9505   6.9505   7.1130   7.1130

          k = 0.4687 0.3429 0.0000 (  5294 PWs)   bands (ev):

   -18.4699 -18.4699 -17.4261 -17.4261 -10.9799 -10.9799  -6.5194  -6.5194
    -2.5915  -2.5915   3.5191   3.5191   6.9488   6.9488   7.1112   7.1112

          k = 0.4690 0.3424 0.0000 (  5294 PWs)   bands (ev):

   -18.4711 -18.4711 -17.4273 -17.4273 -10.9737 -10.9737  -6.5212  -6.5212
    -2.5910  -2.5910   3.5105   3.5105   6.9471   6.9471   7.1093   7.1093

          k = 0.4693 0.3418 0.0000 (  5294 PWs)   bands (ev):

   -18.4724 -18.4724 -17.4285 -17.4285 -10.9675 -10.9675  -6.5230  -6.5230
    -2.5905  -2.5905   3.5021   3.5021   6.9454   6.9454   7.1075   7.1075

          k = 0.4697 0.3412 0.0000 (  5294 PWs)   bands (ev):

   -18.4736 -18.4736 -17.4298 -17.4298 -10.9614 -10.9614  -6.5248  -6.5248
    -2.5901  -2.5901   3.4937   3.4937   6.9438   6.9438   7.1057   7.1057

          k = 0.4700 0.3406 0.0000 (  5294 PWs)   bands (ev):

   -18.4748 -18.4748 -17.4310 -17.4310 -10.9553 -10.9553  -6.5265  -6.5265
    -2.5896  -2.5896   3.4854   3.4854   6.9421   6.9421   7.1040   7.1040

          k = 0.4703 0.3401 0.0000 (  5294 PWs)   bands (ev):

   -18.4760 -18.4760 -17.4321 -17.4321 -10.9493 -10.9493  -6.5282  -6.5282
    -2.5891  -2.5891   3.4772   3.4772   6.9405   6.9405   7.1022   7.1022

          k = 0.4707 0.3395 0.0000 (  5294 PWs)   bands (ev):

   -18.4772 -18.4772 -17.4333 -17.4333 -10.9434 -10.9434  -6.5299  -6.5299
    -2.5887  -2.5887   3.4691   3.4691   6.9388   6.9388   7.1005   7.1005

          k = 0.4710 0.3389 0.0000 (  5290 PWs)   bands (ev):

   -18.4784 -18.4784 -17.4345 -17.4345 -10.9375 -10.9375  -6.5316  -6.5316
    -2.5882  -2.5882   3.4611   3.4611   6.9372   6.9372   7.0988   7.0988

          k = 0.4713 0.3383 0.0000 (  5290 PWs)   bands (ev):

   -18.4796 -18.4796 -17.4356 -17.4356 -10.9317 -10.9317  -6.5332  -6.5332
    -2.5878  -2.5878   3.4531   3.4531   6.9357   6.9357   7.0971   7.0971

          k = 0.4717 0.3377 0.0000 (  5294 PWs)   bands (ev):

   -18.4807 -18.4807 -17.4367 -17.4367 -10.9259 -10.9259  -6.5349  -6.5349
    -2.5874  -2.5874   3.4452   3.4452   6.9341   6.9341   7.0954   7.0954

          k = 0.4720 0.3372 0.0000 (  5294 PWs)   bands (ev):

   -18.4819 -18.4819 -17.4379 -17.4379 -10.9202 -10.9202  -6.5365  -6.5365
    -2.5869  -2.5869   3.4375   3.4375   6.9326   6.9326   7.0938   7.0938

          k = 0.4723 0.3366 0.0000 (  5290 PWs)   bands (ev):

   -18.4830 -18.4830 -17.4390 -17.4390 -10.9146 -10.9146  -6.5381  -6.5381
    -2.5865  -2.5865   3.4298   3.4298   6.9310   6.9310   7.0921   7.0921

          k = 0.4727 0.3360 0.0000 (  5290 PWs)   bands (ev):

   -18.4841 -18.4841 -17.4401 -17.4401 -10.9090 -10.9090  -6.5397  -6.5397
    -2.5861  -2.5861   3.4221   3.4221   6.9295   6.9295   7.0905   7.0905

          k = 0.4730 0.3354 0.0000 (  5290 PWs)   bands (ev):

   -18.4852 -18.4852 -17.4411 -17.4411 -10.9034 -10.9034  -6.5412  -6.5412
    -2.5857  -2.5857   3.4146   3.4146   6.9280   6.9280   7.0889   7.0889

          k = 0.4733 0.3349 0.0000 (  5290 PWs)   bands (ev):

   -18.4863 -18.4863 -17.4422 -17.4422 -10.8980 -10.8980  -6.5428  -6.5428
    -2.5853  -2.5853   3.4072   3.4072   6.9266   6.9266   7.0873   7.0873

          k = 0.4737 0.3343 0.0000 (  5290 PWs)   bands (ev):

   -18.4874 -18.4874 -17.4433 -17.4433 -10.8926 -10.8926  -6.5443  -6.5443
    -2.5849  -2.5849   3.3998   3.3998   6.9251   6.9251   7.0858   7.0858

          k = 0.4740 0.3337 0.0000 (  5294 PWs)   bands (ev):

   -18.4884 -18.4884 -17.4443 -17.4443 -10.8873 -10.8873  -6.5458  -6.5458
    -2.5845  -2.5845   3.3925   3.3925   6.9237   6.9237   7.0843   7.0843

          k = 0.4743 0.3331 0.0000 (  5294 PWs)   bands (ev):

   -18.4895 -18.4895 -17.4453 -17.4453 -10.8820 -10.8820  -6.5473  -6.5473
    -2.5841  -2.5841   3.3853   3.3853   6.9222   6.9222   7.0827   7.0827

          k = 0.4747 0.3326 0.0000 (  5294 PWs)   bands (ev):

   -18.4905 -18.4905 -17.4463 -17.4463 -10.8768 -10.8768  -6.5487  -6.5487
    -2.5837  -2.5837   3.3782   3.3782   6.9208   6.9208   7.0812   7.0812

          k = 0.4750 0.3320 0.0000 (  5294 PWs)   bands (ev):

   -18.4915 -18.4915 -17.4473 -17.4473 -10.8716 -10.8716  -6.5502  -6.5502
    -2.5834  -2.5834   3.3712   3.3712   6.9195   6.9195   7.0798   7.0798

          k = 0.4753 0.3314 0.0000 (  5294 PWs)   bands (ev):

   -18.4925 -18.4925 -17.4483 -17.4483 -10.8665 -10.8665  -6.5516  -6.5516
    -2.5830  -2.5830   3.3643   3.3643   6.9181   6.9181   7.0783   7.0783

          k = 0.4757 0.3308 0.0000 (  5294 PWs)   bands (ev):

   -18.4935 -18.4935 -17.4493 -17.4493 -10.8615 -10.8615  -6.5530  -6.5530
    -2.5826  -2.5826   3.3574   3.3574   6.9167   6.9167   7.0769   7.0769

          k = 0.4760 0.3302 0.0000 (  5294 PWs)   bands (ev):

   -18.4945 -18.4945 -17.4503 -17.4503 -10.8565 -10.8565  -6.5544  -6.5544
    -2.5823  -2.5823   3.3507   3.3507   6.9154   6.9154   7.0754   7.0754

          k = 0.4763 0.3297 0.0000 (  5294 PWs)   bands (ev):

   -18.4955 -18.4955 -17.4512 -17.4512 -10.8516 -10.8516  -6.5558  -6.5558
    -2.5819  -2.5819   3.3440   3.3440   6.9141   6.9141   7.0740   7.0740

          k = 0.4767 0.3291 0.0000 (  5290 PWs)   bands (ev):

   -18.4964 -18.4964 -17.4522 -17.4522 -10.8468 -10.8468  -6.5571  -6.5571
    -2.5816  -2.5816   3.3374   3.3374   6.9128   6.9128   7.0727   7.0727

          k = 0.4770 0.3285 0.0000 (  5290 PWs)   bands (ev):

   -18.4974 -18.4974 -17.4531 -17.4531 -10.8420 -10.8420  -6.5585  -6.5585
    -2.5812  -2.5812   3.3309   3.3309   6.9115   6.9115   7.0713   7.0713

          k = 0.4773 0.3279 0.0000 (  5290 PWs)   bands (ev):

   -18.4983 -18.4983 -17.4540 -17.4540 -10.8373 -10.8373  -6.5598  -6.5598
    -2.5809  -2.5809   3.3245   3.3245   6.9103   6.9103   7.0700   7.0700

          k = 0.4777 0.3274 0.0000 (  5292 PWs)   bands (ev):

   -18.4992 -18.4992 -17.4549 -17.4549 -10.8327 -10.8327  -6.5611  -6.5611
    -2.5806  -2.5806   3.3182   3.3182   6.9090   6.9090   7.0686   7.0686

          k = 0.4780 0.3268 0.0000 (  5292 PWs)   bands (ev):

   -18.5001 -18.5001 -17.4558 -17.4558 -10.8281 -10.8281  -6.5623  -6.5623
    -2.5803  -2.5803   3.3120   3.3120   6.9078   6.9078   7.0673   7.0673

          k = 0.4783 0.3262 0.0000 (  5292 PWs)   bands (ev):

   -18.5010 -18.5010 -17.4566 -17.4566 -10.8236 -10.8236  -6.5636  -6.5636
    -2.5799  -2.5799   3.3058   3.3058   6.9066   6.9066   7.0661   7.0661

          k = 0.4787 0.3256 0.0000 (  5292 PWs)   bands (ev):

   -18.5018 -18.5018 -17.4575 -17.4575 -10.8191 -10.8191  -6.5648  -6.5648
    -2.5796  -2.5796   3.2998   3.2998   6.9054   6.9054   7.0648   7.0648

          k = 0.4790 0.3250 0.0000 (  5292 PWs)   bands (ev):

   -18.5027 -18.5027 -17.4583 -17.4583 -10.8147 -10.8147  -6.5661  -6.5661
    -2.5793  -2.5793   3.2938   3.2938   6.9043   6.9043   7.0635   7.0635

          k = 0.4793 0.3245 0.0000 (  5288 PWs)   bands (ev):

   -18.5035 -18.5035 -17.4592 -17.4592 -10.8104 -10.8104  -6.5672  -6.5672
    -2.5790  -2.5790   3.2879   3.2879   6.9031   6.9031   7.0623   7.0623

          k = 0.4797 0.3239 0.0000 (  5288 PWs)   bands (ev):

   -18.5044 -18.5044 -17.4600 -17.4600 -10.8061 -10.8061  -6.5684  -6.5684
    -2.5787  -2.5787   3.2822   3.2822   6.9020   6.9020   7.0611   7.0611

          k = 0.4800 0.3233 0.0000 (  5284 PWs)   bands (ev):

   -18.5052 -18.5052 -17.4608 -17.4608 -10.8019 -10.8019  -6.5696  -6.5696
    -2.5785  -2.5785   3.2765   3.2765   6.9009   6.9009   7.0599   7.0599

          k = 0.4803 0.3227 0.0000 (  5288 PWs)   bands (ev):

   -18.5060 -18.5060 -17.4616 -17.4616 -10.7978 -10.7978  -6.5707  -6.5707
    -2.5782  -2.5782   3.2709   3.2709   6.8998   6.8998   7.0588   7.0588

          k = 0.4807 0.3222 0.0000 (  5292 PWs)   bands (ev):

   -18.5068 -18.5068 -17.4624 -17.4624 -10.7938 -10.7938  -6.5718  -6.5718
    -2.5779  -2.5779   3.2653   3.2653   6.8987   6.8987   7.0576   7.0576

          k = 0.4810 0.3216 0.0000 (  5290 PWs)   bands (ev):

   -18.5076 -18.5076 -17.4631 -17.4631 -10.7898 -10.7898  -6.5730  -6.5730
    -2.5776  -2.5776   3.2599   3.2599   6.8977   6.8977   7.0565   7.0565

          k = 0.4813 0.3210 0.0000 (  5290 PWs)   bands (ev):

   -18.5083 -18.5083 -17.4639 -17.4639 -10.7858 -10.7858  -6.5740  -6.5740
    -2.5774  -2.5774   3.2546   3.2546   6.8966   6.8966   7.0554   7.0554

          k = 0.4817 0.3204 0.0000 (  5290 PWs)   bands (ev):

   -18.5091 -18.5091 -17.4646 -17.4646 -10.7820 -10.7820  -6.5751  -6.5751
    -2.5771  -2.5771   3.2494   3.2494   6.8956   6.8956   7.0543   7.0543

          k = 0.4820 0.3199 0.0000 (  5290 PWs)   bands (ev):

   -18.5098 -18.5098 -17.4654 -17.4654 -10.7782 -10.7782  -6.5761  -6.5761
    -2.5768  -2.5768   3.2442   3.2442   6.8946   6.8946   7.0532   7.0532

          k = 0.4823 0.3193 0.0000 (  5290 PWs)   bands (ev):

   -18.5105 -18.5105 -17.4661 -17.4661 -10.7744 -10.7744  -6.5772  -6.5772
    -2.5766  -2.5766   3.2391   3.2391   6.8936   6.8936   7.0522   7.0522

          k = 0.4827 0.3187 0.0000 (  5290 PWs)   bands (ev):

   -18.5112 -18.5112 -17.4668 -17.4668 -10.7708 -10.7708  -6.5782  -6.5782
    -2.5763  -2.5763   3.2342   3.2342   6.8927   6.8927   7.0511   7.0511

          k = 0.4830 0.3181 0.0000 (  5290 PWs)   bands (ev):

   -18.5119 -18.5119 -17.4674 -17.4674 -10.7672 -10.7672  -6.5792  -6.5792
    -2.5761  -2.5761   3.2293   3.2293   6.8917   6.8917   7.0501   7.0501

          k = 0.4833 0.3175 0.0000 (  5290 PWs)   bands (ev):

   -18.5126 -18.5126 -17.4681 -17.4681 -10.7636 -10.7636  -6.5801  -6.5801
    -2.5759  -2.5759   3.2245   3.2245   6.8908   6.8908   7.0491   7.0491

          k = 0.4837 0.3170 0.0000 (  5290 PWs)   bands (ev):

   -18.5133 -18.5133 -17.4688 -17.4688 -10.7602 -10.7602  -6.5811  -6.5811
    -2.5756  -2.5756   3.2198   3.2198   6.8899   6.8899   7.0482   7.0482

          k = 0.4840 0.3164 0.0000 (  5290 PWs)   bands (ev):

   -18.5139 -18.5139 -17.4694 -17.4694 -10.7568 -10.7568  -6.5820  -6.5820
    -2.5754  -2.5754   3.2152   3.2152   6.8890   6.8890   7.0472   7.0472

          k = 0.4843 0.3158 0.0000 (  5290 PWs)   bands (ev):

   -18.5146 -18.5146 -17.4701 -17.4701 -10.7535 -10.7535  -6.5829  -6.5829
    -2.5752  -2.5752   3.2107   3.2107   6.8881   6.8881   7.0463   7.0463

          k = 0.4847 0.3152 0.0000 (  5290 PWs)   bands (ev):

   -18.5152 -18.5152 -17.4707 -17.4707 -10.7502 -10.7502  -6.5838  -6.5838
    -2.5750  -2.5750   3.2063   3.2063   6.8873   6.8873   7.0454   7.0454

          k = 0.4850 0.3147 0.0000 (  5290 PWs)   bands (ev):

   -18.5158 -18.5158 -17.4713 -17.4713 -10.7470 -10.7470  -6.5847  -6.5847
    -2.5748  -2.5748   3.2020   3.2020   6.8864   6.8864   7.0445   7.0445

          k = 0.4853 0.3141 0.0000 (  5290 PWs)   bands (ev):

   -18.5164 -18.5164 -17.4719 -17.4719 -10.7439 -10.7439  -6.5855  -6.5855
    -2.5746  -2.5746   3.1977   3.1977   6.8856   6.8856   7.0436   7.0436

          k = 0.4857 0.3135 0.0000 (  5290 PWs)   bands (ev):

   -18.5170 -18.5170 -17.4725 -17.4725 -10.7408 -10.7408  -6.5864  -6.5864
    -2.5744  -2.5744   3.1936   3.1936   6.8848   6.8848   7.0428   7.0428

          k = 0.4860 0.3129 0.0000 (  5290 PWs)   bands (ev):

   -18.5176 -18.5176 -17.4730 -17.4730 -10.7378 -10.7378  -6.5872  -6.5872
    -2.5742  -2.5742   3.1895   3.1895   6.8840   6.8840   7.0419   7.0419

          k = 0.4863 0.3123 0.0000 (  5294 PWs)   bands (ev):

   -18.5181 -18.5181 -17.4736 -17.4736 -10.7349 -10.7349  -6.5880  -6.5880
    -2.5740  -2.5740   3.1856   3.1856   6.8833   6.8833   7.0411   7.0411

          k = 0.4867 0.3118 0.0000 (  5294 PWs)   bands (ev):

   -18.5187 -18.5187 -17.4741 -17.4741 -10.7321 -10.7321  -6.5887  -6.5887
    -2.5738  -2.5738   3.1817   3.1817   6.8825   6.8825   7.0403   7.0403

          k = 0.4870 0.3112 0.0000 (  5294 PWs)   bands (ev):

   -18.5192 -18.5192 -17.4746 -17.4746 -10.7293 -10.7293  -6.5895  -6.5895
    -2.5736  -2.5736   3.1780   3.1780   6.8818   6.8818   7.0395   7.0395

          k = 0.4873 0.3106 0.0000 (  5294 PWs)   bands (ev):

   -18.5197 -18.5197 -17.4752 -17.4752 -10.7266 -10.7266  -6.5902  -6.5902
    -2.5734  -2.5734   3.1743   3.1743   6.8811   6.8811   7.0388   7.0388

          k = 0.4877 0.3100 0.0000 (  5294 PWs)   bands (ev):

   -18.5202 -18.5202 -17.4757 -17.4757 -10.7239 -10.7239  -6.5910  -6.5910
    -2.5733  -2.5733   3.1707   3.1707   6.8804   6.8804   7.0381   7.0381

          k = 0.4880 0.3095 0.0000 (  5294 PWs)   bands (ev):

   -18.5207 -18.5207 -17.4761 -17.4761 -10.7214 -10.7214  -6.5917  -6.5917
    -2.5731  -2.5731   3.1672   3.1672   6.8797   6.8797   7.0373   7.0373

          k = 0.4883 0.3089 0.0000 (  5294 PWs)   bands (ev):

   -18.5212 -18.5212 -17.4766 -17.4766 -10.7188 -10.7188  -6.5923  -6.5923
    -2.5729  -2.5729   3.1638   3.1638   6.8791   6.8791   7.0366   7.0366

          k = 0.4887 0.3083 0.0000 (  5290 PWs)   bands (ev):

   -18.5217 -18.5217 -17.4771 -17.4771 -10.7164 -10.7164  -6.5930  -6.5930
    -2.5728  -2.5728   3.1605   3.1605   6.8784   6.8784   7.0360   7.0360

          k = 0.4890 0.3077 0.0000 (  5286 PWs)   bands (ev):

   -18.5221 -18.5221 -17.4775 -17.4775 -10.7140 -10.7140  -6.5936  -6.5936
    -2.5726  -2.5726   3.1573   3.1573   6.8778   6.8778   7.0353   7.0353

          k = 0.4893 0.3072 0.0000 (  5290 PWs)   bands (ev):

   -18.5226 -18.5226 -17.4780 -17.4780 -10.7117 -10.7117  -6.5943  -6.5943
    -2.5725  -2.5725   3.1542   3.1542   6.8772   6.8772   7.0347   7.0347

          k = 0.4897 0.3066 0.0000 (  5290 PWs)   bands (ev):

   -18.5230 -18.5230 -17.4784 -17.4784 -10.7095 -10.7095  -6.5949  -6.5949
    -2.5723  -2.5723   3.1512   3.1512   6.8766   6.8766   7.0340   7.0340

          k = 0.4900 0.3060 0.0000 (  5290 PWs)   bands (ev):

   -18.5234 -18.5234 -17.4788 -17.4788 -10.7074 -10.7074  -6.5955  -6.5955
    -2.5722  -2.5722   3.1483   3.1483   6.8761   6.8761   7.0334   7.0334

          k = 0.4903 0.3054 0.0000 (  5286 PWs)   bands (ev):

   -18.5238 -18.5238 -17.4792 -17.4792 -10.7053 -10.7053  -6.5960  -6.5960
    -2.5721  -2.5721   3.1455   3.1455   6.8755   6.8755   7.0329   7.0329

          k = 0.4907 0.3048 0.0000 (  5282 PWs)   bands (ev):

   -18.5242 -18.5242 -17.4796 -17.4796 -10.7032 -10.7032  -6.5966  -6.5966
    -2.5719  -2.5719   3.1427   3.1427   6.8750   6.8750   7.0323   7.0323

          k = 0.4910 0.3043 0.0000 (  5282 PWs)   bands (ev):

   -18.5246 -18.5246 -17.4799 -17.4799 -10.7013 -10.7013  -6.5971  -6.5971
    -2.5718  -2.5718   3.1401   3.1401   6.8745   6.8745   7.0318   7.0318

          k = 0.4913 0.3037 0.0000 (  5282 PWs)   bands (ev):

   -18.5249 -18.5249 -17.4803 -17.4803 -10.6994 -10.6994  -6.5976  -6.5976
    -2.5717  -2.5717   3.1376   3.1376   6.8740   6.8740   7.0313   7.0313

          k = 0.4917 0.3031 0.0000 (  5282 PWs)   bands (ev):

   -18.5253 -18.5253 -17.4806 -17.4806 -10.6976 -10.6976  -6.5981  -6.5981
    -2.5716  -2.5716   3.1351   3.1351   6.8735   6.8735   7.0308   7.0308

          k = 0.4920 0.3025 0.0000 (  5282 PWs)   bands (ev):

   -18.5256 -18.5256 -17.4810 -17.4810 -10.6959 -10.6959  -6.5986  -6.5986
    -2.5715  -2.5715   3.1328   3.1328   6.8731   6.8731   7.0303   7.0303

          k = 0.4923 0.3020 0.0000 (  5286 PWs)   bands (ev):

   -18.5259 -18.5259 -17.4813 -17.4813 -10.6942 -10.6942  -6.5990  -6.5990
    -2.5714  -2.5714   3.1305   3.1305   6.8727   6.8727   7.0298   7.0298

          k = 0.4927 0.3014 0.0000 (  5286 PWs)   bands (ev):

   -18.5262 -18.5262 -17.4816 -17.4816 -10.6926 -10.6926  -6.5994  -6.5994
    -2.5713  -2.5713   3.1284   3.1284   6.8723   6.8723   7.0294   7.0294

          k = 0.4930 0.3008 0.0000 (  5286 PWs)   bands (ev):

   -18.5265 -18.5265 -17.4819 -17.4819 -10.6911 -10.6911  -6.5999  -6.5999
    -2.5712  -2.5712   3.1263   3.1263   6.8719   6.8719   7.0289   7.0289

          k = 0.4933 0.3002 0.0000 (  5288 PWs)   bands (ev):

   -18.5268 -18.5268 -17.4821 -17.4821 -10.6896 -10.6896  -6.6002  -6.6002
    -2.5711  -2.5711   3.1243   3.1243   6.8715   6.8715   7.0285   7.0285

          k = 0.4937 0.2996 0.0000 (  5288 PWs)   bands (ev):

   -18.5270 -18.5270 -17.4824 -17.4824 -10.6882 -10.6882  -6.6006  -6.6006
    -2.5710  -2.5710   3.1224   3.1224   6.8711   6.8711   7.0282   7.0282

          k = 0.4940 0.2991 0.0000 (  5284 PWs)   bands (ev):

   -18.5273 -18.5273 -17.4826 -17.4826 -10.6869 -10.6869  -6.6010  -6.6010
    -2.5709  -2.5709   3.1207   3.1207   6.8708   6.8708   7.0278   7.0278

          k = 0.4943 0.2985 0.0000 (  5284 PWs)   bands (ev):

   -18.5275 -18.5275 -17.4829 -17.4829 -10.6857 -10.6857  -6.6013  -6.6013
    -2.5708  -2.5708   3.1190   3.1190   6.8705   6.8705   7.0275   7.0275

          k = 0.4947 0.2979 0.0000 (  5284 PWs)   bands (ev):

   -18.5278 -18.5278 -17.4831 -17.4831 -10.6845 -10.6845  -6.6016  -6.6016
    -2.5708  -2.5708   3.1174   3.1174   6.8702   6.8702   7.0271   7.0271

          k = 0.4950 0.2973 0.0000 (  5284 PWs)   bands (ev):

   -18.5280 -18.5280 -17.4833 -17.4833 -10.6834 -10.6834  -6.6019  -6.6019
    -2.5707  -2.5707   3.1159   3.1159   6.8699   6.8699   7.0268   7.0268

          k = 0.4953 0.2968 0.0000 (  5284 PWs)   bands (ev):

   -18.5282 -18.5282 -17.4835 -17.4835 -10.6824 -10.6824  -6.6022  -6.6022
    -2.5706  -2.5706   3.1145   3.1145   6.8696   6.8696   7.0265   7.0265

          k = 0.4957 0.2962 0.0000 (  5284 PWs)   bands (ev):

   -18.5283 -18.5283 -17.4837 -17.4837 -10.6814 -10.6814  -6.6025  -6.6025
    -2.5706  -2.5706   3.1132   3.1132   6.8694   6.8694   7.0263   7.0263

          k = 0.4960 0.2956 0.0000 (  5284 PWs)   bands (ev):

   -18.5285 -18.5285 -17.4838 -17.4838 -10.6805 -10.6805  -6.6027  -6.6027
    -2.5705  -2.5705   3.1120   3.1120   6.8691   6.8691   7.0260   7.0260

          k = 0.4963 0.2950 0.0000 (  5284 PWs)   bands (ev):

   -18.5287 -18.5287 -17.4840 -17.4840 -10.6797 -10.6797  -6.6029  -6.6029
    -2.5705  -2.5705   3.1109   3.1109   6.8689   6.8689   7.0258   7.0258

          k = 0.4967 0.2944 0.0000 (  5284 PWs)   bands (ev):

   -18.5288 -18.5288 -17.4841 -17.4841 -10.6789 -10.6789  -6.6031  -6.6031
    -2.5704  -2.5704   3.1099   3.1099   6.8687   6.8687   7.0256   7.0256

          k = 0.4970 0.2939 0.0000 (  5284 PWs)   bands (ev):

   -18.5289 -18.5289 -17.4843 -17.4843 -10.6783 -10.6783  -6.6033  -6.6033
    -2.5704  -2.5704   3.1090   3.1090   6.8685   6.8685   7.0254   7.0254

          k = 0.4973 0.2933 0.0000 (  5284 PWs)   bands (ev):

   -18.5290 -18.5290 -17.4844 -17.4844 -10.6777 -10.6777  -6.6035  -6.6035
    -2.5703  -2.5703   3.1082   3.1082   6.8684   6.8684   7.0252   7.0252

          k = 0.4977 0.2927 0.0000 (  5284 PWs)   bands (ev):

   -18.5291 -18.5291 -17.4845 -17.4845 -10.6771 -10.6771  -6.6036  -6.6036
    -2.5703  -2.5703   3.1074   3.1074   6.8682   6.8682   7.0251   7.0251

          k = 0.4980 0.2921 0.0000 (  5284 PWs)   bands (ev):

   -18.5292 -18.5292 -17.4846 -17.4846 -10.6767 -10.6767  -6.6037  -6.6037
    -2.5703  -2.5703   3.1068   3.1068   6.8681   6.8681   7.0250   7.0250

          k = 0.4983 0.2916 0.0000 (  5284 PWs)   bands (ev):

   -18.5293 -18.5293 -17.4846 -17.4846 -10.6763 -10.6763  -6.6038  -6.6038
    -2.5703  -2.5703   3.1063   3.1063   6.8680   6.8680   7.0249   7.0249

          k = 0.4987 0.2910 0.0000 (  5284 PWs)   bands (ev):

   -18.5294 -18.5294 -17.4847 -17.4847 -10.6759 -10.6759  -6.6039  -6.6039
    -2.5702  -2.5702   3.1059   3.1059   6.8679   6.8679   7.0248   7.0248

          k = 0.4990 0.2904 0.0000 (  5284 PWs)   bands (ev):

   -18.5294 -18.5294 -17.4847 -17.4847 -10.6757 -10.6757  -6.6040  -6.6040
    -2.5702  -2.5702   3.1055   3.1055   6.8679   6.8679   7.0247   7.0247

          k = 0.4993 0.2898 0.0000 (  5288 PWs)   bands (ev):

   -18.5295 -18.5295 -17.4848 -17.4848 -10.6755 -10.6755  -6.6040  -6.6040
    -2.5702  -2.5702   3.1053   3.1053   6.8678   6.8678   7.0247   7.0247

          k = 0.4997 0.2893 0.0000 (  5288 PWs)   bands (ev):

   -18.5295 -18.5295 -17.4848 -17.4848 -10.6754 -10.6754  -6.6041  -6.6041
    -2.5702  -2.5702   3.1051   3.1051   6.8678   6.8678   7.0246   7.0246

          k = 0.5000 0.2887 0.0000 (  5288 PWs)   bands (ev):

   -18.5295 -18.5295 -17.4848 -17.4848 -10.6754 -10.6754  -6.6041  -6.6041
    -2.5702  -2.5702   3.1051   3.1051   6.8678   6.8678   7.0246   7.0246

          k = 0.4990 0.2881 0.0000 (  5288 PWs)   bands (ev):

   -18.5299 -18.5299 -17.4843 -17.4843 -10.6753 -10.6753  -6.6042  -6.6042
    -2.5700  -2.5700   3.1051   3.1051   6.8621   6.8621   7.0304   7.0304

          k = 0.4980 0.2875 0.0000 (  5288 PWs)   bands (ev):

   -18.5313 -18.5313 -17.4829 -17.4829 -10.6753 -10.6753  -6.6047  -6.6047
    -2.5694  -2.5694   3.1051   3.1051   6.8469   6.8469   7.0457   7.0457

          k = 0.4970 0.2869 0.0000 (  5288 PWs)   bands (ev):

   -18.5335 -18.5335 -17.4805 -17.4805 -10.6752 -10.6752  -6.6055  -6.6055
    -2.5685  -2.5685   3.1052   3.1052   6.8258   6.8258   7.0670   7.0670

          k = 0.4960 0.2864 0.0000 (  5288 PWs)   bands (ev):

   -18.5366 -18.5366 -17.4771 -17.4771 -10.6750 -10.6750  -6.6066  -6.6066
    -2.5671  -2.5671   3.1053   3.1053   6.8014   6.8014   7.0917   7.0917

          k = 0.4950 0.2858 0.0000 (  5288 PWs)   bands (ev):

   -18.5405 -18.5405 -17.4729 -17.4729 -10.6748 -10.6748  -6.6080  -6.6080
    -2.5654  -2.5654   3.1054   3.1054   6.7751   6.7751   7.1184   7.1184

          k = 0.4940 0.2852 0.0000 (  5288 PWs)   bands (ev):

   -18.5453 -18.5453 -17.4677 -17.4677 -10.6745 -10.6745  -6.6097  -6.6097
    -2.5632  -2.5632   3.1055   3.1055   6.7477   6.7477   7.1463   7.1463

          k = 0.4930 0.2846 0.0000 (  5288 PWs)   bands (ev):

   -18.5509 -18.5509 -17.4617 -17.4617 -10.6742 -10.6742  -6.6117  -6.6117
    -2.5607  -2.5607   3.1057   3.1057   6.7195   6.7195   7.1750   7.1750

          k = 0.4920 0.2841 0.0000 (  5288 PWs)   bands (ev):

   -18.5573 -18.5573 -17.4548 -17.4548 -10.6739 -10.6739  -6.6141  -6.6141
    -2.5578  -2.5578   3.1059   3.1059   6.6910   6.6910   7.2042   7.2042

          k = 0.4910 0.2835 0.0000 (  5292 PWs)   bands (ev):

   -18.5644 -18.5644 -17.4470 -17.4470 -10.6735 -10.6735  -6.6167  -6.6167
    -2.5546  -2.5546   3.1061   3.1061   6.6621   6.6621   7.2338   7.2338

          k = 0.4900 0.2829 0.0000 (  5292 PWs)   bands (ev):

   -18.5723 -18.5723 -17.4385 -17.4385 -10.6730 -10.6730  -6.6197  -6.6197
    -2.5509  -2.5509   3.1063   3.1063   6.6331   6.6331   7.2637   7.2637

          k = 0.4890 0.2823 0.0000 (  5292 PWs)   bands (ev):

   -18.5808 -18.5808 -17.4292 -17.4292 -10.6725 -10.6725  -6.6229  -6.6229
    -2.5469  -2.5469   3.1065   3.1065   6.6039   6.6039   7.2938   7.2938

          k = 0.4880 0.2817 0.0000 (  5292 PWs)   bands (ev):

   -18.5900 -18.5900 -17.4192 -17.4192 -10.6720 -10.6720  -6.6265  -6.6265
    -2.5425  -2.5425   3.1068   3.1068   6.5746   6.5746   7.3241   7.3241

          k = 0.4870 0.2812 0.0000 (  5292 PWs)   bands (ev):

   -18.5998 -18.5998 -17.4085 -17.4085 -10.6714 -10.6714  -6.6303  -6.6303
    -2.5377  -2.5377   3.1071   3.1071   6.5452   6.5452   7.3545   7.3545

          k = 0.4860 0.2806 0.0000 (  5288 PWs)   bands (ev):

   -18.6103 -18.6103 -17.3971 -17.3971 -10.6708 -10.6708  -6.6345  -6.6345
    -2.5325  -2.5325   3.1074   3.1074   6.5158   6.5158   7.3850   7.3850

          k = 0.4850 0.2800 0.0000 (  5284 PWs)   bands (ev):

   -18.6212 -18.6212 -17.3851 -17.3851 -10.6701 -10.6701  -6.6390  -6.6390
    -2.5270  -2.5270   3.1078   3.1078   6.4864   6.4864   7.4112   7.4112

          k = 0.4840 0.2794 0.0000 (  5288 PWs)   bands (ev):

   -18.6327 -18.6327 -17.3726 -17.3726 -10.6694 -10.6694  -6.6437  -6.6437
    -2.5211  -2.5211   3.1081   3.1081   6.4570   6.4570   7.3826   7.3826

          k = 0.4830 0.2789 0.0000 (  5288 PWs)   bands (ev):

   -18.6447 -18.6447 -17.3594 -17.3594 -10.6686 -10.6686  -6.6487  -6.6487
    -2.5149  -2.5149   3.1085   3.1085   6.4276   6.4276   7.3540   7.3540

          k = 0.4820 0.2783 0.0000 (  5288 PWs)   bands (ev):

   -18.6572 -18.6572 -17.3457 -17.3457 -10.6678 -10.6678  -6.6541  -6.6541
    -2.5083  -2.5083   3.1090   3.1090   6.3982   6.3982   7.3253   7.3253

          k = 0.4810 0.2777 0.0000 (  5288 PWs)   bands (ev):

   -18.6701 -18.6701 -17.3315 -17.3315 -10.6669 -10.6669  -6.6597  -6.6597
    -2.5013  -2.5013   3.1094   3.1094   6.3688   6.3688   7.2965   7.2965

          k = 0.4800 0.2771 0.0000 (  5288 PWs)   bands (ev):

   -18.6834 -18.6834 -17.3169 -17.3169 -10.6660 -10.6660  -6.6656  -6.6656
    -2.4940  -2.4940   3.1099   3.1099   6.3394   6.3394   7.2677   7.2677

          k = 0.4790 0.2766 0.0000 (  5288 PWs)   bands (ev):

   -18.6970 -18.6970 -17.3017 -17.3017 -10.6650 -10.6650  -6.6717  -6.6717
    -2.4863  -2.4863   3.1103   3.1103   6.3101   6.3101   7.2389   7.2389

          k = 0.4780 0.2760 0.0000 (  5288 PWs)   bands (ev):

   -18.7111 -18.7111 -17.2862 -17.2862 -10.6640 -10.6640  -6.6782  -6.6782
    -2.4783  -2.4783   3.1109   3.1109   6.2807   6.2807   7.2101   7.2101

          k = 0.4770 0.2754 0.0000 (  5292 PWs)   bands (ev):

   -18.7254 -18.7254 -17.2703 -17.2703 -10.6630 -10.6630  -6.6849  -6.6849
    -2.4699  -2.4699   3.1114   3.1114   6.2514   6.2514   7.1812   7.1812

          k = 0.4760 0.2748 0.0000 (  5292 PWs)   bands (ev):

   -18.7401 -18.7401 -17.2540 -17.2540 -10.6619 -10.6619  -6.6919  -6.6919
    -2.4612  -2.4612   3.1119   3.1119   6.2222   6.2222   7.1524   7.1524

          k = 0.4750 0.2742 0.0000 (  5292 PWs)   bands (ev):

   -18.7550 -18.7550 -17.2373 -17.2373 -10.6607 -10.6607  -6.6991  -6.6991
    -2.4521  -2.4521   3.1125   3.1125   6.1930   6.1930   7.1236   7.1236

          k = 0.4740 0.2737 0.0000 (  5292 PWs)   bands (ev):

   -18.7702 -18.7702 -17.2203 -17.2203 -10.6595 -10.6595  -6.7066  -6.7066
    -2.4427  -2.4427   3.1131   3.1131   6.1638   6.1638   7.0948   7.0948

          k = 0.4730 0.2731 0.0000 (  5296 PWs)   bands (ev):

   -18.7857 -18.7857 -17.2030 -17.2030 -10.6583 -10.6583  -6.7144  -6.7144
    -2.4330  -2.4330   3.1138   3.1138   6.1347   6.1347   7.0660   7.0660

          k = 0.4720 0.2725 0.0000 (  5296 PWs)   bands (ev):

   -18.8014 -18.8014 -17.1853 -17.1853 -10.6570 -10.6570  -6.7224  -6.7224
    -2.4230  -2.4230   3.1144   3.1144   6.1056   6.1056   7.0372   7.0372

          k = 0.4710 0.2719 0.0000 (  5296 PWs)   bands (ev):

   -18.8173 -18.8173 -17.1674 -17.1674 -10.6556 -10.6556  -6.7307  -6.7307
    -2.4126  -2.4126   3.1151   3.1151   6.0765   6.0765   7.0085   7.0085

          k = 0.4700 0.2714 0.0000 (  5296 PWs)   bands (ev):

   -18.8334 -18.8334 -17.1493 -17.1493 -10.6543 -10.6543  -6.7392  -6.7392
    -2.4019  -2.4019   3.1158   3.1158   6.0475   6.0475   6.9798   6.9798

          k = 0.4690 0.2708 0.0000 (  5296 PWs)   bands (ev):

   -18.8497 -18.8497 -17.1308 -17.1308 -10.6528 -10.6528  -6.7480  -6.7480
    -2.3909  -2.3909   3.1165   3.1165   6.0185   6.0185   6.9511   6.9511

          k = 0.4680 0.2702 0.0000 (  5292 PWs)   bands (ev):

   -18.8661 -18.8661 -17.1122 -17.1122 -10.6514 -10.6514  -6.7570  -6.7570
    -2.3796  -2.3796   3.1173   3.1173   5.9896   5.9896   6.9224   6.9224

          k = 0.4670 0.2696 0.0000 (  5294 PWs)   bands (ev):

   -18.8828 -18.8828 -17.0933 -17.0933 -10.6498 -10.6498  -6.7662  -6.7662
    -2.3680  -2.3680   3.1180   3.1180   5.9607   5.9607   6.8937   6.8937

          k = 0.4660 0.2690 0.0000 (  5294 PWs)   bands (ev):

   -18.8995 -18.8995 -17.0742 -17.0742 -10.6483 -10.6483  -6.7757  -6.7757
    -2.3560  -2.3560   3.1188   3.1188   5.9319   5.9319   6.8651   6.8651

          k = 0.4650 0.2685 0.0000 (  5294 PWs)   bands (ev):

   -18.9164 -18.9164 -17.0548 -17.0548 -10.6467 -10.6467  -6.7854  -6.7854
    -2.3438  -2.3438   3.1196   3.1196   5.9031   5.9031   6.8366   6.8366

          k = 0.4640 0.2679 0.0000 (  5294 PWs)   bands (ev):

   -18.9334 -18.9334 -17.0353 -17.0353 -10.6450 -10.6450  -6.7953  -6.7953
    -2.3313  -2.3313   3.1205   3.1205   5.8744   5.8744   6.8080   6.8080

          k = 0.4630 0.2673 0.0000 (  5290 PWs)   bands (ev):

   -18.9506 -18.9506 -17.0156 -17.0156 -10.6433 -10.6433  -6.8054  -6.8054
    -2.3185  -2.3185   3.1213   3.1213   5.8457   5.8457   6.7795   6.7795

          k = 0.4620 0.2667 0.0000 (  5290 PWs)   bands (ev):

   -18.9678 -18.9678 -16.9957 -16.9957 -10.6415 -10.6415  -6.8158  -6.8158
    -2.3054  -2.3054   3.1222   3.1222   5.8171   5.8171   6.7510   6.7510

          k = 0.4610 0.2662 0.0000 (  5290 PWs)   bands (ev):

   -18.9852 -18.9852 -16.9757 -16.9757 -10.6397 -10.6397  -6.8263  -6.8263
    -2.2920  -2.2920   3.1231   3.1231   5.7885   5.7885   6.7226   6.7226

          k = 0.4600 0.2656 0.0000 (  5290 PWs)   bands (ev):

   -19.0026 -19.0026 -16.9555 -16.9555 -10.6379 -10.6379  -6.8371  -6.8371
    -2.2784  -2.2784   3.1240   3.1240   5.7600   5.7600   6.6942   6.6942

          k = 0.4590 0.2650 0.0000 (  5290 PWs)   bands (ev):

   -19.0202 -19.0202 -16.9351 -16.9351 -10.6360 -10.6360  -6.8480  -6.8480
    -2.2644  -2.2644   3.1250   3.1250   5.7315   5.7315   6.6659   6.6659

          k = 0.4580 0.2644 0.0000 (  5290 PWs)   bands (ev):

   -19.0378 -19.0378 -16.9146 -16.9146 -10.6340 -10.6340  -6.8592  -6.8592
    -2.2502  -2.2502   3.1260   3.1260   5.7031   5.7031   6.6376   6.6376

          k = 0.4570 0.2638 0.0000 (  5290 PWs)   bands (ev):

   -19.0555 -19.0555 -16.8939 -16.8939 -10.6320 -10.6320  -6.8705  -6.8705
    -2.2358  -2.2358   3.1270   3.1270   5.6747   5.6747   6.6093   6.6093

          k = 0.4560 0.2633 0.0000 (  5290 PWs)   bands (ev):

   -19.0732 -19.0732 -16.8731 -16.8731 -10.6300 -10.6300  -6.8821  -6.8821
    -2.2210  -2.2210   3.1280   3.1280   5.6464   5.6464   6.5811   6.5811

          k = 0.4550 0.2627 0.0000 (  5290 PWs)   bands (ev):

   -19.0910 -19.0910 -16.8522 -16.8522 -10.6279 -10.6279  -6.8938  -6.8938
    -2.2060  -2.2060   3.1290   3.1290   5.6181   5.6181   6.5529   6.5529

          k = 0.4540 0.2621 0.0000 (  5294 PWs)   bands (ev):

   -19.1089 -19.1089 -16.8312 -16.8312 -10.6258 -10.6258  -6.9057  -6.9057
    -2.1908  -2.1908   3.1301   3.1301   5.5899   5.5899   6.5247   6.5247

          k = 0.4530 0.2615 0.0000 (  5294 PWs)   bands (ev):

   -19.1268 -19.1268 -16.8100 -16.8100 -10.6236 -10.6236  -6.9178  -6.9178
    -2.1753  -2.1753   3.1312   3.1312   5.5617   5.5617   6.4966   6.4966

          k = 0.4520 0.2610 0.0000 (  5294 PWs)   bands (ev):

   -19.1448 -19.1448 -16.7887 -16.7887 -10.6214 -10.6214  -6.9301  -6.9301
    -2.1596  -2.1596   3.1323   3.1323   5.5336   5.5336   6.4686   6.4686

          k = 0.4510 0.2604 0.0000 (  5294 PWs)   bands (ev):

   -19.1628 -19.1628 -16.7673 -16.7673 -10.6191 -10.6191  -6.9425  -6.9425
    -2.1436  -2.1436   3.1334   3.1334   5.5056   5.5056   6.4406   6.4406

          k = 0.4500 0.2598 0.0000 (  5294 PWs)   bands (ev):

   -19.1808 -19.1808 -16.7458 -16.7458 -10.6168 -10.6168  -6.9551  -6.9551
    -2.1274  -2.1274   3.1346   3.1346   5.4776   5.4776   6.4126   6.4126

          k = 0.4490 0.2592 0.0000 (  5294 PWs)   bands (ev):

   -19.1989 -19.1989 -16.7242 -16.7242 -10.6145 -10.6145  -6.9679  -6.9679
    -2.1109  -2.1109   3.1357   3.1357   5.4496   5.4496   6.3847   6.3847

          k = 0.4480 0.2587 0.0000 (  5290 PWs)   bands (ev):

   -19.2170 -19.2170 -16.7025 -16.7025 -10.6121 -10.6121  -6.9808  -6.9808
    -2.0943  -2.0943   3.1369   3.1369   5.4217   5.4217   6.3569   6.3569

          k = 0.4470 0.2581 0.0000 (  5294 PWs)   bands (ev):

   -19.2351 -19.2351 -16.6807 -16.6807 -10.6096 -10.6096  -6.9938  -6.9938
    -2.0774  -2.0774   3.1382   3.1382   5.3939   5.3939   6.3290   6.3290

          k = 0.4460 0.2575 0.0000 (  5294 PWs)   bands (ev):

   -19.2533 -19.2533 -16.6588 -16.6588 -10.6071 -10.6071  -7.0071  -7.0071
    -2.0602  -2.0602   3.1394   3.1394   5.3661   5.3661   6.3013   6.3013

          k = 0.4450 0.2569 0.0000 (  5294 PWs)   bands (ev):

   -19.2715 -19.2715 -16.6368 -16.6368 -10.6046 -10.6046  -7.0204  -7.0204
    -2.0429  -2.0429   3.1407   3.1407   5.3384   5.3384   6.2735   6.2735

          k = 0.4440 0.2563 0.0000 (  5294 PWs)   bands (ev):

   -19.2897 -19.2897 -16.6147 -16.6147 -10.6020 -10.6020  -7.0339  -7.0339
    -2.0253  -2.0253   3.1419   3.1419   5.3107   5.3107   6.2459   6.2459

          k = 0.4430 0.2558 0.0000 (  5294 PWs)   bands (ev):

   -19.3079 -19.3079 -16.5925 -16.5925 -10.5994 -10.5994  -7.0476  -7.0476
    -2.0076  -2.0076   3.1432   3.1432   5.2831   5.2831   6.2183   6.2183

          k = 0.4420 0.2552 0.0000 (  5298 PWs)   bands (ev):

   -19.3261 -19.3261 -16.5703 -16.5703 -10.5967 -10.5967  -7.0614  -7.0614
    -1.9896  -1.9896   3.1446   3.1446   5.2556   5.2556   6.1907   6.1907

          k = 0.4410 0.2546 0.0000 (  5296 PWs)   bands (ev):

   -19.3444 -19.3444 -16.5479 -16.5479 -10.5939 -10.5939  -7.0753  -7.0753
    -1.9714  -1.9714   3.1459   3.1459   5.2281   5.2281   6.1632   6.1632

          k = 0.4400 0.2540 0.0000 (  5294 PWs)   bands (ev):

   -19.3626 -19.3626 -16.5255 -16.5255 -10.5912 -10.5912  -7.0893  -7.0893
    -1.9530  -1.9530   3.1473   3.1473   5.2006   5.2006   6.1357   6.1357

          k = 0.4390 0.2535 0.0000 (  5294 PWs)   bands (ev):

   -19.3809 -19.3809 -16.5030 -16.5030 -10.5883 -10.5883  -7.1035  -7.1035
    -1.9345  -1.9345   3.1487   3.1487   5.1733   5.1733   6.1083   6.1083

          k = 0.4380 0.2529 0.0000 (  5294 PWs)   bands (ev):

   -19.3992 -19.3992 -16.4805 -16.4805 -10.5855 -10.5855  -7.1178  -7.1178
    -1.9157  -1.9157   3.1501   3.1501   5.1459   5.1459   6.0809   6.0809

          k = 0.4370 0.2523 0.0000 (  5294 PWs)   bands (ev):

   -19.4174 -19.4174 -16.4579 -16.4579 -10.5826 -10.5826  -7.1322  -7.1322
    -1.8968  -1.8968   3.1515   3.1515   5.1187   5.1187   6.0536   6.0536

          k = 0.4360 0.2517 0.0000 (  5294 PWs)   bands (ev):

   -19.4357 -19.4357 -16.4352 -16.4352 -10.5796 -10.5796  -7.1468  -7.1468
    -1.8776  -1.8776   3.1530   3.1530   5.0915   5.0915   6.0263   6.0263

          k = 0.4350 0.2511 0.0000 (  5294 PWs)   bands (ev):

   -19.4540 -19.4540 -16.4124 -16.4124 -10.5766 -10.5766  -7.1614  -7.1614
    -1.8583  -1.8583   3.1544   3.1544   5.0643   5.0643   5.9991   5.9991

          k = 0.4340 0.2506 0.0000 (  5290 PWs)   bands (ev):

   -19.4722 -19.4722 -16.3896 -16.3896 -10.5736 -10.5736  -7.1762  -7.1762
    -1.8388  -1.8388   3.1559   3.1559   5.0372   5.0372   5.9719   5.9719

          k = 0.4330 0.2500 0.0000 (  5294 PWs)   bands (ev):

   -19.4905 -19.4905 -16.3667 -16.3667 -10.5705 -10.5705  -7.1910  -7.1910
    -1.8191  -1.8191   3.1574   3.1574   5.0102   5.0102   5.9448   5.9448

          k = 0.4320 0.2494 0.0000 (  5294 PWs)   bands (ev):

   -19.5088 -19.5088 -16.3437 -16.3437 -10.5673 -10.5673  -7.2060  -7.2060
    -1.7993  -1.7993   3.1589   3.1589   4.9832   4.9832   5.9177   5.9177

          k = 0.4310 0.2488 0.0000 (  5294 PWs)   bands (ev):

   -19.5270 -19.5270 -16.3207 -16.3207 -10.5641 -10.5641  -7.2210  -7.2210
    -1.7793  -1.7793   3.1605   3.1605   4.9563   4.9563   5.8907   5.8907

          k = 0.4300 0.2483 0.0000 (  5290 PWs)   bands (ev):

   -19.5453 -19.5453 -16.2976 -16.2976 -10.5609 -10.5609  -7.2362  -7.2362
    -1.7591  -1.7591   3.1620   3.1620   4.9295   4.9295   5.8638   5.8638

          k = 0.4290 0.2477 0.0000 (  5286 PWs)   bands (ev):

   -19.5635 -19.5635 -16.2745 -16.2745 -10.5576 -10.5576  -7.2514  -7.2514
    -1.7387  -1.7387   3.1636   3.1636   4.9027   4.9027   5.8369   5.8369

          k = 0.4280 0.2471 0.0000 (  5286 PWs)   bands (ev):

   -19.5817 -19.5817 -16.2513 -16.2513 -10.5543 -10.5543  -7.2668  -7.2668
    -1.7182  -1.7182   3.1652   3.1652   4.8760   4.8760   5.8100   5.8100

          k = 0.4270 0.2465 0.0000 (  5282 PWs)   bands (ev):

   -19.5999 -19.5999 -16.2280 -16.2280 -10.5509 -10.5509  -7.2822  -7.2822
    -1.6975  -1.6975   3.1668   3.1668   4.8493   4.8493   5.7832   5.7832

          k = 0.4260 0.2460 0.0000 (  5282 PWs)   bands (ev):

   -19.6181 -19.6181 -16.2047 -16.2047 -10.5475 -10.5475  -7.2977  -7.2977
    -1.6767  -1.6767   3.1685   3.1685   4.8227   4.8227   5.7565   5.7565

          k = 0.4250 0.2454 0.0000 (  5282 PWs)   bands (ev):

   -19.6363 -19.6363 -16.1813 -16.1813 -10.5441 -10.5441  -7.3133  -7.3133
    -1.6557  -1.6557   3.1701   3.1701   4.7961   4.7961   5.7298   5.7298

          k = 0.4240 0.2448 0.0000 (  5282 PWs)   bands (ev):

   -19.6545 -19.6545 -16.1579 -16.1579 -10.5406 -10.5406  -7.3290  -7.3290
    -1.6346  -1.6346   3.1718   3.1718   4.7697   4.7697   5.7032   5.7032

          k = 0.4230 0.2442 0.0000 (  5282 PWs)   bands (ev):

   -19.6727 -19.6727 -16.1344 -16.1344 -10.5370 -10.5370  -7.3448  -7.3448
    -1.6133  -1.6133   3.1735   3.1735   4.7432   4.7432   5.6766   5.6766

          k = 0.4220 0.2436 0.0000 (  5286 PWs)   bands (ev):

   -19.6908 -19.6908 -16.1109 -16.1109 -10.5334 -10.5334  -7.3606  -7.3606
    -1.5919  -1.5919   3.1752   3.1752   4.7169   4.7169   5.6501   5.6501

          k = 0.4210 0.2431 0.0000 (  5282 PWs)   bands (ev):

   -19.7089 -19.7089 -16.0873 -16.0873 -10.5298 -10.5298  -7.3765  -7.3765
    -1.5704  -1.5704   3.1769   3.1769   4.6906   4.6906   5.6236   5.6236

          k = 0.4200 0.2425 0.0000 (  5282 PWs)   bands (ev):

   -19.7270 -19.7270 -16.0637 -16.0637 -10.5261 -10.5261  -7.3925  -7.3925
    -1.5487  -1.5487   3.1787   3.1787   4.6644   4.6644   5.5972   5.5972

          k = 0.4190 0.2419 0.0000 (  5282 PWs)   bands (ev):

   -19.7451 -19.7451 -16.0400 -16.0400 -10.5224 -10.5224  -7.4086  -7.4086
    -1.5268  -1.5268   3.1804   3.1804   4.6382   4.6382   5.5708   5.5708

          k = 0.4180 0.2413 0.0000 (  5282 PWs)   bands (ev):

   -19.7632 -19.7632 -16.0163 -16.0163 -10.5186 -10.5186  -7.4247  -7.4247
    -1.5049  -1.5049   3.1822   3.1822   4.6121   4.6121   5.5445   5.5445

          k = 0.4170 0.2408 0.0000 (  5290 PWs)   bands (ev):

   -19.7813 -19.7813 -15.9925 -15.9925 -10.5148 -10.5148  -7.4409  -7.4409
    -1.4828  -1.4828   3.1839   3.1839   4.5861   4.5861   5.5183   5.5183

          k = 0.4160 0.2402 0.0000 (  5290 PWs)   bands (ev):

   -19.7993 -19.7993 -15.9687 -15.9687 -10.5109 -10.5109  -7.4571  -7.4571
    -1.4605  -1.4605   3.1857   3.1857   4.5601   4.5601   5.4921   5.4921

          k = 0.4150 0.2396 0.0000 (  5290 PWs)   bands (ev):

   -19.8173 -19.8173 -15.9449 -15.9449 -10.5070 -10.5070  -7.4734  -7.4734
    -1.4382  -1.4382   3.1875   3.1875   4.5342   4.5342   5.4659   5.4659

          k = 0.4140 0.2390 0.0000 (  5290 PWs)   bands (ev):

   -19.8353 -19.8353 -15.9210 -15.9210 -10.5030 -10.5030  -7.4898  -7.4898
    -1.4157  -1.4157   3.1894   3.1894   4.5084   4.5084   5.4399   5.4399

          k = 0.4130 0.2384 0.0000 (  5290 PWs)   bands (ev):

   -19.8533 -19.8533 -15.8970 -15.8970 -10.4990 -10.4990  -7.5062  -7.5062
    -1.3931  -1.3931   3.1912   3.1912   4.4826   4.4826   5.4138   5.4138

          k = 0.4120 0.2379 0.0000 (  5290 PWs)   bands (ev):

   -19.8712 -19.8712 -15.8730 -15.8730 -10.4950 -10.4950  -7.5226  -7.5226
    -1.3704  -1.3704   3.1930   3.1930   4.4569   4.4569   5.3879   5.3879

          k = 0.4110 0.2373 0.0000 (  5290 PWs)   bands (ev):

   -19.8891 -19.8891 -15.8490 -15.8490 -10.4909 -10.4909  -7.5392  -7.5392
    -1.3476  -1.3476   3.1949   3.1949   4.4313   4.4313   5.3619   5.3619

          k = 0.4100 0.2367 0.0000 (  5290 PWs)   bands (ev):

   -19.9070 -19.9070 -15.8249 -15.8249 -10.4868 -10.4868  -7.5557  -7.5557
    -1.3246  -1.3246   3.1968   3.1968   4.4057   4.4057   5.3361   5.3361

          k = 0.4090 0.2361 0.0000 (  5290 PWs)   bands (ev):

   -19.9249 -19.9249 -15.8008 -15.8008 -10.4826 -10.4826  -7.5723  -7.5723
    -1.3015  -1.3015   3.1986   3.1986   4.3802   4.3802   5.3103   5.3103

          k = 0.4080 0.2356 0.0000 (  5290 PWs)   bands (ev):

   -19.9427 -19.9427 -15.7766 -15.7766 -10.4783 -10.4783  -7.5890  -7.5890
    -1.2784  -1.2784   3.2005   3.2005   4.3548   4.3548   5.2845   5.2845

          k = 0.4070 0.2350 0.0000 (  5290 PWs)   bands (ev):

   -19.9605 -19.9605 -15.7525 -15.7525 -10.4741 -10.4741  -7.6057  -7.6057
    -1.2551  -1.2551   3.2024   3.2024   4.3295   4.3295   5.2589   5.2589

          k = 0.4060 0.2344 0.0000 (  5290 PWs)   bands (ev):

   -19.9783 -19.9783 -15.7282 -15.7282 -10.4698 -10.4698  -7.6225  -7.6225
    -1.2317  -1.2317   3.2043   3.2043   4.3042   4.3042   5.2332   5.2332

          k = 0.4050 0.2338 0.0000 (  5294 PWs)   bands (ev):

   -19.9961 -19.9961 -15.7039 -15.7039 -10.4654 -10.4654  -7.6392  -7.6392
    -1.2082  -1.2082   3.2062   3.2062   4.2790   4.2790   5.2077   5.2077

          k = 0.4040 0.2332 0.0000 (  5290 PWs)   bands (ev):

   -20.0138 -20.0138 -15.6796 -15.6796 -10.4610 -10.4610  -7.6561  -7.6561
    -1.1846  -1.1846   3.2081   3.2081   4.2539   4.2539   5.1821   5.1821

          k = 0.4030 0.2327 0.0000 (  5290 PWs)   bands (ev):

   -20.0315 -20.0315 -15.6553 -15.6553 -10.4566 -10.4566  -7.6729  -7.6729
    -1.1609  -1.1609   3.2100   3.2100   4.2289   4.2289   5.1567   5.1567

          k = 0.4020 0.2321 0.0000 (  5290 PWs)   bands (ev):

   -20.0492 -20.0492 -15.6309 -15.6309 -10.4521 -10.4521  -7.6898  -7.6898
    -1.1371  -1.1371   3.2119   3.2119   4.2039   4.2039   5.1313   5.1313

          k = 0.4010 0.2315 0.0000 (  5290 PWs)   bands (ev):

   -20.0668 -20.0668 -15.6064 -15.6064 -10.4475 -10.4475  -7.7067  -7.7067
    -1.1132  -1.1132   3.2138   3.2138   4.1791   4.1791   5.1059   5.1059

          k = 0.4000 0.2309 0.0000 (  5286 PWs)   bands (ev):

   -20.0845 -20.0845 -15.5820 -15.5820 -10.4430 -10.4430  -7.7237  -7.7237
    -1.0892  -1.0892   3.2157   3.2157   4.1543   4.1543   5.0807   5.0807

          k = 0.3990 0.2304 0.0000 (  5286 PWs)   bands (ev):

   -20.1020 -20.1020 -15.5575 -15.5575 -10.4383 -10.4383  -7.7407  -7.7407
    -1.0651  -1.0651   3.2176   3.2176   4.1296   4.1296   5.0554   5.0554

          k = 0.3980 0.2298 0.0000 (  5286 PWs)   bands (ev):

   -20.1196 -20.1196 -15.5329 -15.5329 -10.4337 -10.4337  -7.7577  -7.7577
    -1.0409  -1.0409   3.2194   3.2194   4.1049   4.1049   5.0303   5.0303

          k = 0.3970 0.2292 0.0000 (  5290 PWs)   bands (ev):

   -20.1371 -20.1371 -15.5084 -15.5084 -10.4289 -10.4289  -7.7747  -7.7747
    -1.0166  -1.0166   3.2213   3.2213   4.0804   4.0804   5.0052   5.0052

          k = 0.3960 0.2286 0.0000 (  5290 PWs)   bands (ev):

   -20.1546 -20.1546 -15.4838 -15.4838 -10.4242 -10.4242  -7.7918  -7.7918
    -0.9923  -0.9923   3.2232   3.2232   4.0560   4.0560   4.9801   4.9801

          k = 0.3950 0.2281 0.0000 (  5290 PWs)   bands (ev):

   -20.1721 -20.1721 -15.4591 -15.4591 -10.4194 -10.4194  -7.8089  -7.8089
    -0.9678  -0.9678   3.2250   3.2250   4.0316   4.0316   4.9551   4.9551

          k = 0.3940 0.2275 0.0000 (  5288 PWs)   bands (ev):

   -20.1895 -20.1895 -15.4345 -15.4345 -10.4146 -10.4146  -7.8260  -7.8260
    -0.9433  -0.9433   3.2268   3.2268   4.0074   4.0074   4.9302   4.9302

          k = 0.3930 0.2269 0.0000 (  5288 PWs)   bands (ev):

   -20.2069 -20.2069 -15.4097 -15.4097 -10.4097 -10.4097  -7.8431  -7.8431
    -0.9187  -0.9187   3.2286   3.2286   3.9833   3.9833   4.9053   4.9053

          k = 0.3920 0.2263 0.0000 (  5288 PWs)   bands (ev):

   -20.2243 -20.2243 -15.3850 -15.3850 -10.4047 -10.4047  -7.8603  -7.8603
    -0.8939  -0.8939   3.2304   3.2304   3.9593   3.9593   4.8805   4.8805

          k = 0.3910 0.2257 0.0000 (  5288 PWs)   bands (ev):

   -20.2417 -20.2417 -15.3602 -15.3602 -10.3998 -10.3998  -7.8775  -7.8775
    -0.8692  -0.8692   3.2321   3.2321   3.9354   3.9354   4.8557   4.8557

          k = 0.3900 0.2252 0.0000 (  5286 PWs)   bands (ev):

   -20.2590 -20.2590 -15.3354 -15.3354 -10.3947 -10.3947  -7.8947  -7.8947
    -0.8443  -0.8443   3.2338   3.2338   3.9116   3.9116   4.8310   4.8310

          k = 0.3890 0.2246 0.0000 (  5286 PWs)   bands (ev):

   -20.2763 -20.2763 -15.3106 -15.3106 -10.3897 -10.3897  -7.9119  -7.9119
    -0.8194  -0.8194   3.2354   3.2354   3.8879   3.8879   4.8064   4.8064

          k = 0.3880 0.2240 0.0000 (  5282 PWs)   bands (ev):

   -20.2935 -20.2935 -15.2857 -15.2857 -10.3846 -10.3846  -7.9291  -7.9291
    -0.7943  -0.7943   3.2370   3.2370   3.8644   3.8644   4.7818   4.7818

          k = 0.3870 0.2234 0.0000 (  5282 PWs)   bands (ev):

   -20.3107 -20.3107 -15.2608 -15.2608 -10.3794 -10.3794  -7.9463  -7.9463
    -0.7692  -0.7692   3.2385   3.2385   3.8411   3.8411   4.7573   4.7573

          k = 0.3860 0.2229 0.0000 (  5282 PWs)   bands (ev):

   -20.3279 -20.3279 -15.2359 -15.2359 -10.3742 -10.3742  -7.9636  -7.9636
    -0.7441  -0.7441   3.2399   3.2399   3.8179   3.8179   4.7328   4.7328

          k = 0.3850 0.2223 0.0000 (  5282 PWs)   bands (ev):

   -20.3450 -20.3450 -15.2109 -15.2109 -10.3690 -10.3690  -7.9808  -7.9808
    -0.7188  -0.7188   3.2412   3.2412   3.7948   3.7948   4.7084   4.7084

          k = 0.3840 0.2217 0.0000 (  5280 PWs)   bands (ev):

   -20.3621 -20.3621 -15.1859 -15.1859 -10.3637 -10.3637  -7.9981  -7.9981
    -0.6935  -0.6935   3.2424   3.2424   3.7720   3.7720   4.6841   4.6841

          k = 0.3830 0.2211 0.0000 (  5280 PWs)   bands (ev):

   -20.3792 -20.3792 -15.1609 -15.1609 -10.3584 -10.3584  -8.0154  -8.0154
    -0.6681  -0.6681   3.2435   3.2435   3.7493   3.7493   4.6598   4.6598

          k = 0.3820 0.2205 0.0000 (  5280 PWs)   bands (ev):

   -20.3963 -20.3963 -15.1359 -15.1359 -10.3530 -10.3530  -8.0326  -8.0326
    -0.6427  -0.6427   3.2445   3.2445   3.7269   3.7269   4.6356   4.6356

          k = 0.3810 0.2200 0.0000 (  5278 PWs)   bands (ev):

   -20.4133 -20.4133 -15.1108 -15.1108 -10.3476 -10.3476  -8.0499  -8.0499
    -0.6172  -0.6172   3.2453   3.2453   3.7048   3.7048   4.6114   4.6114

          k = 0.3800 0.2194 0.0000 (  5274 PWs)   bands (ev):

   -20.4302 -20.4302 -15.0857 -15.0857 -10.3422 -10.3422  -8.0672  -8.0672
    -0.5916  -0.5916   3.2459   3.2459   3.6829   3.6829   4.5873   4.5873

          k = 0.3790 0.2188 0.0000 (  5274 PWs)   bands (ev):

   -20.4472 -20.4472 -15.0605 -15.0605 -10.3367 -10.3367  -8.0845  -8.0845
    -0.5660  -0.5660   3.2462   3.2462   3.6613   3.6613   4.5633   4.5633

          k = 0.3780 0.2182 0.0000 (  5274 PWs)   bands (ev):

   -20.4641 -20.4641 -15.0354 -15.0354 -10.3312 -10.3312  -8.1018  -8.1018
    -0.5402  -0.5402   3.2463   3.2463   3.6401   3.6401   4.5393   4.5393

          k = 0.3770 0.2177 0.0000 (  5274 PWs)   bands (ev):

   -20.4809 -20.4809 -15.0102 -15.0102 -10.3256 -10.3256  -8.1191  -8.1191
    -0.5145  -0.5145   3.2460   3.2460   3.6193   3.6193   4.5153   4.5153

          k = 0.3760 0.2171 0.0000 (  5275 PWs)   bands (ev):

   -20.4978 -20.4978 -14.9850 -14.9850 -10.3200 -10.3200  -8.1364  -8.1364
    -0.4886  -0.4886   3.2453   3.2453   3.5990   3.5990   4.4915   4.4915

          k = 0.3750 0.2165 0.0000 (  5275 PWs)   bands (ev):

   -20.5146 -20.5146 -14.9597 -14.9597 -10.3143 -10.3143  -8.1537  -8.1537
    -0.4628  -0.4628   3.2442   3.2442   3.5792   3.5792   4.4677   4.4677

          k = 0.3740 0.2159 0.0000 (  5277 PWs)   bands (ev):

   -20.5313 -20.5313 -14.9345 -14.9345 -10.3086 -10.3086  -8.1710  -8.1710
    -0.4368  -0.4368   3.2426   3.2426   3.5600   3.5600   4.4439   4.4439

          k = 0.3730 0.2154 0.0000 (  5281 PWs)   bands (ev):

   -20.5480 -20.5480 -14.9092 -14.9092 -10.3029 -10.3029  -8.1883  -8.1883
    -0.4108  -0.4108   3.2403   3.2403   3.5415   3.5415   4.4203   4.4203

          k = 0.3720 0.2148 0.0000 (  5281 PWs)   bands (ev):

   -20.5647 -20.5647 -14.8838 -14.8838 -10.2971 -10.2971  -8.2056  -8.2056
    -0.3847  -0.3847   3.2373   3.2373   3.5239   3.5239   4.3966   4.3966

          k = 0.3710 0.2142 0.0000 (  5281 PWs)   bands (ev):

   -20.5814 -20.5814 -14.8585 -14.8585 -10.2912 -10.2912  -8.2229  -8.2229
    -0.3586  -0.3586   3.2334   3.2334   3.5072   3.5072   4.3731   4.3731

          k = 0.3700 0.2136 0.0000 (  5281 PWs)   bands (ev):

   -20.5980 -20.5980 -14.8331 -14.8331 -10.2854 -10.2854  -8.2402  -8.2402
    -0.3325  -0.3325   3.2285   3.2285   3.4915   3.4915   4.3496   4.3496

          k = 0.3690 0.2130 0.0000 (  5283 PWs)   bands (ev):

   -20.6146 -20.6146 -14.8077 -14.8077 -10.2795 -10.2795  -8.2575  -8.2575
    -0.3062  -0.3062   3.2225   3.2225   3.4771   3.4771   4.3261   4.3261

          k = 0.3680 0.2125 0.0000 (  5285 PWs)   bands (ev):

   -20.6311 -20.6311 -14.7823 -14.7823 -10.2735 -10.2735  -8.2748  -8.2748
    -0.2800  -0.2800   3.2153   3.2153   3.4639   3.4639   4.3028   4.3028

          k = 0.3670 0.2119 0.0000 (  5285 PWs)   bands (ev):

   -20.6476 -20.6476 -14.7568 -14.7568 -10.2675 -10.2675  -8.2921  -8.2921
    -0.2536  -0.2536   3.2067   3.2067   3.4522   3.4522   4.2795   4.2795

          k = 0.3660 0.2113 0.0000 (  5285 PWs)   bands (ev):

   -20.6641 -20.6641 -14.7314 -14.7314 -10.2615 -10.2615  -8.3094  -8.3094
    -0.2273  -0.2273   3.1968   3.1968   3.4419   3.4419   4.2562   4.2562

          k = 0.3650 0.2107 0.0000 (  5285 PWs)   bands (ev):

   -20.6805 -20.6805 -14.7059 -14.7059 -10.2554 -10.2554  -8.3266  -8.3266
    -0.2009  -0.2009   3.1856   3.1856   3.4330   3.4330   4.2330   4.2330

          k = 0.3640 0.2102 0.0000 (  5281 PWs)   bands (ev):

   -20.6969 -20.6969 -14.6803 -14.6803 -10.2493 -10.2493  -8.3439  -8.3439
    -0.1744  -0.1744   3.1730   3.1730   3.4255   3.4255   4.2099   4.2099

          k = 0.3630 0.2096 0.0000 (  5277 PWs)   bands (ev):

   -20.7133 -20.7133 -14.6548 -14.6548 -10.2431 -10.2431  -8.3611  -8.3611
    -0.1479  -0.1479   3.1592   3.1592   3.4193   3.4193   4.1868   4.1868

          k = 0.3620 0.2090 0.0000 (  5277 PWs)   bands (ev):

   -20.7296 -20.7296 -14.6292 -14.6292 -10.2369 -10.2369  -8.3784  -8.3784
    -0.1213  -0.1213   3.1443   3.1443   3.4143   3.4143   4.1638   4.1638

          k = 0.3610 0.2084 0.0000 (  5277 PWs)   bands (ev):

   -20.7459 -20.7459 -14.6036 -14.6036 -10.2306 -10.2306  -8.3956  -8.3956
    -0.0947  -0.0947   3.1285   3.1285   3.4104   3.4104   4.1409   4.1409

          k = 0.3600 0.2078 0.0000 (  5277 PWs)   bands (ev):

   -20.7621 -20.7621 -14.5780 -14.5780 -10.2244 -10.2244  -8.4128  -8.4128
    -0.0681  -0.0681   3.1117   3.1117   3.4074   3.4074   4.1180   4.1180

          k = 0.3590 0.2073 0.0000 (  5279 PWs)   bands (ev):

   -20.7783 -20.7783 -14.5524 -14.5524 -10.2180 -10.2180  -8.4300  -8.4300
    -0.0414  -0.0414   3.0943   3.0943   3.4052   3.4052   4.0952   4.0952

          k = 0.3580 0.2067 0.0000 (  5279 PWs)   bands (ev):

   -20.7945 -20.7945 -14.5267 -14.5267 -10.2117 -10.2117  -8.4472  -8.4472
    -0.0147  -0.0147   3.0762   3.0762   3.4037   3.4037   4.0724   4.0724

          k = 0.3570 0.2061 0.0000 (  5283 PWs)   bands (ev):

   -20.8106 -20.8106 -14.5010 -14.5010 -10.2052 -10.2052  -8.4643  -8.4643
     0.0121   0.0121   3.0576   3.0576   3.4028   3.4028   4.0497   4.0497

          k = 0.3560 0.2055 0.0000 (  5283 PWs)   bands (ev):

   -20.8267 -20.8267 -14.4753 -14.4753 -10.1988 -10.1988  -8.4815  -8.4815
     0.0389   0.0389   3.0385   3.0385   3.4024   3.4024   4.0271   4.0271

          k = 0.3550 0.2050 0.0000 (  5283 PWs)   bands (ev):

   -20.8427 -20.8427 -14.4496 -14.4496 -10.1923 -10.1923  -8.4986  -8.4986
     0.0657   0.0657   3.0192   3.0192   3.4024   3.4024   4.0045   4.0045

          k = 0.3540 0.2044 0.0000 (  5277 PWs)   bands (ev):

   -20.8587 -20.8587 -14.4239 -14.4239 -10.1858 -10.1858  -8.5158  -8.5158
     0.0926   0.0926   2.9995   2.9995   3.4028   3.4028   3.9820   3.9820

          k = 0.3530 0.2038 0.0000 (  5277 PWs)   bands (ev):

   -20.8747 -20.8747 -14.3981 -14.3981 -10.1792 -10.1792  -8.5329  -8.5329
     0.1195   0.1195   2.9795   2.9795   3.4035   3.4035   3.9596   3.9596

          k = 0.3520 0.2032 0.0000 (  5277 PWs)   bands (ev):

   -20.8906 -20.8906 -14.3723 -14.3723 -10.1726 -10.1726  -8.5500  -8.5500
     0.1465   0.1465   2.9594   2.9594   3.4046   3.4046   3.9372   3.9372

          k = 0.3510 0.2026 0.0000 (  5289 PWs)   bands (ev):

   -20.9065 -20.9065 -14.3465 -14.3465 -10.1659 -10.1659  -8.5670  -8.5670
     0.1734   0.1734   2.9391   2.9391   3.4058   3.4058   3.9149   3.9149

          k = 0.3500 0.2021 0.0000 (  5285 PWs)   bands (ev):

   -20.9224 -20.9224 -14.3207 -14.3207 -10.1592 -10.1592  -8.5841  -8.5841
     0.2004   0.2004   2.9186   2.9186   3.4073   3.4073   3.8927   3.8927

          k = 0.3490 0.2015 0.0000 (  5285 PWs)   bands (ev):

   -20.9382 -20.9382 -14.2948 -14.2948 -10.1525 -10.1525  -8.6011  -8.6011
     0.2275   0.2275   2.8981   2.8981   3.4089   3.4089   3.8705   3.8705

          k = 0.3480 0.2009 0.0000 (  5285 PWs)   bands (ev):

   -20.9540 -20.9540 -14.2690 -14.2690 -10.1457 -10.1457  -8.6182  -8.6182
     0.2546   0.2546   2.8775   2.8775   3.4107   3.4107   3.8484   3.8484

          k = 0.3470 0.2003 0.0000 (  5285 PWs)   bands (ev):

   -20.9697 -20.9697 -14.2431 -14.2431 -10.1389 -10.1389  -8.6352  -8.6352
     0.2817   0.2817   2.8568   2.8568   3.4127   3.4127   3.8263   3.8263

          k = 0.3460 0.1998 0.0000 (  5287 PWs)   bands (ev):

   -20.9854 -20.9854 -14.2172 -14.2172 -10.1321 -10.1321  -8.6521  -8.6521
     0.3088   0.3088   2.8360   2.8360   3.4148   3.4148   3.8043   3.8043

          k = 0.3450 0.1992 0.0000 (  5287 PWs)   bands (ev):

   -21.0011 -21.0011 -14.1913 -14.1913 -10.1252 -10.1252  -8.6691  -8.6691
     0.3359   0.3359   2.8152   2.8152   3.4170   3.4170   3.7824   3.7824

          k = 0.3440 0.1986 0.0000 (  5287 PWs)   bands (ev):

   -21.0167 -21.0167 -14.1653 -14.1653 -10.1183 -10.1183  -8.6860  -8.6860
     0.3631   0.3631   2.7944   2.7944   3.4193   3.4193   3.7605   3.7605

          k = 0.3430 0.1980 0.0000 (  5287 PWs)   bands (ev):

   -21.0323 -21.0323 -14.1394 -14.1394 -10.1113 -10.1113  -8.7029  -8.7029
     0.3903   0.3903   2.7735   2.7735   3.4217   3.4217   3.7387   3.7387

          k = 0.3420 0.1975 0.0000 (  5287 PWs)   bands (ev):

   -21.0478 -21.0478 -14.1134 -14.1134 -10.1043 -10.1043  -8.7198  -8.7198
     0.4176   0.4176   2.7527   2.7527   3.4242   3.4242   3.7170   3.7170

          k = 0.3410 0.1969 0.0000 (  5283 PWs)   bands (ev):

   -21.0633 -21.0633 -14.0874 -14.0874 -10.0972 -10.0972  -8.7367  -8.7367
     0.4448   0.4448   2.7318   2.7318   3.4267   3.4267   3.6953   3.6953

          k = 0.3400 0.1963 0.0000 (  5283 PWs)   bands (ev):

   -21.0788 -21.0788 -14.0614 -14.0614 -10.0901 -10.0901  -8.7535  -8.7535
     0.4721   0.4721   2.7110   2.7110   3.4294   3.4294   3.6737   3.6737

          k = 0.3390 0.1957 0.0000 (  5283 PWs)   bands (ev):

   -21.0942 -21.0942 -14.0353 -14.0353 -10.0830 -10.0830  -8.7704  -8.7704
     0.4994   0.4994   2.6901   2.6901   3.4320   3.4320   3.6522   3.6522

          k = 0.3380 0.1951 0.0000 (  5283 PWs)   bands (ev):

   -21.1096 -21.1096 -14.0093 -14.0093 -10.0758 -10.0758  -8.7872  -8.7872
     0.5268   0.5268   2.6693   2.6693   3.4348   3.4348   3.6307   3.6307

          k = 0.3370 0.1946 0.0000 (  5279 PWs)   bands (ev):

   -21.1249 -21.1249 -13.9832 -13.9832 -10.0686 -10.0686  -8.8039  -8.8039
     0.5541   0.5541   2.6485   2.6485   3.4376   3.4376   3.6093   3.6093

          k = 0.3360 0.1940 0.0000 (  5279 PWs)   bands (ev):

   -21.1402 -21.1402 -13.9572 -13.9572 -10.0614 -10.0614  -8.8207  -8.8207
     0.5815   0.5815   2.6277   2.6277   3.4405   3.4405   3.5880   3.5880

          k = 0.3350 0.1934 0.0000 (  5279 PWs)   bands (ev):

   -21.1554 -21.1554 -13.9311 -13.9311 -10.0541 -10.0541  -8.8374  -8.8374
     0.6088   0.6088   2.6069   2.6069   3.4434   3.4434   3.5667   3.5667

          k = 0.3340 0.1928 0.0000 (  5285 PWs)   bands (ev):

   -21.1707 -21.1707 -13.9050 -13.9050 -10.0468 -10.0468  -8.8541  -8.8541
     0.6362   0.6362   2.5862   2.5862   3.4463   3.4463   3.5455   3.5455

          k = 0.3330 0.1923 0.0000 (  5285 PWs)   bands (ev):

   -21.1858 -21.1858 -13.8788 -13.8788 -10.0394 -10.0394  -8.8708  -8.8708
     0.6637   0.6637   2.5655   2.5655   3.4493   3.4493   3.5244   3.5244

          k = 0.3320 0.1917 0.0000 (  5285 PWs)   bands (ev):

   -21.2010 -21.2010 -13.8527 -13.8527 -10.0320 -10.0320  -8.8874  -8.8874
     0.6911   0.6911   2.5448   2.5448   3.4524   3.4524   3.5033   3.5033

          k = 0.3310 0.1911 0.0000 (  5281 PWs)   bands (ev):

   -21.2161 -21.2161 -13.8266 -13.8266 -10.0246 -10.0246  -8.9040  -8.9040
     0.7185   0.7185   2.5242   2.5242   3.4554   3.4554   3.4823   3.4823

          k = 0.3300 0.1905 0.0000 (  5281 PWs)   bands (ev):

   -21.2311 -21.2311 -13.8004 -13.8004 -10.0171 -10.0171  -8.9206  -8.9206
     0.7460   0.7460   2.5036   2.5036   3.4584   3.4584   3.4615   3.4615

          k = 0.3290 0.1899 0.0000 (  5283 PWs)   bands (ev):

   -21.2461 -21.2461 -13.7742 -13.7742 -10.0096 -10.0096  -8.9371  -8.9371
     0.7734   0.7734   2.4831   2.4831   3.4405   3.4405   3.4617   3.4617

          k = 0.3280 0.1894 0.0000 (  5279 PWs)   bands (ev):

   -21.2611 -21.2611 -13.7480 -13.7480 -10.0021 -10.0021  -8.9537  -8.9537
     0.8009   0.8009   2.4625   2.4625   3.4197   3.4197   3.4648   3.4648

          k = 0.3270 0.1888 0.0000 (  5279 PWs)   bands (ev):

   -21.2760 -21.2760 -13.7218 -13.7218  -9.9945  -9.9945  -8.9702  -8.9702
     0.8284   0.8284   2.4421   2.4421   3.3990   3.3990   3.4680   3.4680

          k = 0.3260 0.1882 0.0000 (  5279 PWs)   bands (ev):

   -21.2909 -21.2909 -13.6956 -13.6956  -9.9869  -9.9869  -8.9866  -8.9866
     0.8559   0.8559   2.4217   2.4217   3.3784   3.3784   3.4712   3.4712

          k = 0.3250 0.1876 0.0000 (  5267 PWs)   bands (ev):

   -21.3058 -21.3058 -13.6693 -13.6693  -9.9792  -9.9792  -9.0031  -9.0031
     0.8834   0.8834   2.4013   2.4013   3.3578   3.3578   3.4745   3.4745

          k = 0.3240 0.1871 0.0000 (  5267 PWs)   bands (ev):

   -21.3206 -21.3206 -13.6431 -13.6431  -9.9715  -9.9715  -9.0195  -9.0195
     0.9109   0.9109   2.3810   2.3810   3.3373   3.3373   3.4777   3.4777

          k = 0.3230 0.1865 0.0000 (  5271 PWs)   bands (ev):

   -21.3353 -21.3353 -13.6168 -13.6168  -9.9638  -9.9638  -9.0359  -9.0359
     0.9384   0.9384   2.3607   2.3607   3.3169   3.3169   3.4810   3.4810

          k = 0.3220 0.1859 0.0000 (  5271 PWs)   bands (ev):

   -21.3501 -21.3501 -13.5906 -13.5906  -9.9560  -9.9560  -9.0522  -9.0522
     0.9659   0.9659   2.3404   2.3404   3.2965   3.2965   3.4843   3.4843

          k = 0.3210 0.1853 0.0000 (  5271 PWs)   bands (ev):

   -21.3647 -21.3647 -13.5643 -13.5643  -9.9482  -9.9482  -9.0685  -9.0685
     0.9934   0.9934   2.3203   2.3203   3.2762   3.2762   3.4877   3.4877

          k = 0.3200 0.1848 0.0000 (  5271 PWs)   bands (ev):

   -21.3794 -21.3794 -13.5380 -13.5380  -9.9403  -9.9403  -9.0848  -9.0848
     1.0209   1.0209   2.3001   2.3001   3.2560   3.2560   3.4910   3.4910

          k = 0.3190 0.1842 0.0000 (  5271 PWs)   bands (ev):

   -21.3940 -21.3940 -13.5117 -13.5117  -9.9325  -9.9325  -9.1011  -9.1011
     1.0485   1.0485   2.2801   2.2801   3.2359   3.2359   3.4944   3.4944

          k = 0.3180 0.1836 0.0000 (  5271 PWs)   bands (ev):

   -21.4085 -21.4085 -13.4854 -13.4854  -9.9245  -9.9245  -9.1173  -9.1173
     1.0760   1.0760   2.2600   2.2600   3.2158   3.2158   3.4978   3.4978

          k = 0.3170 0.1830 0.0000 (  5271 PWs)   bands (ev):

   -21.4230 -21.4230 -13.4590 -13.4590  -9.9166  -9.9166  -9.1335  -9.1335
     1.1035   1.1035   2.2401   2.2401   3.1958   3.1958   3.5012   3.5012

          k = 0.3160 0.1824 0.0000 (  5267 PWs)   bands (ev):

   -21.4375 -21.4375 -13.4327 -13.4327  -9.9086  -9.9086  -9.1496  -9.1496
     1.1310   1.1310   2.2201   2.2201   3.1759   3.1759   3.5046   3.5046

          k = 0.3150 0.1819 0.0000 (  5263 PWs)   bands (ev):

   -21.4520 -21.4520 -13.4063 -13.4063  -9.9006  -9.9006  -9.1657  -9.1657
     1.1585   1.1585   2.2003   2.2003   3.1561   3.1561   3.5080   3.5080

          k = 0.3140 0.1813 0.0000 (  5263 PWs)   bands (ev):

   -21.4663 -21.4663 -13.3800 -13.3800  -9.8925  -9.8925  -9.1818  -9.1818
     1.1859   1.1859   2.1805   2.1805   3.1363   3.1363   3.5114   3.5114

          k = 0.3130 0.1807 0.0000 (  5267 PWs)   bands (ev):

   -21.4807 -21.4807 -13.3536 -13.3536  -9.8844  -9.8844  -9.1979  -9.1979
     1.2134   1.2134   2.1607   2.1607   3.1167   3.1167   3.5149   3.5149

          k = 0.3120 0.1801 0.0000 (  5265 PWs)   bands (ev):

   -21.4950 -21.4950 -13.3272 -13.3272  -9.8763  -9.8763  -9.2139  -9.2139
     1.2408   1.2408   2.1410   2.1410   3.0971   3.0971   3.5184   3.5184

          k = 0.3110 0.1796 0.0000 (  5265 PWs)   bands (ev):

   -21.5093 -21.5093 -13.3008 -13.3008  -9.8681  -9.8681  -9.2299  -9.2299
     1.2683   1.2683   2.1213   2.1213   3.0776   3.0776   3.5218   3.5218

          k = 0.3100 0.1790 0.0000 (  5269 PWs)   bands (ev):

   -21.5235 -21.5235 -13.2745 -13.2745  -9.8599  -9.8599  -9.2458  -9.2458
     1.2957   1.2957   2.1017   2.1017   3.0582   3.0582   3.5253   3.5253

          k = 0.3090 0.1784 0.0000 (  5269 PWs)   bands (ev):

   -21.5377 -21.5377 -13.2480 -13.2480  -9.8517  -9.8517  -9.2617  -9.2617
     1.3231   1.3231   2.0822   2.0822   3.0389   3.0389   3.5288   3.5288

          k = 0.3080 0.1778 0.0000 (  5271 PWs)   bands (ev):

   -21.5518 -21.5518 -13.2216 -13.2216  -9.8434  -9.8434  -9.2776  -9.2776
     1.3505   1.3505   2.0627   2.0627   3.0197   3.0197   3.5323   3.5323

          k = 0.3070 0.1772 0.0000 (  5271 PWs)   bands (ev):

   -21.5659 -21.5659 -13.1952 -13.1952  -9.8351  -9.8351  -9.2935  -9.2935
     1.3778   1.3778   2.0433   2.0433   3.0005   3.0005   3.5358   3.5358

          k = 0.3060 0.1767 0.0000 (  5271 PWs)   bands (ev):

   -21.5799 -21.5799 -13.1688 -13.1688  -9.8268  -9.8268  -9.3093  -9.3093
     1.4051   1.4051   2.0239   2.0239   2.9815   2.9815   3.5393   3.5393

          k = 0.3050 0.1761 0.0000 (  5267 PWs)   bands (ev):

   -21.5940 -21.5940 -13.1424 -13.1424  -9.8184  -9.8184  -9.3251  -9.3251
     1.4324   1.4324   2.0046   2.0046   2.9626   2.9626   3.5428   3.5428

          k = 0.3040 0.1755 0.0000 (  5267 PWs)   bands (ev):

   -21.6079 -21.6079 -13.1159 -13.1159  -9.8100  -9.8100  -9.3408  -9.3408
     1.4596   1.4596   1.9854   1.9854   2.9437   2.9437   3.5463   3.5463

          k = 0.3030 0.1749 0.0000 (  5267 PWs)   bands (ev):

   -21.6218 -21.6218 -13.0895 -13.0895  -9.8016  -9.8016  -9.3565  -9.3565
     1.4868   1.4868   1.9662   1.9662   2.9250   2.9250   3.5498   3.5498

          k = 0.3020 0.1744 0.0000 (  5267 PWs)   bands (ev):

   -21.6357 -21.6357 -13.0630 -13.0630  -9.7931  -9.7931  -9.3721  -9.3721
     1.5139   1.5139   1.9471   1.9471   2.9064   2.9064   3.5534   3.5534

          k = 0.3010 0.1738 0.0000 (  5267 PWs)   bands (ev):

   -21.6496 -21.6496 -13.0366 -13.0366  -9.7846  -9.7846  -9.3878  -9.3878
     1.5410   1.5410   1.9280   1.9280   2.8879   2.8879   3.5569   3.5569

          k = 0.3000 0.1732 0.0000 (  5271 PWs)   bands (ev):

   -21.6634 -21.6634 -13.0101 -13.0101  -9.7760  -9.7760  -9.4034  -9.4034
     1.5681   1.5681   1.9090   1.9090   2.8695   2.8695   3.5604   3.5604

          k = 0.2990 0.1726 0.0000 (  5271 PWs)   bands (ev):

   -21.6771 -21.6771 -12.9836 -12.9836  -9.7675  -9.7675  -9.4189  -9.4189
     1.5950   1.5950   1.8900   1.8900   2.8513   2.8513   3.5639   3.5639

          k = 0.2980 0.1721 0.0000 (  5271 PWs)   bands (ev):

   -21.6908 -21.6908 -12.9571 -12.9571  -9.7589  -9.7589  -9.4344  -9.4344
     1.6219   1.6219   1.8711   1.8711   2.8332   2.8332   3.5674   3.5674

          k = 0.2970 0.1715 0.0000 (  5271 PWs)   bands (ev):

   -21.7045 -21.7045 -12.9307 -12.9307  -9.7502  -9.7502  -9.4499  -9.4499
     1.6487   1.6487   1.8523   1.8523   2.8152   2.8152   3.5710   3.5710

          k = 0.2960 0.1709 0.0000 (  5271 PWs)   bands (ev):

   -21.7181 -21.7181 -12.9042 -12.9042  -9.7415  -9.7415  -9.4653  -9.4653
     1.6754   1.6754   1.8335   1.8335   2.7974   2.7974   3.5745   3.5745

          k = 0.2950 0.1703 0.0000 (  5271 PWs)   bands (ev):

   -21.7317 -21.7317 -12.8777 -12.8777  -9.7328  -9.7328  -9.4807  -9.4807
     1.7020   1.7020   1.8148   1.8148   2.7797   2.7797   3.5780   3.5780

          k = 0.2940 0.1697 0.0000 (  5271 PWs)   bands (ev):

   -21.7452 -21.7452 -12.8512 -12.8512  -9.7241  -9.7241  -9.4961  -9.4961
     1.7285   1.7285   1.7961   1.7961   2.7622   2.7622   3.5814   3.5814

          k = 0.2930 0.1692 0.0000 (  5271 PWs)   bands (ev):

   -21.7587 -21.7587 -12.8247 -12.8247  -9.7153  -9.7153  -9.5114  -9.5114
     1.7549   1.7549   1.7775   1.7775   2.7450   2.7450   3.5849   3.5849

          k = 0.2920 0.1686 0.0000 (  5275 PWs)   bands (ev):

   -21.7722 -21.7722 -12.7982 -12.7982  -9.7065  -9.7065  -9.5267  -9.5267
     1.7589   1.7589   1.7811   1.7811   2.7279   2.7279   3.5884   3.5884

          k = 0.2910 0.1680 0.0000 (  5275 PWs)   bands (ev):

   -21.7856 -21.7856 -12.7717 -12.7717  -9.6977  -9.6977  -9.5419  -9.5419
     1.7405   1.7405   1.8071   1.8071   2.7110   2.7110   3.5919   3.5919

          k = 0.2900 0.1674 0.0000 (  5275 PWs)   bands (ev):

   -21.7990 -21.7990 -12.7452 -12.7452  -9.6888  -9.6888  -9.5571  -9.5571
     1.7220   1.7220   1.8329   1.8329   2.6944   2.6944   3.5953   3.5953

          k = 0.2890 0.1669 0.0000 (  5275 PWs)   bands (ev):

   -21.8123 -21.8123 -12.7187 -12.7187  -9.6799  -9.6799  -9.5723  -9.5723
     1.7037   1.7037   1.8585   1.8585   2.6781   2.6781   3.5987   3.5987

          k = 0.2880 0.1663 0.0000 (  5271 PWs)   bands (ev):

   -21.8256 -21.8256 -12.6922 -12.6922  -9.6710  -9.6710  -9.5874  -9.5874
     1.6854   1.6854   1.8839   1.8839   2.6621   2.6621   3.6021   3.6021

          k = 0.2870 0.1657 0.0000 (  5271 PWs)   bands (ev):

   -21.8388 -21.8388 -12.6657 -12.6657  -9.6620  -9.6620  -9.6024  -9.6024
     1.6671   1.6671   1.9089   1.9089   2.6465   2.6465   3.6055   3.6055

          k = 0.2860 0.1651 0.0000 (  5271 PWs)   bands (ev):

   -21.8520 -21.8520 -12.6391 -12.6391  -9.6531  -9.6531  -9.6175  -9.6175
     1.6489   1.6489   1.9335   1.9335   2.6313   2.6313   3.6089   3.6089

          k = 0.2850 0.1645 0.0000 (  5271 PWs)   bands (ev):

   -21.8652 -21.8652 -12.6126 -12.6126  -9.6441  -9.6441  -9.6324  -9.6324
     1.6308   1.6308   1.9578   1.9578   2.6165   2.6165   3.6122   3.6122

          k = 0.2840 0.1640 0.0000 (  5275 PWs)   bands (ev):

   -21.8783 -21.8783 -12.5861 -12.5861  -9.6476  -9.6476  -9.6349  -9.6349
     1.6128   1.6128   1.9815   1.9815   2.6023   2.6023   3.6155   3.6155

          k = 0.2830 0.1634 0.0000 (  5277 PWs)   bands (ev):

   -21.8914 -21.8914 -12.5596 -12.5596  -9.6624  -9.6624  -9.6258  -9.6258
     1.5948   1.5948   2.0047   2.0047   2.5888   2.5888   3.6187   3.6187

          k = 0.2820 0.1628 0.0000 (  5277 PWs)   bands (ev):

   -21.9044 -21.9044 -12.5331 -12.5331  -9.6773  -9.6773  -9.6167  -9.6167
     1.5768   1.5768   2.0271   2.0271   2.5760   2.5760   3.6219   3.6219

          k = 0.2810 0.1622 0.0000 (  5277 PWs)   bands (ev):

   -21.9174 -21.9174 -12.5066 -12.5066  -9.6921  -9.6921  -9.6076  -9.6076
     1.5589   1.5589   2.0488   2.0488   2.5641   2.5641   3.6251   3.6251

          k = 0.2800 0.1617 0.0000 (  5277 PWs)   bands (ev):

   -21.9303 -21.9303 -12.4801 -12.4801  -9.7069  -9.7069  -9.5984  -9.5984
     1.5411   1.5411   2.0693   2.0693   2.5532   2.5532   3.6282   3.6282

          k = 0.2790 0.1611 0.0000 (  5277 PWs)   bands (ev):

   -21.9432 -21.9432 -12.4536 -12.4536  -9.7216  -9.7216  -9.5892  -9.5892
     1.5234   1.5234   2.0887   2.0887   2.5437   2.5437   3.6313   3.6313

          k = 0.2780 0.1605 0.0000 (  5277 PWs)   bands (ev):

   -21.9560 -21.9560 -12.4271 -12.4271  -9.7363  -9.7363  -9.5800  -9.5800
     1.5057   1.5057   2.1066   2.1066   2.5356   2.5356   3.6343   3.6343

          k = 0.2770 0.1599 0.0000 (  5277 PWs)   bands (ev):

   -21.9688 -21.9688 -12.4006 -12.4006  -9.7510  -9.7510  -9.5707  -9.5707
     1.4880   1.4880   2.1227   2.1227   2.5294   2.5294   3.6373   3.6373

          k = 0.2760 0.1593 0.0000 (  5277 PWs)   bands (ev):

   -21.9816 -21.9816 -12.3741 -12.3741  -9.7656  -9.7656  -9.5615  -9.5615
     1.4705   1.4705   2.1369   2.1369   2.5252   2.5252   3.6401   3.6401

          k = 0.2750 0.1588 0.0000 (  5281 PWs)   bands (ev):

   -21.9943 -21.9943 -12.3476 -12.3476  -9.7802  -9.7802  -9.5521  -9.5521
     1.4530   1.4530   2.1487   2.1487   2.5233   2.5233   3.6429   3.6429

          k = 0.2740 0.1582 0.0000 (  5279 PWs)   bands (ev):

   -22.0070 -22.0070 -12.3211 -12.3211  -9.7947  -9.7947  -9.5428  -9.5428
     1.4355   1.4355   2.1579   2.1579   2.5241   2.5241   3.6456   3.6456

          k = 0.2730 0.1576 0.0000 (  5279 PWs)   bands (ev):

   -22.0196 -22.0196 -12.2946 -12.2946  -9.8092  -9.8092  -9.5334  -9.5334
     1.4181   1.4181   2.1645   2.1645   2.5277   2.5277   3.6482   3.6482

          k = 0.2720 0.1570 0.0000 (  5275 PWs)   bands (ev):

   -22.0322 -22.0322 -12.2681 -12.2681  -9.8236  -9.8236  -9.5240  -9.5240
     1.4008   1.4008   2.1682   2.1682   2.5340   2.5340   3.6506   3.6506

          k = 0.2710 0.1565 0.0000 (  5275 PWs)   bands (ev):

   -22.0447 -22.0447 -12.2416 -12.2416  -9.8380  -9.8380  -9.5146  -9.5146
     1.3835   1.3835   2.1693   2.1693   2.5432   2.5432   3.6529   3.6529

          k = 0.2700 0.1559 0.0000 (  5275 PWs)   bands (ev):

   -22.0572 -22.0572 -12.2151 -12.2151  -9.8524  -9.8524  -9.5051  -9.5051
     1.3663   1.3663   2.1678   2.1678   2.5548   2.5548   3.6551   3.6551

          k = 0.2690 0.1553 0.0000 (  5275 PWs)   bands (ev):

   -22.0697 -22.0697 -12.1886 -12.1886  -9.8667  -9.8667  -9.4956  -9.4956
     1.3492   1.3492   2.1640   2.1640   2.5688   2.5688   3.6571   3.6571

          k = 0.2680 0.1547 0.0000 (  5275 PWs)   bands (ev):

   -22.0821 -22.0821 -12.1622 -12.1622  -9.8810  -9.8810  -9.4861  -9.4861
     1.3321   1.3321   2.1583   2.1583   2.5848   2.5848   3.6588   3.6588

          k = 0.2670 0.1542 0.0000 (  5275 PWs)   bands (ev):

   -22.0945 -22.0945 -12.1357 -12.1357  -9.8952  -9.8952  -9.4766  -9.4766
     1.3151   1.3151   2.1509   2.1509   2.6025   2.6025   3.6604   3.6604

          k = 0.2660 0.1536 0.0000 (  5275 PWs)   bands (ev):

   -22.1068 -22.1068 -12.1092 -12.1092  -9.9094  -9.9094  -9.4670  -9.4670
     1.2981   1.2981   2.1422   2.1422   2.6216   2.6216   3.6617   3.6617

          k = 0.2650 0.1530 0.0000 (  5279 PWs)   bands (ev):

   -22.1191 -22.1191 -12.0828 -12.0828  -9.9235  -9.9235  -9.4574  -9.4574
     1.2812   1.2812   2.1323   2.1323   2.6419   2.6419   3.6627   3.6627

          k = 0.2640 0.1524 0.0000 (  5275 PWs)   bands (ev):

   -22.1313 -22.1313 -12.0563 -12.0563  -9.9376  -9.9376  -9.4478  -9.4478
     1.2644   1.2644   2.1214   2.1214   2.6632   2.6632   3.6634   3.6634

          k = 0.2630 0.1518 0.0000 (  5277 PWs)   bands (ev):

   -22.1435 -22.1435 -12.0299 -12.0299  -9.9517  -9.9517  -9.4382  -9.4382
     1.2476   1.2476   2.1098   2.1098   2.6853   2.6853   3.6637   3.6637

          k = 0.2620 0.1513 0.0000 (  5275 PWs)   bands (ev):

   -22.1557 -22.1557 -12.0035 -12.0035  -9.9657  -9.9657  -9.4285  -9.4285
     1.2309   1.2309   2.0976   2.0976   2.7080   2.7080   3.6636   3.6636

          k = 0.2610 0.1507 0.0000 (  5275 PWs)   bands (ev):

   -22.1678 -22.1678 -11.9771 -11.9771  -9.9797  -9.9797  -9.4188  -9.4188
     1.2143   1.2143   2.0848   2.0848   2.7313   2.7313   3.6630   3.6630

          k = 0.2600 0.1501 0.0000 (  5271 PWs)   bands (ev):

   -22.1798 -22.1798 -11.9506 -11.9506  -9.9936  -9.9936  -9.4091  -9.4091
     1.1977   1.1977   2.0716   2.0716   2.7551   2.7551   3.6618   3.6618

          k = 0.2590 0.1495 0.0000 (  5271 PWs)   bands (ev):

   -22.1918 -22.1918 -11.9242 -11.9242 -10.0074 -10.0074  -9.3993  -9.3993
     1.1812   1.1812   2.0581   2.0581   2.7792   2.7792   3.6601   3.6601

          k = 0.2580 0.1490 0.0000 (  5271 PWs)   bands (ev):

   -22.2038 -22.2038 -11.8978 -11.8978 -10.0213 -10.0213  -9.3896  -9.3896
     1.1647   1.1647   2.0443   2.0443   2.8036   2.8036   3.6577   3.6577

          k = 0.2570 0.1484 0.0000 (  5271 PWs)   bands (ev):

   -22.2157 -22.2157 -11.8715 -11.8715 -10.0350 -10.0350  -9.3798  -9.3798
     1.1483   1.1483   2.0303   2.0303   2.8283   2.8283   3.6545   3.6545

          k = 0.2560 0.1478 0.0000 (  5271 PWs)   bands (ev):

   -22.2276 -22.2276 -11.8451 -11.8451 -10.0488 -10.0488  -9.3699  -9.3699
     1.1320   1.1320   2.0160   2.0160   2.8533   2.8533   3.6506   3.6506

          k = 0.2550 0.1472 0.0000 (  5271 PWs)   bands (ev):

   -22.2394 -22.2394 -11.8187 -11.8187 -10.0625 -10.0625  -9.3601  -9.3601
     1.1157   1.1157   2.0016   2.0016   2.8784   2.8784   3.6459   3.6459

          k = 0.2540 0.1466 0.0000 (  5273 PWs)   bands (ev):

   -22.2512 -22.2512 -11.7924 -11.7924 -10.0761 -10.0761  -9.3502  -9.3502
     1.0995   1.0995   1.9871   1.9871   2.9037   2.9037   3.6403   3.6403

          k = 0.2530 0.1461 0.0000 (  5273 PWs)   bands (ev):

   -22.2630 -22.2630 -11.7660 -11.7660 -10.0897 -10.0897  -9.3403  -9.3403
     1.0834   1.0834   1.9725   1.9725   2.9291   2.9291   3.6339   3.6339

          k = 0.2520 0.1455 0.0000 (  5269 PWs)   bands (ev):

   -22.2747 -22.2747 -11.7397 -11.7397 -10.1033 -10.1033  -9.3304  -9.3304
     1.0673   1.0673   1.9578   1.9578   2.9546   2.9546   3.6267   3.6267

          k = 0.2510 0.1449 0.0000 (  5269 PWs)   bands (ev):

   -22.2864 -22.2864 -11.7134 -11.7134 -10.1168 -10.1168  -9.3205  -9.3205
     1.0513   1.0513   1.9430   1.9430   2.9802   2.9802   3.6187   3.6187

          k = 0.2500 0.1443 0.0000 (  5269 PWs)   bands (ev):

   -22.2980 -22.2980 -11.6871 -11.6871 -10.1302 -10.1302  -9.3105  -9.3105
     1.0353   1.0353   1.9282   1.9282   3.0058   3.0058   3.6099   3.6099

          k = 0.2490 0.1438 0.0000 (  5269 PWs)   bands (ev):

   -22.3095 -22.3095 -11.6608 -11.6608 -10.1436 -10.1436  -9.3005  -9.3005
     1.0194   1.0194   1.9134   1.9134   3.0316   3.0316   3.6004   3.6004

          k = 0.2480 0.1432 0.0000 (  5269 PWs)   bands (ev):

   -22.3211 -22.3211 -11.6345 -11.6345 -10.1570 -10.1570  -9.2905  -9.2905
     1.0036   1.0036   1.8985   1.8985   3.0573   3.0573   3.5903   3.5903

          k = 0.2470 0.1426 0.0000 (  5273 PWs)   bands (ev):

   -22.3325 -22.3325 -11.6083 -11.6083 -10.1703 -10.1703  -9.2805  -9.2805
     0.9878   0.9878   1.8836   1.8836   3.0831   3.0831   3.5797   3.5797

          k = 0.2460 0.1420 0.0000 (  5273 PWs)   bands (ev):

   -22.3440 -22.3440 -11.5820 -11.5820 -10.1836 -10.1836  -9.2705  -9.2705
     0.9721   0.9721   1.8687   1.8687   3.1090   3.1090   3.5685   3.5685

          k = 0.2450 0.1415 0.0000 (  5273 PWs)   bands (ev):

   -22.3554 -22.3554 -11.5558 -11.5558 -10.1968 -10.1968  -9.2604  -9.2604
     0.9564   0.9564   1.8538   1.8538   3.1348   3.1348   3.5569   3.5569

          k = 0.2440 0.1409 0.0000 (  5273 PWs)   bands (ev):

   -22.3667 -22.3667 -11.5296 -11.5296 -10.2100 -10.2100  -9.2503  -9.2503
     0.9408   0.9408   1.8389   1.8389   3.1607   3.1607   3.5449   3.5449

          k = 0.2430 0.1403 0.0000 (  5269 PWs)   bands (ev):

   -22.3780 -22.3780 -11.5034 -11.5034 -10.2231 -10.2231  -9.2402  -9.2402
     0.9253   0.9253   1.8240   1.8240   3.1866   3.1866   3.5326   3.5326

          k = 0.2420 0.1397 0.0000 (  5267 PWs)   bands (ev):

   -22.3893 -22.3893 -11.4772 -11.4772 -10.2362 -10.2362  -9.2301  -9.2301
     0.9099   0.9099   1.8091   1.8091   3.2124   3.2124   3.5200   3.5200

          k = 0.2410 0.1391 0.0000 (  5263 PWs)   bands (ev):

   -22.4005 -22.4005 -11.4510 -11.4510 -10.2492 -10.2492  -9.2199  -9.2199
     0.8945   0.8945   1.7942   1.7942   3.2383   3.2383   3.5072   3.5072

          k = 0.2400 0.1386 0.0000 (  5263 PWs)   bands (ev):

   -22.4117 -22.4117 -11.4249 -11.4249 -10.2622 -10.2622  -9.2097  -9.2097
     0.8791   0.8791   1.7794   1.7794   3.2641   3.2641   3.4941   3.4941

          k = 0.2390 0.1380 0.0000 (  5263 PWs)   bands (ev):

   -22.4228 -22.4228 -11.3987 -11.3987 -10.2752 -10.2752  -9.1995  -9.1995
     0.8639   0.8639   1.7646   1.7646   3.2899   3.2899   3.4809   3.4809

          k = 0.2380 0.1374 0.0000 (  5263 PWs)   bands (ev):

   -22.4339 -22.4339 -11.3726 -11.3726 -10.2880 -10.2880  -9.1893  -9.1893
     0.8487   0.8487   1.7498   1.7498   3.3156   3.3156   3.4676   3.4676

          k = 0.2370 0.1368 0.0000 (  5263 PWs)   bands (ev):

   -22.4449 -22.4449 -11.3465 -11.3465 -10.3009 -10.3009  -9.1791  -9.1791
     0.8335   0.8335   1.7350   1.7350   3.3414   3.3414   3.4541   3.4541

          k = 0.2360 0.1363 0.0000 (  5259 PWs)   bands (ev):

   -22.4559 -22.4559 -11.3204 -11.3204 -10.3137 -10.3137  -9.1689  -9.1689
     0.8184   0.8184   1.7203   1.7203   3.3670   3.3670   3.4406   3.4406

          k = 0.2350 0.1357 0.0000 (  5259 PWs)   bands (ev):

   -22.4668 -22.4668 -11.2944 -11.2944 -10.3264 -10.3264  -9.1586  -9.1586
     0.8034   0.8034   1.7056   1.7056   3.3927   3.3927   3.4270   3.4270

          k = 0.2340 0.1351 0.0000 (  5255 PWs)   bands (ev):

   -22.4777 -22.4777 -11.2684 -11.2684 -10.3391 -10.3391  -9.1483  -9.1483
     0.7884   0.7884   1.6910   1.6910   3.4133   3.4133   3.4182   3.4182

          k = 0.2330 0.1345 0.0000 (  5255 PWs)   bands (ev):

   -22.4886 -22.4886 -11.2423 -11.2423 -10.3518 -10.3518  -9.1380  -9.1380
     0.7736   0.7736   1.6764   1.6764   3.3995   3.3995   3.4437   3.4437

          k = 0.2320 0.1339 0.0000 (  5255 PWs)   bands (ev):

   -22.4994 -22.4994 -11.2163 -11.2163 -10.3644 -10.3644  -9.1277  -9.1277
     0.7587   0.7587   1.6618   1.6618   3.3857   3.3857   3.4692   3.4692

          k = 0.2310 0.1334 0.0000 (  5255 PWs)   bands (ev):

   -22.5102 -22.5102 -11.1904 -11.1904 -10.3769 -10.3769  -9.1173  -9.1173
     0.7440   0.7440   1.6473   1.6473   3.3719   3.3719   3.4945   3.4945

          k = 0.2300 0.1328 0.0000 (  5255 PWs)   bands (ev):

   -22.5209 -22.5209 -11.1644 -11.1644 -10.3894 -10.3894  -9.1070  -9.1070
     0.7292   0.7292   1.6329   1.6329   3.3581   3.3581   3.5197   3.5197

          k = 0.2290 0.1322 0.0000 (  5255 PWs)   bands (ev):

   -22.5316 -22.5316 -11.1385 -11.1385 -10.4019 -10.4019  -9.0966  -9.0966
     0.7146   0.7146   1.6184   1.6184   3.3443   3.3443   3.5448   3.5448

          k = 0.2280 0.1316 0.0000 (  5251 PWs)   bands (ev):

   -22.5422 -22.5422 -11.1126 -11.1126 -10.4143 -10.4143  -9.0862  -9.0862
     0.7000   0.7000   1.6041   1.6041   3.3304   3.3304   3.5698   3.5698

          k = 0.2270 0.1311 0.0000 (  5251 PWs)   bands (ev):

   -22.5528 -22.5528 -11.0867 -11.0867 -10.4267 -10.4267  -9.0758  -9.0758
     0.6855   0.6855   1.5897   1.5897   3.3166   3.3166   3.5947   3.5947

          k = 0.2260 0.1305 0.0000 (  5251 PWs)   bands (ev):

   -22.5633 -22.5633 -11.0609 -11.0609 -10.4390 -10.4390  -9.0654  -9.0654
     0.6711   0.6711   1.5755   1.5755   3.3028   3.3028   3.6193   3.6193

          k = 0.2250 0.1299 0.0000 (  5251 PWs)   bands (ev):

   -22.5738 -22.5738 -11.0350 -11.0350 -10.4512 -10.4512  -9.0550  -9.0550
     0.6567   0.6567   1.5612   1.5612   3.2890   3.2890   3.6438   3.6438

          k = 0.2240 0.1293 0.0000 (  5247 PWs)   bands (ev):

   -22.5843 -22.5843 -11.0092 -11.0092 -10.4634 -10.4634  -9.0445  -9.0445
     0.6423   0.6423   1.5471   1.5471   3.2752   3.2752   3.6680   3.6680

          k = 0.2230 0.1287 0.0000 (  5247 PWs)   bands (ev):

   -22.5947 -22.5947 -10.9834 -10.9834 -10.4756 -10.4756  -9.0341  -9.0341
     0.6281   0.6281   1.5329   1.5329   3.2614   3.2614   3.6920   3.6920

          k = 0.2220 0.1282 0.0000 (  5247 PWs)   bands (ev):

   -22.6050 -22.6050 -10.9577 -10.9577 -10.4877 -10.4877  -9.0236  -9.0236
     0.6139   0.6139   1.5189   1.5189   3.2477   3.2477   3.7156   3.7156

          k = 0.2210 0.1276 0.0000 (  5253 PWs)   bands (ev):

   -22.6154 -22.6154 -10.9320 -10.9320 -10.4998 -10.4998  -9.0131  -9.0131
     0.5997   0.5997   1.5048   1.5048   3.2340   3.2340   3.7389   3.7389

          k = 0.2200 0.1270 0.0000 (  5253 PWs)   bands (ev):

   -22.6256 -22.6256 -10.9063 -10.9063 -10.5118 -10.5118  -9.0026  -9.0026
     0.5857   0.5857   1.4909   1.4909   3.2203   3.2203   3.7616   3.7616

          k = 0.2190 0.1264 0.0000 (  5249 PWs)   bands (ev):

   -22.6359 -22.6359 -10.8806 -10.8806 -10.5237 -10.5237  -8.9921  -8.9921
     0.5717   0.5717   1.4770   1.4770   3.2066   3.2066   3.7837   3.7837

          k = 0.2180 0.1259 0.0000 (  5253 PWs)   bands (ev):

   -22.6460 -22.6460 -10.8549 -10.8549 -10.5357 -10.5357  -8.9815  -8.9815
     0.5577   0.5577   1.4631   1.4631   3.1930   3.1930   3.8050   3.8050

          k = 0.2170 0.1253 0.0000 (  5249 PWs)   bands (ev):

   -22.6562 -22.6562 -10.8293 -10.8293 -10.5475 -10.5475  -8.9710  -8.9710
     0.5438   0.5438   1.4493   1.4493   3.1795   3.1795   3.8254   3.8254

          k = 0.2160 0.1247 0.0000 (  5253 PWs)   bands (ev):

   -22.6663 -22.6663 -10.8037 -10.8037 -10.5593 -10.5593  -8.9604  -8.9604
     0.5300   0.5300   1.4356   1.4356   3.1659   3.1659   3.8444   3.8444

          k = 0.2150 0.1241 0.0000 (  5253 PWs)   bands (ev):

   -22.6763 -22.6763 -10.7782 -10.7782 -10.5711 -10.5711  -8.9499  -8.9499
     0.5162   0.5162   1.4219   1.4219   3.1524   3.1524   3.8619   3.8619

          k = 0.2140 0.1236 0.0000 (  5261 PWs)   bands (ev):

   -22.6863 -22.6863 -10.7527 -10.7527 -10.5828 -10.5828  -8.9393  -8.9393
     0.5025   0.5025   1.4083   1.4083   3.1390   3.1390   3.8773   3.8773

          k = 0.2130 0.1230 0.0000 (  5257 PWs)   bands (ev):

   -22.6963 -22.6963 -10.7272 -10.7272 -10.5945 -10.5945  -8.9287  -8.9287
     0.4889   0.4889   1.3947   1.3947   3.1256   3.1256   3.8901   3.8901

          k = 0.2120 0.1224 0.0000 (  5257 PWs)   bands (ev):

   -22.7062 -22.7062 -10.7017 -10.7017 -10.6061 -10.6061  -8.9181  -8.9181
     0.4753   0.4753   1.3812   1.3812   3.1122   3.1122   3.9000   3.9000

          k = 0.2110 0.1218 0.0000 (  5257 PWs)   bands (ev):

   -22.7160 -22.7160 -10.6763 -10.6763 -10.6176 -10.6176  -8.9075  -8.9075
     0.4618   0.4618   1.3677   1.3677   3.0989   3.0989   3.9066   3.9066

          k = 0.2100 0.1212 0.0000 (  5253 PWs)   bands (ev):

   -22.7258 -22.7258 -10.6509 -10.6509 -10.6291 -10.6291  -8.8969  -8.8969
     0.4484   0.4484   1.3543   1.3543   3.0857   3.0857   3.9099   3.9099

          k = 0.2090 0.1207 0.0000 (  5253 PWs)   bands (ev):

   -22.7356 -22.7356 -10.6407 -10.6407 -10.6255 -10.6255  -8.8862  -8.8862
     0.4350   0.4350   1.3410   1.3410   3.0725   3.0725   3.9101   3.9101

          k = 0.2080 0.1201 0.0000 (  5253 PWs)   bands (ev):

   -22.7453 -22.7453 -10.6521 -10.6521 -10.6002 -10.6002  -8.8756  -8.8756
     0.4217   0.4217   1.3277   1.3277   3.0593   3.0593   3.9077   3.9077

          k = 0.2070 0.1195 0.0000 (  5255 PWs)   bands (ev):

   -22.7550 -22.7550 -10.6634 -10.6634 -10.5749 -10.5749  -8.8650  -8.8650
     0.4084   0.4084   1.3145   1.3145   3.0462   3.0462   3.9032   3.9032

          k = 0.2060 0.1189 0.0000 (  5255 PWs)   bands (ev):

   -22.7647 -22.7647 -10.6747 -10.6747 -10.5496 -10.5496  -8.8543  -8.8543
     0.3953   0.3953   1.3013   1.3013   3.0331   3.0331   3.8970   3.8970

          k = 0.2050 0.1184 0.0000 (  5255 PWs)   bands (ev):

   -22.7742 -22.7742 -10.6860 -10.6860 -10.5244 -10.5244  -8.8436  -8.8436
     0.3821   0.3821   1.2882   1.2882   3.0201   3.0201   3.8896   3.8896

          k = 0.2040 0.1178 0.0000 (  5255 PWs)   bands (ev):

   -22.7838 -22.7838 -10.6972 -10.6972 -10.4992 -10.4992  -8.8330  -8.8330
     0.3691   0.3691   1.2751   1.2751   3.0072   3.0072   3.8811   3.8811

          k = 0.2030 0.1172 0.0000 (  5255 PWs)   bands (ev):

   -22.7933 -22.7933 -10.7083 -10.7083 -10.4741 -10.4741  -8.8223  -8.8223
     0.3561   0.3561   1.2622   1.2622   2.9943   2.9943   3.8720   3.8720

          k = 0.2020 0.1166 0.0000 (  5255 PWs)   bands (ev):

   -22.8027 -22.8027 -10.7194 -10.7194 -10.4490 -10.4490  -8.8116  -8.8116
     0.3431   0.3431   1.2492   1.2492   2.9815   2.9815   3.8622   3.8622

          k = 0.2010 0.1160 0.0000 (  5251 PWs)   bands (ev):

   -22.8121 -22.8121 -10.7305 -10.7305 -10.4239 -10.4239  -8.8009  -8.8009
     0.3303   0.3303   1.2364   1.2364   2.9687   2.9687   3.8521   3.8521

          k = 0.2000 0.1155 0.0000 (  5251 PWs)   bands (ev):

   -22.8215 -22.8215 -10.7415 -10.7415 -10.3989 -10.3989  -8.7902  -8.7902
     0.3175   0.3175   1.2235   1.2235   2.9559   2.9559   3.8416   3.8416

          k = 0.1990 0.1149 0.0000 (  5249 PWs)   bands (ev):

   -22.8308 -22.8308 -10.7525 -10.7525 -10.3739 -10.3739  -8.7795  -8.7795
     0.3047   0.3047   1.2108   1.2108   2.9433   2.9433   3.8308   3.8308

          k = 0.1980 0.1143 0.0000 (  5249 PWs)   bands (ev):

   -22.8401 -22.8401 -10.7634 -10.7634 -10.3489 -10.3489  -8.7688  -8.7688
     0.2920   0.2920   1.1981   1.1981   2.9307   2.9307   3.8198   3.8198

          k = 0.1970 0.1137 0.0000 (  5249 PWs)   bands (ev):

   -22.8493 -22.8493 -10.7742 -10.7742 -10.3240 -10.3240  -8.7581  -8.7581
     0.2794   0.2794   1.1855   1.1855   2.9181   2.9181   3.8087   3.8087

          k = 0.1960 0.1132 0.0000 (  5249 PWs)   bands (ev):

   -22.8585 -22.8585 -10.7850 -10.7850 -10.2991 -10.2991  -8.7474  -8.7474
     0.2669   0.2669   1.1729   1.1729   2.9056   2.9056   3.7975   3.7975

          k = 0.1950 0.1126 0.0000 (  5245 PWs)   bands (ev):

   -22.8676 -22.8676 -10.7958 -10.7958 -10.2743 -10.2743  -8.7367  -8.7367
     0.2544   0.2544   1.1604   1.1604   2.8932   2.8932   3.7862   3.7862

          k = 0.1940 0.1120 0.0000 (  5245 PWs)   bands (ev):

   -22.8767 -22.8767 -10.8065 -10.8065 -10.2495 -10.2495  -8.7259  -8.7259
     0.2419   0.2419   1.1480   1.1480   2.8808   2.8808   3.7749   3.7749

          k = 0.1930 0.1114 0.0000 (  5243 PWs)   bands (ev):

   -22.8858 -22.8858 -10.8171 -10.8171 -10.2248 -10.2248  -8.7152  -8.7152
     0.2296   0.2296   1.1356   1.1356   2.8685   2.8685   3.7635   3.7635

          k = 0.1920 0.1109 0.0000 (  5243 PWs)   bands (ev):

   -22.8948 -22.8948 -10.8277 -10.8277 -10.2001 -10.2001  -8.7045  -8.7045
     0.2173   0.2173   1.1233   1.1233   2.8562   2.8562   3.7520   3.7520

          k = 0.1910 0.1103 0.0000 (  5243 PWs)   bands (ev):

   -22.9037 -22.9037 -10.8382 -10.8382 -10.1755 -10.1755  -8.6938  -8.6938
     0.2050   0.2050   1.1110   1.1110   2.8440   2.8440   3.7406   3.7406

          k = 0.1900 0.1097 0.0000 (  5247 PWs)   bands (ev):

   -22.9126 -22.9126 -10.8487 -10.8487 -10.1508 -10.1508  -8.6830  -8.6830
     0.1929   0.1929   1.0988   1.0988   2.8318   2.8318   3.7291   3.7291

          k = 0.1890 0.1091 0.0000 (  5247 PWs)   bands (ev):

   -22.9215 -22.9215 -10.8592 -10.8592 -10.1263 -10.1263  -8.6723  -8.6723
     0.1807   0.1807   1.0867   1.0867   2.8197   2.8197   3.7177   3.7177

          k = 0.1880 0.1085 0.0000 (  5247 PWs)   bands (ev):

   -22.9303 -22.9303 -10.8695 -10.8695 -10.1018 -10.1018  -8.6616  -8.6616
     0.1687   0.1687   1.0746   1.0746   2.8077   2.8077   3.7062   3.7062

          k = 0.1870 0.1080 0.0000 (  5251 PWs)   bands (ev):

   -22.9391 -22.9391 -10.8799 -10.8799 -10.0773 -10.0773  -8.6508  -8.6508
     0.1567   0.1567   1.0626   1.0626   2.7957   2.7957   3.6948   3.6948

          k = 0.1860 0.1074 0.0000 (  5251 PWs)   bands (ev):

   -22.9478 -22.9478 -10.8902 -10.8902 -10.0529 -10.0529  -8.6401  -8.6401
     0.1448   0.1448   1.0506   1.0506   2.7838   2.7838   3.6834   3.6834

          k = 0.1850 0.1068 0.0000 (  5251 PWs)   bands (ev):

   -22.9565 -22.9565 -10.9004 -10.9004 -10.0285 -10.0285  -8.6294  -8.6294
     0.1329   0.1329   1.0388   1.0388   2.7720   2.7720   3.6720   3.6720

          k = 0.1840 0.1062 0.0000 (  5253 PWs)   bands (ev):

   -22.9651 -22.9651 -10.9106 -10.9106 -10.0042 -10.0042  -8.6186  -8.6186
     0.1211   0.1211   1.0269   1.0269   2.7602   2.7602   3.6607   3.6607

          k = 0.1830 0.1057 0.0000 (  5261 PWs)   bands (ev):

   -22.9737 -22.9737 -10.9207 -10.9207  -9.9800  -9.9800  -8.6079  -8.6079
     0.1094   0.1094   1.0152   1.0152   2.7485   2.7485   3.6494   3.6494

          k = 0.1820 0.1051 0.0000 (  5261 PWs)   bands (ev):

   -22.9822 -22.9822 -10.9308 -10.9308  -9.9557  -9.9557  -8.5972  -8.5972
     0.0978   0.0978   1.0035   1.0035   2.7368   2.7368   3.6381   3.6381

          k = 0.1810 0.1045 0.0000 (  5261 PWs)   bands (ev):

   -22.9907 -22.9907 -10.9408 -10.9408  -9.9316  -9.9316  -8.5864  -8.5864
     0.0861   0.0861   0.9918   0.9918   2.7252   2.7252   3.6268   3.6268

          k = 0.1800 0.1039 0.0000 (  5261 PWs)   bands (ev):

   -22.9992 -22.9992 -10.9508 -10.9508  -9.9075  -9.9075  -8.5757  -8.5757
     0.0746   0.0746   0.9802   0.9802   2.7136   2.7136   3.6156   3.6156

          k = 0.1790 0.1033 0.0000 (  5261 PWs)   bands (ev):

   -23.0076 -23.0076 -10.9607 -10.9607  -9.8834  -9.8834  -8.5650  -8.5650
     0.0631   0.0631   0.9687   0.9687   2.7022   2.7022   3.6045   3.6045

          k = 0.1780 0.1028 0.0000 (  5257 PWs)   bands (ev):

   -23.0159 -23.0159 -10.9705 -10.9705  -9.8594  -9.8594  -8.5543  -8.5543
     0.0517   0.0517   0.9573   0.9573   2.6907   2.6907   3.5934   3.5934

          k = 0.1770 0.1022 0.0000 (  5257 PWs)   bands (ev):

   -23.0242 -23.0242 -10.9803 -10.9803  -9.8355  -9.8355  -8.5436  -8.5436
     0.0404   0.0404   0.9459   0.9459   2.6794   2.6794   3.5823   3.5823

          k = 0.1760 0.1016 0.0000 (  5257 PWs)   bands (ev):

   -23.0325 -23.0325 -10.9901 -10.9901  -9.8116  -9.8116  -8.5329  -8.5329
     0.0291   0.0291   0.9346   0.9346   2.6681   2.6681   3.5713   3.5713

          k = 0.1750 0.1010 0.0000 (  5257 PWs)   bands (ev):

   -23.0407 -23.0407 -10.9998 -10.9998  -9.7877  -9.7877  -8.5222  -8.5222
     0.0179   0.0179   0.9233   0.9233   2.6568   2.6568   3.5603   3.5603

          k = 0.1740 0.1005 0.0000 (  5257 PWs)   bands (ev):

   -23.0489 -23.0489 -11.0095 -11.0095  -9.7640  -9.7640  -8.5115  -8.5115
     0.0067   0.0067   0.9121   0.9121   2.6457   2.6457   3.5494   3.5494

          k = 0.1730 0.0999 0.0000 (  5257 PWs)   bands (ev):

   -23.0570 -23.0570 -11.0191 -11.0191  -9.7402  -9.7402  -8.5008  -8.5008
    -0.0044  -0.0044   0.9009   0.9009   2.6345   2.6345   3.5385   3.5385

          k = 0.1720 0.0993 0.0000 (  5257 PWs)   bands (ev):

   -23.0651 -23.0651 -11.0286 -11.0286  -9.7166  -9.7166  -8.4901  -8.4901
    -0.0154  -0.0154   0.8899   0.8899   2.6235   2.6235   3.5277   3.5277

          k = 0.1710 0.0987 0.0000 (  5257 PWs)   bands (ev):

   -23.0731 -23.0731 -11.0381 -11.0381  -9.6930  -9.6930  -8.4794  -8.4794
    -0.0264  -0.0264   0.8789   0.8789   2.6125   2.6125   3.5169   3.5169

          k = 0.1700 0.0981 0.0000 (  5257 PWs)   bands (ev):

   -23.0811 -23.0811 -11.0475 -11.0475  -9.6694  -9.6694  -8.4688  -8.4688
    -0.0373  -0.0373   0.8679   0.8679   2.6016   2.6016   3.5062   3.5062

          k = 0.1690 0.0976 0.0000 (  5253 PWs)   bands (ev):

   -23.0890 -23.0890 -11.0569 -11.0569  -9.6459  -9.6459  -8.4581  -8.4581
    -0.0481  -0.0481   0.8570   0.8570   2.5907   2.5907   3.4956   3.4956

          k = 0.1680 0.0970 0.0000 (  5253 PWs)   bands (ev):

   -23.0969 -23.0969 -11.0663 -11.0663  -9.6225  -9.6225  -8.4475  -8.4475
    -0.0589  -0.0589   0.8462   0.8462   2.5799   2.5799   3.4850   3.4850

          k = 0.1670 0.0964 0.0000 (  5253 PWs)   bands (ev):

   -23.1048 -23.1048 -11.0755 -11.0755  -9.5992  -9.5992  -8.4368  -8.4368
    -0.0696  -0.0696   0.8354   0.8354   2.5692   2.5692   3.4744   3.4744

          k = 0.1660 0.0958 0.0000 (  5253 PWs)   bands (ev):

   -23.1126 -23.1126 -11.0848 -11.0848  -9.5759  -9.5759  -8.4262  -8.4262
    -0.0802  -0.0802   0.8247   0.8247   2.5585   2.5585   3.4639   3.4639

          k = 0.1650 0.0953 0.0000 (  5253 PWs)   bands (ev):

   -23.1203 -23.1203 -11.0939 -11.0939  -9.5526  -9.5526  -8.4156  -8.4156
    -0.0908  -0.0908   0.8141   0.8141   2.5479   2.5479   3.4535   3.4535

          k = 0.1640 0.0947 0.0000 (  5253 PWs)   bands (ev):

   -23.1280 -23.1280 -11.1031 -11.1031  -9.5295  -9.5295  -8.4050  -8.4050
    -0.1013  -0.1013   0.8035   0.8035   2.5373   2.5373   3.4431   3.4431

          k = 0.1630 0.0941 0.0000 (  5253 PWs)   bands (ev):

   -23.1357 -23.1357 -11.1121 -11.1121  -9.5064  -9.5064  -8.3944  -8.3944
    -0.1118  -0.1118   0.7930   0.7930   2.5268   2.5268   3.4328   3.4328

          k = 0.1620 0.0935 0.0000 (  5257 PWs)   bands (ev):

   -23.1433 -23.1433 -11.1212 -11.1212  -9.4833  -9.4833  -8.3838  -8.3838
    -0.1222  -0.1222   0.7826   0.7826   2.5164   2.5164   3.4226   3.4226

          k = 0.1610 0.0930 0.0000 (  5257 PWs)   bands (ev):

   -23.1509 -23.1509 -11.1301 -11.1301  -9.4604  -9.4604  -8.3733  -8.3733
    -0.1325  -0.1325   0.7722   0.7722   2.5060   2.5060   3.4124   3.4124

          k = 0.1600 0.0924 0.0000 (  5257 PWs)   bands (ev):

   -23.1584 -23.1584 -11.1390 -11.1390  -9.4375  -9.4375  -8.3627  -8.3627
    -0.1428  -0.1428   0.7619   0.7619   2.4957   2.4957   3.4022   3.4022

          k = 0.1590 0.0918 0.0000 (  5257 PWs)   bands (ev):

   -23.1659 -23.1659 -11.1479 -11.1479  -9.4146  -9.4146  -8.3522  -8.3522
    -0.1530  -0.1530   0.7516   0.7516   2.4855   2.4855   3.3921   3.3921

          k = 0.1580 0.0912 0.0000 (  5257 PWs)   bands (ev):

   -23.1733 -23.1733 -11.1567 -11.1567  -9.3919  -9.3919  -8.3416  -8.3416
    -0.1631  -0.1631   0.7414   0.7414   2.4753   2.4753   3.3821   3.3821

          k = 0.1570 0.0906 0.0000 (  5253 PWs)   bands (ev):

   -23.1807 -23.1807 -11.1654 -11.1654  -9.3692  -9.3692  -8.3311  -8.3311
    -0.1732  -0.1732   0.7313   0.7313   2.4652   2.4652   3.3721   3.3721

          k = 0.1560 0.0901 0.0000 (  5253 PWs)   bands (ev):

   -23.1880 -23.1880 -11.1741 -11.1741  -9.3466  -9.3466  -8.3206  -8.3206
    -0.1832  -0.1832   0.7212   0.7212   2.4552   2.4552   3.3622   3.3622

          k = 0.1550 0.0895 0.0000 (  5257 PWs)   bands (ev):

   -23.1953 -23.1953 -11.1828 -11.1828  -9.3240  -9.3240  -8.3102  -8.3102
    -0.1932  -0.1932   0.7112   0.7112   2.4452   2.4452   3.3524   3.3524

          k = 0.1540 0.0889 0.0000 (  5257 PWs)   bands (ev):

   -23.2026 -23.2026 -11.1914 -11.1914  -9.3016  -9.3016  -8.2997  -8.2997
    -0.2030  -0.2030   0.7013   0.7013   2.4353   2.4353   3.3426   3.3426

          k = 0.1530 0.0883 0.0000 (  5261 PWs)   bands (ev):

   -23.2098 -23.2098 -11.1999 -11.1999  -9.2792  -9.2792  -8.2893  -8.2893
    -0.2129  -0.2129   0.6914   0.6914   2.4254   2.4254   3.3329   3.3329

          k = 0.1520 0.0878 0.0000 (  5261 PWs)   bands (ev):

   -23.2169 -23.2169 -11.2084 -11.2084  -9.2568  -9.2568  -8.2788  -8.2788
    -0.2226  -0.2226   0.6816   0.6816   2.4156   2.4156   3.3232   3.3232

          k = 0.1510 0.0872 0.0000 (  5261 PWs)   bands (ev):

   -23.2241 -23.2241 -11.2168 -11.2168  -9.2346  -9.2346  -8.2684  -8.2684
    -0.2323  -0.2323   0.6718   0.6718   2.4059   2.4059   3.3136   3.3136

          k = 0.1500 0.0866 0.0000 (  5261 PWs)   bands (ev):

   -23.2311 -23.2311 -11.2252 -11.2252  -9.2124  -9.2124  -8.2580  -8.2580
    -0.2419  -0.2419   0.6621   0.6621   2.3962   2.3962   3.3041   3.3041

          k = 0.1490 0.0860 0.0000 (  5263 PWs)   bands (ev):

   -23.2381 -23.2381 -11.2335 -11.2335  -9.1903  -9.1903  -8.2477  -8.2477
    -0.2515  -0.2515   0.6525   0.6525   2.3866   2.3866   3.2946   3.2946

          k = 0.1480 0.0854 0.0000 (  5261 PWs)   bands (ev):

   -23.2451 -23.2451 -11.2418 -11.2418  -9.1683  -9.1683  -8.2373  -8.2373
    -0.2610  -0.2610   0.6430   0.6430   2.3771   2.3771   3.2852   3.2852

          k = 0.1470 0.0849 0.0000 (  5261 PWs)   bands (ev):

   -23.2520 -23.2520 -11.2500 -11.2500  -9.1464  -9.1464  -8.2270  -8.2270
    -0.2704  -0.2704   0.6335   0.6335   2.3676   2.3676   3.2758   3.2758

          k = 0.1460 0.0843 0.0000 (  5261 PWs)   bands (ev):

   -23.2589 -23.2589 -11.2581 -11.2581  -9.1245  -9.1245  -8.2167  -8.2167
    -0.2798  -0.2798   0.6240   0.6240   2.3582   2.3582   3.2665   3.2665

          k = 0.1450 0.0837 0.0000 (  5265 PWs)   bands (ev):

   -23.2657 -23.2657 -11.2662 -11.2662  -9.1027  -9.1027  -8.2064  -8.2064
    -0.2891  -0.2891   0.6147   0.6147   2.3488   2.3488   3.2573   3.2573

          k = 0.1440 0.0831 0.0000 (  5265 PWs)   bands (ev):

   -23.2725 -23.2725 -11.2743 -11.2743  -9.0810  -9.0810  -8.1962  -8.1962
    -0.2983  -0.2983   0.6054   0.6054   2.3395   2.3395   3.2481   3.2481

          k = 0.1430 0.0826 0.0000 (  5267 PWs)   bands (ev):

   -23.2792 -23.2792 -11.2823 -11.2823  -9.0594  -9.0594  -8.1859  -8.1859
    -0.3075  -0.3075   0.5961   0.5961   2.3303   2.3303   3.2390   3.2390

          k = 0.1420 0.0820 0.0000 (  5263 PWs)   bands (ev):

   -23.2859 -23.2859 -11.2902 -11.2902  -9.0379  -9.0379  -8.1757  -8.1757
    -0.3166  -0.3166   0.5870   0.5870   2.3212   2.3212   3.2299   3.2299

          k = 0.1410 0.0814 0.0000 (  5263 PWs)   bands (ev):

   -23.2926 -23.2926 -11.2981 -11.2981  -9.0165  -9.0165  -8.1655  -8.1655
    -0.3257  -0.3257   0.5778   0.5778   2.3121   2.3121   3.2209   3.2209

          k = 0.1400 0.0808 0.0000 (  5263 PWs)   bands (ev):

   -23.2992 -23.2992 -11.3059 -11.3059  -8.9951  -8.9951  -8.1554  -8.1554
    -0.3347  -0.3347   0.5688   0.5688   2.3030   2.3030   3.2120   3.2120

          k = 0.1390 0.0803 0.0000 (  5263 PWs)   bands (ev):

   -23.3057 -23.3057 -11.3137 -11.3137  -8.9738  -8.9738  -8.1452  -8.1452
    -0.3436  -0.3436   0.5598   0.5598   2.2941   2.2941   3.2031   3.2031

          k = 0.1380 0.0797 0.0000 (  5263 PWs)   bands (ev):

   -23.3122 -23.3122 -11.3214 -11.3214  -8.9526  -8.9526  -8.1351  -8.1351
    -0.3525  -0.3525   0.5509   0.5509   2.2852   2.2852   3.1943   3.1943

          k = 0.1370 0.0791 0.0000 (  5263 PWs)   bands (ev):

   -23.3187 -23.3187 -11.3291 -11.3291  -8.9316  -8.9316  -8.1251  -8.1251
    -0.3613  -0.3613   0.5420   0.5420   2.2763   2.2763   3.1856   3.1856

          k = 0.1360 0.0785 0.0000 (  5263 PWs)   bands (ev):

   -23.3251 -23.3251 -11.3367 -11.3367  -8.9105  -8.9105  -8.1150  -8.1150
    -0.3700  -0.3700   0.5332   0.5332   2.2675   2.2675   3.1769   3.1769

          k = 0.1350 0.0779 0.0000 (  5255 PWs)   bands (ev):

   -23.3315 -23.3315 -11.3443 -11.3443  -8.8896  -8.8896  -8.1050  -8.1050
    -0.3787  -0.3787   0.5245   0.5245   2.2588   2.2588   3.1682   3.1682

          k = 0.1340 0.0774 0.0000 (  5259 PWs)   bands (ev):

   -23.3378 -23.3378 -11.3518 -11.3518  -8.8688  -8.8688  -8.0950  -8.0950
    -0.3873  -0.3873   0.5158   0.5158   2.2502   2.2502   3.1597   3.1597

          k = 0.1330 0.0768 0.0000 (  5259 PWs)   bands (ev):

   -23.3441 -23.3441 -11.3592 -11.3592  -8.8481  -8.8481  -8.0850  -8.0850
    -0.3958  -0.3958   0.5072   0.5072   2.2416   2.2416   3.1512   3.1512

          k = 0.1320 0.0762 0.0000 (  5259 PWs)   bands (ev):

   -23.3503 -23.3503 -11.3666 -11.3666  -8.8274  -8.8274  -8.0751  -8.0751
    -0.4043  -0.4043   0.4987   0.4987   2.2331   2.2331   3.1428   3.1428

          k = 0.1310 0.0756 0.0000 (  5259 PWs)   bands (ev):

   -23.3565 -23.3565 -11.3740 -11.3740  -8.8069  -8.8069  -8.0652  -8.0652
    -0.4127  -0.4127   0.4902   0.4902   2.2246   2.2246   3.1344   3.1344

          k = 0.1300 0.0751 0.0000 (  5261 PWs)   bands (ev):

   -23.3626 -23.3626 -11.3813 -11.3813  -8.7864  -8.7864  -8.0553  -8.0553
    -0.4211  -0.4211   0.4818   0.4818   2.2162   2.2162   3.1261   3.1261

          k = 0.1290 0.0745 0.0000 (  5265 PWs)   bands (ev):

   -23.3687 -23.3687 -11.3885 -11.3885  -8.7661  -8.7661  -8.0455  -8.0455
    -0.4293  -0.4293   0.4735   0.4735   2.2079   2.2079   3.1178   3.1178

          k = 0.1280 0.0739 0.0000 (  5265 PWs)   bands (ev):

   -23.3747 -23.3747 -11.3957 -11.3957  -8.7458  -8.7458  -8.0357  -8.0357
    -0.4376  -0.4376   0.4652   0.4652   2.1996   2.1996   3.1096   3.1096

          k = 0.1270 0.0733 0.0000 (  5265 PWs)   bands (ev):

   -23.3807 -23.3807 -11.4028 -11.4028  -8.7257  -8.7257  -8.0259  -8.0259
    -0.4457  -0.4457   0.4570   0.4570   2.1914   2.1914   3.1015   3.1015

          k = 0.1260 0.0727 0.0000 (  5265 PWs)   bands (ev):

   -23.3867 -23.3867 -11.4099 -11.4099  -8.7056  -8.7056  -8.0162  -8.0162
    -0.4538  -0.4538   0.4488   0.4488   2.1833   2.1833   3.0935   3.0935

          k = 0.1250 0.0722 0.0000 (  5265 PWs)   bands (ev):

   -23.3926 -23.3926 -11.4169 -11.4169  -8.6856  -8.6856  -8.0065  -8.0065
    -0.4618  -0.4618   0.4407   0.4407   2.1752   2.1752   3.0855   3.0855

          k = 0.1240 0.0716 0.0000 (  5265 PWs)   bands (ev):

   -23.3984 -23.3984 -11.4239 -11.4239  -8.6658  -8.6658  -7.9968  -7.9968
    -0.4698  -0.4698   0.4327   0.4327   2.1672   2.1672   3.0775   3.0775

          k = 0.1230 0.0710 0.0000 (  5265 PWs)   bands (ev):

   -23.4042 -23.4042 -11.4308 -11.4308  -8.6460  -8.6460  -7.9872  -7.9872
    -0.4777  -0.4777   0.4247   0.4247   2.1592   2.1592   3.0697   3.0697

          k = 0.1220 0.0704 0.0000 (  5265 PWs)   bands (ev):

   -23.4100 -23.4100 -11.4376 -11.4376  -8.6264  -8.6264  -7.9776  -7.9776
    -0.4856  -0.4856   0.4168   0.4168   2.1514   2.1514   3.0618   3.0618

          k = 0.1210 0.0699 0.0000 (  5265 PWs)   bands (ev):

   -23.4157 -23.4157 -11.4444 -11.4444  -8.6068  -8.6068  -7.9681  -7.9681
    -0.4933  -0.4933   0.4090   0.4090   2.1435   2.1435   3.0541   3.0541

          k = 0.1200 0.0693 0.0000 (  5261 PWs)   bands (ev):

   -23.4214 -23.4214 -11.4511 -11.4511  -8.5874  -8.5874  -7.9586  -7.9586
    -0.5010  -0.5010   0.4012   0.4012   2.1358   2.1358   3.0464   3.0464

          k = 0.1190 0.0687 0.0000 (  5261 PWs)   bands (ev):

   -23.4270 -23.4270 -11.4578 -11.4578  -8.5680  -8.5680  -7.9491  -7.9491
    -0.5087  -0.5087   0.3935   0.3935   2.1281   2.1281   3.0388   3.0388

          k = 0.1180 0.0681 0.0000 (  5265 PWs)   bands (ev):

   -23.4326 -23.4326 -11.4645 -11.4645  -8.5488  -8.5488  -7.9397  -7.9397
    -0.5163  -0.5163   0.3859   0.3859   2.1205   2.1205   3.0312   3.0312

          k = 0.1170 0.0675 0.0000 (  5261 PWs)   bands (ev):

   -23.4381 -23.4381 -11.4710 -11.4710  -8.5297  -8.5297  -7.9303  -7.9303
    -0.5238  -0.5238   0.3783   0.3783   2.1129   2.1129   3.0237   3.0237

          k = 0.1160 0.0670 0.0000 (  5265 PWs)   bands (ev):

   -23.4436 -23.4436 -11.4776 -11.4776  -8.5107  -8.5107  -7.9209  -7.9209
    -0.5312  -0.5312   0.3708   0.3708   2.1054   2.1054   3.0163   3.0163

          k = 0.1150 0.0664 0.0000 (  5265 PWs)   bands (ev):

   -23.4490 -23.4490 -11.4840 -11.4840  -8.4917  -8.4917  -7.9116  -7.9116
    -0.5386  -0.5386   0.3634   0.3634   2.0980   2.0980   3.0089   3.0089

          k = 0.1140 0.0658 0.0000 (  5261 PWs)   bands (ev):

   -23.4544 -23.4544 -11.4904 -11.4904  -8.4730  -8.4730  -7.9024  -7.9024
    -0.5460  -0.5460   0.3560   0.3560   2.0906   2.0906   3.0016   3.0016

          k = 0.1130 0.0652 0.0000 (  5257 PWs)   bands (ev):

   -23.4597 -23.4597 -11.4968 -11.4968  -8.4543  -8.4543  -7.8932  -7.8932
    -0.5532  -0.5532   0.3487   0.3487   2.0833   2.0833   2.9944   2.9944

          k = 0.1120 0.0647 0.0000 (  5257 PWs)   bands (ev):

   -23.4650 -23.4650 -11.5031 -11.5031  -8.4357  -8.4357  -7.8840  -7.8840
    -0.5604  -0.5604   0.3414   0.3414   2.0761   2.0761   2.9872   2.9872

          k = 0.1110 0.0641 0.0000 (  5259 PWs)   bands (ev):

   -23.4703 -23.4703 -11.5093 -11.5093  -8.4172  -8.4172  -7.8749  -7.8749
    -0.5675  -0.5675   0.3342   0.3342   2.0689   2.0689   2.9801   2.9801

          k = 0.1100 0.0635 0.0000 (  5259 PWs)   bands (ev):

   -23.4755 -23.4755 -11.5155 -11.5155  -8.3989  -8.3989  -7.8658  -7.8658
    -0.5746  -0.5746   0.3271   0.3271   2.0618   2.0618   2.9731   2.9731

          k = 0.1090 0.0629 0.0000 (  5263 PWs)   bands (ev):

   -23.4806 -23.4806 -11.5217 -11.5217  -8.3807  -8.3807  -7.8568  -7.8568
    -0.5816  -0.5816   0.3200   0.3200   2.0547   2.0547   2.9661   2.9661

          k = 0.1080 0.0624 0.0000 (  5263 PWs)   bands (ev):

   -23.4857 -23.4857 -11.5278 -11.5278  -8.3626  -8.3626  -7.8478  -7.8478
    -0.5886  -0.5886   0.3130   0.3130   2.0478   2.0478   2.9591   2.9591

          k = 0.1070 0.0618 0.0000 (  5263 PWs)   bands (ev):

   -23.4908 -23.4908 -11.5338 -11.5338  -8.3446  -8.3446  -7.8388  -7.8388
    -0.5954  -0.5954   0.3061   0.3061   2.0408   2.0408   2.9523   2.9523

          k = 0.1060 0.0612 0.0000 (  5263 PWs)   bands (ev):

   -23.4958 -23.4958 -11.5398 -11.5398  -8.3267  -8.3267  -7.8299  -7.8299
    -0.6023  -0.6023   0.2992   0.2992   2.0340   2.0340   2.9455   2.9455

          k = 0.1050 0.0606 0.0000 (  5263 PWs)   bands (ev):

   -23.5008 -23.5008 -11.5457 -11.5457  -8.3089  -8.3089  -7.8211  -7.8211
    -0.6090  -0.6090   0.2924   0.2924   2.0272   2.0272   2.9387   2.9387

          k = 0.1040 0.0600 0.0000 (  5259 PWs)   bands (ev):

   -23.5057 -23.5057 -11.5515 -11.5515  -8.2913  -8.2913  -7.8123  -7.8123
    -0.6157  -0.6157   0.2857   0.2857   2.0205   2.0205   2.9321   2.9321

          k = 0.1030 0.0595 0.0000 (  5259 PWs)   bands (ev):

   -23.5105 -23.5105 -11.5573 -11.5573  -8.2738  -8.2738  -7.8036  -7.8036
    -0.6223  -0.6223   0.2790   0.2790   2.0138   2.0138   2.9255   2.9255

          k = 0.1020 0.0589 0.0000 (  5261 PWs)   bands (ev):

   -23.5154 -23.5154 -11.5631 -11.5631  -8.2564  -8.2564  -7.7949  -7.7949
    -0.6289  -0.6289   0.2724   0.2724   2.0072   2.0072   2.9189   2.9189

          k = 0.1010 0.0583 0.0000 (  5261 PWs)   bands (ev):

   -23.5201 -23.5201 -11.5688 -11.5688  -8.2391  -8.2391  -7.7863  -7.7863
    -0.6354  -0.6354   0.2658   0.2658   2.0007   2.0007   2.9124   2.9124

          k = 0.1000 0.0577 0.0000 (  5265 PWs)   bands (ev):

   -23.5249 -23.5249 -11.5744 -11.5744  -8.2220  -8.2220  -7.7777  -7.7777
    -0.6418  -0.6418   0.2593   0.2593   1.9942   1.9942   2.9060   2.9060

          k = 0.0990 0.0572 0.0000 (  5265 PWs)   bands (ev):

   -23.5296 -23.5296 -11.5800 -11.5800  -8.2050  -8.2050  -7.7692  -7.7692
    -0.6482  -0.6482   0.2529   0.2529   1.9878   1.9878   2.8997   2.8997

          k = 0.0980 0.0566 0.0000 (  5265 PWs)   bands (ev):

   -23.5342 -23.5342 -11.5855 -11.5855  -8.1881  -8.1881  -7.7607  -7.7607
    -0.6545  -0.6545   0.2466   0.2466   1.9815   1.9815   2.8934   2.8934

          k = 0.0970 0.0560 0.0000 (  5267 PWs)   bands (ev):

   -23.5388 -23.5388 -11.5910 -11.5910  -8.1714  -8.1714  -7.7523  -7.7523
    -0.6607  -0.6607   0.2403   0.2403   1.9752   1.9752   2.8871   2.8871

          k = 0.0960 0.0554 0.0000 (  5267 PWs)   bands (ev):

   -23.5433 -23.5433 -11.5964 -11.5964  -8.1547  -8.1547  -7.7439  -7.7439
    -0.6669  -0.6669   0.2340   0.2340   1.9690   1.9690   2.8810   2.8810

          k = 0.0950 0.0548 0.0000 (  5271 PWs)   bands (ev):

   -23.5478 -23.5478 -11.6018 -11.6018  -8.1383  -8.1383  -7.7356  -7.7356
    -0.6730  -0.6730   0.2279   0.2279   1.9628   1.9628   2.8749   2.8749

          k = 0.0940 0.0543 0.0000 (  5275 PWs)   bands (ev):

   -23.5523 -23.5523 -11.6071 -11.6071  -8.1219  -8.1219  -7.7274  -7.7274
    -0.6791  -0.6791   0.2218   0.2218   1.9567   1.9567   2.8688   2.8688

          k = 0.0930 0.0537 0.0000 (  5271 PWs)   bands (ev):

   -23.5567 -23.5567 -11.6123 -11.6123  -8.1057  -8.1057  -7.7192  -7.7192
    -0.6850  -0.6850   0.2158   0.2158   1.9507   1.9507   2.8629   2.8629

          k = 0.0920 0.0531 0.0000 (  5271 PWs)   bands (ev):

   -23.5610 -23.5610 -11.6175 -11.6175  -8.0896  -8.0896  -7.7111  -7.7111
    -0.6910  -0.6910   0.2098   0.2098   1.9448   1.9448   2.8569   2.8569

          k = 0.0910 0.0525 0.0000 (  5271 PWs)   bands (ev):

   -23.5654 -23.5654 -11.6227 -11.6227  -8.0736  -8.0736  -7.7030  -7.7030
    -0.6968  -0.6968   0.2039   0.2039   1.9389   1.9389   2.8511   2.8511

          k = 0.0900 0.0520 0.0000 (  5273 PWs)   bands (ev):

   -23.5696 -23.5696 -11.6278 -11.6278  -8.0578  -8.0578  -7.6950  -7.6950
    -0.7026  -0.7026   0.1980   0.1980   1.9330   1.9330   2.8453   2.8453

          k = 0.0890 0.0514 0.0000 (  5277 PWs)   bands (ev):

   -23.5738 -23.5738 -11.6328 -11.6328  -8.0421  -8.0421  -7.6871  -7.6871
    -0.7083  -0.7083   0.1923   0.1923   1.9273   1.9273   2.8396   2.8396

          k = 0.0880 0.0508 0.0000 (  5281 PWs)   bands (ev):

   -23.5780 -23.5780 -11.6378 -11.6378  -8.0266  -8.0266  -7.6792  -7.6792
    -0.7140  -0.7140   0.1865   0.1865   1.9216   1.9216   2.8339   2.8339

          k = 0.0870 0.0502 0.0000 (  5281 PWs)   bands (ev):

   -23.5821 -23.5821 -11.6427 -11.6427  -8.0111  -8.0111  -7.6714  -7.6714
    -0.7196  -0.7196   0.1809   0.1809   1.9159   1.9159   2.8283   2.8283

          k = 0.0860 0.0497 0.0000 (  5281 PWs)   bands (ev):

   -23.5862 -23.5862 -11.6475 -11.6475  -7.9959  -7.9959  -7.6636  -7.6636
    -0.7251  -0.7251   0.1753   0.1753   1.9104   1.9104   2.8228   2.8228

          k = 0.0850 0.0491 0.0000 (  5285 PWs)   bands (ev):

   -23.5902 -23.5902 -11.6523 -11.6523  -7.9807  -7.9807  -7.6559  -7.6559
    -0.7306  -0.7306   0.1698   0.1698   1.9049   1.9049   2.8173   2.8173

          k = 0.0840 0.0485 0.0000 (  5285 PWs)   bands (ev):

   -23.5942 -23.5942 -11.6571 -11.6571  -7.9658  -7.9658  -7.6483  -7.6483
    -0.7360  -0.7360   0.1643   0.1643   1.8994   1.8994   2.8119   2.8119

          k = 0.0830 0.0479 0.0000 (  5285 PWs)   bands (ev):

   -23.5981 -23.5981 -11.6618 -11.6618  -7.9509  -7.9509  -7.6407  -7.6407
    -0.7413  -0.7413   0.1589   0.1589   1.8941   1.8941   2.8066   2.8066

          k = 0.0820 0.0473 0.0000 (  5289 PWs)   bands (ev):

   -23.6020 -23.6020 -11.6664 -11.6664  -7.9362  -7.9362  -7.6332  -7.6332
    -0.7466  -0.7466   0.1536   0.1536   1.8887   1.8887   2.8013   2.8013

          k = 0.0810 0.0468 0.0000 (  5289 PWs)   bands (ev):

   -23.6059 -23.6059 -11.6710 -11.6710  -7.9217  -7.9217  -7.6258  -7.6258
    -0.7518  -0.7518   0.1484   0.1484   1.8835   1.8835   2.7961   2.7961

          k = 0.0800 0.0462 0.0000 (  5293 PWs)   bands (ev):

   -23.6097 -23.6097 -11.6755 -11.6755  -7.9072  -7.9072  -7.6185  -7.6185
    -0.7570  -0.7570   0.1432   0.1432   1.8783   1.8783   2.7910   2.7910

          k = 0.0790 0.0456 0.0000 (  5293 PWs)   bands (ev):

   -23.6134 -23.6134 -11.6800 -11.6800  -7.8930  -7.8930  -7.6112  -7.6112
    -0.7621  -0.7621   0.1380   0.1380   1.8732   1.8732   2.7859   2.7859

          k = 0.0780 0.0450 0.0000 (  5293 PWs)   bands (ev):

   -23.6171 -23.6171 -11.6844 -11.6844  -7.8789  -7.8789  -7.6039  -7.6039
    -0.7671  -0.7671   0.1330   0.1330   1.8681   1.8681   2.7809   2.7809

          k = 0.0770 0.0445 0.0000 (  5293 PWs)   bands (ev):

   -23.6208 -23.6208 -11.6888 -11.6888  -7.8649  -7.8649  -7.5968  -7.5968
    -0.7721  -0.7721   0.1280   0.1280   1.8632   1.8632   2.7759   2.7759

          k = 0.0760 0.0439 0.0000 (  5293 PWs)   bands (ev):

   -23.6244 -23.6244 -11.6931 -11.6931  -7.8511  -7.8511  -7.5897  -7.5897
    -0.7770  -0.7770   0.1230   0.1230   1.8582   1.8582   2.7710   2.7710

          k = 0.0750 0.0433 0.0000 (  5293 PWs)   bands (ev):

   -23.6279 -23.6279 -11.6973 -11.6973  -7.8374  -7.8374  -7.5827  -7.5827
    -0.7818  -0.7818   0.1181   0.1181   1.8534   1.8534   2.7662   2.7662

          k = 0.0740 0.0427 0.0000 (  5289 PWs)   bands (ev):

   -23.6314 -23.6314 -11.7015 -11.7015  -7.8239  -7.8239  -7.5758  -7.5758
    -0.7866  -0.7866   0.1133   0.1133   1.8486   1.8486   2.7614   2.7614

          k = 0.0730 0.0421 0.0000 (  5289 PWs)   bands (ev):

   -23.6349 -23.6349 -11.7057 -11.7057  -7.8106  -7.8106  -7.5689  -7.5689
    -0.7913  -0.7913   0.1086   0.1086   1.8438   1.8438   2.7567   2.7567

          k = 0.0720 0.0416 0.0000 (  5297 PWs)   bands (ev):

   -23.6383 -23.6383 -11.7097 -11.7097  -7.7974  -7.7974  -7.5621  -7.5621
    -0.7959  -0.7959   0.1039   0.1039   1.8392   1.8392   2.7521   2.7521

          k = 0.0710 0.0410 0.0000 (  5293 PWs)   bands (ev):

   -23.6417 -23.6417 -11.7138 -11.7138  -7.7843  -7.7843  -7.5554  -7.5554
    -0.8005  -0.8005   0.0993   0.0993   1.8346   1.8346   2.7475   2.7475

          k = 0.0700 0.0404 0.0000 (  5293 PWs)   bands (ev):

   -23.6450 -23.6450 -11.7177 -11.7177  -7.7714  -7.7714  -7.5488  -7.5488
    -0.8050  -0.8050   0.0947   0.0947   1.8300   1.8300   2.7430   2.7430

          k = 0.0690 0.0398 0.0000 (  5293 PWs)   bands (ev):

   -23.6483 -23.6483 -11.7216 -11.7216  -7.7587  -7.7587  -7.5422  -7.5422
    -0.8094  -0.8094   0.0902   0.0902   1.8256   1.8256   2.7386   2.7386

          k = 0.0680 0.0393 0.0000 (  5293 PWs)   bands (ev):

   -23.6515 -23.6515 -11.7255 -11.7255  -7.7461  -7.7461  -7.5357  -7.5357
    -0.8138  -0.8138   0.0858   0.0858   1.8212   1.8212   2.7342   2.7342

          k = 0.0670 0.0387 0.0000 (  5299 PWs)   bands (ev):

   -23.6547 -23.6547 -11.7293 -11.7293  -7.7337  -7.7337  -7.5293  -7.5293
    -0.8181  -0.8181   0.0815   0.0815   1.8168   1.8168   2.7299   2.7299

          k = 0.0660 0.0381 0.0000 (  5297 PWs)   bands (ev):

   -23.6578 -23.6578 -11.7330 -11.7330  -7.7214  -7.7214  -7.5230  -7.5230
    -0.8224  -0.8224   0.0772   0.0772   1.8125   1.8125   2.7256   2.7256

          k = 0.0650 0.0375 0.0000 (  5297 PWs)   bands (ev):

   -23.6609 -23.6609 -11.7367 -11.7367  -7.7094  -7.7094  -7.5167  -7.5167
    -0.8266  -0.8266   0.0729   0.0729   1.8083   1.8083   2.7214   2.7214

          k = 0.0640 0.0370 0.0000 (  5301 PWs)   bands (ev):

   -23.6640 -23.6640 -11.7404 -11.7404  -7.6974  -7.6974  -7.5106  -7.5106
    -0.8307  -0.8307   0.0688   0.0688   1.8042   1.8042   2.7173   2.7173

          k = 0.0630 0.0364 0.0000 (  5301 PWs)   bands (ev):

   -23.6670 -23.6670 -11.7439 -11.7439  -7.6857  -7.6857  -7.5045  -7.5045
    -0.8348  -0.8348   0.0647   0.0647   1.8001   1.8001   2.7132   2.7132

          k = 0.0620 0.0358 0.0000 (  5303 PWs)   bands (ev):

   -23.6699 -23.6699 -11.7475 -11.7475  -7.6740  -7.6740  -7.4985  -7.4985
    -0.8388  -0.8388   0.0606   0.0606   1.7960   1.7960   2.7092   2.7092

          k = 0.0610 0.0352 0.0000 (  5299 PWs)   bands (ev):

   -23.6728 -23.6728 -11.7509 -11.7509  -7.6626  -7.6626  -7.4925  -7.4925
    -0.8427  -0.8427   0.0567   0.0567   1.7921   1.7921   2.7053   2.7053

          k = 0.0600 0.0346 0.0000 (  5299 PWs)   bands (ev):

   -23.6757 -23.6757 -11.7543 -11.7543  -7.6513  -7.6513  -7.4867  -7.4867
    -0.8466  -0.8466   0.0528   0.0528   1.7882   1.7882   2.7014   2.7014

          k = 0.0590 0.0341 0.0000 (  5299 PWs)   bands (ev):

   -23.6785 -23.6785 -11.7577 -11.7577  -7.6402  -7.6402  -7.4809  -7.4809
    -0.8504  -0.8504   0.0489   0.0489   1.7844   1.7844   2.6976   2.6976

          k = 0.0580 0.0335 0.0000 (  5303 PWs)   bands (ev):

   -23.6812 -23.6812 -11.7610 -11.7610  -7.6293  -7.6293  -7.4752  -7.4752
    -0.8541  -0.8541   0.0451   0.0451   1.7806   1.7806   2.6939   2.6939

          k = 0.0570 0.0329 0.0000 (  5303 PWs)   bands (ev):

   -23.6839 -23.6839 -11.7642 -11.7642  -7.6185  -7.6185  -7.4696  -7.4696
    -0.8578  -0.8578   0.0414   0.0414   1.7769   1.7769   2.6902   2.6902

          k = 0.0560 0.0323 0.0000 (  5303 PWs)   bands (ev):

   -23.6866 -23.6866 -11.7674 -11.7674  -7.6079  -7.6079  -7.4641  -7.4641
    -0.8614  -0.8614   0.0378   0.0378   1.7733   1.7733   2.6866   2.6866

          k = 0.0550 0.0318 0.0000 (  5307 PWs)   bands (ev):

   -23.6892 -23.6892 -11.7705 -11.7705  -7.5975  -7.5975  -7.4587  -7.4587
    -0.8650  -0.8650   0.0342   0.0342   1.7697   1.7697   2.6830   2.6830

          k = 0.0540 0.0312 0.0000 (  5307 PWs)   bands (ev):

   -23.6918 -23.6918 -11.7736 -11.7736  -7.5872  -7.5872  -7.4533  -7.4533
    -0.8685  -0.8685   0.0307   0.0307   1.7662   1.7662   2.6795   2.6795

          k = 0.0530 0.0306 0.0000 (  5307 PWs)   bands (ev):

   -23.6943 -23.6943 -11.7766 -11.7766  -7.5771  -7.5771  -7.4481  -7.4481
    -0.8719  -0.8719   0.0272   0.0272   1.7627   1.7627   2.6761   2.6761

          k = 0.0520 0.0300 0.0000 (  5307 PWs)   bands (ev):

   -23.6968 -23.6968 -11.7796 -11.7796  -7.5672  -7.5672  -7.4429  -7.4429
    -0.8752  -0.8752   0.0238   0.0238   1.7594   1.7594   2.6727   2.6727

          k = 0.0510 0.0294 0.0000 (  5307 PWs)   bands (ev):

   -23.6992 -23.6992 -11.7825 -11.7825  -7.5575  -7.5575  -7.4378  -7.4378
    -0.8785  -0.8785   0.0205   0.0205   1.7560   1.7560   2.6695   2.6695

          k = 0.0500 0.0289 0.0000 (  5307 PWs)   bands (ev):

   -23.7016 -23.7016 -11.7853 -11.7853  -7.5479  -7.5479  -7.4328  -7.4328
    -0.8818  -0.8818   0.0172   0.0172   1.7528   1.7528   2.6662   2.6662

          k = 0.0490 0.0283 0.0000 (  5307 PWs)   bands (ev):

   -23.7039 -23.7039 -11.7881 -11.7881  -7.5385  -7.5385  -7.4279  -7.4279
    -0.8849  -0.8849   0.0140   0.0140   1.7496   1.7496   2.6631   2.6631

          k = 0.0480 0.0277 0.0000 (  5307 PWs)   bands (ev):

   -23.7062 -23.7062 -11.7909 -11.7909  -7.5293  -7.5293  -7.4231  -7.4231
    -0.8880  -0.8880   0.0109   0.0109   1.7465   1.7465   2.6599   2.6599

          k = 0.0470 0.0271 0.0000 (  5305 PWs)   bands (ev):

   -23.7085 -23.7085 -11.7935 -11.7935  -7.5203  -7.5203  -7.4183  -7.4183
    -0.8911  -0.8911   0.0078   0.0078   1.7434   1.7434   2.6569   2.6569

          k = 0.0460 0.0266 0.0000 (  5305 PWs)   bands (ev):

   -23.7107 -23.7107 -11.7961 -11.7961  -7.5114  -7.5114  -7.4137  -7.4137
    -0.8940  -0.8940   0.0048   0.0048   1.7404   1.7404   2.6539   2.6539

          k = 0.0450 0.0260 0.0000 (  5305 PWs)   bands (ev):

   -23.7128 -23.7128 -11.7987 -11.7987  -7.5028  -7.5028  -7.4091  -7.4091
    -0.8970  -0.8970   0.0019   0.0019   1.7375   1.7375   2.6510   2.6510

          k = 0.0440 0.0254 0.0000 (  5301 PWs)   bands (ev):

   -23.7149 -23.7149 -11.8012 -11.8012  -7.4943  -7.4943  -7.4047  -7.4047
    -0.8998  -0.8998  -0.0010  -0.0010   1.7346   1.7346   2.6482   2.6482

          k = 0.0430 0.0248 0.0000 (  5301 PWs)   bands (ev):

   -23.7170 -23.7170 -11.8037 -11.8037  -7.4859  -7.4859  -7.4003  -7.4003
    -0.9026  -0.9026  -0.0038  -0.0038   1.7318   1.7318   2.6454   2.6454

          k = 0.0420 0.0242 0.0000 (  5301 PWs)   bands (ev):

   -23.7190 -23.7190 -11.8061 -11.8061  -7.4778  -7.4778  -7.3960  -7.3960
    -0.9053  -0.9053  -0.0065  -0.0065   1.7291   1.7291   2.6427   2.6427

          k = 0.0410 0.0237 0.0000 (  5301 PWs)   bands (ev):

   -23.7209 -23.7209 -11.8084 -11.8084  -7.4698  -7.4698  -7.3918  -7.3918
    -0.9080  -0.9080  -0.0092  -0.0092   1.7264   1.7264   2.6400   2.6400

          k = 0.0400 0.0231 0.0000 (  5301 PWs)   bands (ev):

   -23.7228 -23.7228 -11.8107 -11.8107  -7.4621  -7.4621  -7.3877  -7.3877
    -0.9105  -0.9105  -0.0118  -0.0118   1.7238   1.7238   2.6374   2.6374

          k = 0.0390 0.0225 0.0000 (  5301 PWs)   bands (ev):

   -23.7247 -23.7247 -11.8129 -11.8129  -7.4545  -7.4545  -7.3837  -7.3837
    -0.9131  -0.9131  -0.0144  -0.0144   1.7213   1.7213   2.6349   2.6349

          k = 0.0380 0.0219 0.0000 (  5297 PWs)   bands (ev):

   -23.7265 -23.7265 -11.8151 -11.8151  -7.4471  -7.4471  -7.3798  -7.3798
    -0.9155  -0.9155  -0.0169  -0.0169   1.7188   1.7188   2.6324   2.6324

          k = 0.0370 0.0214 0.0000 (  5297 PWs)   bands (ev):

   -23.7283 -23.7283 -11.8172 -11.8172  -7.4399  -7.4399  -7.3760  -7.3760
    -0.9179  -0.9179  -0.0193  -0.0193   1.7164   1.7164   2.6300   2.6300

          k = 0.0360 0.0208 0.0000 (  5297 PWs)   bands (ev):

   -23.7300 -23.7300 -11.8193 -11.8193  -7.4328  -7.4328  -7.3723  -7.3723
    -0.9203  -0.9203  -0.0217  -0.0217   1.7140   1.7140   2.6277   2.6277

          k = 0.0350 0.0202 0.0000 (  5297 PWs)   bands (ev):

   -23.7317 -23.7317 -11.8213 -11.8213  -7.4260  -7.4260  -7.3687  -7.3687
    -0.9225  -0.9225  -0.0240  -0.0240   1.7118   1.7118   2.6254   2.6254

          k = 0.0340 0.0196 0.0000 (  5293 PWs)   bands (ev):

   -23.7333 -23.7333 -11.8232 -11.8232  -7.4193  -7.4193  -7.3651  -7.3651
    -0.9248  -0.9248  -0.0262  -0.0262   1.7095   1.7095   2.6232   2.6232

          k = 0.0330 0.0191 0.0000 (  5293 PWs)   bands (ev):

   -23.7349 -23.7349 -11.8251 -11.8251  -7.4129  -7.4129  -7.3617  -7.3617
    -0.9269  -0.9269  -0.0284  -0.0284   1.7074   1.7074   2.6211   2.6211

          k = 0.0320 0.0185 0.0000 (  5293 PWs)   bands (ev):

   -23.7364 -23.7364 -11.8269 -11.8269  -7.4066  -7.4066  -7.3584  -7.3584
    -0.9290  -0.9290  -0.0305  -0.0305   1.7053   1.7053   2.6190   2.6190

          k = 0.0310 0.0179 0.0000 (  5293 PWs)   bands (ev):

   -23.7379 -23.7379 -11.8287 -11.8287  -7.4005  -7.4005  -7.3551  -7.3551
    -0.9310  -0.9310  -0.0325  -0.0325   1.7033   1.7033   2.6170   2.6170

          k = 0.0300 0.0173 0.0000 (  5293 PWs)   bands (ev):

   -23.7393 -23.7393 -11.8304 -11.8304  -7.3946  -7.3946  -7.3520  -7.3520
    -0.9329  -0.9329  -0.0345  -0.0345   1.7013   1.7013   2.6150   2.6150

          k = 0.0290 0.0167 0.0000 (  5297 PWs)   bands (ev):

   -23.7407 -23.7407 -11.8321 -11.8321  -7.3889  -7.3889  -7.3489  -7.3489
    -0.9348  -0.9348  -0.0364  -0.0364   1.6994   1.6994   2.6131   2.6131

          k = 0.0280 0.0162 0.0000 (  5299 PWs)   bands (ev):

   -23.7421 -23.7421 -11.8337 -11.8337  -7.3834  -7.3834  -7.3460  -7.3460
    -0.9367  -0.9367  -0.0382  -0.0382   1.6976   1.6976   2.6113   2.6113

          k = 0.0270 0.0156 0.0000 (  5299 PWs)   bands (ev):

   -23.7434 -23.7434 -11.8353 -11.8353  -7.3781  -7.3781  -7.3431  -7.3431
    -0.9384  -0.9384  -0.0400  -0.0400   1.6958   1.6958   2.6095   2.6095

          k = 0.0260 0.0150 0.0000 (  5295 PWs)   bands (ev):

   -23.7446 -23.7446 -11.8368 -11.8368  -7.3729  -7.3729  -7.3403  -7.3403
    -0.9401  -0.9401  -0.0417  -0.0417   1.6941   1.6941   2.6078   2.6078

          k = 0.0250 0.0144 0.0000 (  5299 PWs)   bands (ev):

   -23.7458 -23.7458 -11.8382 -11.8382  -7.3680  -7.3680  -7.3376  -7.3376
    -0.9417  -0.9417  -0.0433  -0.0433   1.6924   1.6924   2.6062   2.6062

          k = 0.0240 0.0139 0.0000 (  5299 PWs)   bands (ev):

   -23.7470 -23.7470 -11.8396 -11.8396  -7.3633  -7.3633  -7.3351  -7.3351
    -0.9433  -0.9433  -0.0449  -0.0449   1.6909   1.6909   2.6046   2.6046

          k = 0.0230 0.0133 0.0000 (  5295 PWs)   bands (ev):

   -23.7481 -23.7481 -11.8409 -11.8409  -7.3588  -7.3588  -7.3326  -7.3326
    -0.9448  -0.9448  -0.0464  -0.0464   1.6894   1.6894   2.6031   2.6031

          k = 0.0220 0.0127 0.0000 (  5299 PWs)   bands (ev):

   -23.7492 -23.7492 -11.8422 -11.8422  -7.3544  -7.3544  -7.3302  -7.3302
    -0.9462  -0.9462  -0.0479  -0.0479   1.6879   1.6879   2.6017   2.6017

          k = 0.0210 0.0121 0.0000 (  5299 PWs)   bands (ev):

   -23.7502 -23.7502 -11.8434 -11.8434  -7.3503  -7.3503  -7.3279  -7.3279
    -0.9476  -0.9476  -0.0493  -0.0493   1.6865   1.6865   2.6003   2.6003

          k = 0.0200 0.0115 0.0000 (  5299 PWs)   bands (ev):

   -23.7511 -23.7511 -11.8445 -11.8445  -7.3464  -7.3464  -7.3257  -7.3257
    -0.9489  -0.9489  -0.0506  -0.0506   1.6852   1.6852   2.5990   2.5990

          k = 0.0190 0.0110 0.0000 (  5299 PWs)   bands (ev):

   -23.7521 -23.7521 -11.8456 -11.8456  -7.3427  -7.3427  -7.3235  -7.3235
    -0.9502  -0.9502  -0.0519  -0.0519   1.6840   1.6840   2.5977   2.5977

          k = 0.0180 0.0104 0.0000 (  5299 PWs)   bands (ev):

   -23.7529 -23.7529 -11.8467 -11.8467  -7.3391  -7.3391  -7.3215  -7.3215
    -0.9514  -0.9514  -0.0531  -0.0531   1.6828   1.6828   2.5966   2.5966

          k = 0.0170 0.0098 0.0000 (  5303 PWs)   bands (ev):

   -23.7538 -23.7538 -11.8477 -11.8477  -7.3358  -7.3358  -7.3196  -7.3196
    -0.9525  -0.9525  -0.0542  -0.0542   1.6816   1.6816   2.5954   2.5954

          k = 0.0160 0.0092 0.0000 (  5303 PWs)   bands (ev):

   -23.7545 -23.7545 -11.8486 -11.8486  -7.3328  -7.3328  -7.3177  -7.3177
    -0.9535  -0.9535  -0.0553  -0.0553   1.6806   1.6806   2.5944   2.5944

          k = 0.0150 0.0087 0.0000 (  5303 PWs)   bands (ev):

   -23.7553 -23.7553 -11.8495 -11.8495  -7.3299  -7.3299  -7.3159  -7.3159
    -0.9545  -0.9545  -0.0563  -0.0563   1.6796   1.6796   2.5934   2.5934

          k = 0.0140 0.0081 0.0000 (  5303 PWs)   bands (ev):

   -23.7559 -23.7559 -11.8503 -11.8503  -7.3272  -7.3272  -7.3142  -7.3142
    -0.9555  -0.9555  -0.0572  -0.0572   1.6786   1.6786   2.5925   2.5925

          k = 0.0130 0.0075 0.0000 (  5295 PWs)   bands (ev):

   -23.7566 -23.7566 -11.8511 -11.8511  -7.3248  -7.3248  -7.3126  -7.3126
    -0.9563  -0.9563  -0.0581  -0.0581   1.6778   1.6778   2.5916   2.5916

          k = 0.0120 0.0069 0.0000 (  5301 PWs)   bands (ev):

   -23.7572 -23.7572 -11.8518 -11.8518  -7.3225  -7.3225  -7.3111  -7.3111
    -0.9571  -0.9571  -0.0589  -0.0589   1.6770   1.6770   2.5908   2.5908

          k = 0.0110 0.0064 0.0000 (  5301 PWs)   bands (ev):

   -23.7577 -23.7577 -11.8524 -11.8524  -7.3205  -7.3205  -7.3097  -7.3097
    -0.9579  -0.9579  -0.0596  -0.0596   1.6762   1.6762   2.5901   2.5901

          k = 0.0100 0.0058 0.0000 (  5301 PWs)   bands (ev):

   -23.7582 -23.7582 -11.8530 -11.8530  -7.3187  -7.3187  -7.3083  -7.3083
    -0.9585  -0.9585  -0.0603  -0.0603   1.6756   1.6756   2.5894   2.5894

          k = 0.0090 0.0052 0.0000 (  5301 PWs)   bands (ev):

   -23.7587 -23.7587 -11.8536 -11.8536  -7.3171  -7.3171  -7.3071  -7.3071
    -0.9591  -0.9591  -0.0609  -0.0609   1.6749   1.6749   2.5888   2.5888

          k = 0.0080 0.0046 0.0000 (  5297 PWs)   bands (ev):

   -23.7591 -23.7591 -11.8540 -11.8540  -7.3156  -7.3156  -7.3059  -7.3059
    -0.9597  -0.9597  -0.0615  -0.0615   1.6744   1.6744   2.5882   2.5882

          k = 0.0070 0.0040 0.0000 (  5297 PWs)   bands (ev):

   -23.7594 -23.7594 -11.8545 -11.8545  -7.3144  -7.3144  -7.3049  -7.3049
    -0.9602  -0.9602  -0.0620  -0.0620   1.6739   1.6739   2.5878   2.5878

          k = 0.0060 0.0035 0.0000 (  5295 PWs)   bands (ev):

   -23.7597 -23.7597 -11.8548 -11.8548  -7.3134  -7.3134  -7.3040  -7.3040
    -0.9606  -0.9606  -0.0624  -0.0624   1.6735   1.6735   2.5873   2.5873

          k = 0.0050 0.0029 0.0000 (  5295 PWs)   bands (ev):

   -23.7600 -23.7600 -11.8551 -11.8551  -7.3125  -7.3125  -7.3032  -7.3032
    -0.9609  -0.9609  -0.0627  -0.0627   1.6731   1.6731   2.5870   2.5870

          k = 0.0040 0.0023 0.0000 (  5295 PWs)   bands (ev):

   -23.7602 -23.7602 -11.8554 -11.8554  -7.3118  -7.3118  -7.3025  -7.3025
    -0.9612  -0.9612  -0.0630  -0.0630   1.6729   1.6729   2.5867   2.5867

          k = 0.0030 0.0017 0.0000 (  5295 PWs)   bands (ev):

   -23.7604 -23.7604 -11.8556 -11.8556  -7.3113  -7.3113  -7.3020  -7.3020
    -0.9614  -0.9614  -0.0632  -0.0632   1.6726   1.6726   2.5865   2.5865

          k = 0.0020 0.0012 0.0000 (  5295 PWs)   bands (ev):

   -23.7605 -23.7605 -11.8557 -11.8557  -7.3109  -7.3109  -7.3016  -7.3016
    -0.9616  -0.9616  -0.0634  -0.0634   1.6725   1.6725   2.5863   2.5863

          k = 0.0010 0.0006 0.0000 (  5295 PWs)   bands (ev):

   -23.7605 -23.7605 -11.8558 -11.8558  -7.3107  -7.3107  -7.3014  -7.3014
    -0.9617  -0.9617  -0.0635  -0.0635   1.6724   1.6724   2.5862   2.5862

          k = 0.0000 0.0000 0.0000 (  5307 PWs)   bands (ev):

   -23.7606 -23.7606 -11.8558 -11.8558  -7.3106  -7.3106  -7.3013  -7.3013
    -0.9617  -0.9617  -0.0635  -0.0635   1.6723   1.6723   2.5862   2.5862

     Writing all to output data dir ./tmp/graphene.save/ :
     XML data file, pseudopotentials, collected wavefunctions

     init_run     :      3.75s CPU      3.90s WALL (       1 calls)
     electrons    :   4665.98s CPU   4709.18s WALL (       1 calls)

     Called by init_run:
     wfcinit      :      0.00s CPU      0.00s WALL (       1 calls)
     wfcinit:wfcr :    115.57s CPU    115.76s WALL (    1501 calls)
     potinit      :      0.49s CPU      0.54s WALL (       1 calls)
     hinit0       :      2.48s CPU      2.50s WALL (       1 calls)

     Called by electrons:
     c_bands      :   4665.97s CPU   4709.17s WALL (       1 calls)
     v_of_rho     :      0.08s CPU      0.11s WALL (       1 calls)
     v_h          :      0.01s CPU      0.01s WALL (       1 calls)
     v_xc         :      0.08s CPU      0.10s WALL (       1 calls)
     newd         :      0.22s CPU      0.29s WALL (       1 calls)
     PAW_pot      :      0.06s CPU      0.06s WALL (       1 calls)

     Called by c_bands:
     init_us_2    :      1.22s CPU      1.53s WALL (    1501 calls)
     cegterg      :   4532.61s CPU   4568.04s WALL (    3185 calls)

     Called by sum_band:

     Called by *egterg:
     cdiaghg      :     88.26s CPU     88.36s WALL (   54149 calls)
     cegterg:over :    957.34s CPU    957.75s WALL (   52648 calls)
     cegterg:upda :    909.13s CPU    909.46s WALL (   52648 calls)
     cegterg:last :    380.89s CPU    380.97s WALL (    6187 calls)
     h_psi        :   1999.18s CPU   2015.08s WALL (   57334 calls)
     s_psi        :    228.50s CPU    231.11s WALL (   57334 calls)
     g_psi        :     14.16s CPU     14.19s WALL (   52648 calls)

     Called by h_psi:
     h_psi:calbec :    224.44s CPU    224.62s WALL (   57334 calls)
     vloc_psi     :   1530.17s CPU   1535.73s WALL (   57334 calls)
     add_vuspsi   :    231.50s CPU    231.61s WALL (   57334 calls)

     General routines
     calbec       :    224.32s CPU    224.51s WALL (   57334 calls)
     fft          :      0.55s CPU      0.55s WALL (      19 calls)
     ffts         :      0.31s CPU      0.31s WALL (       4 calls)
     fftw         :    819.40s CPU    821.06s WALL ( 2205708 calls)
     interpolate  :      0.33s CPU      0.33s WALL (       4 calls)
     davcio       :      0.29s CPU      2.05s WALL (    3002 calls)


     PAW routines
     PAW_pot      :      0.06s CPU      0.06s WALL (       1 calls)

     PWSCF        :      1h17m CPU      1h18m WALL


   This run was terminated on:  19:38:20   6Nov2025            

=------------------------------------------------------------------------------=
   JOB DONE.
=------------------------------------------------------------------------------=
