
     Program PWSCF v.7.4.1 starts on  6Nov2025 at  0:27:52 

     This program is part of the open-source Quantum ESPRESSO suite
     for quantum simulation of materials; please cite
         "P. Giannozzi et al., J. Phys.:Condens. Matter 21 395502 (2009);
         "P. Giannozzi et al., J. Phys.:Condens. Matter 29 465901 (2017);
         "P. Giannozzi et al., J. Chem. Phys. 152 154105 (2020);
          URL http://www.quantum-espresso.org", 
     in publications or presentations arising from this work. More details at
     http://www.quantum-espresso.org/quote

     Serial version
     12936 MiB available memory on the printing compute node when the environment starts

     Reading input from grap_SOC_scf.in

     Current dimensions of program PWSCF are:
     Max number of different atomic species (ntypx) = 10
     Max number of k-points (npk) =  40000
     Max angular momentum in pseudopotentials (lmaxx) =  4
     file C.rel-pbe-n-kjpaw_psl.0.1.UPF: wavefunction(s)  2P 2P renormalized


     G-vector sticks info
     --------------------
     sticks:   dense  smooth     PW     G-vecs:    dense   smooth      PW
     Sum        1045     421    139               166859    42343    8205

     Using Slab Decomposition



     bravais-lattice index     =            0
     lattice parameter (alat)  =       4.6624  a.u.
     unit-cell volume          =     533.6317 (a.u.)^3
     number of atoms/cell      =            2
     number of atomic types    =            1
     number of electrons       =         8.00
     number of Kohn-Sham states=           16
     kinetic-energy cutoff     =      70.0000  Ry
     charge density cutoff     =     700.0000  Ry
     scf convergence threshold =      1.0E-08
     mixing beta               =       0.1000
     number of iterations used =            8  plain     mixing
     Exchange-correlation= SLA  PW   PBX  PBC
                           (   1   4   3   4   0   0   0)
     Non magnetic calculation with spin-orbit


     celldm(1)=   4.662410  celldm(2)=   0.000000  celldm(3)=   0.000000
     celldm(4)=   0.000000  celldm(5)=   0.000000  celldm(6)=   0.000000

     crystal axes: (cart. coord. in units of alat)
               a(1) = (   1.000000   0.000000  -0.000000 )  
               a(2) = (  -0.500000   0.866025   0.000000 )  
               a(3) = (  -0.000000   0.000000   6.079666 )  

     reciprocal axes: (cart. coord. in units 2 pi/alat)
               b(1) = (  1.000000  0.577350  0.000000 )  
               b(2) = ( -0.000000  1.154701 -0.000000 )  
               b(3) = (  0.000000  0.000000  0.164483 )  


     PseudoPot. # 1 for C  read from file:
     ../../../../pseudos/C.rel-pbe-n-kjpaw_psl.0.1.UPF
     MD5 check sum: 5ef0b8f55ac4be3c3db5d31256eeff6b
     Pseudo is Projector augmented-wave + core cor, Zval =  4.0
     Generated using &quot;atomic&quot; code by A. Dal Corso  v.6.3
     Shape of augmentation charge: BESSEL
     Using radial grid of 1073 points,  6 beta functions with: 
                l(1) =   0
                l(2) =   0
                l(3) =   1
                l(4) =   1
                l(5) =   1
                l(6) =   1
     Q(r) pseudized with 0 coefficients 


     atomic species   valence    mass     pseudopotential
     C                 4.00    12.01100     C ( 1.00)

     No symmetry found



   Cartesian axes

     site n.     atom                  positions (alat units)
         1        C      tau(   1) = (   0.0000000   0.0000000   0.0000000  )
         2        C      tau(   2) = (   0.0000000   0.5773503   0.0000000  )

     number of k points=    74  Gaussian smearing, width (Ry)=  0.0020
                       cart. coord. in units 2pi/alat
        k(    1) = (   0.0000000   0.0000000   0.0000000), wk =   0.0069444
        k(    2) = (   0.0000000   0.0962250   0.0000000), wk =   0.0138889
        k(    3) = (   0.0000000   0.1924501   0.0000000), wk =   0.0138889
        k(    4) = (   0.0000000   0.2886751   0.0000000), wk =   0.0138889
        k(    5) = (   0.0000000   0.3849002   0.0000000), wk =   0.0138889
        k(    6) = (   0.0000000   0.4811252   0.0000000), wk =   0.0138889
        k(    7) = (   0.0000000  -0.5773503   0.0000000), wk =   0.0069444
        k(    8) = (   0.0833333   0.0481125   0.0000000), wk =   0.0138889
        k(    9) = (   0.0833333   0.1443376   0.0000000), wk =   0.0138889
        k(   10) = (   0.0833333   0.2405626   0.0000000), wk =   0.0138889
        k(   11) = (   0.0833333   0.3367877   0.0000000), wk =   0.0138889
        k(   12) = (   0.0833333   0.4330127   0.0000000), wk =   0.0138889
        k(   13) = (   0.0833333   0.5292377   0.0000000), wk =   0.0138889
        k(   14) = (   0.0833333  -0.5292377   0.0000000), wk =   0.0138889
        k(   15) = (   0.0833333  -0.4330127   0.0000000), wk =   0.0138889
        k(   16) = (   0.0833333  -0.3367877   0.0000000), wk =   0.0138889
        k(   17) = (   0.0833333  -0.2405626   0.0000000), wk =   0.0138889
        k(   18) = (   0.0833333  -0.1443376   0.0000000), wk =   0.0138889
        k(   19) = (   0.0833333  -0.0481125   0.0000000), wk =   0.0138889
        k(   20) = (   0.1666667   0.0962250   0.0000000), wk =   0.0138889
        k(   21) = (   0.1666667   0.1924501   0.0000000), wk =   0.0138889
        k(   22) = (   0.1666667   0.2886751   0.0000000), wk =   0.0138889
        k(   23) = (   0.1666667   0.3849002   0.0000000), wk =   0.0138889
        k(   24) = (   0.1666667   0.4811252   0.0000000), wk =   0.0138889
        k(   25) = (   0.1666667   0.5773503   0.0000000), wk =   0.0138889
        k(   26) = (   0.1666667  -0.4811252   0.0000000), wk =   0.0138889
        k(   27) = (   0.1666667  -0.3849002   0.0000000), wk =   0.0138889
        k(   28) = (   0.1666667  -0.2886751   0.0000000), wk =   0.0138889
        k(   29) = (   0.1666667  -0.1924501   0.0000000), wk =   0.0138889
        k(   30) = (   0.1666667  -0.0962250   0.0000000), wk =   0.0138889
        k(   31) = (   0.1666667  -0.0000000   0.0000000), wk =   0.0138889
        k(   32) = (   0.2500000   0.1443376   0.0000000), wk =   0.0138889
        k(   33) = (   0.2500000   0.2405626   0.0000000), wk =   0.0138889
        k(   34) = (   0.2500000   0.3367877   0.0000000), wk =   0.0138889
        k(   35) = (   0.2500000   0.4330127   0.0000000), wk =   0.0138889
        k(   36) = (   0.2500000   0.5292377   0.0000000), wk =   0.0138889
        k(   37) = (   0.2500000   0.6254628   0.0000000), wk =   0.0138889
        k(   38) = (   0.2500000  -0.4330127   0.0000000), wk =   0.0138889
        k(   39) = (   0.2500000  -0.3367877   0.0000000), wk =   0.0138889
        k(   40) = (   0.2500000  -0.2405626   0.0000000), wk =   0.0138889
        k(   41) = (   0.2500000  -0.1443376   0.0000000), wk =   0.0138889
        k(   42) = (   0.2500000  -0.0481125   0.0000000), wk =   0.0138889
        k(   43) = (   0.2500000   0.0481125   0.0000000), wk =   0.0138889
        k(   44) = (   0.3333333   0.1924501   0.0000000), wk =   0.0138889
        k(   45) = (   0.3333333   0.2886751   0.0000000), wk =   0.0138889
        k(   46) = (   0.3333333   0.3849002   0.0000000), wk =   0.0138889
        k(   47) = (   0.3333333   0.4811252   0.0000000), wk =   0.0138889
        k(   48) = (   0.3333333   0.5773503   0.0000000), wk =   0.0138889
        k(   49) = (   0.3333333   0.6735753   0.0000000), wk =   0.0138889
        k(   50) = (   0.3333333  -0.3849002   0.0000000), wk =   0.0138889
        k(   51) = (   0.3333333  -0.2886751   0.0000000), wk =   0.0138889
        k(   52) = (   0.3333333  -0.1924501   0.0000000), wk =   0.0138889
        k(   53) = (   0.3333333  -0.0962250   0.0000000), wk =   0.0138889
        k(   54) = (   0.3333333   0.0000000   0.0000000), wk =   0.0138889
        k(   55) = (   0.3333333   0.0962250   0.0000000), wk =   0.0138889
        k(   56) = (   0.4166667   0.2405626   0.0000000), wk =   0.0138889
        k(   57) = (   0.4166667   0.3367877   0.0000000), wk =   0.0138889
        k(   58) = (   0.4166667   0.4330127   0.0000000), wk =   0.0138889
        k(   59) = (   0.4166667   0.5292377   0.0000000), wk =   0.0138889
        k(   60) = (   0.4166667   0.6254628   0.0000000), wk =   0.0138889
        k(   61) = (   0.4166667   0.7216878   0.0000000), wk =   0.0138889
        k(   62) = (   0.4166667  -0.3367877   0.0000000), wk =   0.0138889
        k(   63) = (   0.4166667  -0.2405626   0.0000000), wk =   0.0138889
        k(   64) = (   0.4166667  -0.1443376   0.0000000), wk =   0.0138889
        k(   65) = (   0.4166667  -0.0481125   0.0000000), wk =   0.0138889
        k(   66) = (   0.4166667   0.0481125   0.0000000), wk =   0.0138889
        k(   67) = (   0.4166667   0.1443376   0.0000000), wk =   0.0138889
        k(   68) = (  -0.5000000  -0.2886751   0.0000000), wk =   0.0069444
        k(   69) = (  -0.5000000  -0.1924501   0.0000000), wk =   0.0138889
        k(   70) = (  -0.5000000  -0.0962250   0.0000000), wk =   0.0138889
        k(   71) = (  -0.5000000   0.0000000   0.0000000), wk =   0.0138889
        k(   72) = (  -0.5000000   0.0962250   0.0000000), wk =   0.0138889
        k(   73) = (  -0.5000000   0.1924501   0.0000000), wk =   0.0138889
        k(   74) = (  -0.5000000  -0.8660254   0.0000000), wk =   0.0069444

     Dense  grid:   166859 G-vectors     FFT dimensions: (  40,  40, 240)

     Smooth grid:    42343 G-vectors     FFT dimensions: (  25,  25, 160)

     Estimated max dynamical RAM per process >     798.94 MB
 ----2D----2D----2D----2D----2D----2D----2D----2D----2D----2D----2D----2D
  The code is running with the 2D cutoff
  Please refer to:
  Sohier, T., Calandra, M., & Mauri, F. (2017), 
  Density functional perturbation theory for gated two-dimensional heterostructures:
  Theoretical developments and application to flexural phonons in graphene.
  Physical Review B, 96(7), 75448. https://doi.org/10.1103/PhysRevB.96.075448
 ----2D----2D----2D----2D----2D----2D----2D----2D----2D----2D----2D----2D

     Initial potential from superposition of free atoms

     starting charge       7.9999, renormalised to       8.0000

     negative rho (up, down):  2.781E-05 0.000E+00
     Starting wfcs are random

     total cpu time spent up to now is        9.1 secs

     Self-consistent Calculation

     iteration #  1     ecut=    70.00 Ry     beta= 0.10
     Davidson diagonalization with overlap
     ethr =  1.00E-02,  avg # of iterations =  9.1

     negative rho (up, down):  2.128E-05 0.000E+00

     total cpu time spent up to now is      101.8 secs

     total energy              =     -36.95328198 Ry
     estimated scf accuracy    <       0.20250781 Ry

     iteration #  2     ecut=    70.00 Ry     beta= 0.10
     Davidson diagonalization with overlap
     ethr =  2.53E-03,  avg # of iterations =  1.0

     negative rho (up, down):  9.623E-05 0.000E+00

     total cpu time spent up to now is      118.0 secs

     total energy              =     -36.85319314 Ry
     estimated scf accuracy    <       0.15582671 Ry

     iteration #  3     ecut=    70.00 Ry     beta= 0.10
     Davidson diagonalization with overlap
     ethr =  1.95E-03,  avg # of iterations =  3.7

     negative rho (up, down):  5.882E-05 0.000E+00

     total cpu time spent up to now is      137.2 secs

     total energy              =     -36.87674747 Ry
     estimated scf accuracy    <       0.00208702 Ry

     iteration #  4     ecut=    70.00 Ry     beta= 0.10
     Davidson diagonalization with overlap
     ethr =  2.61E-05,  avg # of iterations =  7.1

     negative rho (up, down):  6.681E-05 0.000E+00

     total cpu time spent up to now is      184.3 secs

     total energy              =     -36.89835484 Ry
     estimated scf accuracy    <       0.00386325 Ry

     iteration #  5     ecut=    70.00 Ry     beta= 0.10
     Davidson diagonalization with overlap
     ethr =  2.61E-05,  avg # of iterations =  5.2

     negative rho (up, down):  5.478E-05 0.000E+00

     total cpu time spent up to now is      217.0 secs

     total energy              =     -36.88817503 Ry
     estimated scf accuracy    <       0.02479074 Ry

     iteration #  6     ecut=    70.00 Ry     beta= 0.10
     Davidson diagonalization with overlap
     ethr =  2.61E-05,  avg # of iterations =  4.7

     negative rho (up, down):  5.248E-05 0.000E+00

     total cpu time spent up to now is      249.9 secs

     total energy              =     -36.88859725 Ry
     estimated scf accuracy    <       0.00266339 Ry

     iteration #  7     ecut=    70.00 Ry     beta= 0.10
     Davidson diagonalization with overlap
     ethr =  2.61E-05,  avg # of iterations =  1.7

     negative rho (up, down):  5.237E-05 0.000E+00

     total cpu time spent up to now is      266.6 secs

     total energy              =     -36.88866100 Ry
     estimated scf accuracy    <       0.00029436 Ry

     iteration #  8     ecut=    70.00 Ry     beta= 0.10
     Davidson diagonalization with overlap
     ethr =  3.68E-06,  avg # of iterations =  6.1

     negative rho (up, down):  4.579E-05 0.000E+00

     total cpu time spent up to now is      304.1 secs

     total energy              =     -36.88891053 Ry
     estimated scf accuracy    <       0.00000233 Ry

     iteration #  9     ecut=    70.00 Ry     beta= 0.10
     Davidson diagonalization with overlap
     ethr =  2.91E-08,  avg # of iterations =  3.9

     negative rho (up, down):  3.786E-05 0.000E+00

     total cpu time spent up to now is      328.6 secs

     total energy              =     -36.88890886 Ry
     estimated scf accuracy    <       0.00001475 Ry

     iteration # 10     ecut=    70.00 Ry     beta= 0.10
     Davidson diagonalization with overlap
     ethr =  2.91E-08,  avg # of iterations =  1.0

     negative rho (up, down):  5.530E-05 0.000E+00

     total cpu time spent up to now is      344.8 secs

     total energy              =     -36.88890826 Ry
     estimated scf accuracy    <       0.00000896 Ry

     iteration # 11     ecut=    70.00 Ry     beta= 0.10
     Davidson diagonalization with overlap
     ethr =  2.91E-08,  avg # of iterations =  3.5

     negative rho (up, down):  4.906E-05 0.000E+00

     total cpu time spent up to now is      371.9 secs

     total energy              =     -36.88891052 Ry
     estimated scf accuracy    <       0.00000104 Ry

     iteration # 12     ecut=    70.00 Ry     beta= 0.10
     Davidson diagonalization with overlap
     ethr =  1.31E-08,  avg # of iterations =  1.0

     negative rho (up, down):  4.454E-05 0.000E+00

     total cpu time spent up to now is      388.0 secs

     total energy              =     -36.88891107 Ry
     estimated scf accuracy    <       0.00000050 Ry

     iteration # 13     ecut=    70.00 Ry     beta= 0.10
     Davidson diagonalization with overlap
     ethr =  6.27E-09,  avg # of iterations =  1.2

     negative rho (up, down):  3.933E-05 0.000E+00

     total cpu time spent up to now is      404.3 secs

     total energy              =     -36.88891107 Ry
     estimated scf accuracy    <       0.00000132 Ry

     iteration # 14     ecut=    70.00 Ry     beta= 0.10
     Davidson diagonalization with overlap
     ethr =  6.27E-09,  avg # of iterations =  1.0

     negative rho (up, down):  3.459E-05 0.000E+00

     total cpu time spent up to now is      420.4 secs

     total energy              =     -36.88891083 Ry
     estimated scf accuracy    <       0.00000120 Ry

     iteration # 15     ecut=    70.00 Ry     beta= 0.10
     Davidson diagonalization with overlap
     ethr =  6.27E-09,  avg # of iterations =  1.0

     negative rho (up, down):  3.114E-05 0.000E+00

     total cpu time spent up to now is      436.6 secs

     total energy              =     -36.88891129 Ry
     estimated scf accuracy    <       0.00000073 Ry

     iteration # 16     ecut=    70.00 Ry     beta= 0.10
     Davidson diagonalization with overlap
     ethr =  6.27E-09,  avg # of iterations =  1.5

     negative rho (up, down):  2.626E-05 0.000E+00

     total cpu time spent up to now is      453.1 secs

     total energy              =     -36.88891029 Ry
     estimated scf accuracy    <       0.00000154 Ry

     iteration # 17     ecut=    70.00 Ry     beta= 0.10
     Davidson diagonalization with overlap
     ethr =  6.27E-09,  avg # of iterations =  3.4

     negative rho (up, down):  2.337E-05 0.000E+00

     total cpu time spent up to now is      475.2 secs

     total energy              =     -36.88891058 Ry
     estimated scf accuracy    <       0.00000002 Ry

     iteration # 18     ecut=    70.00 Ry     beta= 0.10
     Davidson diagonalization with overlap
     ethr =  2.96E-10,  avg # of iterations =  3.6

     negative rho (up, down):  2.098E-05 0.000E+00

     total cpu time spent up to now is      494.5 secs

     total energy              =     -36.88891060 Ry
     estimated scf accuracy    <       0.00000003 Ry

     iteration # 19     ecut=    70.00 Ry     beta= 0.10
     Davidson diagonalization with overlap
     ethr =  2.96E-10,  avg # of iterations =  1.1

     negative rho (up, down):  7.076E-06 0.000E+00

     total cpu time spent up to now is      510.6 secs

     End of self-consistent calculation

          k = 0.0000 0.0000 0.0000 (  5307 PWs)   bands (ev):

   -23.7595 -23.7595 -11.8550 -11.8550  -7.3094  -7.3094  -7.3001  -7.3001
    -0.9634  -0.9634  -0.0689  -0.0689   1.6544   1.6545   2.5691   2.5691

          k = 0.0000 0.0962 0.0000 (  5285 PWs)   bands (ev):

   -23.5958 -23.5958 -11.6594 -11.6594  -7.9546  -7.9546  -7.6420  -7.6420
    -0.7412  -0.7412   0.1554   0.1554   1.8780   1.8780   2.7913   2.7913

          k = 0.0000 0.1925 0.0000 (  5253 PWs)   bands (ev):

   -23.1063 -23.1063 -11.0778 -11.0778  -9.5902  -9.5902  -8.4321  -8.4321
    -0.0748  -0.0748   0.8267   0.8267   2.5479   2.5480   3.4539   3.4539

          k = 0.0000 0.2887 0.0000 (  5269 PWs)   bands (ev):

   -22.2969 -22.2969 -11.6859 -11.6859 -10.1294 -10.1294  -9.3093  -9.3093
     1.0338   1.0338   1.9234   1.9234   3.0063   3.0063   3.6022   3.6024

          k = 0.0000 0.3849 0.0000 (  5285 PWs)   bands (ev):

   -21.1797 -21.1797 -13.8864 -13.8864 -10.0407 -10.0407  -8.8644  -8.8644
     0.6554   0.6554   2.5711   2.5711   3.4491   3.4492   3.5266   3.5266

          k = 0.0000 0.4811 0.0000 (  5290 PWs)   bands (ev):

   -19.7862 -19.7862 -15.9835 -15.9835 -10.5123 -10.5123  -7.4454  -7.4454
    -1.4745  -1.4745   3.1855   3.1855   4.5762   4.5762   5.5052   5.5052

          k = 0.0000-0.5774 0.0000 (  5288 PWs)   bands (ev):

   -18.5284 -18.5284 -17.4837 -17.4837 -10.6742 -10.6742  -6.6032  -6.6032
    -2.5694  -2.5694   3.1061   3.1061   6.8670   6.8670   7.0235   7.0235

          k = 0.0833 0.0481 0.0000 (  5285 PWs)   bands (ev):

   -23.5958 -23.5958 -11.6594 -11.6594  -7.9546  -7.9546  -7.6420  -7.6420
    -0.7412  -0.7412   0.1554   0.1554   1.8780   1.8780   2.7913   2.7913

          k = 0.0833 0.1443 0.0000 (  5269 PWs)   bands (ev):

   -23.2692 -23.2692 -11.2707 -11.2707  -8.9872  -8.9872  -8.3175  -8.3175
    -0.2967  -0.2967   0.6034   0.6034   2.3256   2.3256   3.2345   3.2345

          k = 0.0833 0.2406 0.0000 (  5261 PWs)   bands (ev):

   -22.6198 -22.6198 -10.6949 -10.6949 -10.5045 -10.5045  -9.3130  -9.3130
     0.5917   0.5917   1.4949   1.4949   3.2192   3.2193   3.8201   3.8201

          k = 0.0833 0.3368 0.0000 (  5275 PWs)   bands (ev):

   -21.6563 -21.6563 -12.7652 -12.7652 -10.1972 -10.1972  -9.3913  -9.3913
     1.6651   1.6651   1.9197   1.9197   2.8540   2.8540   4.2637   4.2637

          k = 0.0833 0.4330 0.0000 (  5284 PWs)   bands (ev):

   -20.3977 -20.3977 -14.8852 -14.8852 -10.8305 -10.8305  -8.0153  -8.0153
    -0.5300  -0.5300   3.6530   3.6530   4.0502   4.0502   4.6070   4.6070

          k = 0.0833 0.5292 0.0000 (  5302 PWs)   bands (ev):

   -18.9216 -18.9216 -16.8227 -16.8227 -11.1581 -11.1581  -6.7096  -6.7096
    -2.2941  -2.2941   3.8441   3.8441   5.8687   5.8687   6.7471   6.7472

          k = 0.0833-0.5292 0.0000 (  5302 PWs)   bands (ev):

   -18.9216 -18.9216 -16.8227 -16.8227 -11.1581 -11.1581  -6.7096  -6.7096
    -2.2941  -2.2941   3.8441   3.8441   5.8687   5.8687   6.7472   6.7472

          k = 0.0833-0.4330 0.0000 (  5284 PWs)   bands (ev):

   -20.3977 -20.3977 -14.8852 -14.8852 -10.8305 -10.8305  -8.0153  -8.0153
    -0.5300  -0.5300   3.6530   3.6530   4.0502   4.0502   4.6070   4.6070

          k = 0.0833-0.3368 0.0000 (  5275 PWs)   bands (ev):

   -21.6563 -21.6563 -12.7652 -12.7652 -10.1971 -10.1971  -9.3913  -9.3913
     1.6651   1.6651   1.9197   1.9197   2.8540   2.8540   4.2637   4.2637

          k = 0.0833-0.2406 0.0000 (  5261 PWs)   bands (ev):

   -22.6198 -22.6198 -10.6949 -10.6949 -10.5045 -10.5045  -9.3130  -9.3130
     0.5917   0.5917   1.4949   1.4949   3.2192   3.2193   3.8201   3.8202

          k = 0.0833-0.1443 0.0000 (  5269 PWs)   bands (ev):

   -23.2692 -23.2692 -11.2707 -11.2707  -8.9872  -8.9872  -8.3175  -8.3175
    -0.2967  -0.2967   0.6034   0.6034   2.3256   2.3256   3.2345   3.2345

          k = 0.0833-0.0481 0.0000 (  5285 PWs)   bands (ev):

   -23.5958 -23.5958 -11.6594 -11.6594  -7.9546  -7.9546  -7.6420  -7.6420
    -0.7412  -0.7412   0.1554   0.1554   1.8780   1.8780   2.7913   2.7913

          k = 0.1667 0.0962 0.0000 (  5253 PWs)   bands (ev):

   -23.1063 -23.1063 -11.0778 -11.0778  -9.5902  -9.5902  -8.4321  -8.4321
    -0.0748  -0.0748   0.8267   0.8267   2.5480   2.5480   3.4539   3.4539

          k = 0.1667 0.1925 0.0000 (  5261 PWs)   bands (ev):

   -22.6198 -22.6198 -10.6949 -10.6949 -10.5045 -10.5045  -9.3130  -9.3130
     0.5917   0.5917   1.4949   1.4949   3.2192   3.2193   3.8202   3.8202

          k = 0.1667 0.2887 0.0000 (  5288 PWs)   bands (ev):

   -21.8162 -21.8162 -12.0244 -12.0244 -10.6717 -10.6717  -9.5697  -9.5697
     1.7007   1.7007   2.1200   2.1200   2.6022   2.6022   4.3397   4.3398

          k = 0.1667 0.3849 0.0000 (  5285 PWs)   bands (ev):

   -20.7099 -20.7099 -13.7495 -13.7495 -11.7262 -11.7262  -8.3198  -8.3198
     0.1768   0.1768   3.2438   3.2438   4.1275   4.1275   5.8218   5.8254

          k = 0.1667 0.4811 0.0000 (  5283 PWs)   bands (ev):

   -19.3363 -19.3363 -15.6570 -15.6570 -12.3015 -12.3015  -6.8968  -6.8968
    -1.7307  -1.7307   5.1914   5.1914   5.7614   5.7614   5.9860   5.9860

          k = 0.1667 0.5774 0.0000 (  5264 PWs)   bands (ev):

   -18.1071 -18.1071 -17.0863 -17.0863 -12.4861 -12.4861  -6.0065  -6.0065
    -2.7960  -2.7960   5.6510   5.6510   7.3546   7.3546   7.4236   7.4236

          k = 0.1667-0.4811 0.0000 (  5283 PWs)   bands (ev):

   -19.3363 -19.3363 -15.6570 -15.6570 -12.3015 -12.3015  -6.8968  -6.8968
    -1.7307  -1.7307   5.1914   5.1914   5.7614   5.7614   5.9860   5.9860

          k = 0.1667-0.3849 0.0000 (  5285 PWs)   bands (ev):

   -20.7099 -20.7099 -13.7495 -13.7495 -11.7262 -11.7262  -8.3198  -8.3198
     0.1768   0.1768   3.2437   3.2438   4.1275   4.1275   5.8206   5.8255

          k = 0.1667-0.2887 0.0000 (  5288 PWs)   bands (ev):

   -21.8162 -21.8162 -12.0245 -12.0245 -10.6717 -10.6717  -9.5697  -9.5697
     1.7007   1.7007   2.1200   2.1200   2.6022   2.6022   4.3397   4.3398

          k = 0.1667-0.1925 0.0000 (  5261 PWs)   bands (ev):

   -22.6198 -22.6198 -10.6949 -10.6949 -10.5045 -10.5045  -9.3130  -9.3130
     0.5917   0.5917   1.4949   1.4949   3.2192   3.2193   3.8201   3.8202

          k = 0.1667-0.0962 0.0000 (  5253 PWs)   bands (ev):

   -23.1063 -23.1063 -11.0778 -11.0778  -9.5902  -9.5902  -8.4321  -8.4321
    -0.0748  -0.0748   0.8267   0.8267   2.5479   2.5480   3.4539   3.4539

          k = 0.1667-0.0000 0.0000 (  5269 PWs)   bands (ev):

   -23.2692 -23.2692 -11.2707 -11.2707  -8.9872  -8.9872  -8.3175  -8.3175
    -0.2967  -0.2967   0.6034   0.6034   2.3256   2.3256   3.2345   3.2345

          k = 0.2500 0.1443 0.0000 (  5269 PWs)   bands (ev):

   -22.2969 -22.2969 -11.6859 -11.6859 -10.1294 -10.1294  -9.3093  -9.3093
     1.0338   1.0338   1.9234   1.9235   3.0063   3.0063   3.6022   3.6023

          k = 0.2500 0.2406 0.0000 (  5275 PWs)   bands (ev):

   -21.6563 -21.6563 -12.7652 -12.7652 -10.1972 -10.1972  -9.3913  -9.3913
     1.6651   1.6651   1.9197   1.9197   2.8540   2.8540   4.2637   4.2652

          k = 0.2500 0.3368 0.0000 (  5285 PWs)   bands (ev):

   -20.7099 -20.7099 -13.7495 -13.7495 -11.7262 -11.7262  -8.3198  -8.3198
     0.1768   0.1768   3.2437   3.2438   4.1275   4.1275   5.8206   5.8254

          k = 0.2500 0.4330 0.0000 (  5268 PWs)   bands (ev):

   -19.4835 -19.4835 -14.7855 -14.7855 -13.2055 -13.2055  -6.9805  -6.9805
    -1.4341  -1.4341   4.9854   4.9854   5.6924   5.6924   7.6254   7.6254

          k = 0.2500 0.5292 0.0000 (  5282 PWs)   bands (ev):

   -18.0643 -18.0643 -16.2037 -16.2037 -13.9124 -13.9124  -5.5984  -5.5984
    -2.9506  -2.9506   6.6193   6.6193   7.0670   7.0670   7.9218   7.9218

          k = 0.2500 0.6255 0.0000 (  5282 PWs)   bands (ev):

   -18.0643 -18.0643 -16.2038 -16.2038 -13.9124 -13.9124  -5.5984  -5.5984
    -2.9506  -2.9506   6.6193   6.6193   7.0670   7.0670   7.9218   7.9218

          k = 0.2500-0.4330 0.0000 (  5268 PWs)   bands (ev):

   -19.4835 -19.4835 -14.7855 -14.7855 -13.2055 -13.2055  -6.9805  -6.9805
    -1.4341  -1.4341   4.9854   4.9854   5.6924   5.6924   7.6253   7.6255

          k = 0.2500-0.3368 0.0000 (  5285 PWs)   bands (ev):

   -20.7099 -20.7099 -13.7495 -13.7495 -11.7262 -11.7262  -8.3198  -8.3198
     0.1768   0.1768   3.2438   3.2438   4.1275   4.1275   5.8253   5.8257

          k = 0.2500-0.2406 0.0000 (  5275 PWs)   bands (ev):

   -21.6563 -21.6563 -12.7653 -12.7653 -10.1971 -10.1971  -9.3913  -9.3913
     1.6651   1.6651   1.9197   1.9197   2.8540   2.8540   4.2637   4.2637

          k = 0.2500-0.1443 0.0000 (  5269 PWs)   bands (ev):

   -22.2969 -22.2969 -11.6860 -11.6860 -10.1294 -10.1294  -9.3093  -9.3093
     1.0338   1.0338   1.9234   1.9235   3.0063   3.0063   3.6021   3.6025

          k = 0.2500-0.0481 0.0000 (  5261 PWs)   bands (ev):

   -22.6198 -22.6198 -10.6949 -10.6949 -10.5045 -10.5045  -9.3130  -9.3130
     0.5917   0.5917   1.4949   1.4949   3.2192   3.2193   3.8201   3.8202

          k = 0.2500 0.0481 0.0000 (  5261 PWs)   bands (ev):

   -22.6198 -22.6198 -10.6949 -10.6949 -10.5045 -10.5045  -9.3130  -9.3130
     0.5917   0.5917   1.4949   1.4949   3.2192   3.2192   3.8201   3.8202

          k = 0.3333 0.1925 0.0000 (  5285 PWs)   bands (ev):

   -21.1797 -21.1797 -13.8864 -13.8864 -10.0407 -10.0407  -8.8644  -8.8644
     0.6554   0.6554   2.5711   2.5711   3.4491   3.4491   3.5266   3.5266

          k = 0.3333 0.2887 0.0000 (  5284 PWs)   bands (ev):

   -20.3977 -20.3977 -14.8852 -14.8852 -10.8305 -10.8305  -8.0153  -8.0153
    -0.5300  -0.5300   3.6530   3.6530   4.0502   4.0502   4.6070   4.6070

          k = 0.3333 0.3849 0.0000 (  5283 PWs)   bands (ev):

   -19.3363 -19.3363 -15.6570 -15.6570 -12.3015 -12.3015  -6.8968  -6.8968
    -1.7307  -1.7307   5.1914   5.1914   5.7614   5.7614   5.9860   5.9860

          k = 0.3333 0.4811 0.0000 (  5282 PWs)   bands (ev):

   -18.0643 -18.0643 -16.2037 -16.2037 -13.9124 -13.9124  -5.5984  -5.5984
    -2.9506  -2.9506   6.6193   6.6193   7.0670   7.0670   7.9218   7.9218

          k = 0.3333 0.5774 0.0000 (  5292 PWs)   bands (ev):

   -16.8505 -16.8505 -16.8484 -16.8484 -14.8028 -14.8028  -4.2458  -4.2458
    -4.2457  -4.2457   6.3571   6.3571   8.6154   8.6155   8.6195   8.6195

          k = 0.3333 0.6736 0.0000 (  5282 PWs)   bands (ev):

   -18.0642 -18.0642 -16.2038 -16.2038 -13.9124 -13.9124  -5.5984  -5.5984
    -2.9506  -2.9506   6.6193   6.6193   7.0670   7.0670   7.9219   7.9219

          k = 0.3333-0.3849 0.0000 (  5283 PWs)   bands (ev):

   -19.3362 -19.3362 -15.6570 -15.6570 -12.3015 -12.3015  -6.8967  -6.8967
    -1.7308  -1.7308   5.1914   5.1914   5.7614   5.7614   5.9860   5.9860

          k = 0.3333-0.2887 0.0000 (  5284 PWs)   bands (ev):

   -20.3977 -20.3977 -14.8852 -14.8852 -10.8304 -10.8304  -8.0153  -8.0153
    -0.5300  -0.5300   3.6530   3.6530   4.0502   4.0502   4.6070   4.6070

          k = 0.3333-0.1925 0.0000 (  5285 PWs)   bands (ev):

   -21.1797 -21.1797 -13.8864 -13.8864 -10.0407 -10.0407  -8.8644  -8.8644
     0.6554   0.6554   2.5711   2.5711   3.4492   3.4492   3.5266   3.5267

          k = 0.3333-0.0962 0.0000 (  5275 PWs)   bands (ev):

   -21.6563 -21.6563 -12.7653 -12.7653 -10.1971 -10.1971  -9.3913  -9.3913
     1.6651   1.6651   1.9197   1.9197   2.8540   2.8540   4.2637   4.2637

          k = 0.3333 0.0000 0.0000 (  5288 PWs)   bands (ev):

   -21.8162 -21.8162 -12.0245 -12.0245 -10.6717 -10.6717  -9.5697  -9.5697
     1.7007   1.7007   2.1200   2.1200   2.6022   2.6022   4.3398   4.3398

          k = 0.3333 0.0962 0.0000 (  5275 PWs)   bands (ev):

   -21.6563 -21.6563 -12.7653 -12.7653 -10.1971 -10.1971  -9.3913  -9.3913
     1.6651   1.6651   1.9197   1.9197   2.8540   2.8540   4.2637   4.2637

          k = 0.4167 0.2406 0.0000 (  5290 PWs)   bands (ev):

   -19.7862 -19.7862 -15.9835 -15.9835 -10.5123 -10.5123  -7.4454  -7.4454
    -1.4745  -1.4745   3.1855   3.1855   4.5762   4.5762   5.5052   5.5052

          k = 0.4167 0.3368 0.0000 (  5302 PWs)   bands (ev):

   -18.9216 -18.9216 -16.8227 -16.8227 -11.1581 -11.1581  -6.7096  -6.7096
    -2.2941  -2.2941   3.8441   3.8441   5.8687   5.8687   6.7471   6.7472

          k = 0.4167 0.4330 0.0000 (  5264 PWs)   bands (ev):

   -18.1071 -18.1071 -17.0863 -17.0863 -12.4861 -12.4861  -6.0065  -6.0065
    -2.7960  -2.7960   5.6510   5.6510   7.3546   7.3546   7.4236   7.4236

          k = 0.4167 0.5292 0.0000 (  5282 PWs)   bands (ev):

   -18.0643 -18.0643 -16.2038 -16.2038 -13.9124 -13.9124  -5.5984  -5.5984
    -2.9506  -2.9506   6.6193   6.6193   7.0670   7.0670   7.9218   7.9218

          k = 0.4167 0.6255 0.0000 (  5282 PWs)   bands (ev):

   -18.0642 -18.0642 -16.2038 -16.2038 -13.9124 -13.9124  -5.5984  -5.5984
    -2.9506  -2.9506   6.6193   6.6193   7.0670   7.0670   7.9219   7.9219

          k = 0.4167 0.7217 0.0000 (  5264 PWs)   bands (ev):

   -18.1071 -18.1071 -17.0864 -17.0864 -12.4861 -12.4861  -6.0065  -6.0065
    -2.7961  -2.7961   5.6510   5.6510   7.3546   7.3546   7.4236   7.4237

          k = 0.4167-0.3368 0.0000 (  5302 PWs)   bands (ev):

   -18.9216 -18.9216 -16.8228 -16.8228 -11.1581 -11.1581  -6.7096  -6.7096
    -2.2942  -2.2942   3.8441   3.8441   5.8687   5.8687   6.7471   6.7472

          k = 0.4167-0.2406 0.0000 (  5290 PWs)   bands (ev):

   -19.7862 -19.7862 -15.9835 -15.9835 -10.5123 -10.5123  -7.4454  -7.4454
    -1.4745  -1.4745   3.1856   3.1856   4.5762   4.5762   5.5052   5.5052

          k = 0.4167-0.1443 0.0000 (  5284 PWs)   bands (ev):

   -20.3977 -20.3977 -14.8852 -14.8852 -10.8304 -10.8304  -8.0153  -8.0153
    -0.5300  -0.5300   3.6530   3.6530   4.0502   4.0502   4.6070   4.6070

          k = 0.4167-0.0481 0.0000 (  5285 PWs)   bands (ev):

   -20.7099 -20.7099 -13.7495 -13.7495 -11.7262 -11.7262  -8.3198  -8.3198
     0.1768   0.1768   3.2438   3.2438   4.1275   4.1275   5.8252   5.8255

          k = 0.4167 0.0481 0.0000 (  5285 PWs)   bands (ev):

   -20.7099 -20.7099 -13.7495 -13.7495 -11.7262 -11.7262  -8.3198  -8.3198
     0.1768   0.1768   3.2438   3.2438   4.1275   4.1275   5.8256   5.8259

          k = 0.4167 0.1443 0.0000 (  5284 PWs)   bands (ev):

   -20.3977 -20.3977 -14.8852 -14.8852 -10.8305 -10.8305  -8.0153  -8.0153
    -0.5300  -0.5300   3.6530   3.6530   4.0502   4.0502   4.6070   4.6070

          k =-0.5000-0.2887 0.0000 (  5288 PWs)   bands (ev):

   -18.5284 -18.5284 -17.4837 -17.4837 -10.6742 -10.6742  -6.6032  -6.6032
    -2.5694  -2.5694   3.1061   3.1061   6.8670   6.8670   7.0235   7.0235

          k =-0.5000-0.1925 0.0000 (  5302 PWs)   bands (ev):

   -18.9216 -18.9216 -16.8227 -16.8227 -11.1581 -11.1581  -6.7096  -6.7096
    -2.2941  -2.2941   3.8441   3.8441   5.8687   5.8687   6.7471   6.7472

          k =-0.5000-0.0962 0.0000 (  5283 PWs)   bands (ev):

   -19.3363 -19.3363 -15.6570 -15.6570 -12.3015 -12.3015  -6.8968  -6.8968
    -1.7307  -1.7307   5.1914   5.1914   5.7614   5.7614   5.9860   5.9860

          k =-0.5000 0.0000 0.0000 (  5268 PWs)   bands (ev):

   -19.4835 -19.4835 -14.7855 -14.7855 -13.2055 -13.2055  -6.9805  -6.9805
    -1.4341  -1.4341   4.9854   4.9854   5.6924   5.6924   7.6253   7.6255

          k =-0.5000 0.0962 0.0000 (  5283 PWs)   bands (ev):

   -19.3362 -19.3362 -15.6570 -15.6570 -12.3015 -12.3015  -6.8967  -6.8967
    -1.7308  -1.7308   5.1914   5.1914   5.7614   5.7614   5.9860   5.9860

          k =-0.5000 0.1925 0.0000 (  5302 PWs)   bands (ev):

   -18.9216 -18.9216 -16.8228 -16.8228 -11.1581 -11.1581  -6.7096  -6.7096
    -2.2942  -2.2942   3.8441   3.8441   5.8687   5.8687   6.7472   6.7472

          k =-0.5000-0.8660 0.0000 (  5288 PWs)   bands (ev):

   -18.5284 -18.5284 -17.4837 -17.4837 -10.6742 -10.6742  -6.6032  -6.6032
    -2.5694  -2.5694   3.1061   3.1061   6.8670   6.8670   7.0235   7.0235

     the Fermi energy is  -4.245742 ev

!    total energy              =     -36.88891068 Ry
     total all-electron energy =      -152.417200 Ry
     estimated scf accuracy    <          4.3E-09 Ry
     smearing contrib. (-TS)   =      -0.00003134 Ry
     internal energy E=F+TS    =     -36.88887933 Ry

     The total energy is F=E-TS. E is the sum of the following terms:
     one-electron contribution =    -256.05315715 Ry
     hartree contribution      =     128.89178064 Ry
     xc contribution           =      -8.28623107 Ry
     ewald contribution        =     111.86623661 Ry
     one-center paw contrib.   =     -13.30750835 Ry

     convergence has been achieved in  19 iterations

     negative rho (up, down):  7.076E-06 0.000E+00

     Forces acting on atoms (cartesian axes, Ry/au):

     atom    1 type  1   force =     0.00000716   -0.00000374   -0.00000043
     atom    2 type  1   force =    -0.00000716    0.00000374    0.00000043

     Total force =     0.000011     Total SCF correction =     0.000023
     SCF correction compared to forces is large: reduce conv_thr to get better values


     Computing stress (Cartesian axis) and pressure


     negative rho (up, down):  7.076E-06 0.000E+00
          total   stress  (Ry/bohr**3)                   (kbar)     P=       -0.92
  -0.00000853   0.00000004   0.00000000           -1.26        0.01        0.00
   0.00000004  -0.00000850  -0.00000000            0.01       -1.25       -0.00
   0.00000000  -0.00000000  -0.00000168            0.00       -0.00       -0.25


     Writing all to output data dir ./tmp/graphene.save/ :
     XML data file, charge density, pseudopotentials, collected wavefunctions

     init_run     :      8.61s CPU      8.89s WALL (       1 calls)
     electrons    :    496.66s CPU    501.52s WALL (       1 calls)
     forces       :      2.52s CPU      2.61s WALL (       1 calls)
     stress       :      9.13s CPU      9.39s WALL (       1 calls)

     Called by init_run:
     wfcinit      :      7.06s CPU      7.17s WALL (       1 calls)
     potinit      :      0.52s CPU      0.57s WALL (       1 calls)
     hinit0       :      0.74s CPU      0.77s WALL (       1 calls)

     Called by electrons:
     c_bands      :    443.12s CPU    444.77s WALL (      19 calls)
     sum_band     :     45.53s CPU     47.24s WALL (      19 calls)
     v_of_rho     :      1.76s CPU      1.79s WALL (      20 calls)
     newd         :      4.14s CPU      5.68s WALL (      20 calls)
     PAW_pot      :      1.09s CPU      1.09s WALL (      20 calls)
     mix_rho      :      0.91s CPU      0.92s WALL (      19 calls)

     Called by c_bands:
     init_us_2    :      2.43s CPU      2.45s WALL (    3034 calls)
     cegterg      :    433.69s CPU    435.31s WALL (    1406 calls)

     Called by *egterg:
     cdiaghg      :      5.12s CPU      5.14s WALL (    5901 calls)
     h_psi        :    255.99s CPU    256.96s WALL (    5975 calls)
     s_psi        :     28.18s CPU     28.25s WALL (    5975 calls)
     g_psi        :      1.32s CPU      1.33s WALL (    4495 calls)

     Called by h_psi:
     h_psi:calbec :     27.81s CPU     27.84s WALL (    5975 calls)
     vloc_psi     :    198.85s CPU    199.37s WALL (    5975 calls)
     add_vuspsi   :     28.28s CPU     28.30s WALL (    5975 calls)

     General routines
     calbec       :     44.65s CPU     44.68s WALL (    8639 calls)
     fft          :      1.94s CPU      1.96s WALL (     514 calls)
     ffts         :      0.40s CPU      0.40s WALL (     156 calls)
     fftw         :    127.97s CPU    128.22s WALL (  320424 calls)
     interpolate  :      0.64s CPU      0.64s WALL (      80 calls)


     PWSCF        :   8m37.17s CPU   8m42.79s WALL


   This run was terminated on:   0:36:35   6Nov2025            

=------------------------------------------------------------------------------=
   JOB DONE.
=------------------------------------------------------------------------------=
