
     Program PWSCF v.7.4.1 starts on 11Nov2025 at 21:47: 0 

     This program is part of the open-source Quantum ESPRESSO suite
     for quantum simulation of materials; please cite
         "P. Giannozzi et al., J. Phys.:Condens. Matter 21 395502 (2009);
         "P. Giannozzi et al., J. Phys.:Condens. Matter 29 465901 (2017);
         "P. Giannozzi et al., J. Chem. Phys. 152 154105 (2020);
          URL http://www.quantum-espresso.org", 
     in publications or presentations arising from this work. More details at
     http://www.quantum-espresso.org/quote

     Parallel version (MPI), running on     6 processors

     MPI processes distributed on     1 nodes
     8909 MiB available memory on the printing compute node when the environment starts

     Reading input from grap_SOC_scf.in

     Current dimensions of program PWSCF are:
     Max number of different atomic species (ntypx) = 10
     Max number of k-points (npk) =  40000
     Max angular momentum in pseudopotentials (lmaxx) =  4
     Presently stress not available with electric field and gates

     file C.rel-pbe-n-kjpaw_psl.0.1.UPF: wavefunction(s)  2P 2P renormalized

     R & G space division:  proc/nbgrp/npool/nimage =       6
     Subspace diagonalization in iterative solution of the eigenvalue problem:
     a serial algorithm will be used


     Parallelization info
     --------------------
     sticks:   dense  smooth     PW     G-vecs:    dense   smooth      PW
     Min         173      70     23                27803     7050    1361
     Max         175      71     24                27830     7077    1378
     Sum        1045     421    139               166859    42343    8205

     Using Slab Decomposition



     bravais-lattice index     =            0
     lattice parameter (alat)  =       4.6624  a.u.
     unit-cell volume          =     533.6317 (a.u.)^3
     number of atoms/cell      =            2
     number of atomic types    =            1
     number of electrons       =         8.00
     number of Kohn-Sham states=           16
     kinetic-energy cutoff     =      70.0000  Ry
     charge density cutoff     =     700.0000  Ry
     scf convergence threshold =      1.0E-08
     mixing beta               =       0.1000
     number of iterations used =            8  plain     mixing
     Exchange-correlation= SLA  PW   PBX  PBC
                           (   1   4   3   4   0   0   0)
     Non magnetic calculation with spin-orbit


     celldm(1)=   4.662410  celldm(2)=   0.000000  celldm(3)=   0.000000
     celldm(4)=   0.000000  celldm(5)=   0.000000  celldm(6)=   0.000000

     crystal axes: (cart. coord. in units of alat)
               a(1) = (   1.000000   0.000000  -0.000000 )  
               a(2) = (  -0.500000   0.866025   0.000000 )  
               a(3) = (  -0.000000   0.000000   6.079666 )  

     reciprocal axes: (cart. coord. in units 2 pi/alat)
               b(1) = (  1.000000  0.577350  0.000000 )  
               b(2) = ( -0.000000  1.154701 -0.000000 )  
               b(3) = (  0.000000  0.000000  0.164483 )  


     PseudoPot. # 1 for C  read from file:
     ../../../pseudos/C.rel-pbe-n-kjpaw_psl.0.1.UPF
     MD5 check sum: 5ef0b8f55ac4be3c3db5d31256eeff6b
     Pseudo is Projector augmented-wave + core cor, Zval =  4.0
     Generated using &quot;atomic&quot; code by A. Dal Corso  v.6.3
     Shape of augmentation charge: BESSEL
     Using radial grid of 1073 points,  6 beta functions with: 
                l(1) =   0
                l(2) =   0
                l(3) =   1
                l(4) =   1
                l(5) =   1
                l(6) =   1
     Q(r) pseudized with 0 coefficients 


     atomic species   valence    mass     pseudopotential
     C                 4.00    12.01100     C ( 1.00)

     No symmetry found



   Cartesian axes

     site n.     atom                  positions (alat units)
         1        C      tau(   1) = (   0.0000000   0.0000000   3.0398328  )
         2        C      tau(   2) = (   0.0000000   0.5773503   3.0398328  )

     number of k points=    74  Gaussian smearing, width (Ry)=  0.0020
                       cart. coord. in units 2pi/alat
        k(    1) = (   0.0000000   0.0000000   0.0000000), wk =   0.0069444
        k(    2) = (   0.0000000   0.0962250   0.0000000), wk =   0.0138889
        k(    3) = (   0.0000000   0.1924501   0.0000000), wk =   0.0138889
        k(    4) = (   0.0000000   0.2886751   0.0000000), wk =   0.0138889
        k(    5) = (   0.0000000   0.3849002   0.0000000), wk =   0.0138889
        k(    6) = (   0.0000000   0.4811252   0.0000000), wk =   0.0138889
        k(    7) = (   0.0000000  -0.5773503   0.0000000), wk =   0.0069444
        k(    8) = (   0.0833333   0.0481125   0.0000000), wk =   0.0138889
        k(    9) = (   0.0833333   0.1443376   0.0000000), wk =   0.0138889
        k(   10) = (   0.0833333   0.2405626   0.0000000), wk =   0.0138889
        k(   11) = (   0.0833333   0.3367877   0.0000000), wk =   0.0138889
        k(   12) = (   0.0833333   0.4330127   0.0000000), wk =   0.0138889
        k(   13) = (   0.0833333   0.5292377   0.0000000), wk =   0.0138889
        k(   14) = (   0.0833333  -0.5292377   0.0000000), wk =   0.0138889
        k(   15) = (   0.0833333  -0.4330127   0.0000000), wk =   0.0138889
        k(   16) = (   0.0833333  -0.3367877   0.0000000), wk =   0.0138889
        k(   17) = (   0.0833333  -0.2405626   0.0000000), wk =   0.0138889
        k(   18) = (   0.0833333  -0.1443376   0.0000000), wk =   0.0138889
        k(   19) = (   0.0833333  -0.0481125   0.0000000), wk =   0.0138889
        k(   20) = (   0.1666667   0.0962250   0.0000000), wk =   0.0138889
        k(   21) = (   0.1666667   0.1924501   0.0000000), wk =   0.0138889
        k(   22) = (   0.1666667   0.2886751   0.0000000), wk =   0.0138889
        k(   23) = (   0.1666667   0.3849002   0.0000000), wk =   0.0138889
        k(   24) = (   0.1666667   0.4811252   0.0000000), wk =   0.0138889
        k(   25) = (   0.1666667   0.5773503   0.0000000), wk =   0.0138889
        k(   26) = (   0.1666667  -0.4811252   0.0000000), wk =   0.0138889
        k(   27) = (   0.1666667  -0.3849002   0.0000000), wk =   0.0138889
        k(   28) = (   0.1666667  -0.2886751   0.0000000), wk =   0.0138889
        k(   29) = (   0.1666667  -0.1924501   0.0000000), wk =   0.0138889
        k(   30) = (   0.1666667  -0.0962250   0.0000000), wk =   0.0138889
        k(   31) = (   0.1666667  -0.0000000   0.0000000), wk =   0.0138889
        k(   32) = (   0.2500000   0.1443376   0.0000000), wk =   0.0138889
        k(   33) = (   0.2500000   0.2405626   0.0000000), wk =   0.0138889
        k(   34) = (   0.2500000   0.3367877   0.0000000), wk =   0.0138889
        k(   35) = (   0.2500000   0.4330127   0.0000000), wk =   0.0138889
        k(   36) = (   0.2500000   0.5292377   0.0000000), wk =   0.0138889
        k(   37) = (   0.2500000   0.6254628   0.0000000), wk =   0.0138889
        k(   38) = (   0.2500000  -0.4330127   0.0000000), wk =   0.0138889
        k(   39) = (   0.2500000  -0.3367877   0.0000000), wk =   0.0138889
        k(   40) = (   0.2500000  -0.2405626   0.0000000), wk =   0.0138889
        k(   41) = (   0.2500000  -0.1443376   0.0000000), wk =   0.0138889
        k(   42) = (   0.2500000  -0.0481125   0.0000000), wk =   0.0138889
        k(   43) = (   0.2500000   0.0481125   0.0000000), wk =   0.0138889
        k(   44) = (   0.3333333   0.1924501   0.0000000), wk =   0.0138889
        k(   45) = (   0.3333333   0.2886751   0.0000000), wk =   0.0138889
        k(   46) = (   0.3333333   0.3849002   0.0000000), wk =   0.0138889
        k(   47) = (   0.3333333   0.4811252   0.0000000), wk =   0.0138889
        k(   48) = (   0.3333333   0.5773503   0.0000000), wk =   0.0138889
        k(   49) = (   0.3333333   0.6735753   0.0000000), wk =   0.0138889
        k(   50) = (   0.3333333  -0.3849002   0.0000000), wk =   0.0138889
        k(   51) = (   0.3333333  -0.2886751   0.0000000), wk =   0.0138889
        k(   52) = (   0.3333333  -0.1924501   0.0000000), wk =   0.0138889
        k(   53) = (   0.3333333  -0.0962250   0.0000000), wk =   0.0138889
        k(   54) = (   0.3333333   0.0000000   0.0000000), wk =   0.0138889
        k(   55) = (   0.3333333   0.0962250   0.0000000), wk =   0.0138889
        k(   56) = (   0.4166667   0.2405626   0.0000000), wk =   0.0138889
        k(   57) = (   0.4166667   0.3367877   0.0000000), wk =   0.0138889
        k(   58) = (   0.4166667   0.4330127   0.0000000), wk =   0.0138889
        k(   59) = (   0.4166667   0.5292377   0.0000000), wk =   0.0138889
        k(   60) = (   0.4166667   0.6254628   0.0000000), wk =   0.0138889
        k(   61) = (   0.4166667   0.7216878   0.0000000), wk =   0.0138889
        k(   62) = (   0.4166667  -0.3367877   0.0000000), wk =   0.0138889
        k(   63) = (   0.4166667  -0.2405626   0.0000000), wk =   0.0138889
        k(   64) = (   0.4166667  -0.1443376   0.0000000), wk =   0.0138889
        k(   65) = (   0.4166667  -0.0481125   0.0000000), wk =   0.0138889
        k(   66) = (   0.4166667   0.0481125   0.0000000), wk =   0.0138889
        k(   67) = (   0.4166667   0.1443376   0.0000000), wk =   0.0138889
        k(   68) = (  -0.5000000  -0.2886751   0.0000000), wk =   0.0069444
        k(   69) = (  -0.5000000  -0.1924501   0.0000000), wk =   0.0138889
        k(   70) = (  -0.5000000  -0.0962250   0.0000000), wk =   0.0138889
        k(   71) = (  -0.5000000   0.0000000   0.0000000), wk =   0.0138889
        k(   72) = (  -0.5000000   0.0962250   0.0000000), wk =   0.0138889
        k(   73) = (  -0.5000000   0.1924501   0.0000000), wk =   0.0138889
        k(   74) = (  -0.5000000  -0.8660254   0.0000000), wk =   0.0069444

     Dense  grid:   166859 G-vectors     FFT dimensions: (  40,  40, 240)

     Smooth grid:    42343 G-vectors     FFT dimensions: (  25,  25, 160)

     Estimated max dynamical RAM per process >     131.86 MB

     Estimated total dynamical RAM >     791.13 MB

     Initial potential from superposition of free atoms

     starting charge       7.9999, renormalised to       8.0000

     negative rho (up, down):  2.781E-05 0.000E+00

     Adding external electric field

     Computed dipole along edir(3) : 
        Dipole               -0.0000 Ry au,         -0.0000 Debye
        Dipole field         -0.0000 Ry au, 

        E field amplitude [Ha a.u.]:  7.7788E-03
        Potential amp.        0.4189 Ry
        Total length         26.9286 bohr

     Starting wfcs are random
     Checking if some PAW data can be deallocated... 

     total cpu time spent up to now is        3.0 secs

     Self-consistent Calculation

     iteration #  1     ecut=    70.00 Ry     beta= 0.10
     Davidson diagonalization with overlap
     ethr =  1.00E-02,  avg # of iterations =  9.0

     negative rho (up, down):  2.257E-05 0.000E+00

     Adding external electric field

     Computed dipole along edir(3) : 
        Dipole                0.0097 Ry au,          0.0247 Debye
        Dipole field          0.0002 Ry au, 

        E field amplitude [Ha a.u.]:  7.7788E-03
        Potential amp.        0.4066 Ry
        Total length         26.9286 bohr


     total cpu time spent up to now is       28.3 secs

     total energy              =     -36.95439579 Ry
     estimated scf accuracy    <       0.20336095 Ry

     iteration #  2     ecut=    70.00 Ry     beta= 0.10
     Davidson diagonalization with overlap
     ethr =  2.54E-03,  avg # of iterations =  1.0

     negative rho (up, down):  1.104E-04 0.000E+00

     Adding external electric field

     Computed dipole along edir(3) : 
        Dipole                0.0821 Ry au,          0.2088 Debye
        Dipole field          0.0019 Ry au, 

        E field amplitude [Ha a.u.]:  7.7788E-03
        Potential amp.        0.3148 Ry
        Total length         26.9286 bohr


     total cpu time spent up to now is       33.2 secs

     total energy              =     -36.85072811 Ry
     estimated scf accuracy    <       0.15827356 Ry

     iteration #  3     ecut=    70.00 Ry     beta= 0.10
     Davidson diagonalization with overlap
     ethr =  1.98E-03,  avg # of iterations =  4.4

     negative rho (up, down):  7.793E-05 0.000E+00

     Adding external electric field

     Computed dipole along edir(3) : 
        Dipole                0.0754 Ry au,          0.1917 Debye
        Dipole field          0.0018 Ry au, 

        E field amplitude [Ha a.u.]:  7.7788E-03
        Potential amp.        0.3233 Ry
        Total length         26.9286 bohr


     total cpu time spent up to now is       39.7 secs

     total energy              =     -36.87613182 Ry
     estimated scf accuracy    <       0.00342079 Ry

     iteration #  4     ecut=    70.00 Ry     beta= 0.10
     Davidson diagonalization with overlap
     ethr =  4.28E-05,  avg # of iterations =  6.6

     negative rho (up, down):  6.047E-05 0.000E+00

     Adding external electric field

     Computed dipole along edir(3) : 
        Dipole                0.0901 Ry au,          0.2291 Debye
        Dipole field          0.0021 Ry au, 

        E field amplitude [Ha a.u.]:  7.7788E-03
        Potential amp.        0.3046 Ry
        Total length         26.9286 bohr


     total cpu time spent up to now is       52.4 secs

     total energy              =     -36.89746802 Ry
     estimated scf accuracy    <       0.00968245 Ry

     iteration #  5     ecut=    70.00 Ry     beta= 0.10
     Davidson diagonalization with overlap
     ethr =  4.28E-05,  avg # of iterations =  1.1

     negative rho (up, down):  2.824E-05 0.000E+00

     Adding external electric field

     Computed dipole along edir(3) : 
        Dipole                0.1319 Ry au,          0.3353 Debye
        Dipole field          0.0031 Ry au, 

        E field amplitude [Ha a.u.]:  7.7788E-03
        Potential amp.        0.2516 Ry
        Total length         26.9286 bohr


     total cpu time spent up to now is       57.4 secs

     total energy              =     -36.91107400 Ry
     estimated scf accuracy    <       0.01748419 Ry

     iteration #  6     ecut=    70.00 Ry     beta= 0.10
     Davidson diagonalization with overlap
     ethr =  4.28E-05,  avg # of iterations =  4.5

     negative rho (up, down):  3.025E-05 0.000E+00

     Adding external electric field

     Computed dipole along edir(3) : 
        Dipole                0.1242 Ry au,          0.3156 Debye
        Dipole field          0.0029 Ry au, 

        E field amplitude [Ha a.u.]:  7.7788E-03
        Potential amp.        0.2615 Ry
        Total length         26.9286 bohr


     total cpu time spent up to now is       67.7 secs

     total energy              =     -36.91038505 Ry
     estimated scf accuracy    <       0.06034109 Ry

     iteration #  7     ecut=    70.00 Ry     beta= 0.10
     Davidson diagonalization with overlap
     ethr =  4.28E-05,  avg # of iterations =  1.0

     negative rho (up, down):  1.616E-04 0.000E+00

     Adding external electric field

     Computed dipole along edir(3) : 
        Dipole                0.0388 Ry au,          0.0987 Debye
        Dipole field          0.0009 Ry au, 

        E field amplitude [Ha a.u.]:  7.7788E-03
        Potential amp.        0.3697 Ry
        Total length         26.9286 bohr


     total cpu time spent up to now is       72.6 secs

     total energy              =     -36.87824258 Ry
     estimated scf accuracy    <       0.05308579 Ry

     iteration #  8     ecut=    70.00 Ry     beta= 0.10
     Davidson diagonalization with overlap
     ethr =  4.28E-05,  avg # of iterations =  5.8

     negative rho (up, down):  1.340E-04 0.000E+00

     Adding external electric field

     Computed dipole along edir(3) : 
        Dipole                0.0421 Ry au,          0.1071 Debye
        Dipole field          0.0010 Ry au, 

        E field amplitude [Ha a.u.]:  7.7788E-03
        Potential amp.        0.3655 Ry
        Total length         26.9286 bohr


     total cpu time spent up to now is       84.8 secs

     total energy              =     -36.88927408 Ry
     estimated scf accuracy    <       0.00025616 Ry

     iteration #  9     ecut=    70.00 Ry     beta= 0.10
     Davidson diagonalization with overlap
     ethr =  3.20E-06,  avg # of iterations =  2.1

     negative rho (up, down):  1.066E-04 0.000E+00

     Adding external electric field

     Computed dipole along edir(3) : 
        Dipole                0.0439 Ry au,          0.1116 Debye
        Dipole field          0.0010 Ry au, 

        E field amplitude [Ha a.u.]:  7.7788E-03
        Potential amp.        0.3633 Ry
        Total length         26.9286 bohr


     total cpu time spent up to now is       90.2 secs

     total energy              =     -36.88928212 Ry
     estimated scf accuracy    <       0.00010126 Ry

     iteration # 10     ecut=    70.00 Ry     beta= 0.10
     Davidson diagonalization with overlap
     ethr =  1.27E-06,  avg # of iterations =  2.1

     negative rho (up, down):  9.626E-05 0.000E+00

     Adding external electric field

     Computed dipole along edir(3) : 
        Dipole                0.0443 Ry au,          0.1127 Debye
        Dipole field          0.0010 Ry au, 

        E field amplitude [Ha a.u.]:  7.7788E-03
        Potential amp.        0.3627 Ry
        Total length         26.9286 bohr


     total cpu time spent up to now is       95.5 secs

     total energy              =     -36.88927158 Ry
     estimated scf accuracy    <       0.00009010 Ry

     iteration # 11     ecut=    70.00 Ry     beta= 0.10
     Davidson diagonalization with overlap
     ethr =  1.13E-06,  avg # of iterations =  1.5

     negative rho (up, down):  7.572E-05 0.000E+00

     Adding external electric field

     Computed dipole along edir(3) : 
        Dipole                0.0421 Ry au,          0.1069 Debye
        Dipole field          0.0010 Ry au, 

        E field amplitude [Ha a.u.]:  7.7788E-03
        Potential amp.        0.3656 Ry
        Total length         26.9286 bohr


     total cpu time spent up to now is      100.6 secs

     total energy              =     -36.88929236 Ry
     estimated scf accuracy    <       0.00006055 Ry

     iteration # 12     ecut=    70.00 Ry     beta= 0.10
     Davidson diagonalization with overlap
     ethr =  7.57E-07,  avg # of iterations =  1.5

     negative rho (up, down):  4.365E-05 0.000E+00

     Adding external electric field

     Computed dipole along edir(3) : 
        Dipole                0.0448 Ry au,          0.1140 Debye
        Dipole field          0.0011 Ry au, 

        E field amplitude [Ha a.u.]:  7.7788E-03
        Potential amp.        0.3621 Ry
        Total length         26.9286 bohr


     total cpu time spent up to now is      105.6 secs

     total energy              =     -36.88924585 Ry
     estimated scf accuracy    <       0.00009101 Ry

     iteration # 13     ecut=    70.00 Ry     beta= 0.10
     Davidson diagonalization with overlap
     ethr =  7.57E-07,  avg # of iterations =  2.6

     negative rho (up, down):  3.916E-05 0.000E+00

     Adding external electric field

     Computed dipole along edir(3) : 
        Dipole                0.0455 Ry au,          0.1157 Debye
        Dipole field          0.0011 Ry au, 

        E field amplitude [Ha a.u.]:  7.7788E-03
        Potential amp.        0.3612 Ry
        Total length         26.9286 bohr


     total cpu time spent up to now is      111.2 secs

     total energy              =     -36.88925185 Ry
     estimated scf accuracy    <       0.00000784 Ry

     iteration # 14     ecut=    70.00 Ry     beta= 0.10
     Davidson diagonalization with overlap
     ethr =  9.80E-08,  avg # of iterations =  4.6

     negative rho (up, down):  3.564E-05 0.000E+00

     Adding external electric field

     Computed dipole along edir(3) : 
        Dipole                0.0466 Ry au,          0.1183 Debye
        Dipole field          0.0011 Ry au, 

        E field amplitude [Ha a.u.]:  7.7788E-03
        Potential amp.        0.3599 Ry
        Total length         26.9286 bohr


     total cpu time spent up to now is      119.6 secs

     total energy              =     -36.88926873 Ry
     estimated scf accuracy    <       0.00000199 Ry

     iteration # 15     ecut=    70.00 Ry     beta= 0.10
     Davidson diagonalization with overlap
     ethr =  2.49E-08,  avg # of iterations =  1.8

     negative rho (up, down):  3.151E-05 0.000E+00

     Adding external electric field

     Computed dipole along edir(3) : 
        Dipole                0.0465 Ry au,          0.1182 Debye
        Dipole field          0.0011 Ry au, 

        E field amplitude [Ha a.u.]:  7.7788E-03
        Potential amp.        0.3600 Ry
        Total length         26.9286 bohr


     total cpu time spent up to now is      124.9 secs

     total energy              =     -36.88926887 Ry
     estimated scf accuracy    <       0.00000496 Ry

     iteration # 16     ecut=    70.00 Ry     beta= 0.10
     Davidson diagonalization with overlap
     ethr =  2.49E-08,  avg # of iterations =  1.0

     negative rho (up, down):  2.657E-05 0.000E+00

     Adding external electric field

     Computed dipole along edir(3) : 
        Dipole                0.0465 Ry au,          0.1182 Debye
        Dipole field          0.0011 Ry au, 

        E field amplitude [Ha a.u.]:  7.7788E-03
        Potential amp.        0.3600 Ry
        Total length         26.9286 bohr


     total cpu time spent up to now is      129.8 secs

     total energy              =     -36.88926910 Ry
     estimated scf accuracy    <       0.00000471 Ry

     iteration # 17     ecut=    70.00 Ry     beta= 0.10
     Davidson diagonalization with overlap
     ethr =  2.49E-08,  avg # of iterations =  1.0

     negative rho (up, down):  2.343E-05 0.000E+00

     Adding external electric field

     Computed dipole along edir(3) : 
        Dipole                0.0467 Ry au,          0.1187 Debye
        Dipole field          0.0011 Ry au, 

        E field amplitude [Ha a.u.]:  7.7788E-03
        Potential amp.        0.3597 Ry
        Total length         26.9286 bohr


     total cpu time spent up to now is      134.7 secs

     total energy              =     -36.88926925 Ry
     estimated scf accuracy    <       0.00000511 Ry

     iteration # 18     ecut=    70.00 Ry     beta= 0.10
     Davidson diagonalization with overlap
     ethr =  2.49E-08,  avg # of iterations =  1.0

     negative rho (up, down):  2.082E-05 0.000E+00

     Adding external electric field

     Computed dipole along edir(3) : 
        Dipole                0.0468 Ry au,          0.1189 Debye
        Dipole field          0.0011 Ry au, 

        E field amplitude [Ha a.u.]:  7.7788E-03
        Potential amp.        0.3596 Ry
        Total length         26.9286 bohr


     total cpu time spent up to now is      139.6 secs

     total energy              =     -36.88926933 Ry
     estimated scf accuracy    <       0.00000543 Ry

     iteration # 19     ecut=    70.00 Ry     beta= 0.10
     Davidson diagonalization with overlap
     ethr =  2.49E-08,  avg # of iterations =  1.0

     negative rho (up, down):  1.859E-05 0.000E+00

     Adding external electric field

     Computed dipole along edir(3) : 
        Dipole                0.0468 Ry au,          0.1189 Debye
        Dipole field          0.0011 Ry au, 

        E field amplitude [Ha a.u.]:  7.7788E-03
        Potential amp.        0.3596 Ry
        Total length         26.9286 bohr


     total cpu time spent up to now is      144.5 secs

     total energy              =     -36.88926939 Ry
     estimated scf accuracy    <       0.00000572 Ry

     iteration # 20     ecut=    70.00 Ry     beta= 0.10
     Davidson diagonalization with overlap
     ethr =  2.49E-08,  avg # of iterations =  1.0

     negative rho (up, down):  1.671E-05 0.000E+00

     Adding external electric field

     Computed dipole along edir(3) : 
        Dipole                0.0468 Ry au,          0.1189 Debye
        Dipole field          0.0011 Ry au, 

        E field amplitude [Ha a.u.]:  7.7788E-03
        Potential amp.        0.3596 Ry
        Total length         26.9286 bohr


     total cpu time spent up to now is      149.4 secs

     total energy              =     -36.88926948 Ry
     estimated scf accuracy    <       0.00000580 Ry

     iteration # 21     ecut=    70.00 Ry     beta= 0.10
     Davidson diagonalization with overlap
     ethr =  2.49E-08,  avg # of iterations =  1.0

     negative rho (up, down):  1.514E-05 0.000E+00

     Adding external electric field

     Computed dipole along edir(3) : 
        Dipole                0.0467 Ry au,          0.1187 Debye
        Dipole field          0.0011 Ry au, 

        E field amplitude [Ha a.u.]:  7.7788E-03
        Potential amp.        0.3597 Ry
        Total length         26.9286 bohr


     total cpu time spent up to now is      154.3 secs

     total energy              =     -36.88926923 Ry
     estimated scf accuracy    <       0.00000610 Ry

     iteration # 22     ecut=    70.00 Ry     beta= 0.10
     Davidson diagonalization with overlap
     ethr =  2.49E-08,  avg # of iterations =  1.0

     negative rho (up, down):  1.470E-05 0.000E+00

     Adding external electric field

     Computed dipole along edir(3) : 
        Dipole                0.0460 Ry au,          0.1169 Debye
        Dipole field          0.0011 Ry au, 

        E field amplitude [Ha a.u.]:  7.7788E-03
        Potential amp.        0.3606 Ry
        Total length         26.9286 bohr


     total cpu time spent up to now is      159.3 secs

     total energy              =     -36.88926609 Ry
     estimated scf accuracy    <       0.00000556 Ry

     iteration # 23     ecut=    70.00 Ry     beta= 0.10
     Davidson diagonalization with overlap
     ethr =  2.49E-08,  avg # of iterations =  3.5

     negative rho (up, down):  1.302E-05 0.000E+00

     Adding external electric field

     Computed dipole along edir(3) : 
        Dipole                0.0458 Ry au,          0.1165 Debye
        Dipole field          0.0011 Ry au, 

        E field amplitude [Ha a.u.]:  7.7788E-03
        Potential amp.        0.3608 Ry
        Total length         26.9286 bohr


     total cpu time spent up to now is      165.3 secs

     total energy              =     -36.88926681 Ry
     estimated scf accuracy    <       0.00000008 Ry

     iteration # 24     ecut=    70.00 Ry     beta= 0.10
     Davidson diagonalization with overlap
     ethr =  1.02E-09,  avg # of iterations =  4.7

     negative rho (up, down):  1.236E-05 0.000E+00

     Adding external electric field

     Computed dipole along edir(3) : 
        Dipole                0.0461 Ry au,          0.1172 Debye
        Dipole field          0.0011 Ry au, 

        E field amplitude [Ha a.u.]:  7.7788E-03
        Potential amp.        0.3605 Ry
        Total length         26.9286 bohr


     total cpu time spent up to now is      174.2 secs

     total energy              =     -36.88926704 Ry
     estimated scf accuracy    <       0.00000007 Ry

     iteration # 25     ecut=    70.00 Ry     beta= 0.10
     Davidson diagonalization with overlap
     ethr =  8.14E-10,  avg # of iterations =  3.2

     negative rho (up, down):  1.151E-05 0.000E+00

     Adding external electric field

     Computed dipole along edir(3) : 
        Dipole                0.0458 Ry au,          0.1165 Debye
        Dipole field          0.0011 Ry au, 

        E field amplitude [Ha a.u.]:  7.7788E-03
        Potential amp.        0.3608 Ry
        Total length         26.9286 bohr


     total cpu time spent up to now is      180.6 secs

     total energy              =     -36.88926702 Ry
     estimated scf accuracy    <       0.00000018 Ry

     iteration # 26     ecut=    70.00 Ry     beta= 0.10
     Davidson diagonalization with overlap
     ethr =  8.14E-10,  avg # of iterations =  2.2

     negative rho (up, down):  1.023E-05 0.000E+00

     Adding external electric field

     Computed dipole along edir(3) : 
        Dipole                0.0456 Ry au,          0.1158 Debye
        Dipole field          0.0011 Ry au, 

        E field amplitude [Ha a.u.]:  7.7788E-03
        Potential amp.        0.3611 Ry
        Total length         26.9286 bohr


     total cpu time spent up to now is      186.1 secs

     total energy              =     -36.88926706 Ry
     estimated scf accuracy    <       0.00000002 Ry

     iteration # 27     ecut=    70.00 Ry     beta= 0.10
     Davidson diagonalization with overlap
     ethr =  2.14E-10,  avg # of iterations =  4.2

     negative rho (up, down):  9.537E-06 0.000E+00

     Adding external electric field

     Computed dipole along edir(3) : 
        Dipole                0.0458 Ry au,          0.1163 Debye
        Dipole field          0.0011 Ry au, 

        E field amplitude [Ha a.u.]:  7.7788E-03
        Potential amp.        0.3609 Ry
        Total length         26.9286 bohr


     total cpu time spent up to now is      194.6 secs

     total energy              =     -36.88926703 Ry
     estimated scf accuracy    <       0.00000029 Ry

     iteration # 28     ecut=    70.00 Ry     beta= 0.10
     Davidson diagonalization with overlap
     ethr =  2.14E-10,  avg # of iterations =  4.4

     negative rho (up, down):  8.644E-06 0.000E+00

     Adding external electric field

     Computed dipole along edir(3) : 
        Dipole                0.0459 Ry au,          0.1165 Debye
        Dipole field          0.0011 Ry au, 

        E field amplitude [Ha a.u.]:  7.7788E-03
        Potential amp.        0.3608 Ry
        Total length         26.9286 bohr


     total cpu time spent up to now is      202.5 secs

     total energy              =     -36.88926705 Ry
     estimated scf accuracy    <       0.00000002 Ry

     iteration # 29     ecut=    70.00 Ry     beta= 0.10
     Davidson diagonalization with overlap
     ethr =  2.14E-10,  avg # of iterations =  3.2

     negative rho (up, down):  7.020E-06 0.000E+00

     Adding external electric field

     Computed dipole along edir(3) : 
        Dipole                0.0458 Ry au,          0.1164 Debye
        Dipole field          0.0011 Ry au, 

        E field amplitude [Ha a.u.]:  7.7788E-03
        Potential amp.        0.3608 Ry
        Total length         26.9286 bohr


     total cpu time spent up to now is      208.3 secs

     End of self-consistent calculation

          k = 0.0000 0.0000 0.0000 (  5307 PWs)   bands (ev):

   -20.5955 -20.5955  -8.6912  -8.6912  -4.1454  -4.1454  -4.1362  -4.1362
     1.1624   1.1624   1.9962   1.9962   3.0453   3.0453   4.4406   4.4406

          k = 0.0000 0.0962 0.0000 (  5285 PWs)   bands (ev):

   -20.4317 -20.4317  -8.4955  -8.4955  -4.7907  -4.7907  -4.4781  -4.4781
     1.3906   1.3906   2.2205   2.2206   3.2691   3.2691   4.6629   4.6630

          k = 0.0000 0.1925 0.0000 (  5253 PWs)   bands (ev):

   -19.9423 -19.9423  -7.9139  -7.9139  -6.4262  -6.4262  -5.2681  -5.2681
     2.0752   2.0752   2.8935   2.8935   3.9402   3.9403   5.3271   5.3271

          k = 0.0000 0.2887 0.0000 (  5269 PWs)   bands (ev):

   -19.1328 -19.1328  -8.5219  -8.5219  -6.9655  -6.9655  -6.1454  -6.1454
     3.2157   3.2157   4.0115   4.0116   5.0520   5.0522   6.0876   6.0876

          k = 0.0000 0.3849 0.0000 (  5285 PWs)   bands (ev):

   -18.0157 -18.0157 -10.7224 -10.7224  -6.8767  -6.8767  -5.7004  -5.7004
     3.8169   3.8170   4.8144   4.8144   5.5819   5.5821   6.5163   6.5170

          k = 0.0000 0.4811 0.0000 (  5290 PWs)   bands (ev):

   -16.6221 -16.6221 -12.8195 -12.8195  -7.3483  -7.3483  -4.2814  -4.2814
     1.6890   1.6891   6.3491   6.3491   6.8653   6.8653   7.5941   7.5943

          k = 0.0000-0.5774 0.0000 (  5288 PWs)   bands (ev):

   -15.3644 -15.3644 -14.3196 -14.3196  -7.5102  -7.5102  -3.4391  -3.4391
     0.5942   0.5942   6.2702   6.2702   9.3504   9.3505   9.3709   9.3710

          k = 0.0833 0.0481 0.0000 (  5285 PWs)   bands (ev):

   -20.4317 -20.4317  -8.4955  -8.4955  -4.7907  -4.7907  -4.4781  -4.4781
     1.3906   1.3906   2.2205   2.2206   3.2691   3.2691   4.6629   4.6630

          k = 0.0833 0.1443 0.0000 (  5269 PWs)   bands (ev):

   -20.1051 -20.1051  -8.1068  -8.1068  -5.8233  -5.8232  -5.1535  -5.1535
     1.8470   1.8470   2.6693   2.6694   3.7168   3.7169   5.1066   5.1066

          k = 0.0833 0.2406 0.0000 (  5261 PWs)   bands (ev):

   -19.4557 -19.4557  -7.5310  -7.5309  -7.3406  -7.3406  -6.1490  -6.1490
     2.7597   2.7597   3.5659   3.5660   4.6109   4.6111   5.9850   5.9851

          k = 0.0833 0.3368 0.0000 (  5275 PWs)   bands (ev):

   -18.4922 -18.4922  -9.6012  -9.6012  -7.0332  -7.0331  -6.2274  -6.2274
     4.1268   4.1268   4.7923   4.7924   4.9559   4.9562   5.9536   5.9538

          k = 0.0833 0.4330 0.0000 (  5284 PWs)   bands (ev):

   -17.2337 -17.2337 -11.7212 -11.7211  -7.6665  -7.6664  -4.8513  -4.8513
     2.6335   2.6336   5.9516   5.9516   6.6837   6.6840   7.1780   7.1784

          k = 0.0833 0.5292 0.0000 (  5302 PWs)   bands (ev):

   -15.7576 -15.7576 -13.6587 -13.6587  -7.9941  -7.9941  -3.5455  -3.5454
     0.8695   0.8696   7.0082   7.0082   8.2261   8.2262   8.9054   8.9057

          k = 0.0833-0.5292 0.0000 (  5302 PWs)   bands (ev):

   -15.7576 -15.7576 -13.6587 -13.6587  -7.9941  -7.9941  -3.5455  -3.5454
     0.8695   0.8696   7.0082   7.0082   8.2261   8.2262   8.9054   8.9057

          k = 0.0833-0.4330 0.0000 (  5284 PWs)   bands (ev):

   -17.2337 -17.2337 -11.7212 -11.7211  -7.6665  -7.6664  -4.8513  -4.8513
     2.6335   2.6336   5.9516   5.9516   6.6837   6.6840   7.1780   7.1784

          k = 0.0833-0.3368 0.0000 (  5275 PWs)   bands (ev):

   -18.4922 -18.4922  -9.6012  -9.6012  -7.0332  -7.0331  -6.2274  -6.2274
     4.1268   4.1268   4.7923   4.7924   4.9559   4.9562   5.9536   5.9538

          k = 0.0833-0.2406 0.0000 (  5261 PWs)   bands (ev):

   -19.4557 -19.4557  -7.5310  -7.5309  -7.3406  -7.3406  -6.1490  -6.1490
     2.7597   2.7597   3.5659   3.5660   4.6109   4.6111   5.9850   5.9851

          k = 0.0833-0.1443 0.0000 (  5269 PWs)   bands (ev):

   -20.1051 -20.1051  -8.1068  -8.1068  -5.8232  -5.8232  -5.1536  -5.1536
     1.8470   1.8470   2.6693   2.6694   3.7168   3.7169   5.1066   5.1066

          k = 0.0833-0.0481 0.0000 (  5285 PWs)   bands (ev):

   -20.4317 -20.4317  -8.4955  -8.4955  -4.7907  -4.7907  -4.4781  -4.4781
     1.3906   1.3906   2.2205   2.2206   3.2691   3.2691   4.6629   4.6630

          k = 0.1667 0.0962 0.0000 (  5253 PWs)   bands (ev):

   -19.9423 -19.9423  -7.9139  -7.9139  -6.4262  -6.4262  -5.2681  -5.2681
     2.0752   2.0752   2.8935   2.8935   3.9402   3.9403   5.3271   5.3271

          k = 0.1667 0.1925 0.0000 (  5261 PWs)   bands (ev):

   -19.4557 -19.4557  -7.5310  -7.5309  -7.3406  -7.3406  -6.1490  -6.1490
     2.7597   2.7597   3.5659   3.5660   4.6109   4.6111   5.9850   5.9851

          k = 0.1667 0.2887 0.0000 (  5288 PWs)   bands (ev):

   -18.6522 -18.6522  -8.8605  -8.8605  -7.5077  -7.5077  -6.4057  -6.4057
     3.9000   3.9001   4.6843   4.6845   5.2840   5.2841   5.7264   5.7266

          k = 0.1667 0.3849 0.0000 (  5285 PWs)   bands (ev):

   -17.5458 -17.5458 -10.5855 -10.5855  -8.5622  -8.5622  -5.1558  -5.1558
     3.3407   3.3408   5.4951   5.4951   6.2423   6.2425   7.2747   7.2750

          k = 0.1667 0.4811 0.0000 (  5283 PWs)   bands (ev):

   -16.1722 -16.1722 -12.4930 -12.4930  -9.1375  -9.1375  -3.7327  -3.7327
     1.4332   1.4332   7.5402   7.5403   8.2176   8.2180   8.8921   8.8926

          k = 0.1667 0.5774 0.0000 (  5264 PWs)   bands (ev):

   -14.9431 -14.9431 -13.9223 -13.9223  -9.3221  -9.3221  -2.8424  -2.8423
     0.3678   0.3678   8.8148   8.8148   9.9788   9.9788  10.0166  10.0167

          k = 0.1667-0.4811 0.0000 (  5283 PWs)   bands (ev):

   -16.1722 -16.1722 -12.4930 -12.4930  -9.1375  -9.1375  -3.7327  -3.7327
     1.4332   1.4332   7.5402   7.5403   8.2176   8.2180   8.8921   8.8926

          k = 0.1667-0.3849 0.0000 (  5285 PWs)   bands (ev):

   -17.5458 -17.5458 -10.5855 -10.5855  -8.5622  -8.5622  -5.1558  -5.1558
     3.3407   3.3408   5.4951   5.4951   6.2423   6.2425   7.2747   7.2750

          k = 0.1667-0.2887 0.0000 (  5288 PWs)   bands (ev):

   -18.6522 -18.6522  -8.8605  -8.8604  -7.5077  -7.5077  -6.4057  -6.4057
     3.9000   3.9001   4.6843   4.6845   5.2840   5.2841   5.7264   5.7266

          k = 0.1667-0.1925 0.0000 (  5261 PWs)   bands (ev):

   -19.4557 -19.4557  -7.5310  -7.5309  -7.3406  -7.3406  -6.1490  -6.1490
     2.7597   2.7597   3.5659   3.5660   4.6109   4.6111   5.9850   5.9851

          k = 0.1667-0.0962 0.0000 (  5253 PWs)   bands (ev):

   -19.9423 -19.9423  -7.9139  -7.9139  -6.4262  -6.4262  -5.2681  -5.2681
     2.0752   2.0752   2.8935   2.8935   3.9402   3.9403   5.3271   5.3271

          k = 0.1667-0.0000 0.0000 (  5269 PWs)   bands (ev):

   -20.1051 -20.1051  -8.1068  -8.1068  -5.8232  -5.8232  -5.1536  -5.1536
     1.8470   1.8470   2.6693   2.6694   3.7168   3.7169   5.1066   5.1066

          k = 0.2500 0.1443 0.0000 (  5269 PWs)   bands (ev):

   -19.1328 -19.1328  -8.5219  -8.5219  -6.9655  -6.9655  -6.1454  -6.1454
     3.2157   3.2157   4.0115   4.0116   5.0520   5.0522   6.0876   6.0877

          k = 0.2500 0.2406 0.0000 (  5275 PWs)   bands (ev):

   -18.4922 -18.4922  -9.6012  -9.6012  -7.0332  -7.0331  -6.2274  -6.2274
     4.1268   4.1268   4.7923   4.7924   4.9559   4.9562   5.9536   5.9538

          k = 0.2500 0.3368 0.0000 (  5285 PWs)   bands (ev):

   -17.5458 -17.5458 -10.5855 -10.5855  -8.5622  -8.5622  -5.1558  -5.1558
     3.3407   3.3408   5.4951   5.4951   6.2423   6.2425   7.2747   7.2750

          k = 0.2500 0.4330 0.0000 (  5268 PWs)   bands (ev):

   -16.3194 -16.3194 -11.6215 -11.6215 -10.0415 -10.0415  -3.8165  -3.8165
     1.7300   1.7300   7.3110   7.3110   7.9892   7.9895   8.9657   8.9662

          k = 0.2500 0.5292 0.0000 (  5282 PWs)   bands (ev):

   -14.9002 -14.9002 -13.0397 -13.0397 -10.7483 -10.7483  -2.4343  -2.4343
     0.2134   0.2135   9.4758   9.4761   9.8146   9.8147  10.3485  10.3488

          k = 0.2500 0.6255 0.0000 (  5282 PWs)   bands (ev):

   -14.9002 -14.9002 -13.0397 -13.0397 -10.7484 -10.7483  -2.4343  -2.4343
     0.2134   0.2135   9.4758   9.4761   9.8146   9.8147  10.3485  10.3488

          k = 0.2500-0.4330 0.0000 (  5268 PWs)   bands (ev):

   -16.3194 -16.3194 -11.6215 -11.6215 -10.0415 -10.0415  -3.8165  -3.8165
     1.7300   1.7300   7.3110   7.3110   7.9892   7.9895   8.9657   8.9662

          k = 0.2500-0.3368 0.0000 (  5285 PWs)   bands (ev):

   -17.5458 -17.5458 -10.5855 -10.5855  -8.5622  -8.5622  -5.1558  -5.1558
     3.3407   3.3408   5.4951   5.4951   6.2423   6.2425   7.2747   7.2750

          k = 0.2500-0.2406 0.0000 (  5275 PWs)   bands (ev):

   -18.4922 -18.4922  -9.6012  -9.6012  -7.0332  -7.0331  -6.2274  -6.2274
     4.1268   4.1268   4.7923   4.7924   4.9559   4.9562   5.9536   5.9538

          k = 0.2500-0.1443 0.0000 (  5269 PWs)   bands (ev):

   -19.1328 -19.1328  -8.5219  -8.5219  -6.9655  -6.9655  -6.1454  -6.1454
     3.2157   3.2157   4.0115   4.0116   5.0520   5.0522   6.0876   6.0877

          k = 0.2500-0.0481 0.0000 (  5261 PWs)   bands (ev):

   -19.4557 -19.4557  -7.5310  -7.5309  -7.3406  -7.3406  -6.1490  -6.1490
     2.7597   2.7597   3.5659   3.5660   4.6109   4.6111   5.9850   5.9851

          k = 0.2500 0.0481 0.0000 (  5261 PWs)   bands (ev):

   -19.4557 -19.4557  -7.5310  -7.5309  -7.3406  -7.3406  -6.1490  -6.1490
     2.7597   2.7597   3.5659   3.5660   4.6109   4.6111   5.9850   5.9851

          k = 0.3333 0.1925 0.0000 (  5285 PWs)   bands (ev):

   -18.0157 -18.0157 -10.7224 -10.7224  -6.8767  -6.8767  -5.7004  -5.7004
     3.8169   3.8170   4.8144   4.8144   5.5819   5.5821   6.5163   6.5170

          k = 0.3333 0.2887 0.0000 (  5284 PWs)   bands (ev):

   -17.2337 -17.2337 -11.7212 -11.7211  -7.6665  -7.6665  -4.8513  -4.8513
     2.6335   2.6336   5.9516   5.9516   6.6837   6.6840   7.1780   7.1784

          k = 0.3333 0.3849 0.0000 (  5283 PWs)   bands (ev):

   -16.1722 -16.1722 -12.4930 -12.4930  -9.1375  -9.1375  -3.7327  -3.7327
     1.4332   1.4332   7.5402   7.5403   8.2176   8.2180   8.8921   8.8926

          k = 0.3333 0.4811 0.0000 (  5282 PWs)   bands (ev):

   -14.9002 -14.9002 -13.0397 -13.0397 -10.7484 -10.7483  -2.4343  -2.4343
     0.2134   0.2135   9.4758   9.4761   9.8146   9.8147  10.3485  10.3488

          k = 0.3333 0.5774 0.0000 (  5292 PWs)   bands (ev):

   -13.6865 -13.6865 -13.6844 -13.6844 -11.6387 -11.6387  -1.0816  -1.0816
    -1.0816  -1.0816   9.4998   9.4998  11.6715  11.6723  11.6750  11.6750

          k = 0.3333 0.6736 0.0000 (  5282 PWs)   bands (ev):

   -14.9002 -14.9002 -13.0397 -13.0397 -10.7484 -10.7483  -2.4343  -2.4343
     0.2134   0.2135   9.4758   9.4761   9.8146   9.8147  10.3485  10.3488

          k = 0.3333-0.3849 0.0000 (  5283 PWs)   bands (ev):

   -16.1722 -16.1722 -12.4930 -12.4930  -9.1375  -9.1375  -3.7327  -3.7327
     1.4332   1.4332   7.5402   7.5403   8.2176   8.2180   8.8921   8.8926

          k = 0.3333-0.2887 0.0000 (  5284 PWs)   bands (ev):

   -17.2337 -17.2337 -11.7212 -11.7211  -7.6665  -7.6665  -4.8513  -4.8513
     2.6335   2.6336   5.9516   5.9516   6.6837   6.6840   7.1780   7.1784

          k = 0.3333-0.1925 0.0000 (  5285 PWs)   bands (ev):

   -18.0157 -18.0157 -10.7224 -10.7224  -6.8767  -6.8767  -5.7004  -5.7004
     3.8169   3.8170   4.8144   4.8144   5.5819   5.5821   6.5163   6.5170

          k = 0.3333-0.0962 0.0000 (  5275 PWs)   bands (ev):

   -18.4922 -18.4922  -9.6012  -9.6012  -7.0332  -7.0331  -6.2274  -6.2274
     4.1268   4.1268   4.7923   4.7924   4.9559   4.9562   5.9536   5.9538

          k = 0.3333 0.0000 0.0000 (  5288 PWs)   bands (ev):

   -18.6522 -18.6522  -8.8605  -8.8604  -7.5077  -7.5077  -6.4057  -6.4057
     3.9000   3.9001   4.6843   4.6845   5.2840   5.2841   5.7264   5.7266

          k = 0.3333 0.0962 0.0000 (  5275 PWs)   bands (ev):

   -18.4922 -18.4922  -9.6012  -9.6012  -7.0332  -7.0331  -6.2274  -6.2274
     4.1268   4.1268   4.7923   4.7924   4.9559   4.9562   5.9536   5.9538

          k = 0.4167 0.2406 0.0000 (  5290 PWs)   bands (ev):

   -16.6222 -16.6221 -12.8195 -12.8194  -7.3483  -7.3483  -4.2814  -4.2814
     1.6890   1.6891   6.3491   6.3491   6.8653   6.8653   7.5941   7.5943

          k = 0.4167 0.3368 0.0000 (  5302 PWs)   bands (ev):

   -15.7576 -15.7576 -13.6587 -13.6587  -7.9941  -7.9941  -3.5455  -3.5454
     0.8695   0.8696   7.0082   7.0082   8.2261   8.2262   8.9054   8.9057

          k = 0.4167 0.4330 0.0000 (  5264 PWs)   bands (ev):

   -14.9431 -14.9431 -13.9223 -13.9223  -9.3221  -9.3221  -2.8424  -2.8423
     0.3678   0.3678   8.8148   8.8148   9.9795   9.9796  10.0164  10.0165

          k = 0.4167 0.5292 0.0000 (  5282 PWs)   bands (ev):

   -14.9002 -14.9002 -13.0397 -13.0397 -10.7484 -10.7483  -2.4343  -2.4343
     0.2134   0.2135   9.4758   9.4761   9.8146   9.8147  10.3485  10.3488

          k = 0.4167 0.6255 0.0000 (  5282 PWs)   bands (ev):

   -14.9002 -14.9002 -13.0397 -13.0397 -10.7484 -10.7484  -2.4343  -2.4343
     0.2134   0.2135   9.4758   9.4761   9.8146   9.8147  10.3486  10.3488

          k = 0.4167 0.7217 0.0000 (  5264 PWs)   bands (ev):

   -14.9431 -14.9431 -13.9222 -13.9222  -9.3221  -9.3221  -2.8424  -2.8423
     0.3678   0.3678   8.8148   8.8148   9.9788   9.9788  10.0167  10.0168

          k = 0.4167-0.3368 0.0000 (  5302 PWs)   bands (ev):

   -15.7576 -15.7576 -13.6587 -13.6587  -7.9941  -7.9941  -3.5455  -3.5454
     0.8695   0.8696   7.0081   7.0082   8.2261   8.2262   8.9054   8.9057

          k = 0.4167-0.2406 0.0000 (  5290 PWs)   bands (ev):

   -16.6222 -16.6221 -12.8195 -12.8194  -7.3483  -7.3483  -4.2814  -4.2814
     1.6890   1.6891   6.3491   6.3491   6.8653   6.8653   7.5941   7.5943

          k = 0.4167-0.1443 0.0000 (  5284 PWs)   bands (ev):

   -17.2337 -17.2337 -11.7212 -11.7211  -7.6665  -7.6665  -4.8513  -4.8513
     2.6335   2.6336   5.9516   5.9516   6.6837   6.6840   7.1780   7.1784

          k = 0.4167-0.0481 0.0000 (  5285 PWs)   bands (ev):

   -17.5458 -17.5458 -10.5855 -10.5855  -8.5622  -8.5622  -5.1558  -5.1558
     3.3407   3.3408   5.4951   5.4951   6.2423   6.2425   7.2747   7.2750

          k = 0.4167 0.0481 0.0000 (  5285 PWs)   bands (ev):

   -17.5458 -17.5458 -10.5855 -10.5855  -8.5622  -8.5622  -5.1558  -5.1558
     3.3407   3.3408   5.4951   5.4951   6.2423   6.2425   7.2747   7.2750

          k = 0.4167 0.1443 0.0000 (  5284 PWs)   bands (ev):

   -17.2337 -17.2337 -11.7212 -11.7211  -7.6665  -7.6665  -4.8513  -4.8513
     2.6335   2.6336   5.9516   5.9516   6.6837   6.6840   7.1780   7.1784

          k =-0.5000-0.2887 0.0000 (  5288 PWs)   bands (ev):

   -15.3644 -15.3644 -14.3196 -14.3196  -7.5102  -7.5102  -3.4391  -3.4391
     0.5942   0.5942   6.2702   6.2702   9.3503   9.3505   9.3709   9.3709

          k =-0.5000-0.1925 0.0000 (  5302 PWs)   bands (ev):

   -15.7576 -15.7576 -13.6587 -13.6587  -7.9941  -7.9941  -3.5455  -3.5454
     0.8695   0.8696   7.0082   7.0082   8.2261   8.2262   8.9054   8.9057

          k =-0.5000-0.0962 0.0000 (  5283 PWs)   bands (ev):

   -16.1722 -16.1722 -12.4930 -12.4930  -9.1375  -9.1375  -3.7327  -3.7327
     1.4332   1.4332   7.5402   7.5403   8.2176   8.2180   8.8921   8.8926

          k =-0.5000 0.0000 0.0000 (  5268 PWs)   bands (ev):

   -16.3194 -16.3194 -11.6215 -11.6215 -10.0415 -10.0415  -3.8165  -3.8165
     1.7300   1.7300   7.3110   7.3110   7.9892   7.9895   8.9657   8.9662

          k =-0.5000 0.0962 0.0000 (  5283 PWs)   bands (ev):

   -16.1722 -16.1722 -12.4930 -12.4930  -9.1375  -9.1375  -3.7327  -3.7327
     1.4332   1.4332   7.5402   7.5403   8.2176   8.2180   8.8921   8.8926

          k =-0.5000 0.1925 0.0000 (  5302 PWs)   bands (ev):

   -15.7576 -15.7576 -13.6587 -13.6587  -7.9941  -7.9941  -3.5455  -3.5454
     0.8695   0.8696   7.0081   7.0082   8.2261   8.2262   8.9054   8.9057

          k =-0.5000-0.8660 0.0000 (  5288 PWs)   bands (ev):

   -15.3644 -15.3644 -14.3196 -14.3196  -7.5102  -7.5102  -3.4391  -3.4391
     0.5942   0.5942   6.2702   6.2702   9.3504   9.3505   9.3708   9.3709

     the Fermi energy is  -1.081608 ev

!    total energy              =     -36.88926706 Ry
     total all-electron energy =      -152.417557 Ry
     estimated scf accuracy    <          3.2E-09 Ry
     smearing contrib. (-TS)   =      -0.00003134 Ry
     internal energy E=F+TS    =     -36.88923572 Ry

     The total energy is F=E-TS. E is the sum of the following terms:
     one-electron contribution =    -156.62110938 Ry
     hartree contribution      =      79.91646368 Ry
     xc contribution           =      -8.28613762 Ry
     ewald contribution        =      61.40972547 Ry
     electric field correction =      -0.00066325 Ry
     one-center paw contrib.   =     -13.30751462 Ry

     convergence has been achieved in  29 iterations

     negative rho (up, down):  7.020E-06 0.000E+00

     Forces acting on atoms (cartesian axes, Ry/au):

     atom    1 type  1   force =     0.00000117   -0.00000256   -0.00000176
     atom    2 type  1   force =    -0.00000117    0.00000256    0.00000176

     Total force =     0.000005     Total SCF correction =     0.000045
     SCF correction compared to forces is large: reduce conv_thr to get better values

     Writing all to output data dir ./tmp/graphene.save/ :
     XML data file, charge density, pseudopotentials, collected wavefunctions

     init_run     :      2.76s CPU      2.88s WALL (       1 calls)
     electrons    :    197.18s CPU    205.37s WALL (       1 calls)
     forces       :      0.61s CPU      0.63s WALL (       1 calls)

     Called by init_run:
     wfcinit      :      2.09s CPU      2.19s WALL (       1 calls)
     potinit      :      0.21s CPU      0.22s WALL (       1 calls)
     hinit0       :      0.37s CPU      0.37s WALL (       1 calls)

     Called by electrons:
     c_bands      :    169.62s CPU    175.65s WALL (      29 calls)
     sum_band     :     23.62s CPU     25.19s WALL (      29 calls)
     v_of_rho     :      1.05s CPU      1.08s WALL (      30 calls)
     newd         :      1.42s CPU      1.94s WALL (      30 calls)
     PAW_pot      :      0.48s CPU      0.49s WALL (      30 calls)
     mix_rho      :      0.74s CPU      0.77s WALL (      29 calls)

     Called by c_bands:
     init_us_2    :      1.20s CPU      1.22s WALL (    4440 calls)
     cegterg      :    165.78s CPU    171.77s WALL (    2146 calls)

     Called by *egterg:
     cdiaghg      :      6.50s CPU      6.52s WALL (    8208 calls)
     h_psi        :    113.30s CPU    119.06s WALL (    8282 calls)
     s_psi        :      7.46s CPU      7.56s WALL (    8282 calls)
     g_psi        :      0.34s CPU      0.34s WALL (    6062 calls)

     Called by h_psi:
     h_psi:calbec :      8.46s CPU      8.80s WALL (    8282 calls)
     vloc_psi     :     96.26s CPU    101.63s WALL (    8282 calls)
     add_vuspsi   :      7.55s CPU      7.59s WALL (    8282 calls)

     General routines
     calbec       :     11.81s CPU     12.24s WALL (   10724 calls)
     fft          :      1.17s CPU      1.22s WALL (     747 calls)
     ffts         :      0.17s CPU      0.17s WALL (     236 calls)
     fftw         :     47.12s CPU     49.97s WALL (  446540 calls)
     interpolate  :      0.31s CPU      0.32s WALL (     120 calls)

     Parallel routines

     PWSCF        :   3m20.75s CPU   3m29.25s WALL


   This run was terminated on:  21:50:29  11Nov2025            

=------------------------------------------------------------------------------=
   JOB DONE.
=------------------------------------------------------------------------------=
