
     Program PWSCF v.7.4.1 starts on 29Jan2026 at  2:24:24 

     This program is part of the open-source Quantum ESPRESSO suite
     for quantum simulation of materials; please cite
         "P. Giannozzi et al., J. Phys.:Condens. Matter 21 395502 (2009);
         "P. Giannozzi et al., J. Phys.:Condens. Matter 29 465901 (2017);
         "P. Giannozzi et al., J. Chem. Phys. 152 154105 (2020);
          URL http://www.quantum-espresso.org", 
     in publications or presentations arising from this work. More details at
     http://www.quantum-espresso.org/quote

     Parallel version (MPI), running on    20 processors

     MPI processes distributed on     1 nodes
     113742 MiB available memory on the printing compute node when the environment starts
 
     Reading input from grap_SOC_scf.in

     Current dimensions of program PWSCF are:
     Max number of different atomic species (ntypx) = 10
     Max number of k-points (npk) =  40000
     Max angular momentum in pseudopotentials (lmaxx) =  4
     Presently stress not available with electric field and gates

     file C.rel-pbe-n-kjpaw_psl.1.0.0.UPF: wavefunction(s)  2S 2P 2P renormalized
 
     R & G space division:  proc/nbgrp/npool/nimage =      20
     Subspace diagonalization in iterative solution of the eigenvalue problem:
     a serial algorithm will be used

 
     Parallelization info
     --------------------
     sticks:   dense  smooth     PW     G-vecs:    dense   smooth      PW
     Min          52      21      6                 8339     2113     392
     Max          57      22      7                 8350     2140     425
     Sum        1045     421    139               166859    42343    8205
 
     Using Slab Decomposition
 


     bravais-lattice index     =            0
     lattice parameter (alat)  =       4.6624  a.u.
     unit-cell volume          =     533.6317 (a.u.)^3
     number of atoms/cell      =            2
     number of atomic types    =            1
     number of electrons       =         8.00
     number of Kohn-Sham states=           16
     kinetic-energy cutoff     =      70.0000  Ry
     charge density cutoff     =     700.0000  Ry
     scf convergence threshold =      1.0E-08
     mixing beta               =       0.1000
     number of iterations used =            8  plain     mixing
     Exchange-correlation= SLA  PW   PBX  PBC
                           (   1   4   3   4   0   0   0)
     Non magnetic calculation with spin-orbit


     celldm(1)=   4.662410  celldm(2)=   0.000000  celldm(3)=   0.000000
     celldm(4)=   0.000000  celldm(5)=   0.000000  celldm(6)=   0.000000

     crystal axes: (cart. coord. in units of alat)
               a(1) = (   1.000000   0.000000   0.000000 )  
               a(2) = (  -0.500000   0.866025   0.000000 )  
               a(3) = (   0.000000   0.000000   6.079666 )  

     reciprocal axes: (cart. coord. in units 2 pi/alat)
               b(1) = (  1.000000  0.577350  0.000000 )  
               b(2) = (  0.000000  1.154701  0.000000 )  
               b(3) = (  0.000000  0.000000  0.164483 )  


     PseudoPot. # 1 for C  read from file:
     ../../../PP_C/C.rel-pbe-n-kjpaw_psl.1.0.0.UPF
     MD5 check sum: dd2b8f743de1f3a10095e4114fb28074
     Pseudo is Projector augmented-wave + core cor, Zval =  4.0
     Generated using &quot;atomic&quot; code by A. Dal Corso  v.6.3
     Shape of augmentation charge: PSQ
     Using radial grid of 1073 points,  6 beta functions with: 
                l(1) =   0
                l(2) =   0
                l(3) =   1
                l(4) =   1
                l(5) =   1
                l(6) =   1
     Q(r) pseudized with 0 coefficients 


     atomic species   valence    mass     pseudopotential
     C                 4.00    12.01100     C ( 1.00)

     No symmetry found



   Cartesian axes

     site n.     atom                  positions (alat units)
         1        C      tau(   1) = (   0.0000000   0.0000000   3.0398328  )
         2        C      tau(   2) = (   0.0000000   0.5773503   3.0398328  )

     number of k points=    74  Gaussian smearing, width (Ry)=  0.0020
                       cart. coord. in units 2pi/alat
        k(    1) = (   0.0000000   0.0000000   0.0000000), wk =   0.0069444
        k(    2) = (   0.0000000   0.0962250   0.0000000), wk =   0.0138889
        k(    3) = (   0.0000000   0.1924501   0.0000000), wk =   0.0138889
        k(    4) = (   0.0000000   0.2886751   0.0000000), wk =   0.0138889
        k(    5) = (   0.0000000   0.3849002   0.0000000), wk =   0.0138889
        k(    6) = (   0.0000000   0.4811252   0.0000000), wk =   0.0138889
        k(    7) = (   0.0000000  -0.5773503   0.0000000), wk =   0.0069444
        k(    8) = (   0.0833333   0.0481125   0.0000000), wk =   0.0138889
        k(    9) = (   0.0833333   0.1443376   0.0000000), wk =   0.0138889
        k(   10) = (   0.0833333   0.2405626   0.0000000), wk =   0.0138889
        k(   11) = (   0.0833333   0.3367877   0.0000000), wk =   0.0138889
        k(   12) = (   0.0833333   0.4330127   0.0000000), wk =   0.0138889
        k(   13) = (   0.0833333   0.5292377   0.0000000), wk =   0.0138889
        k(   14) = (   0.0833333  -0.5292377   0.0000000), wk =   0.0138889
        k(   15) = (   0.0833333  -0.4330127   0.0000000), wk =   0.0138889
        k(   16) = (   0.0833333  -0.3367877   0.0000000), wk =   0.0138889
        k(   17) = (   0.0833333  -0.2405626   0.0000000), wk =   0.0138889
        k(   18) = (   0.0833333  -0.1443376   0.0000000), wk =   0.0138889
        k(   19) = (   0.0833333  -0.0481125   0.0000000), wk =   0.0138889
        k(   20) = (   0.1666667   0.0962250   0.0000000), wk =   0.0138889
        k(   21) = (   0.1666667   0.1924501   0.0000000), wk =   0.0138889
        k(   22) = (   0.1666667   0.2886751   0.0000000), wk =   0.0138889
        k(   23) = (   0.1666667   0.3849002   0.0000000), wk =   0.0138889
        k(   24) = (   0.1666667   0.4811252   0.0000000), wk =   0.0138889
        k(   25) = (   0.1666667   0.5773503   0.0000000), wk =   0.0138889
        k(   26) = (   0.1666667  -0.4811252   0.0000000), wk =   0.0138889
        k(   27) = (   0.1666667  -0.3849002   0.0000000), wk =   0.0138889
        k(   28) = (   0.1666667  -0.2886751   0.0000000), wk =   0.0138889
        k(   29) = (   0.1666667  -0.1924501   0.0000000), wk =   0.0138889
        k(   30) = (   0.1666667  -0.0962250   0.0000000), wk =   0.0138889
        k(   31) = (   0.1666667  -0.0000000   0.0000000), wk =   0.0138889
        k(   32) = (   0.2500000   0.1443376   0.0000000), wk =   0.0138889
        k(   33) = (   0.2500000   0.2405626   0.0000000), wk =   0.0138889
        k(   34) = (   0.2500000   0.3367877   0.0000000), wk =   0.0138889
        k(   35) = (   0.2500000   0.4330127   0.0000000), wk =   0.0138889
        k(   36) = (   0.2500000   0.5292377   0.0000000), wk =   0.0138889
        k(   37) = (   0.2500000   0.6254628   0.0000000), wk =   0.0138889
        k(   38) = (   0.2500000  -0.4330127   0.0000000), wk =   0.0138889
        k(   39) = (   0.2500000  -0.3367877   0.0000000), wk =   0.0138889
        k(   40) = (   0.2500000  -0.2405626   0.0000000), wk =   0.0138889
        k(   41) = (   0.2500000  -0.1443376   0.0000000), wk =   0.0138889
        k(   42) = (   0.2500000  -0.0481125   0.0000000), wk =   0.0138889
        k(   43) = (   0.2500000   0.0481125   0.0000000), wk =   0.0138889
        k(   44) = (   0.3333333   0.1924501   0.0000000), wk =   0.0138889
        k(   45) = (   0.3333333   0.2886751   0.0000000), wk =   0.0138889
        k(   46) = (   0.3333333   0.3849002   0.0000000), wk =   0.0138889
        k(   47) = (   0.3333333   0.4811252   0.0000000), wk =   0.0138889
        k(   48) = (   0.3333333   0.5773503   0.0000000), wk =   0.0138889
        k(   49) = (   0.3333333   0.6735753   0.0000000), wk =   0.0138889
        k(   50) = (   0.3333333  -0.3849002   0.0000000), wk =   0.0138889
        k(   51) = (   0.3333333  -0.2886751   0.0000000), wk =   0.0138889
        k(   52) = (   0.3333333  -0.1924501   0.0000000), wk =   0.0138889
        k(   53) = (   0.3333333  -0.0962250   0.0000000), wk =   0.0138889
        k(   54) = (   0.3333333  -0.0000000   0.0000000), wk =   0.0138889
        k(   55) = (   0.3333333   0.0962250   0.0000000), wk =   0.0138889
        k(   56) = (   0.4166667   0.2405626   0.0000000), wk =   0.0138889
        k(   57) = (   0.4166667   0.3367877   0.0000000), wk =   0.0138889
        k(   58) = (   0.4166667   0.4330127   0.0000000), wk =   0.0138889
        k(   59) = (   0.4166667   0.5292377   0.0000000), wk =   0.0138889
        k(   60) = (   0.4166667   0.6254628   0.0000000), wk =   0.0138889
        k(   61) = (   0.4166667   0.7216878   0.0000000), wk =   0.0138889
        k(   62) = (   0.4166667  -0.3367877   0.0000000), wk =   0.0138889
        k(   63) = (   0.4166667  -0.2405626   0.0000000), wk =   0.0138889
        k(   64) = (   0.4166667  -0.1443376   0.0000000), wk =   0.0138889
        k(   65) = (   0.4166667  -0.0481125   0.0000000), wk =   0.0138889
        k(   66) = (   0.4166667   0.0481125   0.0000000), wk =   0.0138889
        k(   67) = (   0.4166667   0.1443376   0.0000000), wk =   0.0138889
        k(   68) = (  -0.5000000  -0.2886751   0.0000000), wk =   0.0069444
        k(   69) = (  -0.5000000  -0.1924501   0.0000000), wk =   0.0138889
        k(   70) = (  -0.5000000  -0.0962250   0.0000000), wk =   0.0138889
        k(   71) = (  -0.5000000   0.0000000   0.0000000), wk =   0.0138889
        k(   72) = (  -0.5000000   0.0962250   0.0000000), wk =   0.0138889
        k(   73) = (  -0.5000000   0.1924501   0.0000000), wk =   0.0138889
        k(   74) = (  -0.5000000  -0.8660254   0.0000000), wk =   0.0069444

     Dense  grid:   166859 G-vectors     FFT dimensions: (  40,  40, 240)

     Smooth grid:    42343 G-vectors     FFT dimensions: (  25,  25, 160)

     Estimated max dynamical RAM per process >      40.42 MB

     Estimated total dynamical RAM >     808.50 MB

     Initial potential from superposition of free atoms

     starting charge       7.9999, renormalised to       8.0000

     negative rho (up, down):  2.223E-05 0.000E+00
 
     Adding external electric field

     Computed dipole along edir(3) : 
        Dipole               -0.0000 Ry au,         -0.0000 Debye
        Dipole field         -0.0000 Ry au, 
 
        E field amplitude [Ha a.u.]:  1.2640E-02
        Potential amp.        0.6808 Ry
        Total length         26.9286 bohr
 
     Starting wfcs are random
     Checking if some PAW data can be deallocated... 

     total cpu time spent up to now is        0.6 secs

     per-process dynamical memory:    53.7 Mb

     Self-consistent Calculation

     iteration #  1     ecut=    70.00 Ry     beta= 0.10
     Davidson diagonalization with overlap
     ethr =  1.00E-02,  avg # of iterations =  8.6

     negative rho (up, down):  2.122E-05 0.000E+00
 
     Adding external electric field

     Computed dipole along edir(3) : 
        Dipole                0.0158 Ry au,          0.0403 Debye
        Dipole field          0.0004 Ry au, 
 
        E field amplitude [Ha a.u.]:  1.2640E-02
        Potential amp.        0.6607 Ry
        Total length         26.9286 bohr
 

     total cpu time spent up to now is        5.8 secs

     total energy              =     -36.95260255 Ry
     estimated scf accuracy    <       0.20589879 Ry

     iteration #  2     ecut=    70.00 Ry     beta= 0.10
     Davidson diagonalization with overlap
     ethr =  2.57E-03,  avg # of iterations =  1.0

     negative rho (up, down):  2.631E-05 0.000E+00
 
     Adding external electric field

     Computed dipole along edir(3) : 
        Dipole                0.1010 Ry au,          0.2566 Debye
        Dipole field          0.0024 Ry au, 
 
        E field amplitude [Ha a.u.]:  1.2640E-02
        Potential amp.        0.5527 Ry
        Total length         26.9286 bohr
 

     total cpu time spent up to now is        7.0 secs

     total energy              =     -36.86266473 Ry
     estimated scf accuracy    <       0.15145369 Ry

     iteration #  3     ecut=    70.00 Ry     beta= 0.10
     Davidson diagonalization with overlap
     ethr =  1.89E-03,  avg # of iterations =  2.9

     negative rho (up, down):  2.616E-05 0.000E+00
 
     Adding external electric field

     Computed dipole along edir(3) : 
        Dipole                0.0799 Ry au,          0.2030 Debye
        Dipole field          0.0019 Ry au, 
 
        E field amplitude [Ha a.u.]:  1.2640E-02
        Potential amp.        0.5795 Ry
        Total length         26.9286 bohr
 

     total cpu time spent up to now is        8.5 secs

     total energy              =     -36.88788769 Ry
     estimated scf accuracy    <       0.00400999 Ry

     iteration #  4     ecut=    70.00 Ry     beta= 0.10
     Davidson diagonalization with overlap
     ethr =  5.01E-05,  avg # of iterations =  5.1

     negative rho (up, down):  2.830E-05 0.000E+00
 
     Adding external electric field

     Computed dipole along edir(3) : 
        Dipole                0.0515 Ry au,          0.1310 Debye
        Dipole field          0.0012 Ry au, 
 
        E field amplitude [Ha a.u.]:  1.2640E-02
        Potential amp.        0.6154 Ry
        Total length         26.9286 bohr
 

     total cpu time spent up to now is       10.5 secs

     total energy              =     -36.88806972 Ry
     estimated scf accuracy    <       0.00207380 Ry

     iteration #  5     ecut=    70.00 Ry     beta= 0.10
     Davidson diagonalization with overlap
     ethr =  2.59E-05,  avg # of iterations =  2.9

     negative rho (up, down):  2.840E-05 0.000E+00
 
     Adding external electric field

     Computed dipole along edir(3) : 
        Dipole                0.0522 Ry au,          0.1327 Debye
        Dipole field          0.0012 Ry au, 
 
        E field amplitude [Ha a.u.]:  1.2640E-02
        Potential amp.        0.6145 Ry
        Total length         26.9286 bohr
 

     total cpu time spent up to now is       12.0 secs

     total energy              =     -36.88841092 Ry
     estimated scf accuracy    <       0.00107549 Ry

     iteration #  6     ecut=    70.00 Ry     beta= 0.10
     Davidson diagonalization with overlap
     ethr =  1.34E-05,  avg # of iterations =  1.0

     negative rho (up, down):  3.151E-05 0.000E+00
 
     Adding external electric field

     Computed dipole along edir(3) : 
        Dipole                0.0792 Ry au,          0.2012 Debye
        Dipole field          0.0019 Ry au, 
 
        E field amplitude [Ha a.u.]:  1.2640E-02
        Potential amp.        0.5804 Ry
        Total length         26.9286 bohr
 

     total cpu time spent up to now is       13.2 secs

     total energy              =     -36.88804393 Ry
     estimated scf accuracy    <       0.00102402 Ry

     iteration #  7     ecut=    70.00 Ry     beta= 0.10
     Davidson diagonalization with overlap
     ethr =  1.28E-05,  avg # of iterations =  2.9

     negative rho (up, down):  3.237E-05 0.000E+00
 
     Adding external electric field

     Computed dipole along edir(3) : 
        Dipole                0.0700 Ry au,          0.1778 Debye
        Dipole field          0.0016 Ry au, 
 
        E field amplitude [Ha a.u.]:  1.2640E-02
        Potential amp.        0.5921 Ry
        Total length         26.9286 bohr
 

     total cpu time spent up to now is       14.7 secs

     total energy              =     -36.88817919 Ry
     estimated scf accuracy    <       0.00023581 Ry

     iteration #  8     ecut=    70.00 Ry     beta= 0.10
     Davidson diagonalization with overlap
     ethr =  2.95E-06,  avg # of iterations =  2.8

     negative rho (up, down):  3.309E-05 0.000E+00
 
     Adding external electric field

     Computed dipole along edir(3) : 
        Dipole                0.0744 Ry au,          0.1891 Debye
        Dipole field          0.0018 Ry au, 
 
        E field amplitude [Ha a.u.]:  1.2640E-02
        Potential amp.        0.5864 Ry
        Total length         26.9286 bohr
 

     total cpu time spent up to now is       16.3 secs

     total energy              =     -36.88822026 Ry
     estimated scf accuracy    <       0.00006014 Ry

     iteration #  9     ecut=    70.00 Ry     beta= 0.10
     Davidson diagonalization with overlap
     ethr =  7.52E-07,  avg # of iterations =  2.3

     negative rho (up, down):  3.325E-05 0.000E+00
 
     Adding external electric field

     Computed dipole along edir(3) : 
        Dipole                0.0747 Ry au,          0.1898 Debye
        Dipole field          0.0018 Ry au, 
 
        E field amplitude [Ha a.u.]:  1.2640E-02
        Potential amp.        0.5861 Ry
        Total length         26.9286 bohr
 

     total cpu time spent up to now is       17.6 secs

     total energy              =     -36.88822918 Ry
     estimated scf accuracy    <       0.00000190 Ry

     iteration # 10     ecut=    70.00 Ry     beta= 0.10
     Davidson diagonalization with overlap
     ethr =  2.38E-08,  avg # of iterations =  2.0

     negative rho (up, down):  3.353E-05 0.000E+00
 
     Adding external electric field

     Computed dipole along edir(3) : 
        Dipole                0.0750 Ry au,          0.1906 Debye
        Dipole field          0.0018 Ry au, 
 
        E field amplitude [Ha a.u.]:  1.2640E-02
        Potential amp.        0.5857 Ry
        Total length         26.9286 bohr
 

     total cpu time spent up to now is       18.9 secs

     total energy              =     -36.88822982 Ry
     estimated scf accuracy    <       0.00000191 Ry

     iteration # 11     ecut=    70.00 Ry     beta= 0.10
     Davidson diagonalization with overlap
     ethr =  2.38E-08,  avg # of iterations =  1.0

     negative rho (up, down):  3.385E-05 0.000E+00
 
     Adding external electric field

     Computed dipole along edir(3) : 
        Dipole                0.0745 Ry au,          0.1894 Debye
        Dipole field          0.0018 Ry au, 
 
        E field amplitude [Ha a.u.]:  1.2640E-02
        Potential amp.        0.5863 Ry
        Total length         26.9286 bohr
 

     total cpu time spent up to now is       20.1 secs

     total energy              =     -36.88822942 Ry
     estimated scf accuracy    <       0.00000140 Ry

     iteration # 12     ecut=    70.00 Ry     beta= 0.10
     Davidson diagonalization with overlap
     ethr =  1.75E-08,  avg # of iterations =  2.0

     negative rho (up, down):  3.395E-05 0.000E+00
 
     Adding external electric field

     Computed dipole along edir(3) : 
        Dipole                0.0745 Ry au,          0.1895 Debye
        Dipole field          0.0018 Ry au, 
 
        E field amplitude [Ha a.u.]:  1.2640E-02
        Potential amp.        0.5862 Ry
        Total length         26.9286 bohr
 

     total cpu time spent up to now is       21.5 secs

     total energy              =     -36.88822985 Ry
     estimated scf accuracy    <       0.00000036 Ry

     iteration # 13     ecut=    70.00 Ry     beta= 0.10
     Davidson diagonalization with overlap
     ethr =  4.46E-09,  avg # of iterations =  1.0

     negative rho (up, down):  3.403E-05 0.000E+00
 
     Adding external electric field

     Computed dipole along edir(3) : 
        Dipole                0.0745 Ry au,          0.1894 Debye
        Dipole field          0.0018 Ry au, 
 
        E field amplitude [Ha a.u.]:  1.2640E-02
        Potential amp.        0.5863 Ry
        Total length         26.9286 bohr
 

     total cpu time spent up to now is       22.7 secs

     total energy              =     -36.88822985 Ry
     estimated scf accuracy    <       0.00000034 Ry

     iteration # 14     ecut=    70.00 Ry     beta= 0.10
     Davidson diagonalization with overlap
     ethr =  4.23E-09,  avg # of iterations =  1.0

     negative rho (up, down):  3.414E-05 0.000E+00
 
     Adding external electric field

     Computed dipole along edir(3) : 
        Dipole                0.0746 Ry au,          0.1895 Debye
        Dipole field          0.0018 Ry au, 
 
        E field amplitude [Ha a.u.]:  1.2640E-02
        Potential amp.        0.5862 Ry
        Total length         26.9286 bohr
 

     total cpu time spent up to now is       23.9 secs

     total energy              =     -36.88822976 Ry
     estimated scf accuracy    <       0.00000027 Ry

     iteration # 15     ecut=    70.00 Ry     beta= 0.10
     Davidson diagonalization with overlap
     ethr =  3.43E-09,  avg # of iterations =  1.4

     negative rho (up, down):  3.423E-05 0.000E+00
 
     Adding external electric field

     Computed dipole along edir(3) : 
        Dipole                0.0745 Ry au,          0.1894 Debye
        Dipole field          0.0018 Ry au, 
 
        E field amplitude [Ha a.u.]:  1.2640E-02
        Potential amp.        0.5863 Ry
        Total length         26.9286 bohr
 

     total cpu time spent up to now is       25.1 secs

     total energy              =     -36.88822982 Ry
     estimated scf accuracy    <       0.00000001 Ry

     iteration # 16     ecut=    70.00 Ry     beta= 0.10
     Davidson diagonalization with overlap
     ethr =  1.43E-10,  avg # of iterations =  2.6

     negative rho (up, down):  3.521E-05 0.000E+00
 
     Adding external electric field

     Computed dipole along edir(3) : 
        Dipole                0.0745 Ry au,          0.1894 Debye
        Dipole field          0.0018 Ry au, 
 
        E field amplitude [Ha a.u.]:  1.2640E-02
        Potential amp.        0.5863 Ry
        Total length         26.9286 bohr
 

     total cpu time spent up to now is       26.6 secs

     End of self-consistent calculation

          k = 0.0000 0.0000 0.0000 (  5307 PWs)   bands (ev):

   -21.0410 -21.0410  -9.1378  -9.1378  -4.5840  -4.5840  -4.5748  -4.5748
     0.2019   0.2019   1.4960   1.4960   3.1705   3.1705   4.5797   4.5797

          k = 0.0000 0.0962 0.0000 (  5285 PWs)   bands (ev):

   -20.8772 -20.8772  -8.9421  -8.9421  -5.2301  -5.2301  -4.9173  -4.9173
     0.4300   0.4300   1.7201   1.7202   3.3920   3.3921   4.8016   4.8017

          k = 0.0000 0.1925 0.0000 (  5253 PWs)   bands (ev):

   -20.3877 -20.3877  -8.3601  -8.3601  -6.8674  -6.8674  -5.7089  -5.7089
     1.1143   1.1143   2.3920   2.3921   4.0558   4.0560   5.4642   5.4643

          k = 0.0000 0.2887 0.0000 (  5269 PWs)   bands (ev):

   -19.5782 -19.5782  -8.9649  -8.9649  -7.4111  -7.4111  -6.5879  -6.5879
     2.2540   2.2540   3.5081   3.5083   5.1412   5.1414   5.7108   5.7108

          k = 0.0000 0.3849 0.0000 (  5285 PWs)   bands (ev):

   -18.4609 -18.4609 -11.1667 -11.1667  -7.3207  -7.3207  -6.1453  -6.1453
     3.3694   3.3695   3.8604   3.8605   5.0791   5.0793   6.1575   6.1578

          k = 0.0000 0.4811 0.0000 (  5290 PWs)   bands (ev):

   -17.0673 -17.0672 -13.2647 -13.2647  -7.7932  -7.7932  -4.7256  -4.7256
     1.2485   1.2486   5.8877   5.8879   5.9405   5.9407   7.0863   7.0865

          k = 0.0000-0.5774 0.0000 (  5288 PWs)   bands (ev):

   -15.8086 -15.8086 -14.7660 -14.7660  -7.9555  -7.9555  -3.8830  -3.8830
     0.1538   0.1538   5.8461   5.8461   8.3909   8.3909   8.4079   8.4080

          k = 0.0833 0.0481 0.0000 (  5285 PWs)   bands (ev):

   -20.8772 -20.8772  -8.9421  -8.9421  -5.2301  -5.2301  -4.9173  -4.9173
     0.4300   0.4300   1.7201   1.7202   3.3920   3.3921   4.8016   4.8017

          k = 0.0833 0.1443 0.0000 (  5269 PWs)   bands (ev):

   -20.5506 -20.5506  -8.5531  -8.5531  -6.2639  -6.2639  -5.5939  -5.5939
     0.8862   0.8862   2.1682   2.1683   3.8352   3.8353   5.2445   5.2446

          k = 0.0833 0.2406 0.0000 (  5261 PWs)   bands (ev):

   -19.9011 -19.9011  -7.9733  -7.9732  -7.7865  -7.7864  -6.5910  -6.5910
     1.7983   1.7983   3.0633   3.0635   4.7188   4.7190   6.1151   6.1153

          k = 0.0833 0.3368 0.0000 (  5275 PWs)   bands (ev):

   -18.9375 -18.9375 -10.0450 -10.0450  -7.4767  -7.4767  -6.6726  -6.6726
     3.1643   3.1644   4.3217   4.3218   4.4850   4.4853   6.0417   6.0422

          k = 0.0833 0.4330 0.0000 (  5284 PWs)   bands (ev):

   -17.6789 -17.6789 -12.1660 -12.1660  -8.1111  -8.1111  -5.2957  -5.2957
     2.1927   2.1928   4.9900   4.9901   6.1791   6.1795   6.7565   6.7567

          k = 0.0833 0.5292 0.0000 (  5302 PWs)   bands (ev):

   -16.2024 -16.2024 -14.1044 -14.1043  -8.4393  -8.4393  -3.9894  -3.9893
     0.4290   0.4291   6.5840   6.5840   7.2633   7.2634   8.3934   8.3938

          k = 0.0833-0.5292 0.0000 (  5302 PWs)   bands (ev):

   -16.2024 -16.2024 -14.1044 -14.1043  -8.4393  -8.4393  -3.9894  -3.9893
     0.4290   0.4291   6.5840   6.5840   7.2633   7.2634   8.3934   8.3938

          k = 0.0833-0.4330 0.0000 (  5284 PWs)   bands (ev):

   -17.6789 -17.6789 -12.1660 -12.1660  -8.1111  -8.1111  -5.2957  -5.2957
     2.1927   2.1928   4.9900   4.9901   6.1791   6.1795   6.7565   6.7567

          k = 0.0833-0.3368 0.0000 (  5275 PWs)   bands (ev):

   -18.9375 -18.9375 -10.0450 -10.0450  -7.4767  -7.4767  -6.6726  -6.6726
     3.1643   3.1644   4.3217   4.3218   4.4850   4.4853   6.0417   6.0422

          k = 0.0833-0.2406 0.0000 (  5261 PWs)   bands (ev):

   -19.9011 -19.9011  -7.9733  -7.9732  -7.7865  -7.7864  -6.5910  -6.5910
     1.7983   1.7983   3.0633   3.0635   4.7188   4.7190   6.1152   6.1153

          k = 0.0833-0.1443 0.0000 (  5269 PWs)   bands (ev):

   -20.5506 -20.5506  -8.5531  -8.5531  -6.2639  -6.2639  -5.5939  -5.5939
     0.8862   0.8862   2.1682   2.1683   3.8352   3.8353   5.2445   5.2446

          k = 0.0833-0.0481 0.0000 (  5285 PWs)   bands (ev):

   -20.8772 -20.8772  -8.9421  -8.9421  -5.2301  -5.2301  -4.9173  -4.9173
     0.4300   0.4300   1.7201   1.7202   3.3920   3.3921   4.8016   4.8017

          k = 0.1667 0.0962 0.0000 (  5253 PWs)   bands (ev):

   -20.3877 -20.3877  -8.3601  -8.3601  -6.8674  -6.8674  -5.7089  -5.7089
     1.1143   1.1143   2.3920   2.3921   4.0558   4.0560   5.4642   5.4643

          k = 0.1667 0.1925 0.0000 (  5261 PWs)   bands (ev):

   -19.9011 -19.9011  -7.9733  -7.9732  -7.7865  -7.7864  -6.5910  -6.5910
     1.7983   1.7983   3.0633   3.0635   4.7188   4.7190   6.1152   6.1153

          k = 0.1667 0.2887 0.0000 (  5288 PWs)   bands (ev):

   -19.0975 -19.0975  -9.3039  -9.3039  -7.9512  -7.9512  -6.8510  -6.8510
     2.9378   2.9379   4.1799   4.1801   4.8433   4.8434   5.8200   5.8203

          k = 0.1667 0.3849 0.0000 (  5285 PWs)   bands (ev):

   -17.9911 -17.9911 -11.0299 -11.0299  -9.0069  -9.0068  -5.6004  -5.6003
     2.9000   2.9001   4.5320   4.5320   5.7349   5.7351   7.3369   7.3374

          k = 0.1667 0.4811 0.0000 (  5283 PWs)   bands (ev):

   -16.6173 -16.6173 -12.9381 -12.9381  -9.5828  -9.5828  -4.1765  -4.1765
     0.9924   0.9925   6.5758   6.5759   7.7058   7.7062   8.4751   8.4754

          k = 0.1667 0.5774 0.0000 (  5264 PWs)   bands (ev):

   -15.3874 -15.3874 -14.3684 -14.3684  -9.7676  -9.7676  -3.2859  -3.2858
    -0.0731  -0.0731   8.3900   8.3900   9.0259   9.0259   9.0650   9.0651

          k = 0.1667-0.4811 0.0000 (  5283 PWs)   bands (ev):

   -16.6173 -16.6173 -12.9382 -12.9381  -9.5828  -9.5828  -4.1765  -4.1765
     0.9924   0.9925   6.5758   6.5759   7.7058   7.7062   8.4751   8.4754

          k = 0.1667-0.3849 0.0000 (  5285 PWs)   bands (ev):

   -17.9911 -17.9911 -11.0299 -11.0299  -9.0068  -9.0068  -5.6004  -5.6003
     2.9000   2.9001   4.5320   4.5320   5.7349   5.7351   7.3369   7.3374

          k = 0.1667-0.2887 0.0000 (  5288 PWs)   bands (ev):

   -19.0975 -19.0975  -9.3039  -9.3039  -7.9512  -7.9512  -6.8510  -6.8510
     2.9378   2.9379   4.1799   4.1801   4.8433   4.8434   5.8200   5.8203

          k = 0.1667-0.1925 0.0000 (  5261 PWs)   bands (ev):

   -19.9011 -19.9011  -7.9733  -7.9732  -7.7865  -7.7864  -6.5910  -6.5910
     1.7983   1.7983   3.0633   3.0635   4.7188   4.7190   6.1152   6.1154

          k = 0.1667-0.0962 0.0000 (  5253 PWs)   bands (ev):

   -20.3877 -20.3877  -8.3601  -8.3601  -6.8674  -6.8674  -5.7089  -5.7089
     1.1143   1.1143   2.3920   2.3921   4.0558   4.0560   5.4642   5.4643

          k = 0.1667-0.0000 0.0000 (  5269 PWs)   bands (ev):

   -20.5506 -20.5506  -8.5531  -8.5531  -6.2639  -6.2639  -5.5939  -5.5939
     0.8862   0.8862   2.1682   2.1683   3.8352   3.8353   5.2445   5.2446

          k = 0.2500 0.1443 0.0000 (  5269 PWs)   bands (ev):

   -19.5782 -19.5782  -8.9649  -8.9649  -7.4111  -7.4111  -6.5879  -6.5879
     2.2540   2.2540   3.5081   3.5083   5.1412   5.1414   5.7108   5.7108

          k = 0.2500 0.2406 0.0000 (  5275 PWs)   bands (ev):

   -18.9376 -18.9375 -10.0450 -10.0450  -7.4767  -7.4767  -6.6726  -6.6726
     3.1643   3.1644   4.3217   4.3218   4.4850   4.4853   6.0417   6.0422

          k = 0.2500 0.3368 0.0000 (  5285 PWs)   bands (ev):

   -17.9911 -17.9911 -11.0299 -11.0299  -9.0069  -9.0068  -5.6004  -5.6003
     2.9000   2.9001   4.5320   4.5320   5.7349   5.7351   7.3369   7.3374

          k = 0.2500 0.4330 0.0000 (  5268 PWs)   bands (ev):

   -16.7646 -16.7646 -12.0661 -12.0661 -10.4872 -10.4872  -4.2603  -4.2603
     1.2891   1.2892   6.3452   6.3453   7.4754   7.4757   8.9256   8.9262

          k = 0.2500 0.5292 0.0000 (  5282 PWs)   bands (ev):

   -15.3451 -15.3451 -13.4849 -13.4849 -11.1945 -11.1945  -2.8774  -2.8774
    -0.2280  -0.2280   8.5561   8.5563   9.2986   9.2988   9.9320   9.9323

          k = 0.2500 0.6255 0.0000 (  5282 PWs)   bands (ev):

   -15.3451 -15.3451 -13.4849 -13.4849 -11.1945 -11.1945  -2.8774  -2.8774
    -0.2280  -0.2280   8.5561   8.5563   9.2986   9.2988   9.9320   9.9323

          k = 0.2500-0.4330 0.0000 (  5268 PWs)   bands (ev):

   -16.7646 -16.7646 -12.0661 -12.0661 -10.4872 -10.4872  -4.2603  -4.2603
     1.2891   1.2892   6.3452   6.3453   7.4754   7.4757   8.9256   8.9262

          k = 0.2500-0.3368 0.0000 (  5285 PWs)   bands (ev):

   -17.9911 -17.9911 -11.0299 -11.0299  -9.0068  -9.0068  -5.6004  -5.6003
     2.9000   2.9001   4.5320   4.5320   5.7349   5.7351   7.3369   7.3374

          k = 0.2500-0.2406 0.0000 (  5275 PWs)   bands (ev):

   -18.9375 -18.9375 -10.0450 -10.0450  -7.4767  -7.4767  -6.6726  -6.6726
     3.1643   3.1644   4.3217   4.3218   4.4850   4.4853   6.0417   6.0422

          k = 0.2500-0.1443 0.0000 (  5269 PWs)   bands (ev):

   -19.5782 -19.5782  -8.9649  -8.9649  -7.4111  -7.4111  -6.5879  -6.5879
     2.2540   2.2540   3.5081   3.5083   5.1412   5.1414   5.7108   5.7108

          k = 0.2500-0.0481 0.0000 (  5261 PWs)   bands (ev):

   -19.9011 -19.9011  -7.9733  -7.9732  -7.7865  -7.7864  -6.5910  -6.5910
     1.7983   1.7983   3.0633   3.0635   4.7188   4.7190   6.1152   6.1153

          k = 0.2500 0.0481 0.0000 (  5261 PWs)   bands (ev):

   -19.9011 -19.9011  -7.9733  -7.9732  -7.7865  -7.7864  -6.5910  -6.5910
     1.7983   1.7983   3.0633   3.0635   4.7188   4.7190   6.1152   6.1153

          k = 0.3333 0.1925 0.0000 (  5285 PWs)   bands (ev):

   -18.4609 -18.4609 -11.1667 -11.1667  -7.3207  -7.3207  -6.1453  -6.1453
     3.3694   3.3695   3.8604   3.8605   5.0791   5.0793   6.1575   6.1578

          k = 0.3333 0.2887 0.0000 (  5284 PWs)   bands (ev):

   -17.6789 -17.6789 -12.1660 -12.1660  -8.1111  -8.1111  -5.2957  -5.2957
     2.1928   2.1928   4.9900   4.9901   6.1791   6.1795   6.7565   6.7567

          k = 0.3333 0.3849 0.0000 (  5283 PWs)   bands (ev):

   -16.6173 -16.6173 -12.9381 -12.9381  -9.5828  -9.5828  -4.1765  -4.1765
     0.9924   0.9925   6.5758   6.5759   7.7058   7.7062   8.4751   8.4754

          k = 0.3333 0.4811 0.0000 (  5282 PWs)   bands (ev):

   -15.3451 -15.3451 -13.4849 -13.4849 -11.1945 -11.1945  -2.8774  -2.8774
    -0.2280  -0.2280   8.5561   8.5563   9.2986   9.2988   9.9320   9.9323

          k = 0.3333 0.5774 0.0000 (  5292 PWs)   bands (ev):

   -14.1312 -14.1312 -14.1291 -14.1291 -12.0858 -12.0858  -1.5240  -1.5240
    -1.5239  -1.5238   9.0308   9.0308  10.9642  10.9650  10.9660  10.9662

          k = 0.3333 0.6736 0.0000 (  5282 PWs)   bands (ev):

   -15.3451 -15.3451 -13.4849 -13.4849 -11.1945 -11.1945  -2.8774  -2.8774
    -0.2280  -0.2280   8.5561   8.5563   9.2986   9.2988   9.9320   9.9323

          k = 0.3333-0.3849 0.0000 (  5283 PWs)   bands (ev):

   -16.6173 -16.6173 -12.9382 -12.9381  -9.5828  -9.5828  -4.1765  -4.1765
     0.9924   0.9925   6.5758   6.5759   7.7058   7.7062   8.4751   8.4754

          k = 0.3333-0.2887 0.0000 (  5284 PWs)   bands (ev):

   -17.6789 -17.6789 -12.1660 -12.1660  -8.1111  -8.1111  -5.2957  -5.2957
     2.1927   2.1928   4.9900   4.9901   6.1791   6.1795   6.7565   6.7567

          k = 0.3333-0.1925 0.0000 (  5285 PWs)   bands (ev):

   -18.4609 -18.4609 -11.1667 -11.1667  -7.3207  -7.3207  -6.1453  -6.1453
     3.3694   3.3695   3.8604   3.8605   5.0791   5.0793   6.1575   6.1578

          k = 0.3333-0.0962 0.0000 (  5275 PWs)   bands (ev):

   -18.9376 -18.9375 -10.0450 -10.0450  -7.4767  -7.4767  -6.6726  -6.6726
     3.1643   3.1644   4.3217   4.3218   4.4850   4.4853   6.0417   6.0422

          k = 0.3333-0.0000 0.0000 (  5288 PWs)   bands (ev):

   -19.0975 -19.0975  -9.3039  -9.3039  -7.9512  -7.9512  -6.8510  -6.8510
     2.9378   2.9379   4.1799   4.1801   4.8433   4.8434   5.8200   5.8203

          k = 0.3333 0.0962 0.0000 (  5275 PWs)   bands (ev):

   -18.9376 -18.9375 -10.0450 -10.0450  -7.4767  -7.4767  -6.6726  -6.6726
     3.1643   3.1644   4.3217   4.3218   4.4850   4.4853   6.0417   6.0422

          k = 0.4167 0.2406 0.0000 (  5290 PWs)   bands (ev):

   -17.0673 -17.0672 -13.2647 -13.2647  -7.7932  -7.7932  -4.7256  -4.7256
     1.2485   1.2486   5.8877   5.8879   5.9405   5.9407   7.0863   7.0865

          k = 0.4167 0.3368 0.0000 (  5302 PWs)   bands (ev):

   -16.2024 -16.2024 -14.1044 -14.1043  -8.4393  -8.4393  -3.9894  -3.9893
     0.4290   0.4291   6.5840   6.5840   7.2633   7.2634   8.3934   8.3938

          k = 0.4167 0.4330 0.0000 (  5264 PWs)   bands (ev):

   -15.3875 -15.3874 -14.3684 -14.3684  -9.7676  -9.7676  -3.2859  -3.2858
    -0.0731  -0.0731   8.3900   8.3900   9.0259   9.0260   9.0650   9.0651

          k = 0.4167 0.5292 0.0000 (  5282 PWs)   bands (ev):

   -15.3451 -15.3451 -13.4849 -13.4849 -11.1945 -11.1945  -2.8774  -2.8774
    -0.2280  -0.2280   8.5561   8.5563   9.2986   9.2988   9.9320   9.9323

          k = 0.4167 0.6255 0.0000 (  5282 PWs)   bands (ev):

   -15.3451 -15.3451 -13.4849 -13.4849 -11.1945 -11.1945  -2.8774  -2.8774
    -0.2280  -0.2280   8.5561   8.5563   9.2986   9.2988   9.9320   9.9323

          k = 0.4167 0.7217 0.0000 (  5264 PWs)   bands (ev):

   -15.3874 -15.3874 -14.3684 -14.3684  -9.7676  -9.7676  -3.2859  -3.2858
    -0.0731  -0.0731   8.3900   8.3900   9.0259   9.0259   9.0650   9.0651

          k = 0.4167-0.3368 0.0000 (  5302 PWs)   bands (ev):

   -16.2024 -16.2024 -14.1044 -14.1043  -8.4393  -8.4393  -3.9894  -3.9893
     0.4290   0.4290   6.5840   6.5840   7.2633   7.2634   8.3934   8.3938

          k = 0.4167-0.2406 0.0000 (  5290 PWs)   bands (ev):

   -17.0673 -17.0672 -13.2647 -13.2647  -7.7932  -7.7932  -4.7256  -4.7256
     1.2485   1.2486   5.8877   5.8879   5.9405   5.9407   7.0863   7.0865

          k = 0.4167-0.1443 0.0000 (  5284 PWs)   bands (ev):

   -17.6789 -17.6789 -12.1660 -12.1660  -8.1111  -8.1111  -5.2957  -5.2957
     2.1927   2.1928   4.9900   4.9901   6.1791   6.1795   6.7565   6.7567

          k = 0.4167-0.0481 0.0000 (  5285 PWs)   bands (ev):

   -17.9911 -17.9911 -11.0299 -11.0299  -9.0069  -9.0068  -5.6004  -5.6003
     2.9000   2.9001   4.5320   4.5320   5.7349   5.7351   7.3369   7.3374

          k = 0.4167 0.0481 0.0000 (  5285 PWs)   bands (ev):

   -17.9911 -17.9911 -11.0299 -11.0299  -9.0069  -9.0068  -5.6004  -5.6003
     2.9000   2.9001   4.5320   4.5320   5.7349   5.7351   7.3369   7.3374

          k = 0.4167 0.1443 0.0000 (  5284 PWs)   bands (ev):

   -17.6789 -17.6789 -12.1660 -12.1660  -8.1111  -8.1111  -5.2957  -5.2957
     2.1928   2.1928   4.9900   4.9901   6.1791   6.1795   6.7565   6.7567

          k =-0.5000-0.2887 0.0000 (  5288 PWs)   bands (ev):

   -15.8086 -15.8086 -14.7660 -14.7660  -7.9555  -7.9555  -3.8830  -3.8830
     0.1538   0.1538   5.8461   5.8461   8.3909   8.3909   8.4080   8.4080

          k =-0.5000-0.1925 0.0000 (  5302 PWs)   bands (ev):

   -16.2024 -16.2024 -14.1044 -14.1043  -8.4393  -8.4393  -3.9894  -3.9893
     0.4290   0.4291   6.5840   6.5840   7.2633   7.2634   8.3934   8.3938

          k =-0.5000-0.0962 0.0000 (  5283 PWs)   bands (ev):

   -16.6173 -16.6173 -12.9381 -12.9381  -9.5828  -9.5828  -4.1765  -4.1765
     0.9924   0.9925   6.5758   6.5759   7.7058   7.7062   8.4751   8.4754

          k =-0.5000 0.0000 0.0000 (  5268 PWs)   bands (ev):

   -16.7646 -16.7646 -12.0661 -12.0661 -10.4872 -10.4872  -4.2603  -4.2603
     1.2891   1.2892   6.3452   6.3453   7.4754   7.4757   8.9256   8.9262

          k =-0.5000 0.0962 0.0000 (  5283 PWs)   bands (ev):

   -16.6173 -16.6173 -12.9381 -12.9381  -9.5828  -9.5828  -4.1765  -4.1765
     0.9924   0.9925   6.5758   6.5759   7.7058   7.7062   8.4751   8.4754

          k =-0.5000 0.1925 0.0000 (  5302 PWs)   bands (ev):

   -16.2024 -16.2024 -14.1044 -14.1043  -8.4393  -8.4393  -3.9894  -3.9893
     0.4290   0.4290   6.5840   6.5840   7.2633   7.2634   8.3934   8.3938

          k =-0.5000-0.8660 0.0000 (  5288 PWs)   bands (ev):

   -15.8086 -15.8086 -14.7660 -14.7660  -7.9555  -7.9555  -3.8830  -3.8830
     0.1538   0.1538   5.8461   5.8461   8.3909   8.3909   8.4079   8.4080

     the Fermi energy is    -1.52390864 ev

!    total energy              =     -36.88822984 Ry
     total all-electron energy =      -152.416502 Ry
     estimated scf accuracy    <          1.6E-09 Ry
     smearing contrib. (-TS)   =      -0.00003134 Ry
     internal energy E=F+TS    =     -36.88819849 Ry

     The total energy is F=E-TS. E is the sum of the following terms:
     one-electron contribution =    -156.61255101 Ry
     hartree contribution      =      79.92241031 Ry
     xc contribution           =      -9.27172517 Ry
     ewald contribution        =      61.40972547 Ry
     electric field correction =      -0.00175287 Ry
     one-center paw contrib.   =     -12.33430523 Ry

     convergence has been achieved in  16 iterations

     negative rho (up, down):  3.521E-05 0.000E+00

     Forces acting on atoms (cartesian axes, Ry/au):

     atom    1 type  1   force =     0.00000099    0.00000067    0.00000050
     atom    2 type  1   force =    -0.00000099   -0.00000067   -0.00000050

     Total force =     0.000002     Total SCF correction =     0.000005
     SCF correction compared to forces is large: reduce conv_thr to get better values

     Writing all to output data dir ../tmp/graphene.save/ :
     XML data file, charge density, pseudopotentials, collected wavefunctions
 
     init_run     :      0.49s CPU      0.54s WALL (       1 calls)
     electrons    :     24.97s CPU     26.01s WALL (       1 calls)
     forces       :      0.07s CPU      0.07s WALL (       1 calls)

     Called by init_run:
     wfcinit      :      0.41s CPU      0.44s WALL (       1 calls)
     potinit      :      0.02s CPU      0.03s WALL (       1 calls)
     hinit0       :      0.01s CPU      0.02s WALL (       1 calls)

     Called by electrons:
     c_bands      :     20.82s CPU     21.64s WALL (      16 calls)
     sum_band     :      3.49s CPU      3.62s WALL (      16 calls)
     v_of_rho     :      0.14s CPU      0.16s WALL (      17 calls)
     newd         :      0.24s CPU      0.25s WALL (      17 calls)
     PAW_pot      :      0.15s CPU      0.15s WALL (      17 calls)
     mix_rho      :      0.10s CPU      0.10s WALL (      16 calls)

     Called by c_bands:
     init_us_2    :      0.16s CPU      0.17s WALL (    2516 calls)
     cegterg      :     20.06s CPU     20.83s WALL (    1184 calls)

     Called by *egterg:
     cdiaghg      :      2.61s CPU      2.66s WALL (    4184 calls)
     h_psi        :     15.61s CPU     16.28s WALL (    4258 calls)
     s_psi        :      0.27s CPU      0.28s WALL (    4258 calls)
     g_psi        :      0.06s CPU      0.06s WALL (    3000 calls)

     Called by h_psi:
     h_psi:calbec :      0.42s CPU      0.44s WALL (    4258 calls)
     vloc_psi     :     14.73s CPU     15.38s WALL (    4258 calls)
     add_vuspsi   :      0.30s CPU      0.31s WALL (    4258 calls)

     General routines
     calbec       :      0.52s CPU      0.54s WALL (    5738 calls)
     fft          :      0.16s CPU      0.17s WALL (     422 calls)
     ffts         :      0.01s CPU      0.01s WALL (     132 calls)
     fftw         :     12.86s CPU     13.41s WALL (  243556 calls)
     interpolate  :      0.02s CPU      0.02s WALL (      68 calls)
 
     Parallel routines
 
     PWSCF        :     25.81s CPU     29.15s WALL

 
   This run was terminated on:   2:24:53  29Jan2026            

=------------------------------------------------------------------------------=
   JOB DONE.
=------------------------------------------------------------------------------=
