
     Program PWSCF v.7.4.1 starts on 29Jan2026 at  5:47:51 

     This program is part of the open-source Quantum ESPRESSO suite
     for quantum simulation of materials; please cite
         "P. Giannozzi et al., J. Phys.:Condens. Matter 21 395502 (2009);
         "P. Giannozzi et al., J. Phys.:Condens. Matter 29 465901 (2017);
         "P. Giannozzi et al., J. Chem. Phys. 152 154105 (2020);
          URL http://www.quantum-espresso.org", 
     in publications or presentations arising from this work. More details at
     http://www.quantum-espresso.org/quote

     Parallel version (MPI), running on    28 processors

     MPI processes distributed on     1 nodes
     3003 MiB available memory on the printing compute node when the environment starts
 
     Reading input from grap_SOC_nscf.in

     Current dimensions of program PWSCF are:
     Max number of different atomic species (ntypx) = 10
     Max number of k-points (npk) =  40000
     Max angular momentum in pseudopotentials (lmaxx) =  4
     Presently stress not available with electric field and gates

     Message from routine input:
     WARNING: "startingwfc" set to random may spoil restart
     file C.rel-pbe-n-kjpaw_psl.1.0.0.UPF: wavefunction(s)  2S 2P 2P renormalized
 
     R & G space division:  proc/nbgrp/npool/nimage =      28
     Subspace diagonalization in iterative solution of the eigenvalue problem:
     a serial algorithm will be used

 
     Parallelization info
     --------------------
     sticks:   dense  smooth     PW     G-vecs:    dense   smooth      PW
     Min          37      15      4                 5954     1507     274
     Max          38      16      5                 5984     1534     305
     Sum        1045     421    139               166859    42343    8205
 
     Using Slab Decomposition
 


     bravais-lattice index     =            0
     lattice parameter (alat)  =       4.6624  a.u.
     unit-cell volume          =     533.6317 (a.u.)^3
     number of atoms/cell      =            2
     number of atomic types    =            1
     number of electrons       =         8.00
     number of Kohn-Sham states=           16
     kinetic-energy cutoff     =      70.0000  Ry
     charge density cutoff     =     700.0000  Ry
     Exchange-correlation= SLA  PW   PBX  PBC
                           (   1   4   3   4   0   0   0)
     Non magnetic calculation with spin-orbit


     celldm(1)=   4.662410  celldm(2)=   0.000000  celldm(3)=   0.000000
     celldm(4)=   0.000000  celldm(5)=   0.000000  celldm(6)=   0.000000

     crystal axes: (cart. coord. in units of alat)
               a(1) = (   1.000000   0.000000   0.000000 )  
               a(2) = (  -0.500000   0.866025   0.000000 )  
               a(3) = (   0.000000   0.000000   6.079666 )  

     reciprocal axes: (cart. coord. in units 2 pi/alat)
               b(1) = (  1.000000  0.577350  0.000000 )  
               b(2) = (  0.000000  1.154701  0.000000 )  
               b(3) = (  0.000000  0.000000  0.164483 )  


     PseudoPot. # 1 for C  read from file:
     ../../../PP_C/C.rel-pbe-n-kjpaw_psl.1.0.0.UPF
     MD5 check sum: dd2b8f743de1f3a10095e4114fb28074
     Pseudo is Projector augmented-wave + core cor, Zval =  4.0
     Generated using &quot;atomic&quot; code by A. Dal Corso  v.6.3
     Shape of augmentation charge: PSQ
     Using radial grid of 1073 points,  6 beta functions with: 
                l(1) =   0
                l(2) =   0
                l(3) =   1
                l(4) =   1
                l(5) =   1
                l(6) =   1
     Q(r) pseudized with 0 coefficients 


     atomic species   valence    mass     pseudopotential
     C                 4.00    12.01100     C ( 1.00)

     No symmetry found



   Cartesian axes

     site n.     atom                  positions (alat units)
         1        C      tau(   1) = (   0.0000000   0.0000000   3.0398328  )
         2        C      tau(   2) = (   0.0000000   0.5773503   3.0398328  )

     number of k points= 11252  Gaussian smearing, width (Ry)=  0.0020

     Number of k-points >= 100: set verbosity='high' to print them.

     Dense  grid:   166859 G-vectors     FFT dimensions: (  40,  40, 240)

     Smooth grid:    42343 G-vectors     FFT dimensions: (  25,  25, 160)

     Estimated max dynamical RAM per process >      15.72 MB

     Estimated total dynamical RAM >     440.29 MB

     Atomic positions and unit cell read from directory:
     ../tmp/graphene.save/
 

     The potential is recalculated from file :
     ../tmp/graphene.save/charge-density


     negative rho (up, down):  3.473E-05 0.000E+00
 
     Adding external electric field

     Computed dipole along edir(3) : 
        Dipole                0.1148 Ry au,          0.2918 Debye
        Dipole field          0.0027 Ry au, 
 
        E field amplitude [Ha a.u.]:  1.9447E-02
        Potential amp.        0.9018 Ry
        Total length         26.9286 bohr
 
     Starting wfcs are random
     Checking if some PAW data can be deallocated... 

     Band Structure Calculation
     Davidson diagonalization with overlap

     ethr =  1.25E-10,  avg # of iterations = 22.7

     total cpu time spent up to now is     2091.8 secs

     End of band structure calculation

     Number of k-points >= 100: set verbosity='high' to print the bands.

     the Fermi energy is    -1.42591268 ev
     (compare with:    -1.42583671 eV, computed in scf)

     Writing all to output data dir ../tmp/graphene.save/ :
     XML data file, pseudopotentials, collected wavefunctions
 
     init_run     :      0.44s CPU      0.64s WALL (       1 calls)
     electrons    :   1990.15s CPU   2090.80s WALL (       1 calls)

     Called by init_run:
     wfcinit      :      0.00s CPU      0.04s WALL (       1 calls)
     potinit      :      0.02s CPU      0.16s WALL (       1 calls)
     hinit0       :      0.03s CPU      0.03s WALL (       1 calls)

     Called by electrons:
     c_bands      :   1990.01s CPU   2090.65s WALL (       1 calls)
     v_of_rho     :      0.01s CPU      0.01s WALL (       1 calls)
     newd         :      0.01s CPU      0.02s WALL (       1 calls)
     PAW_pot      :      0.01s CPU      0.01s WALL (       1 calls)

     Called by c_bands:
     init_us_2    :      0.75s CPU      0.89s WALL (   11252 calls)
     cegterg      :   1611.79s CPU   1665.07s WALL (   16763 calls)

     Called by *egterg:
     cdiaghg      :    365.15s CPU    369.90s WALL (  266576 calls)
     h_psi        :   1026.47s CPU   1071.85s WALL (  283339 calls)
     s_psi        :     15.82s CPU     16.60s WALL (  283339 calls)
     g_psi        :      4.11s CPU      4.18s WALL (  255324 calls)

     Called by h_psi:
     h_psi:calbec :     36.98s CPU     38.79s WALL (  283339 calls)
     vloc_psi     :    956.72s CPU    998.98s WALL (  283339 calls)
     add_vuspsi   :     19.95s CPU     20.91s WALL (  283339 calls)

     General routines
     calbec       :     35.91s CPU     37.74s WALL (  283339 calls)
     fft          :      0.01s CPU      0.01s WALL (      19 calls)
     ffts         :      0.00s CPU      0.00s WALL (       4 calls)
     fftw         :    739.30s CPU    772.42s WALL (12972252 calls)
     interpolate  :      0.00s CPU      0.00s WALL (       4 calls)
     davcio       :      1.97s CPU     41.39s WALL (   22504 calls)
 
     Parallel routines
 
     PWSCF        :  33m46.99s CPU  49m48.89s WALL

 
   This run was terminated on:   6:37:40  29Jan2026            

=------------------------------------------------------------------------------=
   JOB DONE.
=------------------------------------------------------------------------------=
