
     Program PWSCF v.7.4.1 starts on 29Jan2026 at  2:23:22 

     This program is part of the open-source Quantum ESPRESSO suite
     for quantum simulation of materials; please cite
         "P. Giannozzi et al., J. Phys.:Condens. Matter 21 395502 (2009);
         "P. Giannozzi et al., J. Phys.:Condens. Matter 29 465901 (2017);
         "P. Giannozzi et al., J. Chem. Phys. 152 154105 (2020);
          URL http://www.quantum-espresso.org", 
     in publications or presentations arising from this work. More details at
     http://www.quantum-espresso.org/quote

     Parallel version (MPI), running on    20 processors

     MPI processes distributed on     1 nodes
     113652 MiB available memory on the printing compute node when the environment starts
 
     Reading input from grap_SOC_scf.in

     Current dimensions of program PWSCF are:
     Max number of different atomic species (ntypx) = 10
     Max number of k-points (npk) =  40000
     Max angular momentum in pseudopotentials (lmaxx) =  4
     Presently stress not available with electric field and gates

     file C.rel-pbe-n-kjpaw_psl.1.0.0.UPF: wavefunction(s)  2S 2P 2P renormalized
 
     R & G space division:  proc/nbgrp/npool/nimage =      20
     Subspace diagonalization in iterative solution of the eigenvalue problem:
     a serial algorithm will be used

 
     Parallelization info
     --------------------
     sticks:   dense  smooth     PW     G-vecs:    dense   smooth      PW
     Min          52      21      6                 8339     2113     392
     Max          57      22      7                 8350     2140     425
     Sum        1045     421    139               166859    42343    8205
 
     Using Slab Decomposition
 


     bravais-lattice index     =            0
     lattice parameter (alat)  =       4.6624  a.u.
     unit-cell volume          =     533.6317 (a.u.)^3
     number of atoms/cell      =            2
     number of atomic types    =            1
     number of electrons       =         8.00
     number of Kohn-Sham states=           16
     kinetic-energy cutoff     =      70.0000  Ry
     charge density cutoff     =     700.0000  Ry
     scf convergence threshold =      1.0E-08
     mixing beta               =       0.1000
     number of iterations used =            8  plain     mixing
     Exchange-correlation= SLA  PW   PBX  PBC
                           (   1   4   3   4   0   0   0)
     Non magnetic calculation with spin-orbit


     celldm(1)=   4.662410  celldm(2)=   0.000000  celldm(3)=   0.000000
     celldm(4)=   0.000000  celldm(5)=   0.000000  celldm(6)=   0.000000

     crystal axes: (cart. coord. in units of alat)
               a(1) = (   1.000000   0.000000   0.000000 )  
               a(2) = (  -0.500000   0.866025   0.000000 )  
               a(3) = (   0.000000   0.000000   6.079666 )  

     reciprocal axes: (cart. coord. in units 2 pi/alat)
               b(1) = (  1.000000  0.577350  0.000000 )  
               b(2) = (  0.000000  1.154701  0.000000 )  
               b(3) = (  0.000000  0.000000  0.164483 )  


     PseudoPot. # 1 for C  read from file:
     ../../../PP_C/C.rel-pbe-n-kjpaw_psl.1.0.0.UPF
     MD5 check sum: dd2b8f743de1f3a10095e4114fb28074
     Pseudo is Projector augmented-wave + core cor, Zval =  4.0
     Generated using &quot;atomic&quot; code by A. Dal Corso  v.6.3
     Shape of augmentation charge: PSQ
     Using radial grid of 1073 points,  6 beta functions with: 
                l(1) =   0
                l(2) =   0
                l(3) =   1
                l(4) =   1
                l(5) =   1
                l(6) =   1
     Q(r) pseudized with 0 coefficients 


     atomic species   valence    mass     pseudopotential
     C                 4.00    12.01100     C ( 1.00)

     No symmetry found



   Cartesian axes

     site n.     atom                  positions (alat units)
         1        C      tau(   1) = (   0.0000000   0.0000000   3.0398328  )
         2        C      tau(   2) = (   0.0000000   0.5773503   3.0398328  )

     number of k points=    74  Gaussian smearing, width (Ry)=  0.0020
                       cart. coord. in units 2pi/alat
        k(    1) = (   0.0000000   0.0000000   0.0000000), wk =   0.0069444
        k(    2) = (   0.0000000   0.0962250   0.0000000), wk =   0.0138889
        k(    3) = (   0.0000000   0.1924501   0.0000000), wk =   0.0138889
        k(    4) = (   0.0000000   0.2886751   0.0000000), wk =   0.0138889
        k(    5) = (   0.0000000   0.3849002   0.0000000), wk =   0.0138889
        k(    6) = (   0.0000000   0.4811252   0.0000000), wk =   0.0138889
        k(    7) = (   0.0000000  -0.5773503   0.0000000), wk =   0.0069444
        k(    8) = (   0.0833333   0.0481125   0.0000000), wk =   0.0138889
        k(    9) = (   0.0833333   0.1443376   0.0000000), wk =   0.0138889
        k(   10) = (   0.0833333   0.2405626   0.0000000), wk =   0.0138889
        k(   11) = (   0.0833333   0.3367877   0.0000000), wk =   0.0138889
        k(   12) = (   0.0833333   0.4330127   0.0000000), wk =   0.0138889
        k(   13) = (   0.0833333   0.5292377   0.0000000), wk =   0.0138889
        k(   14) = (   0.0833333  -0.5292377   0.0000000), wk =   0.0138889
        k(   15) = (   0.0833333  -0.4330127   0.0000000), wk =   0.0138889
        k(   16) = (   0.0833333  -0.3367877   0.0000000), wk =   0.0138889
        k(   17) = (   0.0833333  -0.2405626   0.0000000), wk =   0.0138889
        k(   18) = (   0.0833333  -0.1443376   0.0000000), wk =   0.0138889
        k(   19) = (   0.0833333  -0.0481125   0.0000000), wk =   0.0138889
        k(   20) = (   0.1666667   0.0962250   0.0000000), wk =   0.0138889
        k(   21) = (   0.1666667   0.1924501   0.0000000), wk =   0.0138889
        k(   22) = (   0.1666667   0.2886751   0.0000000), wk =   0.0138889
        k(   23) = (   0.1666667   0.3849002   0.0000000), wk =   0.0138889
        k(   24) = (   0.1666667   0.4811252   0.0000000), wk =   0.0138889
        k(   25) = (   0.1666667   0.5773503   0.0000000), wk =   0.0138889
        k(   26) = (   0.1666667  -0.4811252   0.0000000), wk =   0.0138889
        k(   27) = (   0.1666667  -0.3849002   0.0000000), wk =   0.0138889
        k(   28) = (   0.1666667  -0.2886751   0.0000000), wk =   0.0138889
        k(   29) = (   0.1666667  -0.1924501   0.0000000), wk =   0.0138889
        k(   30) = (   0.1666667  -0.0962250   0.0000000), wk =   0.0138889
        k(   31) = (   0.1666667  -0.0000000   0.0000000), wk =   0.0138889
        k(   32) = (   0.2500000   0.1443376   0.0000000), wk =   0.0138889
        k(   33) = (   0.2500000   0.2405626   0.0000000), wk =   0.0138889
        k(   34) = (   0.2500000   0.3367877   0.0000000), wk =   0.0138889
        k(   35) = (   0.2500000   0.4330127   0.0000000), wk =   0.0138889
        k(   36) = (   0.2500000   0.5292377   0.0000000), wk =   0.0138889
        k(   37) = (   0.2500000   0.6254628   0.0000000), wk =   0.0138889
        k(   38) = (   0.2500000  -0.4330127   0.0000000), wk =   0.0138889
        k(   39) = (   0.2500000  -0.3367877   0.0000000), wk =   0.0138889
        k(   40) = (   0.2500000  -0.2405626   0.0000000), wk =   0.0138889
        k(   41) = (   0.2500000  -0.1443376   0.0000000), wk =   0.0138889
        k(   42) = (   0.2500000  -0.0481125   0.0000000), wk =   0.0138889
        k(   43) = (   0.2500000   0.0481125   0.0000000), wk =   0.0138889
        k(   44) = (   0.3333333   0.1924501   0.0000000), wk =   0.0138889
        k(   45) = (   0.3333333   0.2886751   0.0000000), wk =   0.0138889
        k(   46) = (   0.3333333   0.3849002   0.0000000), wk =   0.0138889
        k(   47) = (   0.3333333   0.4811252   0.0000000), wk =   0.0138889
        k(   48) = (   0.3333333   0.5773503   0.0000000), wk =   0.0138889
        k(   49) = (   0.3333333   0.6735753   0.0000000), wk =   0.0138889
        k(   50) = (   0.3333333  -0.3849002   0.0000000), wk =   0.0138889
        k(   51) = (   0.3333333  -0.2886751   0.0000000), wk =   0.0138889
        k(   52) = (   0.3333333  -0.1924501   0.0000000), wk =   0.0138889
        k(   53) = (   0.3333333  -0.0962250   0.0000000), wk =   0.0138889
        k(   54) = (   0.3333333  -0.0000000   0.0000000), wk =   0.0138889
        k(   55) = (   0.3333333   0.0962250   0.0000000), wk =   0.0138889
        k(   56) = (   0.4166667   0.2405626   0.0000000), wk =   0.0138889
        k(   57) = (   0.4166667   0.3367877   0.0000000), wk =   0.0138889
        k(   58) = (   0.4166667   0.4330127   0.0000000), wk =   0.0138889
        k(   59) = (   0.4166667   0.5292377   0.0000000), wk =   0.0138889
        k(   60) = (   0.4166667   0.6254628   0.0000000), wk =   0.0138889
        k(   61) = (   0.4166667   0.7216878   0.0000000), wk =   0.0138889
        k(   62) = (   0.4166667  -0.3367877   0.0000000), wk =   0.0138889
        k(   63) = (   0.4166667  -0.2405626   0.0000000), wk =   0.0138889
        k(   64) = (   0.4166667  -0.1443376   0.0000000), wk =   0.0138889
        k(   65) = (   0.4166667  -0.0481125   0.0000000), wk =   0.0138889
        k(   66) = (   0.4166667   0.0481125   0.0000000), wk =   0.0138889
        k(   67) = (   0.4166667   0.1443376   0.0000000), wk =   0.0138889
        k(   68) = (  -0.5000000  -0.2886751   0.0000000), wk =   0.0069444
        k(   69) = (  -0.5000000  -0.1924501   0.0000000), wk =   0.0138889
        k(   70) = (  -0.5000000  -0.0962250   0.0000000), wk =   0.0138889
        k(   71) = (  -0.5000000   0.0000000   0.0000000), wk =   0.0138889
        k(   72) = (  -0.5000000   0.0962250   0.0000000), wk =   0.0138889
        k(   73) = (  -0.5000000   0.1924501   0.0000000), wk =   0.0138889
        k(   74) = (  -0.5000000  -0.8660254   0.0000000), wk =   0.0069444

     Dense  grid:   166859 G-vectors     FFT dimensions: (  40,  40, 240)

     Smooth grid:    42343 G-vectors     FFT dimensions: (  25,  25, 160)

     Estimated max dynamical RAM per process >      40.42 MB

     Estimated total dynamical RAM >     808.50 MB

     Initial potential from superposition of free atoms

     starting charge       7.9999, renormalised to       8.0000

     negative rho (up, down):  2.223E-05 0.000E+00
 
     Adding external electric field

     Computed dipole along edir(3) : 
        Dipole               -0.0000 Ry au,         -0.0000 Debye
        Dipole field         -0.0000 Ry au, 
 
        E field amplitude [Ha a.u.]:  8.7511E-03
        Potential amp.        0.4713 Ry
        Total length         26.9286 bohr
 
     Starting wfcs are random
     Checking if some PAW data can be deallocated... 

     total cpu time spent up to now is        0.7 secs

     per-process dynamical memory:    53.7 Mb

     Self-consistent Calculation

     iteration #  1     ecut=    70.00 Ry     beta= 0.10
     Davidson diagonalization with overlap
     ethr =  1.00E-02,  avg # of iterations =  8.5

     negative rho (up, down):  2.134E-05 0.000E+00
 
     Adding external electric field

     Computed dipole along edir(3) : 
        Dipole                0.0110 Ry au,          0.0279 Debye
        Dipole field          0.0003 Ry au, 
 
        E field amplitude [Ha a.u.]:  8.7511E-03
        Potential amp.        0.4574 Ry
        Total length         26.9286 bohr
 

     total cpu time spent up to now is        5.9 secs

     total energy              =     -36.95182360 Ry
     estimated scf accuracy    <       0.20443799 Ry

     iteration #  2     ecut=    70.00 Ry     beta= 0.10
     Davidson diagonalization with overlap
     ethr =  2.56E-03,  avg # of iterations =  1.0

     negative rho (up, down):  2.653E-05 0.000E+00
 
     Adding external electric field

     Computed dipole along edir(3) : 
        Dipole                0.0705 Ry au,          0.1793 Debye
        Dipole field          0.0017 Ry au, 
 
        E field amplitude [Ha a.u.]:  8.7511E-03
        Potential amp.        0.3819 Ry
        Total length         26.9286 bohr
 

     total cpu time spent up to now is        7.1 secs

     total energy              =     -36.86218859 Ry
     estimated scf accuracy    <       0.15061224 Ry

     iteration #  3     ecut=    70.00 Ry     beta= 0.10
     Davidson diagonalization with overlap
     ethr =  1.88E-03,  avg # of iterations =  3.0

     negative rho (up, down):  2.635E-05 0.000E+00
 
     Adding external electric field

     Computed dipole along edir(3) : 
        Dipole                0.0574 Ry au,          0.1458 Debye
        Dipole field          0.0014 Ry au, 
 
        E field amplitude [Ha a.u.]:  8.7511E-03
        Potential amp.        0.3986 Ry
        Total length         26.9286 bohr
 

     total cpu time spent up to now is        8.6 secs

     total energy              =     -36.88738918 Ry
     estimated scf accuracy    <       0.00318548 Ry

     iteration #  4     ecut=    70.00 Ry     beta= 0.10
     Davidson diagonalization with overlap
     ethr =  3.98E-05,  avg # of iterations =  6.1

     negative rho (up, down):  2.870E-05 0.000E+00
 
     Adding external electric field

     Computed dipole along edir(3) : 
        Dipole                0.0330 Ry au,          0.0838 Debye
        Dipole field          0.0008 Ry au, 
 
        E field amplitude [Ha a.u.]:  8.7511E-03
        Potential amp.        0.4295 Ry
        Total length         26.9286 bohr
 

     total cpu time spent up to now is       10.8 secs

     total energy              =     -36.88762762 Ry
     estimated scf accuracy    <       0.00181190 Ry

     iteration #  5     ecut=    70.00 Ry     beta= 0.10
     Davidson diagonalization with overlap
     ethr =  2.26E-05,  avg # of iterations =  3.0

     negative rho (up, down):  2.867E-05 0.000E+00
 
     Adding external electric field

     Computed dipole along edir(3) : 
        Dipole                0.0310 Ry au,          0.0788 Debye
        Dipole field          0.0007 Ry au, 
 
        E field amplitude [Ha a.u.]:  8.7511E-03
        Potential amp.        0.4320 Ry
        Total length         26.9286 bohr
 

     total cpu time spent up to now is       12.3 secs

     total energy              =     -36.88795502 Ry
     estimated scf accuracy    <       0.00083961 Ry

     iteration #  6     ecut=    70.00 Ry     beta= 0.10
     Davidson diagonalization with overlap
     ethr =  1.05E-05,  avg # of iterations =  1.0

     negative rho (up, down):  3.166E-05 0.000E+00
 
     Adding external electric field

     Computed dipole along edir(3) : 
        Dipole                0.0460 Ry au,          0.1170 Debye
        Dipole field          0.0011 Ry au, 
 
        E field amplitude [Ha a.u.]:  8.7511E-03
        Potential amp.        0.4129 Ry
        Total length         26.9286 bohr
 

     total cpu time spent up to now is       13.5 secs

     total energy              =     -36.88771743 Ry
     estimated scf accuracy    <       0.00102052 Ry

     iteration #  7     ecut=    70.00 Ry     beta= 0.10
     Davidson diagonalization with overlap
     ethr =  1.05E-05,  avg # of iterations =  2.1

     negative rho (up, down):  3.272E-05 0.000E+00
 
     Adding external electric field

     Computed dipole along edir(3) : 
        Dipole                0.0524 Ry au,          0.1333 Debye
        Dipole field          0.0012 Ry au, 
 
        E field amplitude [Ha a.u.]:  8.7511E-03
        Potential amp.        0.4048 Ry
        Total length         26.9286 bohr
 

     total cpu time spent up to now is       14.7 secs

     total energy              =     -36.88771639 Ry
     estimated scf accuracy    <       0.00011773 Ry

     iteration #  8     ecut=    70.00 Ry     beta= 0.10
     Davidson diagonalization with overlap
     ethr =  1.47E-06,  avg # of iterations =  3.5

     negative rho (up, down):  3.305E-05 0.000E+00
 
     Adding external electric field

     Computed dipole along edir(3) : 
        Dipole                0.0506 Ry au,          0.1285 Debye
        Dipole field          0.0012 Ry au, 
 
        E field amplitude [Ha a.u.]:  8.7511E-03
        Potential amp.        0.4072 Ry
        Total length         26.9286 bohr
 

     total cpu time spent up to now is       16.4 secs

     total energy              =     -36.88773907 Ry
     estimated scf accuracy    <       0.00000169 Ry

     iteration #  9     ecut=    70.00 Ry     beta= 0.10
     Davidson diagonalization with overlap
     ethr =  2.11E-08,  avg # of iterations =  2.2

     negative rho (up, down):  3.322E-05 0.000E+00
 
     Adding external electric field

     Computed dipole along edir(3) : 
        Dipole                0.0505 Ry au,          0.1283 Debye
        Dipole field          0.0012 Ry au, 
 
        E field amplitude [Ha a.u.]:  8.7511E-03
        Potential amp.        0.4073 Ry
        Total length         26.9286 bohr
 

     total cpu time spent up to now is       17.9 secs

     total energy              =     -36.88774057 Ry
     estimated scf accuracy    <       0.00000395 Ry

     iteration # 10     ecut=    70.00 Ry     beta= 0.10
     Davidson diagonalization with overlap
     ethr =  2.11E-08,  avg # of iterations =  1.0

     negative rho (up, down):  3.394E-05 0.000E+00
 
     Adding external electric field

     Computed dipole along edir(3) : 
        Dipole                0.0514 Ry au,          0.1307 Debye
        Dipole field          0.0012 Ry au, 
 
        E field amplitude [Ha a.u.]:  8.7511E-03
        Potential amp.        0.4061 Ry
        Total length         26.9286 bohr
 

     total cpu time spent up to now is       19.0 secs

     total energy              =     -36.88773882 Ry
     estimated scf accuracy    <       0.00000415 Ry

     iteration # 11     ecut=    70.00 Ry     beta= 0.10
     Davidson diagonalization with overlap
     ethr =  2.11E-08,  avg # of iterations =  2.0

     negative rho (up, down):  3.399E-05 0.000E+00
 
     Adding external electric field

     Computed dipole along edir(3) : 
        Dipole                0.0515 Ry au,          0.1310 Debye
        Dipole field          0.0012 Ry au, 
 
        E field amplitude [Ha a.u.]:  8.7511E-03
        Potential amp.        0.4059 Ry
        Total length         26.9286 bohr
 

     total cpu time spent up to now is       20.4 secs

     total energy              =     -36.88773958 Ry
     estimated scf accuracy    <       0.00000006 Ry

     iteration # 12     ecut=    70.00 Ry     beta= 0.10
     Davidson diagonalization with overlap
     ethr =  7.23E-10,  avg # of iterations =  2.2

     negative rho (up, down):  3.410E-05 0.000E+00
 
     Adding external electric field

     Computed dipole along edir(3) : 
        Dipole                0.0516 Ry au,          0.1312 Debye
        Dipole field          0.0012 Ry au, 
 
        E field amplitude [Ha a.u.]:  8.7511E-03
        Potential amp.        0.4058 Ry
        Total length         26.9286 bohr
 

     total cpu time spent up to now is       21.8 secs

     total energy              =     -36.88773961 Ry
     estimated scf accuracy    <       0.00000003 Ry

     iteration # 13     ecut=    70.00 Ry     beta= 0.10
     Davidson diagonalization with overlap
     ethr =  4.27E-10,  avg # of iterations =  1.2

     negative rho (up, down):  3.419E-05 0.000E+00
 
     Adding external electric field

     Computed dipole along edir(3) : 
        Dipole                0.0516 Ry au,          0.1310 Debye
        Dipole field          0.0012 Ry au, 
 
        E field amplitude [Ha a.u.]:  8.7511E-03
        Potential amp.        0.4059 Ry
        Total length         26.9286 bohr
 

     total cpu time spent up to now is       23.0 secs

     total energy              =     -36.88773959 Ry
     estimated scf accuracy    <       0.00000008 Ry

     iteration # 14     ecut=    70.00 Ry     beta= 0.10
     Davidson diagonalization with overlap
     ethr =  4.27E-10,  avg # of iterations =  2.0

     negative rho (up, down):  3.536E-05 0.000E+00
 
     Adding external electric field

     Computed dipole along edir(3) : 
        Dipole                0.0515 Ry au,          0.1308 Debye
        Dipole field          0.0012 Ry au, 
 
        E field amplitude [Ha a.u.]:  8.7511E-03
        Potential amp.        0.4060 Ry
        Total length         26.9286 bohr
 

     total cpu time spent up to now is       24.3 secs

     End of self-consistent calculation

          k = 0.0000 0.0000 0.0000 (  5307 PWs)   bands (ev):

   -21.0999 -21.0999  -9.1965  -9.1965  -4.6427  -4.6427  -4.6335  -4.6335
     0.8477   0.8477   1.8978   1.8978   2.9877   2.9877   4.8257   4.8257

          k = 0.0000 0.0962 0.0000 (  5285 PWs)   bands (ev):

   -20.9361 -20.9361  -9.0008  -9.0008  -5.2888  -5.2888  -4.9761  -4.9761
     1.0747   1.0747   2.1217   2.1217   3.2104   3.2105   5.0480   5.0481

          k = 0.0000 0.1925 0.0000 (  5253 PWs)   bands (ev):

   -20.4466 -20.4466  -8.4189  -8.4188  -6.9262  -6.9262  -5.7677  -5.7677
     1.7555   1.7556   2.7934   2.7934   3.8771   3.8772   5.7119   5.7121

          k = 0.0000 0.2887 0.0000 (  5269 PWs)   bands (ev):

   -19.6371 -19.6371  -9.0237  -9.0237  -7.4699  -7.4699  -6.6466  -6.6466
     2.8886   2.8886   3.9102   3.9104   4.9612   4.9615   5.6722   5.6722

          k = 0.0000 0.3849 0.0000 (  5285 PWs)   bands (ev):

   -18.5198 -18.5198 -11.2256 -11.2256  -7.3795  -7.3795  -6.2041  -6.2041
     3.3173   3.3174   4.4819   4.4821   5.4662   5.4664   6.1176   6.1181

          k = 0.0000 0.4811 0.0000 (  5290 PWs)   bands (ev):

   -17.1261 -17.1261 -13.3236 -13.3236  -7.8520  -7.8520  -4.7845  -4.7845
     1.1903   1.1903   5.8660   5.8660   6.5156   6.5157   7.4881   7.4883

          k = 0.0000-0.5774 0.0000 (  5288 PWs)   bands (ev):

   -15.8674 -15.8674 -14.8249 -14.8249  -8.0142  -8.0142  -3.9421  -3.9421
     0.0955   0.0955   5.7871   5.7871   8.9547   8.9547   8.9972   8.9972

          k = 0.0833 0.0481 0.0000 (  5285 PWs)   bands (ev):

   -20.9361 -20.9361  -9.0008  -9.0008  -5.2888  -5.2888  -4.9761  -4.9761
     1.0747   1.0747   2.1217   2.1217   3.2104   3.2105   5.0480   5.0481

          k = 0.0833 0.1443 0.0000 (  5269 PWs)   bands (ev):

   -20.6095 -20.6095  -8.6119  -8.6118  -6.3226  -6.3226  -5.6527  -5.6527
     1.5287   1.5287   2.5697   2.5697   3.6554   3.6555   5.4920   5.4922

          k = 0.0833 0.2406 0.0000 (  5261 PWs)   bands (ev):

   -19.9600 -19.9600  -8.0321  -8.0320  -7.8452  -7.8452  -6.6497  -6.6497
     2.4360   2.4360   3.4650   3.4651   4.5415   4.5417   6.3502   6.3504

          k = 0.0833 0.3368 0.0000 (  5275 PWs)   bands (ev):

   -18.9964 -18.9964 -10.1039 -10.1038  -7.5355  -7.5354  -6.7314  -6.7314
     3.7890   3.7891   4.3407   4.3407   4.8100   4.8101   5.8793   5.8797

          k = 0.0833 0.4330 0.0000 (  5284 PWs)   bands (ev):

   -17.7378 -17.7378 -12.2248 -12.2248  -8.1699  -8.1699  -5.3546  -5.3546
     2.1345   2.1346   5.6055   5.6056   6.5383   6.5385   6.7476   6.7480

          k = 0.0833 0.5292 0.0000 (  5302 PWs)   bands (ev):

   -16.2613 -16.2613 -14.1632 -14.1632  -8.4981  -8.4981  -4.0484  -4.0484
     0.3706   0.3706   6.5251   6.5251   7.8555   7.8557   8.8044   8.8046

          k = 0.0833-0.5292 0.0000 (  5302 PWs)   bands (ev):

   -16.2613 -16.2613 -14.1632 -14.1632  -8.4981  -8.4981  -4.0484  -4.0484
     0.3706   0.3706   6.5251   6.5251   7.8555   7.8557   8.8044   8.8046

          k = 0.0833-0.4330 0.0000 (  5284 PWs)   bands (ev):

   -17.7378 -17.7378 -12.2248 -12.2248  -8.1699  -8.1699  -5.3546  -5.3546
     2.1345   2.1346   5.6055   5.6056   6.5383   6.5385   6.7476   6.7480

          k = 0.0833-0.3368 0.0000 (  5275 PWs)   bands (ev):

   -18.9964 -18.9964 -10.1039 -10.1038  -7.5355  -7.5354  -6.7314  -6.7314
     3.7890   3.7891   4.3407   4.3407   4.8100   4.8101   5.8793   5.8797

          k = 0.0833-0.2406 0.0000 (  5261 PWs)   bands (ev):

   -19.9600 -19.9600  -8.0321  -8.0320  -7.8452  -7.8452  -6.6497  -6.6497
     2.4360   2.4360   3.4650   3.4651   4.5415   4.5417   6.3502   6.3505

          k = 0.0833-0.1443 0.0000 (  5269 PWs)   bands (ev):

   -20.6095 -20.6095  -8.6119  -8.6118  -6.3226  -6.3226  -5.6527  -5.6527
     1.5287   1.5287   2.5697   2.5697   3.6554   3.6555   5.4920   5.4922

          k = 0.0833-0.0481 0.0000 (  5285 PWs)   bands (ev):

   -20.9361 -20.9361  -9.0008  -9.0008  -5.2888  -5.2888  -4.9761  -4.9761
     1.0747   1.0747   2.1217   2.1217   3.2104   3.2105   5.0480   5.0481

          k = 0.1667 0.0962 0.0000 (  5253 PWs)   bands (ev):

   -20.4466 -20.4466  -8.4189  -8.4188  -6.9262  -6.9262  -5.7677  -5.7677
     1.7555   1.7556   2.7934   2.7934   3.8771   3.8772   5.7119   5.7121

          k = 0.1667 0.1925 0.0000 (  5261 PWs)   bands (ev):

   -19.9600 -19.9600  -8.0321  -8.0320  -7.8452  -7.8452  -6.6497  -6.6497
     2.4360   2.4360   3.4650   3.4651   4.5415   4.5417   6.3503   6.3505

          k = 0.1667 0.2887 0.0000 (  5288 PWs)   bands (ev):

   -19.1564 -19.1564  -9.3627  -9.3627  -8.0100  -8.0100  -6.9098  -6.9098
     3.5687   3.5687   4.5829   4.5830   4.7844   4.7845   5.6435   5.6438

          k = 0.1667 0.3849 0.0000 (  5285 PWs)   bands (ev):

   -18.0500 -18.0500 -11.0887 -11.0887  -9.0657  -9.0657  -5.6592  -5.6592
     2.8413   2.8414   5.1504   5.1505   6.1412   6.1413   7.1588   7.1592

          k = 0.1667 0.4811 0.0000 (  5283 PWs)   bands (ev):

   -16.6762 -16.6762 -12.9970 -12.9970  -9.6416  -9.6416  -4.2355  -4.2354
     0.9336   0.9337   7.1687   7.1689   8.1120   8.1122   8.4363   8.4368

          k = 0.1667 0.5774 0.0000 (  5264 PWs)   bands (ev):

   -15.4463 -15.4463 -14.4273 -14.4273  -9.8265  -9.8265  -3.3449  -3.3449
    -0.1318  -0.1317   8.3314   8.3314   9.4942   9.4943   9.5974   9.5976

          k = 0.1667-0.4811 0.0000 (  5283 PWs)   bands (ev):

   -16.6762 -16.6762 -12.9970 -12.9970  -9.6416  -9.6416  -4.2355  -4.2354
     0.9336   0.9337   7.1687   7.1689   8.1120   8.1122   8.4363   8.4368

          k = 0.1667-0.3849 0.0000 (  5285 PWs)   bands (ev):

   -18.0500 -18.0500 -11.0887 -11.0887  -9.0657  -9.0657  -5.6592  -5.6592
     2.8413   2.8414   5.1504   5.1505   6.1412   6.1413   7.1588   7.1592

          k = 0.1667-0.2887 0.0000 (  5288 PWs)   bands (ev):

   -19.1564 -19.1564  -9.3627  -9.3627  -8.0100  -8.0100  -6.9098  -6.9098
     3.5687   3.5687   4.5829   4.5830   4.7844   4.7845   5.6435   5.6438

          k = 0.1667-0.1925 0.0000 (  5261 PWs)   bands (ev):

   -19.9600 -19.9600  -8.0321  -8.0320  -7.8452  -7.8452  -6.6497  -6.6497
     2.4360   2.4360   3.4650   3.4651   4.5415   4.5417   6.3502   6.3504

          k = 0.1667-0.0962 0.0000 (  5253 PWs)   bands (ev):

   -20.4466 -20.4466  -8.4189  -8.4188  -6.9262  -6.9262  -5.7677  -5.7677
     1.7555   1.7556   2.7934   2.7934   3.8771   3.8772   5.7119   5.7121

          k = 0.1667-0.0000 0.0000 (  5269 PWs)   bands (ev):

   -20.6095 -20.6095  -8.6119  -8.6118  -6.3226  -6.3226  -5.6527  -5.6527
     1.5287   1.5287   2.5697   2.5697   3.6554   3.6555   5.4920   5.4922

          k = 0.2500 0.1443 0.0000 (  5269 PWs)   bands (ev):

   -19.6371 -19.6371  -9.0237  -9.0237  -7.4699  -7.4699  -6.6466  -6.6466
     2.8886   2.8886   3.9102   3.9104   4.9612   4.9615   5.6722   5.6722

          k = 0.2500 0.2406 0.0000 (  5275 PWs)   bands (ev):

   -18.9964 -18.9964 -10.1039 -10.1038  -7.5355  -7.5354  -6.7314  -6.7314
     3.7890   3.7891   4.3407   4.3407   4.8100   4.8101   5.8793   5.8797

          k = 0.2500 0.3368 0.0000 (  5285 PWs)   bands (ev):

   -18.0500 -18.0500 -11.0887 -11.0887  -9.0657  -9.0657  -5.6592  -5.6592
     2.8413   2.8414   5.1504   5.1505   6.1412   6.1413   7.1588   7.1592

          k = 0.2500 0.4330 0.0000 (  5268 PWs)   bands (ev):

   -16.8235 -16.8235 -12.1249 -12.1249 -10.5461 -10.5461  -4.3192  -4.3192
     1.2301   1.2301   6.9376   6.9377   7.9010   7.9012   8.7097   8.7103

          k = 0.2500 0.5292 0.0000 (  5282 PWs)   bands (ev):

   -15.4040 -15.4040 -13.5437 -13.5437 -11.2534 -11.2534  -2.9364  -2.9364
    -0.2870  -0.2870   8.9697   8.9701   9.5861   9.5864  10.0758  10.0759

          k = 0.2500 0.6255 0.0000 (  5282 PWs)   bands (ev):

   -15.4040 -15.4040 -13.5437 -13.5437 -11.2534 -11.2534  -2.9364  -2.9364
    -0.2870  -0.2870   8.9697   8.9701   9.5861   9.5864  10.0758  10.0759

          k = 0.2500-0.4330 0.0000 (  5268 PWs)   bands (ev):

   -16.8235 -16.8235 -12.1249 -12.1249 -10.5461 -10.5461  -4.3192  -4.3192
     1.2301   1.2301   6.9376   6.9377   7.9010   7.9012   8.7097   8.7103

          k = 0.2500-0.3368 0.0000 (  5285 PWs)   bands (ev):

   -18.0500 -18.0500 -11.0887 -11.0887  -9.0657  -9.0657  -5.6592  -5.6592
     2.8413   2.8414   5.1504   5.1505   6.1412   6.1413   7.1588   7.1592

          k = 0.2500-0.2406 0.0000 (  5275 PWs)   bands (ev):

   -18.9964 -18.9964 -10.1039 -10.1038  -7.5355  -7.5354  -6.7314  -6.7314
     3.7890   3.7891   4.3407   4.3407   4.8100   4.8101   5.8793   5.8797

          k = 0.2500-0.1443 0.0000 (  5269 PWs)   bands (ev):

   -19.6371 -19.6371  -9.0237  -9.0237  -7.4699  -7.4699  -6.6466  -6.6466
     2.8886   2.8886   3.9102   3.9104   4.9612   4.9615   5.6722   5.6722

          k = 0.2500-0.0481 0.0000 (  5261 PWs)   bands (ev):

   -19.9600 -19.9600  -8.0321  -8.0320  -7.8452  -7.8452  -6.6497  -6.6497
     2.4360   2.4360   3.4650   3.4651   4.5415   4.5417   6.3502   6.3504

          k = 0.2500 0.0481 0.0000 (  5261 PWs)   bands (ev):

   -19.9600 -19.9600  -8.0321  -8.0320  -7.8452  -7.8452  -6.6497  -6.6497
     2.4360   2.4360   3.4650   3.4651   4.5415   4.5417   6.3503   6.3505

          k = 0.3333 0.1925 0.0000 (  5285 PWs)   bands (ev):

   -18.5198 -18.5198 -11.2256 -11.2256  -7.3795  -7.3795  -6.2041  -6.2041
     3.3173   3.3174   4.4819   4.4821   5.4662   5.4664   6.1176   6.1181

          k = 0.3333 0.2887 0.0000 (  5284 PWs)   bands (ev):

   -17.7378 -17.7378 -12.2248 -12.2248  -8.1699  -8.1699  -5.3546  -5.3546
     2.1345   2.1346   5.6055   5.6056   6.5383   6.5385   6.7476   6.7480

          k = 0.3333 0.3849 0.0000 (  5283 PWs)   bands (ev):

   -16.6762 -16.6762 -12.9970 -12.9970  -9.6416  -9.6416  -4.2355  -4.2354
     0.9336   0.9337   7.1687   7.1689   8.1120   8.1122   8.4363   8.4368

          k = 0.3333 0.4811 0.0000 (  5282 PWs)   bands (ev):

   -15.4040 -15.4040 -13.5437 -13.5437 -11.2534 -11.2534  -2.9364  -2.9364
    -0.2870  -0.2870   8.9697   8.9701   9.5861   9.5864  10.0758  10.0759

          k = 0.3333 0.5774 0.0000 (  5292 PWs)   bands (ev):

   -14.1900 -14.1900 -14.1879 -14.1879 -12.1447 -12.1447  -1.5830  -1.5830
    -1.5829  -1.5829   9.0030   9.0030  11.1604  11.1612  11.1640  11.1640

          k = 0.3333 0.6736 0.0000 (  5282 PWs)   bands (ev):

   -15.4040 -15.4040 -13.5437 -13.5437 -11.2534 -11.2534  -2.9364  -2.9364
    -0.2870  -0.2870   8.9697   8.9701   9.5861   9.5864  10.0758  10.0759

          k = 0.3333-0.3849 0.0000 (  5283 PWs)   bands (ev):

   -16.6762 -16.6762 -12.9970 -12.9970  -9.6416  -9.6416  -4.2355  -4.2354
     0.9336   0.9337   7.1687   7.1689   8.1120   8.1122   8.4363   8.4368

          k = 0.3333-0.2887 0.0000 (  5284 PWs)   bands (ev):

   -17.7378 -17.7378 -12.2248 -12.2248  -8.1699  -8.1699  -5.3546  -5.3546
     2.1345   2.1346   5.6055   5.6056   6.5383   6.5385   6.7476   6.7480

          k = 0.3333-0.1925 0.0000 (  5285 PWs)   bands (ev):

   -18.5198 -18.5198 -11.2256 -11.2256  -7.3795  -7.3795  -6.2041  -6.2041
     3.3173   3.3174   4.4819   4.4821   5.4662   5.4664   6.1176   6.1181

          k = 0.3333-0.0962 0.0000 (  5275 PWs)   bands (ev):

   -18.9964 -18.9964 -10.1039 -10.1038  -7.5355  -7.5354  -6.7314  -6.7314
     3.7890   3.7891   4.3407   4.3407   4.8100   4.8101   5.8793   5.8797

          k = 0.3333-0.0000 0.0000 (  5288 PWs)   bands (ev):

   -19.1564 -19.1564  -9.3627  -9.3627  -8.0100  -8.0100  -6.9098  -6.9098
     3.5687   3.5687   4.5829   4.5830   4.7844   4.7845   5.6435   5.6438

          k = 0.3333 0.0962 0.0000 (  5275 PWs)   bands (ev):

   -18.9964 -18.9964 -10.1039 -10.1038  -7.5355  -7.5354  -6.7314  -6.7314
     3.7890   3.7891   4.3407   4.3407   4.8100   4.8101   5.8793   5.8797

          k = 0.4167 0.2406 0.0000 (  5290 PWs)   bands (ev):

   -17.1261 -17.1261 -13.3236 -13.3236  -7.8520  -7.8520  -4.7845  -4.7845
     1.1903   1.1903   5.8660   5.8660   6.5156   6.5157   7.4881   7.4883

          k = 0.4167 0.3368 0.0000 (  5302 PWs)   bands (ev):

   -16.2613 -16.2613 -14.1632 -14.1632  -8.4981  -8.4981  -4.0484  -4.0484
     0.3706   0.3706   6.5251   6.5251   7.8555   7.8557   8.8044   8.8046

          k = 0.4167 0.4330 0.0000 (  5264 PWs)   bands (ev):

   -15.4463 -15.4463 -14.4273 -14.4273  -9.8265  -9.8265  -3.3449  -3.3449
    -0.1318  -0.1317   8.3314   8.3314   9.4942   9.4943   9.5974   9.5976

          k = 0.4167 0.5292 0.0000 (  5282 PWs)   bands (ev):

   -15.4040 -15.4040 -13.5437 -13.5437 -11.2534 -11.2534  -2.9364  -2.9364
    -0.2870  -0.2870   8.9697   8.9701   9.5861   9.5864  10.0758  10.0759

          k = 0.4167 0.6255 0.0000 (  5282 PWs)   bands (ev):

   -15.4040 -15.4040 -13.5437 -13.5437 -11.2534 -11.2534  -2.9364  -2.9364
    -0.2870  -0.2870   8.9697   8.9701   9.5861   9.5864  10.0758  10.0759

          k = 0.4167 0.7217 0.0000 (  5264 PWs)   bands (ev):

   -15.4463 -15.4463 -14.4273 -14.4273  -9.8265  -9.8265  -3.3449  -3.3449
    -0.1318  -0.1317   8.3314   8.3314   9.4942   9.4943   9.5974   9.5976

          k = 0.4167-0.3368 0.0000 (  5302 PWs)   bands (ev):

   -16.2613 -16.2613 -14.1632 -14.1632  -8.4981  -8.4981  -4.0484  -4.0484
     0.3706   0.3706   6.5251   6.5251   7.8555   7.8557   8.8044   8.8046

          k = 0.4167-0.2406 0.0000 (  5290 PWs)   bands (ev):

   -17.1261 -17.1261 -13.3236 -13.3236  -7.8520  -7.8520  -4.7845  -4.7845
     1.1903   1.1903   5.8660   5.8660   6.5156   6.5157   7.4881   7.4883

          k = 0.4167-0.1443 0.0000 (  5284 PWs)   bands (ev):

   -17.7378 -17.7378 -12.2248 -12.2248  -8.1699  -8.1699  -5.3546  -5.3546
     2.1345   2.1346   5.6055   5.6056   6.5383   6.5385   6.7476   6.7480

          k = 0.4167-0.0481 0.0000 (  5285 PWs)   bands (ev):

   -18.0500 -18.0500 -11.0887 -11.0887  -9.0657  -9.0657  -5.6592  -5.6592
     2.8413   2.8414   5.1504   5.1505   6.1412   6.1413   7.1588   7.1592

          k = 0.4167 0.0481 0.0000 (  5285 PWs)   bands (ev):

   -18.0500 -18.0500 -11.0887 -11.0887  -9.0657  -9.0657  -5.6592  -5.6592
     2.8413   2.8414   5.1504   5.1505   6.1412   6.1413   7.1588   7.1592

          k = 0.4167 0.1443 0.0000 (  5284 PWs)   bands (ev):

   -17.7378 -17.7378 -12.2248 -12.2248  -8.1699  -8.1699  -5.3546  -5.3546
     2.1345   2.1346   5.6055   5.6056   6.5383   6.5385   6.7476   6.7480

          k =-0.5000-0.2887 0.0000 (  5288 PWs)   bands (ev):

   -15.8674 -15.8674 -14.8249 -14.8249  -8.0142  -8.0142  -3.9421  -3.9421
     0.0955   0.0955   5.7871   5.7871   8.9547   8.9547   8.9972   8.9972

          k =-0.5000-0.1925 0.0000 (  5302 PWs)   bands (ev):

   -16.2613 -16.2613 -14.1632 -14.1632  -8.4981  -8.4981  -4.0484  -4.0484
     0.3706   0.3706   6.5251   6.5251   7.8555   7.8557   8.8044   8.8046

          k =-0.5000-0.0962 0.0000 (  5283 PWs)   bands (ev):

   -16.6762 -16.6762 -12.9970 -12.9970  -9.6416  -9.6416  -4.2355  -4.2354
     0.9336   0.9337   7.1687   7.1689   8.1120   8.1122   8.4363   8.4368

          k =-0.5000 0.0000 0.0000 (  5268 PWs)   bands (ev):

   -16.8235 -16.8235 -12.1249 -12.1249 -10.5461 -10.5461  -4.3192  -4.3192
     1.2301   1.2301   6.9376   6.9377   7.9010   7.9012   8.7097   8.7103

          k =-0.5000 0.0962 0.0000 (  5283 PWs)   bands (ev):

   -16.6762 -16.6762 -12.9970 -12.9970  -9.6416  -9.6416  -4.2355  -4.2354
     0.9336   0.9337   7.1687   7.1689   8.1120   8.1122   8.4363   8.4368

          k =-0.5000 0.1925 0.0000 (  5302 PWs)   bands (ev):

   -16.2613 -16.2613 -14.1632 -14.1632  -8.4981  -8.4981  -4.0484  -4.0484
     0.3706   0.3706   6.5251   6.5251   7.8555   7.8557   8.8044   8.8046

          k =-0.5000-0.8660 0.0000 (  5288 PWs)   bands (ev):

   -15.8674 -15.8674 -14.8249 -14.8249  -8.0142  -8.0142  -3.9421  -3.9421
     0.0955   0.0955   5.7871   5.7871   8.9547   8.9547   8.9972   8.9972

     the Fermi energy is    -1.58294397 ev

!    total energy              =     -36.88773961 Ry
     total all-electron energy =      -152.416012 Ry
     estimated scf accuracy    <          9.5E-09 Ry
     smearing contrib. (-TS)   =      -0.00003134 Ry
     internal energy E=F+TS    =     -36.88770827 Ry

     The total energy is F=E-TS. E is the sum of the following terms:
     one-electron contribution =    -156.61575167 Ry
     hartree contribution      =      79.92536624 Ry
     xc contribution           =      -9.27190903 Ry
     ewald contribution        =      61.40972547 Ry
     electric field correction =      -0.00083830 Ry
     one-center paw contrib.   =     -12.33430098 Ry

     convergence has been achieved in  14 iterations

     negative rho (up, down):  3.536E-05 0.000E+00

     Forces acting on atoms (cartesian axes, Ry/au):

     atom    1 type  1   force =     0.00000003    0.00000040    0.00000033
     atom    2 type  1   force =    -0.00000003   -0.00000040   -0.00000033

     Total force =     0.000001     Total SCF correction =     0.000238
     SCF correction compared to forces is large: reduce conv_thr to get better values

     Writing all to output data dir ../tmp/graphene.save/ :
     XML data file, charge density, pseudopotentials, collected wavefunctions
 
     init_run     :      0.48s CPU      0.54s WALL (       1 calls)
     electrons    :     22.65s CPU     23.63s WALL (       1 calls)
     forces       :      0.07s CPU      0.07s WALL (       1 calls)

     Called by init_run:
     wfcinit      :      0.41s CPU      0.44s WALL (       1 calls)
     potinit      :      0.02s CPU      0.03s WALL (       1 calls)
     hinit0       :      0.01s CPU      0.02s WALL (       1 calls)

     Called by electrons:
     c_bands      :     19.04s CPU     19.80s WALL (      14 calls)
     sum_band     :      3.03s CPU      3.17s WALL (      14 calls)
     v_of_rho     :      0.12s CPU      0.14s WALL (      15 calls)
     newd         :      0.22s CPU      0.22s WALL (      15 calls)
     PAW_pot      :      0.13s CPU      0.13s WALL (      15 calls)
     mix_rho      :      0.08s CPU      0.09s WALL (      14 calls)

     Called by c_bands:
     init_us_2    :      0.14s CPU      0.15s WALL (    2220 calls)
     cegterg      :     18.38s CPU     19.10s WALL (    1036 calls)

     Called by *egterg:
     cdiaghg      :      2.56s CPU      2.62s WALL (    3909 calls)
     h_psi        :     14.09s CPU     14.71s WALL (    3983 calls)
     s_psi        :      0.25s CPU      0.26s WALL (    3983 calls)
     g_psi        :      0.05s CPU      0.05s WALL (    2873 calls)

     Called by h_psi:
     h_psi:calbec :      0.39s CPU      0.41s WALL (    3983 calls)
     vloc_psi     :     13.26s CPU     13.85s WALL (    3983 calls)
     add_vuspsi   :      0.28s CPU      0.30s WALL (    3983 calls)

     General routines
     calbec       :      0.48s CPU      0.50s WALL (    5315 calls)
     fft          :      0.14s CPU      0.15s WALL (     372 calls)
     ffts         :      0.01s CPU      0.01s WALL (     116 calls)
     fftw         :     11.48s CPU     11.99s WALL (  218852 calls)
     interpolate  :      0.02s CPU      0.02s WALL (      60 calls)
 
     Parallel routines
 
     PWSCF        :     23.49s CPU     26.78s WALL

 
   This run was terminated on:   2:23:48  29Jan2026            

=------------------------------------------------------------------------------=
   JOB DONE.
=------------------------------------------------------------------------------=
