
     Program PWSCF v.7.4.1 starts on  3Nov2025 at 18:11:45 

     This program is part of the open-source Quantum ESPRESSO suite
     for quantum simulation of materials; please cite
         "P. Giannozzi et al., J. Phys.:Condens. Matter 21 395502 (2009);
         "P. Giannozzi et al., J. Phys.:Condens. Matter 29 465901 (2017);
         "P. Giannozzi et al., J. Chem. Phys. 152 154105 (2020);
          URL http://www.quantum-espresso.org", 
     in publications or presentations arising from this work. More details at
     http://www.quantum-espresso.org/quote

     Serial version
     9869 MiB available memory on the printing compute node when the environment starts

     Reading input from grap_SOC_scf.in

     Current dimensions of program PWSCF are:
     Max number of different atomic species (ntypx) = 10
     Max number of k-points (npk) =  40000
     Max angular momentum in pseudopotentials (lmaxx) =  4
     Presently stress not available with electric field and gates

     file C.rel-pbe-n-kjpaw_psl.0.1.UPF: wavefunction(s)  2P 2P renormalized


     G-vector sticks info
     --------------------
     sticks:   dense  smooth     PW     G-vecs:    dense   smooth      PW
     Sum        1045     421    139               166859    42343    8205

     Using Slab Decomposition



     bravais-lattice index     =            0
     lattice parameter (alat)  =       4.6624  a.u.
     unit-cell volume          =     533.6317 (a.u.)^3
     number of atoms/cell      =            2
     number of atomic types    =            1
     number of electrons       =         8.00
     number of Kohn-Sham states=           16
     kinetic-energy cutoff     =      70.0000  Ry
     charge density cutoff     =     700.0000  Ry
     scf convergence threshold =      1.0E-08
     mixing beta               =       0.1000
     number of iterations used =            8  plain     mixing
     Exchange-correlation= SLA  PW   PBX  PBC
                           (   1   4   3   4   0   0   0)
     Non magnetic calculation with spin-orbit


     celldm(1)=   4.662410  celldm(2)=   0.000000  celldm(3)=   0.000000
     celldm(4)=   0.000000  celldm(5)=   0.000000  celldm(6)=   0.000000

     crystal axes: (cart. coord. in units of alat)
               a(1) = (   1.000000   0.000000  -0.000000 )  
               a(2) = (  -0.500000   0.866025   0.000000 )  
               a(3) = (  -0.000000   0.000000   6.079666 )  

     reciprocal axes: (cart. coord. in units 2 pi/alat)
               b(1) = (  1.000000  0.577350  0.000000 )  
               b(2) = ( -0.000000  1.154701 -0.000000 )  
               b(3) = (  0.000000  0.000000  0.164483 )  


     PseudoPot. # 1 for C  read from file:
     ../../../pseudos/C.rel-pbe-n-kjpaw_psl.0.1.UPF
     MD5 check sum: 5ef0b8f55ac4be3c3db5d31256eeff6b
     Pseudo is Projector augmented-wave + core cor, Zval =  4.0
     Generated using &quot;atomic&quot; code by A. Dal Corso  v.6.3
     Shape of augmentation charge: BESSEL
     Using radial grid of 1073 points,  6 beta functions with: 
                l(1) =   0
                l(2) =   0
                l(3) =   1
                l(4) =   1
                l(5) =   1
                l(6) =   1
     Q(r) pseudized with 0 coefficients 


     atomic species   valence    mass     pseudopotential
     C                 4.00    12.01100     C ( 1.00)

     No symmetry found



   Cartesian axes

     site n.     atom                  positions (alat units)
         1        C      tau(   1) = (   0.0000000   0.0000000   3.0398328  )
         2        C      tau(   2) = (   0.0000000   0.5773503   3.0398328  )

     number of k points=    74  Gaussian smearing, width (Ry)=  0.0020
                       cart. coord. in units 2pi/alat
        k(    1) = (   0.0000000   0.0000000   0.0000000), wk =   0.0069444
        k(    2) = (   0.0000000   0.0962250   0.0000000), wk =   0.0138889
        k(    3) = (   0.0000000   0.1924501   0.0000000), wk =   0.0138889
        k(    4) = (   0.0000000   0.2886751   0.0000000), wk =   0.0138889
        k(    5) = (   0.0000000   0.3849002   0.0000000), wk =   0.0138889
        k(    6) = (   0.0000000   0.4811252   0.0000000), wk =   0.0138889
        k(    7) = (   0.0000000  -0.5773503   0.0000000), wk =   0.0069444
        k(    8) = (   0.0833333   0.0481125   0.0000000), wk =   0.0138889
        k(    9) = (   0.0833333   0.1443376   0.0000000), wk =   0.0138889
        k(   10) = (   0.0833333   0.2405626   0.0000000), wk =   0.0138889
        k(   11) = (   0.0833333   0.3367877   0.0000000), wk =   0.0138889
        k(   12) = (   0.0833333   0.4330127   0.0000000), wk =   0.0138889
        k(   13) = (   0.0833333   0.5292377   0.0000000), wk =   0.0138889
        k(   14) = (   0.0833333  -0.5292377   0.0000000), wk =   0.0138889
        k(   15) = (   0.0833333  -0.4330127   0.0000000), wk =   0.0138889
        k(   16) = (   0.0833333  -0.3367877   0.0000000), wk =   0.0138889
        k(   17) = (   0.0833333  -0.2405626   0.0000000), wk =   0.0138889
        k(   18) = (   0.0833333  -0.1443376   0.0000000), wk =   0.0138889
        k(   19) = (   0.0833333  -0.0481125   0.0000000), wk =   0.0138889
        k(   20) = (   0.1666667   0.0962250   0.0000000), wk =   0.0138889
        k(   21) = (   0.1666667   0.1924501   0.0000000), wk =   0.0138889
        k(   22) = (   0.1666667   0.2886751   0.0000000), wk =   0.0138889
        k(   23) = (   0.1666667   0.3849002   0.0000000), wk =   0.0138889
        k(   24) = (   0.1666667   0.4811252   0.0000000), wk =   0.0138889
        k(   25) = (   0.1666667   0.5773503   0.0000000), wk =   0.0138889
        k(   26) = (   0.1666667  -0.4811252   0.0000000), wk =   0.0138889
        k(   27) = (   0.1666667  -0.3849002   0.0000000), wk =   0.0138889
        k(   28) = (   0.1666667  -0.2886751   0.0000000), wk =   0.0138889
        k(   29) = (   0.1666667  -0.1924501   0.0000000), wk =   0.0138889
        k(   30) = (   0.1666667  -0.0962250   0.0000000), wk =   0.0138889
        k(   31) = (   0.1666667  -0.0000000   0.0000000), wk =   0.0138889
        k(   32) = (   0.2500000   0.1443376   0.0000000), wk =   0.0138889
        k(   33) = (   0.2500000   0.2405626   0.0000000), wk =   0.0138889
        k(   34) = (   0.2500000   0.3367877   0.0000000), wk =   0.0138889
        k(   35) = (   0.2500000   0.4330127   0.0000000), wk =   0.0138889
        k(   36) = (   0.2500000   0.5292377   0.0000000), wk =   0.0138889
        k(   37) = (   0.2500000   0.6254628   0.0000000), wk =   0.0138889
        k(   38) = (   0.2500000  -0.4330127   0.0000000), wk =   0.0138889
        k(   39) = (   0.2500000  -0.3367877   0.0000000), wk =   0.0138889
        k(   40) = (   0.2500000  -0.2405626   0.0000000), wk =   0.0138889
        k(   41) = (   0.2500000  -0.1443376   0.0000000), wk =   0.0138889
        k(   42) = (   0.2500000  -0.0481125   0.0000000), wk =   0.0138889
        k(   43) = (   0.2500000   0.0481125   0.0000000), wk =   0.0138889
        k(   44) = (   0.3333333   0.1924501   0.0000000), wk =   0.0138889
        k(   45) = (   0.3333333   0.2886751   0.0000000), wk =   0.0138889
        k(   46) = (   0.3333333   0.3849002   0.0000000), wk =   0.0138889
        k(   47) = (   0.3333333   0.4811252   0.0000000), wk =   0.0138889
        k(   48) = (   0.3333333   0.5773503   0.0000000), wk =   0.0138889
        k(   49) = (   0.3333333   0.6735753   0.0000000), wk =   0.0138889
        k(   50) = (   0.3333333  -0.3849002   0.0000000), wk =   0.0138889
        k(   51) = (   0.3333333  -0.2886751   0.0000000), wk =   0.0138889
        k(   52) = (   0.3333333  -0.1924501   0.0000000), wk =   0.0138889
        k(   53) = (   0.3333333  -0.0962250   0.0000000), wk =   0.0138889
        k(   54) = (   0.3333333   0.0000000   0.0000000), wk =   0.0138889
        k(   55) = (   0.3333333   0.0962250   0.0000000), wk =   0.0138889
        k(   56) = (   0.4166667   0.2405626   0.0000000), wk =   0.0138889
        k(   57) = (   0.4166667   0.3367877   0.0000000), wk =   0.0138889
        k(   58) = (   0.4166667   0.4330127   0.0000000), wk =   0.0138889
        k(   59) = (   0.4166667   0.5292377   0.0000000), wk =   0.0138889
        k(   60) = (   0.4166667   0.6254628   0.0000000), wk =   0.0138889
        k(   61) = (   0.4166667   0.7216878   0.0000000), wk =   0.0138889
        k(   62) = (   0.4166667  -0.3367877   0.0000000), wk =   0.0138889
        k(   63) = (   0.4166667  -0.2405626   0.0000000), wk =   0.0138889
        k(   64) = (   0.4166667  -0.1443376   0.0000000), wk =   0.0138889
        k(   65) = (   0.4166667  -0.0481125   0.0000000), wk =   0.0138889
        k(   66) = (   0.4166667   0.0481125   0.0000000), wk =   0.0138889
        k(   67) = (   0.4166667   0.1443376   0.0000000), wk =   0.0138889
        k(   68) = (  -0.5000000  -0.2886751   0.0000000), wk =   0.0069444
        k(   69) = (  -0.5000000  -0.1924501   0.0000000), wk =   0.0138889
        k(   70) = (  -0.5000000  -0.0962250   0.0000000), wk =   0.0138889
        k(   71) = (  -0.5000000   0.0000000   0.0000000), wk =   0.0138889
        k(   72) = (  -0.5000000   0.0962250   0.0000000), wk =   0.0138889
        k(   73) = (  -0.5000000   0.1924501   0.0000000), wk =   0.0138889
        k(   74) = (  -0.5000000  -0.8660254   0.0000000), wk =   0.0069444

     Dense  grid:   166859 G-vectors     FFT dimensions: (  40,  40, 240)

     Smooth grid:    42343 G-vectors     FFT dimensions: (  25,  25, 160)

     Estimated max dynamical RAM per process >     784.94 MB

     Initial potential from superposition of free atoms

     starting charge       7.9999, renormalised to       8.0000

     negative rho (up, down):  2.781E-05 0.000E+00

     Adding external electric field

     Computed dipole along edir(3) : 
        Dipole               -0.0000 Ry au,         -0.0000 Debye
        Dipole field         -0.0000 Ry au, 

        E field amplitude [Ha a.u.]:  1.9447E-03
        Potential amp.        0.1047 Ry
        Total length         26.9286 bohr

     Starting wfcs are random

     total cpu time spent up to now is        9.4 secs

     Self-consistent Calculation

     iteration #  1     ecut=    70.00 Ry     beta= 0.10
     Davidson diagonalization with overlap
     ethr =  1.00E-02,  avg # of iterations =  8.9

     negative rho (up, down):  2.272E-05 0.000E+00

     Adding external electric field

     Computed dipole along edir(3) : 
        Dipole                0.0024 Ry au,          0.0062 Debye
        Dipole field          0.0001 Ry au, 

        E field amplitude [Ha a.u.]:  1.9447E-03
        Potential amp.        0.1016 Ry
        Total length         26.9286 bohr


     total cpu time spent up to now is       96.7 secs

     total energy              =     -36.95392696 Ry
     estimated scf accuracy    <       0.20222163 Ry

     iteration #  2     ecut=    70.00 Ry     beta= 0.10
     Davidson diagonalization with overlap
     ethr =  2.53E-03,  avg # of iterations =  1.0

     negative rho (up, down):  1.043E-04 0.000E+00

     Adding external electric field

     Computed dipole along edir(3) : 
        Dipole                0.0186 Ry au,          0.0472 Debye
        Dipole field          0.0004 Ry au, 

        E field amplitude [Ha a.u.]:  1.9447E-03
        Potential amp.        0.0812 Ry
        Total length         26.9286 bohr


     total cpu time spent up to now is      113.4 secs

     total energy              =     -36.85263627 Ry
     estimated scf accuracy    <       0.15629278 Ry

     iteration #  3     ecut=    70.00 Ry     beta= 0.10
     Davidson diagonalization with overlap
     ethr =  1.95E-03,  avg # of iterations =  4.6

     negative rho (up, down):  7.643E-05 0.000E+00

     Adding external electric field

     Computed dipole along edir(3) : 
        Dipole                0.0170 Ry au,          0.0432 Debye
        Dipole field          0.0004 Ry au, 

        E field amplitude [Ha a.u.]:  1.9447E-03
        Potential amp.        0.0832 Ry
        Total length         26.9286 bohr


     total cpu time spent up to now is      134.1 secs

     total energy              =     -36.87820051 Ry
     estimated scf accuracy    <       0.00316729 Ry

     iteration #  4     ecut=    70.00 Ry     beta= 0.10
     Davidson diagonalization with overlap
     ethr =  3.96E-05,  avg # of iterations =  7.3

     negative rho (up, down):  7.556E-05 0.000E+00

     Adding external electric field

     Computed dipole along edir(3) : 
        Dipole                0.0227 Ry au,          0.0578 Debye
        Dipole field          0.0005 Ry au, 

        E field amplitude [Ha a.u.]:  1.9447E-03
        Potential amp.        0.0759 Ry
        Total length         26.9286 bohr


     total cpu time spent up to now is      180.9 secs

     total energy              =     -36.90374517 Ry
     estimated scf accuracy    <       0.00708231 Ry

     iteration #  5     ecut=    70.00 Ry     beta= 0.10
     Davidson diagonalization with overlap
     ethr =  3.96E-05,  avg # of iterations =  5.2

     negative rho (up, down):  1.566E-04 0.000E+00

     Adding external electric field

     Computed dipole along edir(3) : 
        Dipole                0.0131 Ry au,          0.0332 Debye
        Dipole field          0.0003 Ry au, 

        E field amplitude [Ha a.u.]:  1.9447E-03
        Potential amp.        0.0882 Ry
        Total length         26.9286 bohr


     total cpu time spent up to now is      210.4 secs

     total energy              =     -36.88951895 Ry
     estimated scf accuracy    <       0.03684314 Ry

     iteration #  6     ecut=    70.00 Ry     beta= 0.10
     Davidson diagonalization with overlap
     ethr =  3.96E-05,  avg # of iterations =  5.1

     negative rho (up, down):  5.401E-04 0.000E+00

     Adding external electric field

     Computed dipole along edir(3) : 
        Dipole                0.0053 Ry au,          0.0135 Debye
        Dipole field          0.0001 Ry au, 

        E field amplitude [Ha a.u.]:  1.9447E-03
        Potential amp.        0.0980 Ry
        Total length         26.9286 bohr


     total cpu time spent up to now is      240.2 secs

     total energy              =     -36.88724953 Ry
     estimated scf accuracy    <       0.00616744 Ry

     iteration #  7     ecut=    70.00 Ry     beta= 0.10
     Davidson diagonalization with overlap
     ethr =  3.96E-05,  avg # of iterations =  5.9

     negative rho (up, down):  3.970E-04 0.000E+00

     Adding external electric field

     Computed dipole along edir(3) : 
        Dipole                0.0095 Ry au,          0.0242 Debye
        Dipole field          0.0002 Ry au, 

        E field amplitude [Ha a.u.]:  1.9447E-03
        Potential amp.        0.0927 Ry
        Total length         26.9286 bohr


     total cpu time spent up to now is      272.2 secs

     total energy              =     -36.88908229 Ry
     estimated scf accuracy    <       0.00105912 Ry

     iteration #  8     ecut=    70.00 Ry     beta= 0.10
     Davidson diagonalization with overlap
     ethr =  1.32E-05,  avg # of iterations =  2.5

     negative rho (up, down):  3.855E-04 0.000E+00

     Adding external electric field

     Computed dipole along edir(3) : 
        Dipole                0.0096 Ry au,          0.0244 Debye
        Dipole field          0.0002 Ry au, 

        E field amplitude [Ha a.u.]:  1.9447E-03
        Potential amp.        0.0925 Ry
        Total length         26.9286 bohr


     total cpu time spent up to now is      292.2 secs

     total energy              =     -36.88924244 Ry
     estimated scf accuracy    <       0.00084936 Ry

     iteration #  9     ecut=    70.00 Ry     beta= 0.10
     Davidson diagonalization with overlap
     ethr =  1.06E-05,  avg # of iterations =  1.1

     negative rho (up, down):  3.466E-04 0.000E+00

     Adding external electric field

     Computed dipole along edir(3) : 
        Dipole                0.0098 Ry au,          0.0249 Debye
        Dipole field          0.0002 Ry au, 

        E field amplitude [Ha a.u.]:  1.9447E-03
        Potential amp.        0.0923 Ry
        Total length         26.9286 bohr


     total cpu time spent up to now is      308.8 secs

     total energy              =     -36.88904050 Ry
     estimated scf accuracy    <       0.00081258 Ry

     iteration # 10     ecut=    70.00 Ry     beta= 0.10
     Davidson diagonalization with overlap
     ethr =  1.02E-05,  avg # of iterations =  1.0

     negative rho (up, down):  1.908E-04 0.000E+00

     Adding external electric field

     Computed dipole along edir(3) : 
        Dipole                0.0104 Ry au,          0.0265 Debye
        Dipole field          0.0002 Ry au, 

        E field amplitude [Ha a.u.]:  1.9447E-03
        Potential amp.        0.0915 Ry
        Total length         26.9286 bohr


     total cpu time spent up to now is      325.5 secs

     total energy              =     -36.88886364 Ry
     estimated scf accuracy    <       0.00045227 Ry

     iteration # 11     ecut=    70.00 Ry     beta= 0.10
     Davidson diagonalization with overlap
     ethr =  5.65E-06,  avg # of iterations =  3.1

     negative rho (up, down):  1.398E-04 0.000E+00

     Adding external electric field

     Computed dipole along edir(3) : 
        Dipole                0.0105 Ry au,          0.0266 Debye
        Dipole field          0.0002 Ry au, 

        E field amplitude [Ha a.u.]:  1.9447E-03
        Potential amp.        0.0915 Ry
        Total length         26.9286 bohr


     total cpu time spent up to now is      345.5 secs

     total energy              =     -36.88894063 Ry
     estimated scf accuracy    <       0.00005929 Ry

     iteration # 12     ecut=    70.00 Ry     beta= 0.10
     Davidson diagonalization with overlap
     ethr =  7.41E-07,  avg # of iterations =  5.3

     negative rho (up, down):  9.216E-05 0.000E+00

     Adding external electric field

     Computed dipole along edir(3) : 
        Dipole                0.0109 Ry au,          0.0278 Debye
        Dipole field          0.0003 Ry au, 

        E field amplitude [Ha a.u.]:  1.9447E-03
        Potential amp.        0.0909 Ry
        Total length         26.9286 bohr


     total cpu time spent up to now is      371.3 secs

     total energy              =     -36.88894828 Ry
     estimated scf accuracy    <       0.00006931 Ry

     iteration # 13     ecut=    70.00 Ry     beta= 0.10
     Davidson diagonalization with overlap
     ethr =  7.41E-07,  avg # of iterations =  1.7

     negative rho (up, down):  4.652E-05 0.000E+00

     Adding external electric field

     Computed dipole along edir(3) : 
        Dipole                0.0112 Ry au,          0.0284 Debye
        Dipole field          0.0003 Ry au, 

        E field amplitude [Ha a.u.]:  1.9447E-03
        Potential amp.        0.0906 Ry
        Total length         26.9286 bohr


     total cpu time spent up to now is      388.6 secs

     total energy              =     -36.88892518 Ry
     estimated scf accuracy    <       0.00004994 Ry

     iteration # 14     ecut=    70.00 Ry     beta= 0.10
     Davidson diagonalization with overlap
     ethr =  6.24E-07,  avg # of iterations =  3.0

     negative rho (up, down):  3.578E-05 0.000E+00

     Adding external electric field

     Computed dipole along edir(3) : 
        Dipole                0.0111 Ry au,          0.0283 Debye
        Dipole field          0.0003 Ry au, 

        E field amplitude [Ha a.u.]:  1.9447E-03
        Potential amp.        0.0906 Ry
        Total length         26.9286 bohr


     total cpu time spent up to now is      407.5 secs

     total energy              =     -36.88892914 Ry
     estimated scf accuracy    <       0.00000496 Ry

     iteration # 15     ecut=    70.00 Ry     beta= 0.10
     Davidson diagonalization with overlap
     ethr =  6.20E-08,  avg # of iterations =  4.3

     negative rho (up, down):  3.074E-05 0.000E+00

     Adding external electric field

     Computed dipole along edir(3) : 
        Dipole                0.0112 Ry au,          0.0284 Debye
        Dipole field          0.0003 Ry au, 

        E field amplitude [Ha a.u.]:  1.9447E-03
        Potential amp.        0.0906 Ry
        Total length         26.9286 bohr


     total cpu time spent up to now is      433.4 secs

     total energy              =     -36.88893273 Ry
     estimated scf accuracy    <       0.00000091 Ry

     iteration # 16     ecut=    70.00 Ry     beta= 0.10
     Davidson diagonalization with overlap
     ethr =  1.13E-08,  avg # of iterations =  3.9

     negative rho (up, down):  2.788E-05 0.000E+00

     Adding external electric field

     Computed dipole along edir(3) : 
        Dipole                0.0112 Ry au,          0.0284 Debye
        Dipole field          0.0003 Ry au, 

        E field amplitude [Ha a.u.]:  1.9447E-03
        Potential amp.        0.0906 Ry
        Total length         26.9286 bohr


     total cpu time spent up to now is      455.2 secs

     total energy              =     -36.88893307 Ry
     estimated scf accuracy    <       0.00000071 Ry

     iteration # 17     ecut=    70.00 Ry     beta= 0.10
     Davidson diagonalization with overlap
     ethr =  8.83E-09,  avg # of iterations =  1.0

     negative rho (up, down):  2.308E-05 0.000E+00

     Adding external electric field

     Computed dipole along edir(3) : 
        Dipole                0.0112 Ry au,          0.0285 Debye
        Dipole field          0.0003 Ry au, 

        E field amplitude [Ha a.u.]:  1.9447E-03
        Potential amp.        0.0905 Ry
        Total length         26.9286 bohr


     total cpu time spent up to now is      471.8 secs

     total energy              =     -36.88893282 Ry
     estimated scf accuracy    <       0.00000057 Ry

     iteration # 18     ecut=    70.00 Ry     beta= 0.10
     Davidson diagonalization with overlap
     ethr =  7.13E-09,  avg # of iterations =  2.7

     negative rho (up, down):  1.773E-05 0.000E+00

     Adding external electric field

     Computed dipole along edir(3) : 
        Dipole                0.0114 Ry au,          0.0291 Debye
        Dipole field          0.0003 Ry au, 

        E field amplitude [Ha a.u.]:  1.9447E-03
        Potential amp.        0.0902 Ry
        Total length         26.9286 bohr


     total cpu time spent up to now is      490.2 secs

     total energy              =     -36.88893319 Ry
     estimated scf accuracy    <       0.00000028 Ry

     iteration # 19     ecut=    70.00 Ry     beta= 0.10
     Davidson diagonalization with overlap
     ethr =  3.53E-09,  avg # of iterations =  3.9

     negative rho (up, down):  1.840E-05 0.000E+00

     Adding external electric field

     Computed dipole along edir(3) : 
        Dipole                0.0115 Ry au,          0.0293 Debye
        Dipole field          0.0003 Ry au, 

        E field amplitude [Ha a.u.]:  1.9447E-03
        Potential amp.        0.0901 Ry
        Total length         26.9286 bohr


     total cpu time spent up to now is      515.5 secs

     total energy              =     -36.88893280 Ry
     estimated scf accuracy    <       0.00000134 Ry

     iteration # 20     ecut=    70.00 Ry     beta= 0.10
     Davidson diagonalization with overlap
     ethr =  3.53E-09,  avg # of iterations =  3.1

     negative rho (up, down):  1.664E-05 0.000E+00

     Adding external electric field

     Computed dipole along edir(3) : 
        Dipole                0.0115 Ry au,          0.0292 Debye
        Dipole field          0.0003 Ry au, 

        E field amplitude [Ha a.u.]:  1.9447E-03
        Potential amp.        0.0902 Ry
        Total length         26.9286 bohr


     total cpu time spent up to now is      534.8 secs

     total energy              =     -36.88893284 Ry
     estimated scf accuracy    <       0.00000009 Ry

     iteration # 21     ecut=    70.00 Ry     beta= 0.10
     Davidson diagonalization with overlap
     ethr =  1.17E-09,  avg # of iterations =  3.7

     negative rho (up, down):  7.069E-06 0.000E+00

     Adding external electric field

     Computed dipole along edir(3) : 
        Dipole                0.0114 Ry au,          0.0290 Debye
        Dipole field          0.0003 Ry au, 

        E field amplitude [Ha a.u.]:  1.9447E-03
        Potential amp.        0.0903 Ry
        Total length         26.9286 bohr


     total cpu time spent up to now is      557.9 secs

     End of self-consistent calculation

          k = 0.0000 0.0000 0.0000 (  5307 PWs)   bands (ev):

   -21.0773 -21.0773  -9.1725  -9.1725  -4.6273  -4.6273  -4.6181  -4.6181
     1.6027   1.6027   2.5581   2.5581   2.5768   2.5768   4.6822   4.6822

          k = 0.0000 0.0962 0.0000 (  5285 PWs)   bands (ev):

   -20.9135 -20.9135  -8.9769  -8.9769  -5.2726  -5.2726  -4.9600  -4.9600
     1.8264   1.8264   2.7825   2.7825   2.8032   2.8033   4.9054   4.9054

          k = 0.0000 0.1925 0.0000 (  5253 PWs)   bands (ev):

   -20.4241 -20.4241  -8.3953  -8.3953  -6.9081  -6.9081  -5.7500  -5.7500
     2.4971   2.4971   3.4545   3.4546   3.4826   3.4827   5.5720   5.5720

          k = 0.0000 0.2887 0.0000 (  5269 PWs)   bands (ev):

   -19.6147 -19.6147  -9.0038  -9.0038  -7.4469  -7.4469  -6.6273  -6.6273
     3.6126   3.6127   4.5580   4.5581   4.6125   4.6126   5.6773   5.6773

          k = 0.0000 0.3849 0.0000 (  5285 PWs)   bands (ev):

   -18.4975 -18.4975 -11.2043 -11.2043  -7.3586  -7.3586  -6.1819  -6.1818
     3.3377   3.3377   5.1644   5.1645   6.0688   6.0694   6.1745   6.1751

          k = 0.0000 0.4811 0.0000 (  5290 PWs)   bands (ev):

   -17.1040 -17.1040 -13.3013 -13.3013  -7.8302  -7.8302  -4.7629  -4.7629
     1.2079   1.2079   5.8678   5.8678   7.1759   7.1760   8.1438   8.1440

          k = 0.0000-0.5774 0.0000 (  5288 PWs)   bands (ev):

   -15.8462 -15.8462 -14.8015 -14.8015  -7.9921  -7.9921  -3.9207  -3.9207
     0.1131   0.1131   5.7884   5.7884   9.4952   9.4952   9.6305   9.6305

          k = 0.0833 0.0481 0.0000 (  5285 PWs)   bands (ev):

   -20.9135 -20.9135  -8.9769  -8.9769  -5.2726  -5.2726  -4.9600  -4.9600
     1.8264   1.8264   2.7825   2.7825   2.8032   2.8033   4.9054   4.9054

          k = 0.0833 0.1443 0.0000 (  5269 PWs)   bands (ev):

   -20.5869 -20.5869  -8.5882  -8.5881  -6.3052  -6.3052  -5.6355  -5.6355
     2.2737   2.2738   3.2309   3.2310   3.2563   3.2563   5.3508   5.3508

          k = 0.0833 0.2406 0.0000 (  5261 PWs)   bands (ev):

   -19.9375 -19.9375  -8.0128  -8.0128  -7.8220  -7.8220  -6.6309  -6.6309
     3.1676   3.1677   4.1245   4.1246   4.1619   4.1620   6.2240   6.2240

          k = 0.0833 0.3368 0.0000 (  5275 PWs)   bands (ev):

   -18.9740 -18.9740 -10.0831 -10.0831  -7.5151  -7.5150  -6.7088  -6.7088
     4.3438   4.3439   4.5088   4.5089   5.4803   5.4806   5.5224   5.5225

          k = 0.0833 0.4330 0.0000 (  5284 PWs)   bands (ev):

   -17.7155 -17.7155 -12.2030 -12.2030  -8.1484  -8.1484  -5.3328  -5.3328
     2.1524   2.1524   6.2599   6.2601   6.7133   6.7134   7.2479   7.2479

          k = 0.0833 0.5292 0.0000 (  5302 PWs)   bands (ev):

   -16.2394 -16.2394 -14.1405 -14.1405  -8.4760  -8.4760  -4.0271  -4.0271
     0.3883   0.3883   6.5264   6.5264   8.4787   8.4789   9.3997   9.4000

          k = 0.0833-0.5292 0.0000 (  5302 PWs)   bands (ev):

   -16.2394 -16.2394 -14.1405 -14.1405  -8.4760  -8.4760  -4.0271  -4.0271
     0.3883   0.3883   6.5264   6.5264   8.4788   8.4788   9.3995   9.3999

          k = 0.0833-0.4330 0.0000 (  5284 PWs)   bands (ev):

   -17.7155 -17.7155 -12.2030 -12.2030  -8.1484  -8.1484  -5.3328  -5.3328
     2.1524   2.1524   6.2599   6.2600   6.7132   6.7134   7.2473   7.2474

          k = 0.0833-0.3368 0.0000 (  5275 PWs)   bands (ev):

   -18.9740 -18.9740 -10.0831 -10.0831  -7.5151  -7.5151  -6.7088  -6.7088
     4.3438   4.3439   4.5088   4.5089   5.4803   5.4805   5.5223   5.5225

          k = 0.0833-0.2406 0.0000 (  5261 PWs)   bands (ev):

   -19.9375 -19.9375  -8.0128  -8.0128  -7.8220  -7.8220  -6.6309  -6.6309
     3.1676   3.1677   4.1245   4.1246   4.1619   4.1620   6.2240   6.2240

          k = 0.0833-0.1443 0.0000 (  5269 PWs)   bands (ev):

   -20.5869 -20.5869  -8.5882  -8.5881  -6.3052  -6.3051  -5.6355  -5.6355
     2.2737   2.2738   3.2309   3.2310   3.2563   3.2563   5.3508   5.3508

          k = 0.0833-0.0481 0.0000 (  5285 PWs)   bands (ev):

   -20.9135 -20.9135  -8.9769  -8.9769  -5.2726  -5.2726  -4.9600  -4.9600
     1.8264   1.8264   2.7825   2.7825   2.8032   2.8033   4.9054   4.9055

          k = 0.1667 0.0962 0.0000 (  5253 PWs)   bands (ev):

   -20.4241 -20.4241  -8.3953  -8.3953  -6.9081  -6.9081  -5.7500  -5.7500
     2.4971   2.4971   3.4545   3.4546   3.4826   3.4827   5.5720   5.5720

          k = 0.1667 0.1925 0.0000 (  5261 PWs)   bands (ev):

   -19.9375 -19.9375  -8.0128  -8.0128  -7.8220  -7.8220  -6.6309  -6.6309
     3.1676   3.1677   4.1244   4.1246   4.1619   4.1620   6.2240   6.2240

          k = 0.1667 0.2887 0.0000 (  5288 PWs)   bands (ev):

   -19.1340 -19.1340  -9.3424  -9.3424  -7.9896  -7.9896  -6.8871  -6.8871
     4.2831   4.2832   4.8024   4.8024   5.2356   5.2358   5.2938   5.2939

          k = 0.1667 0.3849 0.0000 (  5285 PWs)   bands (ev):

   -18.0276 -18.0276 -11.0674 -11.0674  -9.0441  -9.0441  -5.6373  -5.6373
     2.8592   2.8592   5.8360   5.8361   6.7693   6.7695   6.8755   6.8756

          k = 0.1667 0.4811 0.0000 (  5283 PWs)   bands (ev):

   -16.6540 -16.6540 -12.9748 -12.9748  -9.6194  -9.6193  -4.2143  -4.2143
     0.9517   0.9517   7.8007   7.8009   8.4295   8.4298   8.6537   8.6540

          k = 0.1667 0.5774 0.0000 (  5264 PWs)   bands (ev):

   -15.4249 -15.4249 -14.4041 -14.4041  -9.8040  -9.8040  -3.3240  -3.3240
    -0.1136  -0.1136   8.3332   8.3332   9.9941   9.9949  10.0645  10.0646

          k = 0.1667-0.4811 0.0000 (  5283 PWs)   bands (ev):

   -16.6540 -16.6540 -12.9748 -12.9748  -9.6194  -9.6194  -4.2143  -4.2143
     0.9517   0.9517   7.8008   7.8009   8.4295   8.4298   8.6537   8.6540

          k = 0.1667-0.3849 0.0000 (  5285 PWs)   bands (ev):

   -18.0276 -18.0276 -11.0674 -11.0674  -9.0441  -9.0441  -5.6373  -5.6373
     2.8592   2.8592   5.8360   5.8361   6.7693   6.7695   6.8755   6.8756

          k = 0.1667-0.2887 0.0000 (  5288 PWs)   bands (ev):

   -19.1340 -19.1340  -9.3423  -9.3423  -7.9896  -7.9896  -6.8871  -6.8871
     4.2831   4.2832   4.8024   4.8024   5.2356   5.2358   5.2938   5.2939

          k = 0.1667-0.1925 0.0000 (  5261 PWs)   bands (ev):

   -19.9375 -19.9375  -8.0128  -8.0128  -7.8220  -7.8220  -6.6309  -6.6309
     3.1676   3.1677   4.1245   4.1246   4.1619   4.1620   6.2240   6.2241

          k = 0.1667-0.0962 0.0000 (  5253 PWs)   bands (ev):

   -20.4241 -20.4241  -8.3953  -8.3953  -6.9081  -6.9081  -5.7501  -5.7501
     2.4971   2.4971   3.4545   3.4546   3.4826   3.4827   5.5720   5.5720

          k = 0.1667-0.0000 0.0000 (  5269 PWs)   bands (ev):

   -20.5869 -20.5869  -8.5882  -8.5881  -6.3052  -6.3051  -5.6355  -5.6355
     2.2737   2.2738   3.2309   3.2310   3.2563   3.2563   5.3508   5.3508

          k = 0.2500 0.1443 0.0000 (  5269 PWs)   bands (ev):

   -19.6147 -19.6147  -9.0038  -9.0038  -7.4469  -7.4469  -6.6273  -6.6273
     3.6126   3.6127   4.5580   4.5581   4.6125   4.6126   5.6773   5.6773

          k = 0.2500 0.2406 0.0000 (  5275 PWs)   bands (ev):

   -18.9740 -18.9740 -10.0831 -10.0831  -7.5151  -7.5151  -6.7088  -6.7088
     4.3438   4.3439   4.5088   4.5089   5.4804   5.4806   5.5224   5.5225

          k = 0.2500 0.3368 0.0000 (  5285 PWs)   bands (ev):

   -18.0276 -18.0276 -11.0674 -11.0674  -9.0441  -9.0441  -5.6373  -5.6373
     2.8592   2.8592   5.8360   5.8361   6.7693   6.7695   6.8755   6.8756

          k = 0.2500 0.4330 0.0000 (  5268 PWs)   bands (ev):

   -16.8013 -16.8013 -12.1034 -12.1033 -10.5233 -10.5233  -4.2980  -4.2980
     1.2483   1.2483   7.5876   7.5878   8.3632   8.3635   8.6768   8.6769

          k = 0.2500 0.5292 0.0000 (  5282 PWs)   bands (ev):

   -15.3820 -15.3820 -13.5216 -13.5216 -11.2302 -11.2302  -2.9159  -2.9159
    -0.2682  -0.2682   9.2870   9.2871   9.7222   9.7224  10.5942  10.5943

          k = 0.2500 0.6255 0.0000 (  5282 PWs)   bands (ev):

   -15.3820 -15.3820 -13.5216 -13.5216 -11.2302 -11.2302  -2.9159  -2.9159
    -0.2682  -0.2682   9.2870   9.2871   9.7222   9.7224  10.5942  10.5943

          k = 0.2500-0.4330 0.0000 (  5268 PWs)   bands (ev):

   -16.8013 -16.8013 -12.1033 -12.1033 -10.5234 -10.5234  -4.2980  -4.2980
     1.2483   1.2483   7.5876   7.5878   8.3633   8.3635   8.6768   8.6769

          k = 0.2500-0.3368 0.0000 (  5285 PWs)   bands (ev):

   -18.0276 -18.0276 -11.0674 -11.0674  -9.0441  -9.0441  -5.6373  -5.6373
     2.8592   2.8592   5.8360   5.8361   6.7693   6.7695   6.8755   6.8756

          k = 0.2500-0.2406 0.0000 (  5275 PWs)   bands (ev):

   -18.9740 -18.9740 -10.0831 -10.0831  -7.5151  -7.5151  -6.7088  -6.7088
     4.3438   4.3439   4.5088   4.5089   5.4803   5.4805   5.5223   5.5225

          k = 0.2500-0.1443 0.0000 (  5269 PWs)   bands (ev):

   -19.6147 -19.6147  -9.0038  -9.0038  -7.4469  -7.4469  -6.6273  -6.6273
     3.6126   3.6127   4.5580   4.5581   4.6125   4.6126   5.6773   5.6773

          k = 0.2500-0.0481 0.0000 (  5261 PWs)   bands (ev):

   -19.9375 -19.9375  -8.0128  -8.0128  -7.8220  -7.8220  -6.6309  -6.6309
     3.1676   3.1677   4.1245   4.1246   4.1619   4.1620   6.2240   6.2240

          k = 0.2500 0.0481 0.0000 (  5261 PWs)   bands (ev):

   -19.9375 -19.9375  -8.0128  -8.0128  -7.8220  -7.8220  -6.6309  -6.6309
     3.1676   3.1677   4.1244   4.1246   4.1619   4.1620   6.2240   6.2241

          k = 0.3333 0.1925 0.0000 (  5285 PWs)   bands (ev):

   -18.4975 -18.4975 -11.2043 -11.2043  -7.3586  -7.3586  -6.1819  -6.1818
     3.3377   3.3377   5.1644   5.1646   6.0689   6.0694   6.1745   6.1751

          k = 0.3333 0.2887 0.0000 (  5284 PWs)   bands (ev):

   -17.7155 -17.7155 -12.2030 -12.2030  -8.1484  -8.1484  -5.3328  -5.3328
     2.1524   2.1524   6.2599   6.2600   6.7132   6.7134   7.2473   7.2474

          k = 0.3333 0.3849 0.0000 (  5283 PWs)   bands (ev):

   -16.6540 -16.6540 -12.9748 -12.9748  -9.6194  -9.6194  -4.2143  -4.2143
     0.9517   0.9517   7.8007   7.8009   8.4295   8.4298   8.6537   8.6540

          k = 0.3333 0.4811 0.0000 (  5282 PWs)   bands (ev):

   -15.3820 -15.3820 -13.5216 -13.5216 -11.2302 -11.2302  -2.9159  -2.9159
    -0.2682  -0.2682   9.2870   9.2871   9.7222   9.7224  10.5942  10.5943

          k = 0.3333 0.5774 0.0000 (  5292 PWs)   bands (ev):

   -14.1684 -14.1683 -14.1662 -14.1662 -12.1206 -12.1206  -1.5633  -1.5633
    -1.5633  -1.5633   9.0387   9.0387  11.2905  11.2907  11.2946  11.2946

          k = 0.3333 0.6736 0.0000 (  5282 PWs)   bands (ev):

   -15.3821 -15.3821 -13.5216 -13.5216 -11.2302 -11.2302  -2.9159  -2.9159
    -0.2682  -0.2682   9.2870   9.2871   9.7222   9.7223  10.5942  10.5943

          k = 0.3333-0.3849 0.0000 (  5283 PWs)   bands (ev):

   -16.6540 -16.6540 -12.9748 -12.9748  -9.6194  -9.6194  -4.2143  -4.2143
     0.9517   0.9517   7.8008   7.8009   8.4295   8.4298   8.6537   8.6540

          k = 0.3333-0.2887 0.0000 (  5284 PWs)   bands (ev):

   -17.7155 -17.7155 -12.2030 -12.2030  -8.1484  -8.1484  -5.3328  -5.3328
     2.1524   2.1524   6.2599   6.2600   6.7132   6.7134   7.2474   7.2475

          k = 0.3333-0.1925 0.0000 (  5285 PWs)   bands (ev):

   -18.4975 -18.4975 -11.2043 -11.2043  -7.3586  -7.3586  -6.1819  -6.1818
     3.3377   3.3377   5.1644   5.1645   6.0684   6.0690   6.1732   6.1737

          k = 0.3333-0.0962 0.0000 (  5275 PWs)   bands (ev):

   -18.9740 -18.9740 -10.0831 -10.0831  -7.5151  -7.5151  -6.7088  -6.7088
     4.3438   4.3439   4.5088   4.5089   5.4803   5.4806   5.5224   5.5225

          k = 0.3333 0.0000 0.0000 (  5288 PWs)   bands (ev):

   -19.1340 -19.1340  -9.3423  -9.3423  -7.9896  -7.9896  -6.8871  -6.8871
     4.2831   4.2832   4.8024   4.8024   5.2356   5.2358   5.2938   5.2939

          k = 0.3333 0.0962 0.0000 (  5275 PWs)   bands (ev):

   -18.9740 -18.9740 -10.0831 -10.0831  -7.5151  -7.5151  -6.7088  -6.7088
     4.3438   4.3439   4.5088   4.5089   5.4803   5.4805   5.5223   5.5225

          k = 0.4167 0.2406 0.0000 (  5290 PWs)   bands (ev):

   -17.1040 -17.1040 -13.3013 -13.3013  -7.8302  -7.8302  -4.7629  -4.7629
     1.2079   1.2079   5.8678   5.8678   7.1759   7.1760   8.1437   8.1439

          k = 0.4167 0.3368 0.0000 (  5302 PWs)   bands (ev):

   -16.2394 -16.2394 -14.1405 -14.1405  -8.4760  -8.4760  -4.0271  -4.0271
     0.3883   0.3883   6.5264   6.5264   8.4788   8.4789   9.3999   9.4000

          k = 0.4167 0.4330 0.0000 (  5264 PWs)   bands (ev):

   -15.4249 -15.4249 -14.4041 -14.4041  -9.8040  -9.8040  -3.3240  -3.3240
    -0.1136  -0.1136   8.3332   8.3332   9.9942   9.9948  10.0645  10.0646

          k = 0.4167 0.5292 0.0000 (  5282 PWs)   bands (ev):

   -15.3820 -15.3820 -13.5216 -13.5216 -11.2302 -11.2302  -2.9159  -2.9159
    -0.2682  -0.2682   9.2870   9.2871   9.7222   9.7224  10.5942  10.5943

          k = 0.4167 0.6255 0.0000 (  5282 PWs)   bands (ev):

   -15.3821 -15.3821 -13.5216 -13.5216 -11.2302 -11.2302  -2.9159  -2.9159
    -0.2682  -0.2682   9.2870   9.2871   9.7222   9.7223  10.5942  10.5943

          k = 0.4167 0.7217 0.0000 (  5264 PWs)   bands (ev):

   -15.4249 -15.4249 -14.4041 -14.4041  -9.8040  -9.8040  -3.3240  -3.3240
    -0.1136  -0.1136   8.3332   8.3332   9.9941   9.9942  10.0645  10.0646

          k = 0.4167-0.3368 0.0000 (  5302 PWs)   bands (ev):

   -16.2394 -16.2394 -14.1405 -14.1405  -8.4760  -8.4760  -4.0271  -4.0271
     0.3883   0.3883   6.5264   6.5264   8.4787   8.4789   9.3996   9.4000

          k = 0.4167-0.2406 0.0000 (  5290 PWs)   bands (ev):

   -17.1040 -17.1040 -13.3013 -13.3013  -7.8302  -7.8302  -4.7629  -4.7629
     1.2079   1.2079   5.8678   5.8678   7.1759   7.1760   8.1438   8.1440

          k = 0.4167-0.1443 0.0000 (  5284 PWs)   bands (ev):

   -17.7155 -17.7155 -12.2030 -12.2030  -8.1484  -8.1484  -5.3328  -5.3328
     2.1524   2.1524   6.2599   6.2600   6.7132   6.7134   7.2472   7.2473

          k = 0.4167-0.0481 0.0000 (  5285 PWs)   bands (ev):

   -18.0276 -18.0276 -11.0674 -11.0674  -9.0441  -9.0441  -5.6373  -5.6373
     2.8592   2.8592   5.8360   5.8361   6.7693   6.7695   6.8755   6.8756

          k = 0.4167 0.0481 0.0000 (  5285 PWs)   bands (ev):

   -18.0276 -18.0276 -11.0674 -11.0674  -9.0441  -9.0441  -5.6373  -5.6373
     2.8592   2.8592   5.8360   5.8361   6.7693   6.7695   6.8755   6.8756

          k = 0.4167 0.1443 0.0000 (  5284 PWs)   bands (ev):

   -17.7155 -17.7155 -12.2030 -12.2030  -8.1484  -8.1484  -5.3328  -5.3328
     2.1524   2.1524   6.2599   6.2600   6.7132   6.7134   7.2474   7.2475

          k =-0.5000-0.2887 0.0000 (  5288 PWs)   bands (ev):

   -15.8462 -15.8462 -14.8015 -14.8015  -7.9921  -7.9921  -3.9207  -3.9207
     0.1131   0.1131   5.7884   5.7884   9.4952   9.4952   9.6305   9.6305

          k =-0.5000-0.1925 0.0000 (  5302 PWs)   bands (ev):

   -16.2394 -16.2394 -14.1405 -14.1405  -8.4760  -8.4760  -4.0271  -4.0271
     0.3883   0.3883   6.5264   6.5264   8.4787   8.4789   9.3996   9.4000

          k =-0.5000-0.0962 0.0000 (  5283 PWs)   bands (ev):

   -16.6540 -16.6540 -12.9748 -12.9748  -9.6194  -9.6194  -4.2143  -4.2143
     0.9517   0.9517   7.8008   7.8009   8.4295   8.4298   8.6537   8.6540

          k =-0.5000 0.0000 0.0000 (  5268 PWs)   bands (ev):

   -16.8013 -16.8013 -12.1033 -12.1033 -10.5234 -10.5234  -4.2980  -4.2980
     1.2483   1.2483   7.5876   7.5878   8.3633   8.3635   8.6768   8.6769

          k =-0.5000 0.0962 0.0000 (  5283 PWs)   bands (ev):

   -16.6540 -16.6540 -12.9748 -12.9748  -9.6194  -9.6194  -4.2143  -4.2143
     0.9517   0.9517   7.8008   7.8009   8.4295   8.4298   8.6537   8.6540

          k =-0.5000 0.1925 0.0000 (  5302 PWs)   bands (ev):

   -16.2394 -16.2394 -14.1405 -14.1405  -8.4760  -8.4760  -4.0271  -4.0271
     0.3883   0.3883   6.5264   6.5264   8.4788   8.4789   9.3997   9.4000

          k =-0.5000-0.8660 0.0000 (  5288 PWs)   bands (ev):

   -15.8462 -15.8462 -14.8015 -14.8015  -7.9921  -7.9921  -3.9207  -3.9207
     0.1131   0.1131   5.7884   5.7884   9.4952   9.4952   9.6308   9.6308

     the Fermi energy is  -1.563282 ev

!    total energy              =     -36.88893299 Ry
     total all-electron energy =      -152.417223 Ry
     estimated scf accuracy    <          9.7E-09 Ry
     smearing contrib. (-TS)   =      -0.00003134 Ry
     internal energy E=F+TS    =     -36.88890165 Ry

     The total energy is F=E-TS. E is the sum of the following terms:
     one-electron contribution =    -156.62345459 Ry
     hartree contribution      =      79.91867224 Ry
     xc contribution           =      -8.28628705 Ry
     ewald contribution        =      61.40972547 Ry
     electric field correction =      -0.00004134 Ry
     one-center paw contrib.   =     -13.30751638 Ry

     convergence has been achieved in  21 iterations

     negative rho (up, down):  7.069E-06 0.000E+00

     Forces acting on atoms (cartesian axes, Ry/au):

     atom    1 type  1   force =    -0.00000119    0.00000270   -0.00000036
     atom    2 type  1   force =     0.00000119   -0.00000270    0.00000036

     Total force =     0.000004     Total SCF correction =     0.000081
     SCF correction compared to forces is large: reduce conv_thr to get better values

     Writing all to output data dir ./tmp/graphene.save/ :
     XML data file, charge density, pseudopotentials, collected wavefunctions

     init_run     :      8.89s CPU      9.13s WALL (       1 calls)
     electrons    :    543.47s CPU    548.57s WALL (       1 calls)
     forces       :      2.56s CPU      2.66s WALL (       1 calls)

     Called by init_run:
     wfcinit      :      7.21s CPU      7.29s WALL (       1 calls)
     potinit      :      0.60s CPU      0.64s WALL (       1 calls)
     hinit0       :      0.74s CPU      0.76s WALL (       1 calls)

     Called by electrons:
     c_bands      :    481.91s CPU    483.45s WALL (      21 calls)
     sum_band     :     52.05s CPU     53.98s WALL (      21 calls)
     v_of_rho     :      2.25s CPU      2.28s WALL (      22 calls)
     newd         :      4.69s CPU      6.35s WALL (      22 calls)
     PAW_pot      :      1.25s CPU      1.25s WALL (      22 calls)
     mix_rho      :      1.23s CPU      1.24s WALL (      21 calls)

     Called by c_bands:
     init_us_2    :      2.71s CPU      2.73s WALL (    3256 calls)
     cegterg      :    471.34s CPU    472.86s WALL (    1554 calls)

     Called by *egterg:
     cdiaghg      :      5.81s CPU      5.83s WALL (    7345 calls)
     h_psi        :    286.13s CPU    287.01s WALL (    7419 calls)
     s_psi        :     31.07s CPU     31.14s WALL (    7419 calls)
     g_psi        :      1.44s CPU      1.45s WALL (    5791 calls)

     Called by h_psi:
     h_psi:calbec :     30.63s CPU     30.65s WALL (    7419 calls)
     vloc_psi     :    223.23s CPU    223.70s WALL (    7419 calls)
     add_vuspsi   :     31.13s CPU     31.13s WALL (    7419 calls)

     General routines
     calbec       :     42.62s CPU     42.65s WALL (    9269 calls)
     fft          :      2.04s CPU      2.05s WALL (     547 calls)
     ffts         :      0.41s CPU      0.41s WALL (     172 calls)
     fftw         :    137.83s CPU    138.06s WALL (  347240 calls)
     interpolate  :      0.68s CPU      0.68s WALL (      88 calls)


     PWSCF        :   9m15.16s CPU   9m20.74s WALL


   This run was terminated on:  18:21: 6   3Nov2025            

=------------------------------------------------------------------------------=
   JOB DONE.
=------------------------------------------------------------------------------=
