
     Program PWSCF v.7.4.1 starts on 30Dec2025 at 22:32:29 

     This program is part of the open-source Quantum ESPRESSO suite
     for quantum simulation of materials; please cite
         "P. Giannozzi et al., J. Phys.:Condens. Matter 21 395502 (2009);
         "P. Giannozzi et al., J. Phys.:Condens. Matter 29 465901 (2017);
         "P. Giannozzi et al., J. Chem. Phys. 152 154105 (2020);
          URL http://www.quantum-espresso.org", 
     in publications or presentations arising from this work. More details at
     http://www.quantum-espresso.org/quote

     Parallel version (MPI), running on     6 processors

     MPI processes distributed on     1 nodes
     9493 MiB available memory on the printing compute node when the environment starts

     Reading input from grap_SOC_scf.in

     Current dimensions of program PWSCF are:
     Max number of different atomic species (ntypx) = 10
     Max number of k-points (npk) =  40000
     Max angular momentum in pseudopotentials (lmaxx) =  4
     Presently stress not available with electric field and gates

     file C.rel-pbe-n-kjpaw_psl.1.0.0.UPF: wavefunction(s)  2S 2P 2P renormalized

     R & G space division:  proc/nbgrp/npool/nimage =       6
     Subspace diagonalization in iterative solution of the eigenvalue problem:
     a serial algorithm will be used


     Parallelization info
     --------------------
     sticks:   dense  smooth     PW     G-vecs:    dense   smooth      PW
     Min         173      70     23                27803     7050    1361
     Max         175      71     24                27830     7077    1378
     Sum        1045     421    139               166859    42343    8205

     Using Slab Decomposition



     bravais-lattice index     =            0
     lattice parameter (alat)  =       4.6624  a.u.
     unit-cell volume          =     533.6317 (a.u.)^3
     number of atoms/cell      =            2
     number of atomic types    =            1
     number of electrons       =         8.00
     number of Kohn-Sham states=           16
     kinetic-energy cutoff     =      70.0000  Ry
     charge density cutoff     =     700.0000  Ry
     scf convergence threshold =      1.0E-08
     mixing beta               =       0.1000
     number of iterations used =            8  plain     mixing
     Exchange-correlation= SLA  PW   PBX  PBC
                           (   1   4   3   4   0   0   0)
     Non magnetic calculation with spin-orbit


     celldm(1)=   4.662410  celldm(2)=   0.000000  celldm(3)=   0.000000
     celldm(4)=   0.000000  celldm(5)=   0.000000  celldm(6)=   0.000000

     crystal axes: (cart. coord. in units of alat)
               a(1) = (   1.000000   0.000000  -0.000000 )  
               a(2) = (  -0.500000   0.866025   0.000000 )  
               a(3) = (  -0.000000   0.000000   6.079666 )  

     reciprocal axes: (cart. coord. in units 2 pi/alat)
               b(1) = (  1.000000  0.577350  0.000000 )  
               b(2) = ( -0.000000  1.154701 -0.000000 )  
               b(3) = (  0.000000  0.000000  0.164483 )  


     PseudoPot. # 1 for C  read from file:
     ../../../pseudos/C.rel-pbe-n-kjpaw_psl.1.0.0.UPF
     MD5 check sum: dd2b8f743de1f3a10095e4114fb28074
     Pseudo is Projector augmented-wave + core cor, Zval =  4.0
     Generated using &quot;atomic&quot; code by A. Dal Corso  v.6.3
     Shape of augmentation charge: PSQ
     Using radial grid of 1073 points,  6 beta functions with: 
                l(1) =   0
                l(2) =   0
                l(3) =   1
                l(4) =   1
                l(5) =   1
                l(6) =   1
     Q(r) pseudized with 0 coefficients 


     atomic species   valence    mass     pseudopotential
     C                 4.00    12.01100     C ( 1.00)

     No symmetry found



   Cartesian axes

     site n.     atom                  positions (alat units)
         1        C      tau(   1) = (   0.0000000   0.0000000   3.0398328  )
         2        C      tau(   2) = (   0.0000000   0.5773503   3.0398328  )

     number of k points=    74  Gaussian smearing, width (Ry)=  0.0020
                       cart. coord. in units 2pi/alat
        k(    1) = (   0.0000000   0.0000000   0.0000000), wk =   0.0069444
        k(    2) = (   0.0000000   0.0962250   0.0000000), wk =   0.0138889
        k(    3) = (   0.0000000   0.1924501   0.0000000), wk =   0.0138889
        k(    4) = (   0.0000000   0.2886751   0.0000000), wk =   0.0138889
        k(    5) = (   0.0000000   0.3849002   0.0000000), wk =   0.0138889
        k(    6) = (   0.0000000   0.4811252   0.0000000), wk =   0.0138889
        k(    7) = (   0.0000000  -0.5773503   0.0000000), wk =   0.0069444
        k(    8) = (   0.0833333   0.0481125   0.0000000), wk =   0.0138889
        k(    9) = (   0.0833333   0.1443376   0.0000000), wk =   0.0138889
        k(   10) = (   0.0833333   0.2405626   0.0000000), wk =   0.0138889
        k(   11) = (   0.0833333   0.3367877   0.0000000), wk =   0.0138889
        k(   12) = (   0.0833333   0.4330127   0.0000000), wk =   0.0138889
        k(   13) = (   0.0833333   0.5292377   0.0000000), wk =   0.0138889
        k(   14) = (   0.0833333  -0.5292377   0.0000000), wk =   0.0138889
        k(   15) = (   0.0833333  -0.4330127   0.0000000), wk =   0.0138889
        k(   16) = (   0.0833333  -0.3367877   0.0000000), wk =   0.0138889
        k(   17) = (   0.0833333  -0.2405626   0.0000000), wk =   0.0138889
        k(   18) = (   0.0833333  -0.1443376   0.0000000), wk =   0.0138889
        k(   19) = (   0.0833333  -0.0481125   0.0000000), wk =   0.0138889
        k(   20) = (   0.1666667   0.0962250   0.0000000), wk =   0.0138889
        k(   21) = (   0.1666667   0.1924501   0.0000000), wk =   0.0138889
        k(   22) = (   0.1666667   0.2886751   0.0000000), wk =   0.0138889
        k(   23) = (   0.1666667   0.3849002   0.0000000), wk =   0.0138889
        k(   24) = (   0.1666667   0.4811252   0.0000000), wk =   0.0138889
        k(   25) = (   0.1666667   0.5773503   0.0000000), wk =   0.0138889
        k(   26) = (   0.1666667  -0.4811252   0.0000000), wk =   0.0138889
        k(   27) = (   0.1666667  -0.3849002   0.0000000), wk =   0.0138889
        k(   28) = (   0.1666667  -0.2886751   0.0000000), wk =   0.0138889
        k(   29) = (   0.1666667  -0.1924501   0.0000000), wk =   0.0138889
        k(   30) = (   0.1666667  -0.0962250   0.0000000), wk =   0.0138889
        k(   31) = (   0.1666667  -0.0000000   0.0000000), wk =   0.0138889
        k(   32) = (   0.2500000   0.1443376   0.0000000), wk =   0.0138889
        k(   33) = (   0.2500000   0.2405626   0.0000000), wk =   0.0138889
        k(   34) = (   0.2500000   0.3367877   0.0000000), wk =   0.0138889
        k(   35) = (   0.2500000   0.4330127   0.0000000), wk =   0.0138889
        k(   36) = (   0.2500000   0.5292377   0.0000000), wk =   0.0138889
        k(   37) = (   0.2500000   0.6254628   0.0000000), wk =   0.0138889
        k(   38) = (   0.2500000  -0.4330127   0.0000000), wk =   0.0138889
        k(   39) = (   0.2500000  -0.3367877   0.0000000), wk =   0.0138889
        k(   40) = (   0.2500000  -0.2405626   0.0000000), wk =   0.0138889
        k(   41) = (   0.2500000  -0.1443376   0.0000000), wk =   0.0138889
        k(   42) = (   0.2500000  -0.0481125   0.0000000), wk =   0.0138889
        k(   43) = (   0.2500000   0.0481125   0.0000000), wk =   0.0138889
        k(   44) = (   0.3333333   0.1924501   0.0000000), wk =   0.0138889
        k(   45) = (   0.3333333   0.2886751   0.0000000), wk =   0.0138889
        k(   46) = (   0.3333333   0.3849002   0.0000000), wk =   0.0138889
        k(   47) = (   0.3333333   0.4811252   0.0000000), wk =   0.0138889
        k(   48) = (   0.3333333   0.5773503   0.0000000), wk =   0.0138889
        k(   49) = (   0.3333333   0.6735753   0.0000000), wk =   0.0138889
        k(   50) = (   0.3333333  -0.3849002   0.0000000), wk =   0.0138889
        k(   51) = (   0.3333333  -0.2886751   0.0000000), wk =   0.0138889
        k(   52) = (   0.3333333  -0.1924501   0.0000000), wk =   0.0138889
        k(   53) = (   0.3333333  -0.0962250   0.0000000), wk =   0.0138889
        k(   54) = (   0.3333333   0.0000000   0.0000000), wk =   0.0138889
        k(   55) = (   0.3333333   0.0962250   0.0000000), wk =   0.0138889
        k(   56) = (   0.4166667   0.2405626   0.0000000), wk =   0.0138889
        k(   57) = (   0.4166667   0.3367877   0.0000000), wk =   0.0138889
        k(   58) = (   0.4166667   0.4330127   0.0000000), wk =   0.0138889
        k(   59) = (   0.4166667   0.5292377   0.0000000), wk =   0.0138889
        k(   60) = (   0.4166667   0.6254628   0.0000000), wk =   0.0138889
        k(   61) = (   0.4166667   0.7216878   0.0000000), wk =   0.0138889
        k(   62) = (   0.4166667  -0.3367877   0.0000000), wk =   0.0138889
        k(   63) = (   0.4166667  -0.2405626   0.0000000), wk =   0.0138889
        k(   64) = (   0.4166667  -0.1443376   0.0000000), wk =   0.0138889
        k(   65) = (   0.4166667  -0.0481125   0.0000000), wk =   0.0138889
        k(   66) = (   0.4166667   0.0481125   0.0000000), wk =   0.0138889
        k(   67) = (   0.4166667   0.1443376   0.0000000), wk =   0.0138889
        k(   68) = (  -0.5000000  -0.2886751   0.0000000), wk =   0.0069444
        k(   69) = (  -0.5000000  -0.1924501   0.0000000), wk =   0.0138889
        k(   70) = (  -0.5000000  -0.0962250   0.0000000), wk =   0.0138889
        k(   71) = (  -0.5000000   0.0000000   0.0000000), wk =   0.0138889
        k(   72) = (  -0.5000000   0.0962250   0.0000000), wk =   0.0138889
        k(   73) = (  -0.5000000   0.1924501   0.0000000), wk =   0.0138889
        k(   74) = (  -0.5000000  -0.8660254   0.0000000), wk =   0.0069444

     Dense  grid:   166859 G-vectors     FFT dimensions: (  40,  40, 240)

     Smooth grid:    42343 G-vectors     FFT dimensions: (  25,  25, 160)

     Estimated max dynamical RAM per process >     131.86 MB

     Estimated total dynamical RAM >     791.13 MB

     Initial potential from superposition of free atoms

     starting charge       7.9999, renormalised to       8.0000

     negative rho (up, down):  2.223E-05 0.000E+00

     Adding external electric field

     Computed dipole along edir(3) : 
        Dipole               -0.0000 Ry au,         -0.0000 Debye
        Dipole field         -0.0000 Ry au, 

        E field amplitude [Ha a.u.]:  1.9447E-03
        Potential amp.        0.1047 Ry
        Total length         26.9286 bohr

     Starting wfcs are random
     Checking if some PAW data can be deallocated... 

     total cpu time spent up to now is        4.4 secs

     Self-consistent Calculation

     iteration #  1     ecut=    70.00 Ry     beta= 0.10
     Davidson diagonalization with overlap
     ethr =  1.00E-02,  avg # of iterations =  8.6

     negative rho (up, down):  2.178E-05 0.000E+00

     Adding external electric field

     Computed dipole along edir(3) : 
        Dipole                0.0024 Ry au,          0.0062 Debye
        Dipole field          0.0001 Ry au, 

        E field amplitude [Ha a.u.]:  1.9447E-03
        Potential amp.        0.1016 Ry
        Total length         26.9286 bohr


     total cpu time spent up to now is       41.7 secs

     total energy              =     -36.95131331 Ry
     estimated scf accuracy    <       0.20300867 Ry

     iteration #  2     ecut=    70.00 Ry     beta= 0.10
     Davidson diagonalization with overlap
     ethr =  2.54E-03,  avg # of iterations =  1.0

     negative rho (up, down):  2.713E-05 0.000E+00

     Adding external electric field

     Computed dipole along edir(3) : 
        Dipole                0.0154 Ry au,          0.0392 Debye
        Dipole field          0.0004 Ry au, 

        E field amplitude [Ha a.u.]:  1.9447E-03
        Potential amp.        0.0852 Ry
        Total length         26.9286 bohr


     total cpu time spent up to now is       49.7 secs

     total energy              =     -36.86221863 Ry
     estimated scf accuracy    <       0.14957793 Ry

     iteration #  3     ecut=    70.00 Ry     beta= 0.10
     Davidson diagonalization with overlap
     ethr =  1.87E-03,  avg # of iterations =  2.6

     negative rho (up, down):  2.701E-05 0.000E+00

     Adding external electric field

     Computed dipole along edir(3) : 
        Dipole                0.0119 Ry au,          0.0302 Debye
        Dipole field          0.0003 Ry au, 

        E field amplitude [Ha a.u.]:  1.9447E-03
        Potential amp.        0.0897 Ry
        Total length         26.9286 bohr


     total cpu time spent up to now is       59.7 secs

     total energy              =     -36.88691445 Ry
     estimated scf accuracy    <       0.00234194 Ry

     iteration #  4     ecut=    70.00 Ry     beta= 0.10
     Davidson diagonalization with overlap
     ethr =  2.93E-05,  avg # of iterations =  6.4

     negative rho (up, down):  3.028E-05 0.000E+00

     Adding external electric field

     Computed dipole along edir(3) : 
        Dipole                0.0063 Ry au,          0.0159 Debye
        Dipole field          0.0001 Ry au, 

        E field amplitude [Ha a.u.]:  1.9447E-03
        Potential amp.        0.0968 Ry
        Total length         26.9286 bohr


     total cpu time spent up to now is       76.4 secs

     total energy              =     -36.88730421 Ry
     estimated scf accuracy    <       0.00145286 Ry

     iteration #  5     ecut=    70.00 Ry     beta= 0.10
     Davidson diagonalization with overlap
     ethr =  1.82E-05,  avg # of iterations =  1.2

     negative rho (up, down):  3.431E-05 0.000E+00

     Adding external electric field

     Computed dipole along edir(3) : 
        Dipole                0.0099 Ry au,          0.0253 Debye
        Dipole field          0.0002 Ry au, 

        E field amplitude [Ha a.u.]:  1.9447E-03
        Potential amp.        0.0921 Ry
        Total length         26.9286 bohr


     total cpu time spent up to now is       84.6 secs

     total energy              =     -36.88735063 Ry
     estimated scf accuracy    <       0.00020985 Ry

     iteration #  6     ecut=    70.00 Ry     beta= 0.10
     Davidson diagonalization with overlap
     ethr =  2.62E-06,  avg # of iterations =  4.7

     negative rho (up, down):  3.273E-05 0.000E+00

     Adding external electric field

     Computed dipole along edir(3) : 
        Dipole                0.0110 Ry au,          0.0280 Debye
        Dipole field          0.0003 Ry au, 

        E field amplitude [Ha a.u.]:  1.9447E-03
        Potential amp.        0.0908 Ry
        Total length         26.9286 bohr


     total cpu time spent up to now is       98.1 secs

     total energy              =     -36.88724958 Ry
     estimated scf accuracy    <       0.00031944 Ry

     iteration #  7     ecut=    70.00 Ry     beta= 0.10
     Davidson diagonalization with overlap
     ethr =  2.62E-06,  avg # of iterations =  3.4

     negative rho (up, down):  3.320E-05 0.000E+00

     Adding external electric field

     Computed dipole along edir(3) : 
        Dipole                0.0112 Ry au,          0.0286 Debye
        Dipole field          0.0003 Ry au, 

        E field amplitude [Ha a.u.]:  1.9447E-03
        Potential amp.        0.0905 Ry
        Total length         26.9286 bohr


     total cpu time spent up to now is      109.9 secs

     total energy              =     -36.88730979 Ry
     estimated scf accuracy    <       0.00000589 Ry

     iteration #  8     ecut=    70.00 Ry     beta= 0.10
     Davidson diagonalization with overlap
     ethr =  7.37E-08,  avg # of iterations =  2.0

     negative rho (up, down):  3.347E-05 0.000E+00

     Adding external electric field

     Computed dipole along edir(3) : 
        Dipole                0.0116 Ry au,          0.0295 Debye
        Dipole field          0.0003 Ry au, 

        E field amplitude [Ha a.u.]:  1.9447E-03
        Potential amp.        0.0900 Ry
        Total length         26.9286 bohr


     total cpu time spent up to now is      119.2 secs

     total energy              =     -36.88731075 Ry
     estimated scf accuracy    <       0.00000090 Ry

     iteration #  9     ecut=    70.00 Ry     beta= 0.10
     Davidson diagonalization with overlap
     ethr =  1.12E-08,  avg # of iterations =  2.0

     negative rho (up, down):  3.383E-05 0.000E+00

     Adding external electric field

     Computed dipole along edir(3) : 
        Dipole                0.0112 Ry au,          0.0285 Debye
        Dipole field          0.0003 Ry au, 

        E field amplitude [Ha a.u.]:  1.9447E-03
        Potential amp.        0.0905 Ry
        Total length         26.9286 bohr


     total cpu time spent up to now is      129.7 secs

     total energy              =     -36.88731081 Ry
     estimated scf accuracy    <       0.00000097 Ry

     iteration # 10     ecut=    70.00 Ry     beta= 0.10
     Davidson diagonalization with overlap
     ethr =  1.12E-08,  avg # of iterations =  2.0

     negative rho (up, down):  3.403E-05 0.000E+00

     Adding external electric field

     Computed dipole along edir(3) : 
        Dipole                0.0114 Ry au,          0.0289 Debye
        Dipole field          0.0003 Ry au, 

        E field amplitude [Ha a.u.]:  1.9447E-03
        Potential amp.        0.0903 Ry
        Total length         26.9286 bohr


     total cpu time spent up to now is      139.2 secs

     total energy              =     -36.88731090 Ry
     estimated scf accuracy    <       0.00000029 Ry

     iteration # 11     ecut=    70.00 Ry     beta= 0.10
     Davidson diagonalization with overlap
     ethr =  3.63E-09,  avg # of iterations =  1.0

     negative rho (up, down):  3.549E-05 0.000E+00

     Adding external electric field

     Computed dipole along edir(3) : 
        Dipole                0.0116 Ry au,          0.0294 Debye
        Dipole field          0.0003 Ry au, 

        E field amplitude [Ha a.u.]:  1.9447E-03
        Potential amp.        0.0900 Ry
        Total length         26.9286 bohr


     total cpu time spent up to now is      147.5 secs

     End of self-consistent calculation

          k = 0.0000 0.0000 0.0000 (  5307 PWs)   bands (ev):

   -21.1428 -21.1428  -9.2393  -9.2393  -4.6856  -4.6856  -4.6764  -4.6764
     1.5510   1.5510   2.4915   2.4915   2.6534   2.6534   4.7621   4.7622

          k = 0.0000 0.0962 0.0000 (  5285 PWs)   bands (ev):

   -20.9791 -20.9791  -9.0436  -9.0436  -5.3317  -5.3317  -5.0190  -5.0190
     1.7744   1.7745   2.7159   2.7160   2.8798   2.8798   4.9853   4.9853

          k = 0.0000 0.1925 0.0000 (  5253 PWs)   bands (ev):

   -20.4896 -20.4896  -8.4616  -8.4616  -6.9691  -6.9691  -5.8106  -5.8106
     2.4447   2.4447   3.3882   3.3883   3.5586   3.5586   5.6517   5.6518

          k = 0.0000 0.2887 0.0000 (  5269 PWs)   bands (ev):

   -19.6801 -19.6801  -9.0667  -9.0667  -7.5127  -7.5127  -6.6896  -6.6896
     3.5593   3.5594   4.4942   4.4943   4.6837   4.6838   5.6212   5.6212

          k = 0.0000 0.3849 0.0000 (  5285 PWs)   bands (ev):

   -18.5628 -18.5628 -11.2685 -11.2685  -7.4224  -7.4224  -6.2470  -6.2470
     3.2775   3.2775   5.1102   5.1103   6.0213   6.0221   6.1383   6.1391

          k = 0.0000 0.4811 0.0000 (  5290 PWs)   bands (ev):

   -17.1691 -17.1691 -13.3665 -13.3665  -7.8949  -7.8949  -4.8275  -4.8275
     1.1478   1.1479   5.8236   5.8236   7.1203   7.1204   8.0790   8.0793

          k = 0.0000-0.5774 0.0000 (  5288 PWs)   bands (ev):

   -15.9104 -15.9104 -14.8679 -14.8679  -8.0572  -8.0572  -3.9852  -3.9852
     0.0531   0.0531   5.7440   5.7440   9.4379   9.4379   9.5728   9.5728

          k = 0.0833 0.0481 0.0000 (  5285 PWs)   bands (ev):

   -20.9791 -20.9791  -9.0436  -9.0436  -5.3317  -5.3317  -5.0190  -5.0190
     1.7744   1.7745   2.7159   2.7160   2.8798   2.8798   4.9853   4.9853

          k = 0.0833 0.1443 0.0000 (  5269 PWs)   bands (ev):

   -20.6524 -20.6524  -8.6546  -8.6546  -6.3655  -6.3655  -5.6956  -5.6956
     2.2215   2.2215   3.1645   3.1646   3.3325   3.3325   5.4307   5.4307

          k = 0.0833 0.2406 0.0000 (  5261 PWs)   bands (ev):

   -20.0030 -20.0030  -8.0750  -8.0749  -7.8880  -7.8880  -6.6927  -6.6927
     3.1147   3.1148   4.0587   4.0589   4.2368   4.2369   6.2931   6.2932

          k = 0.0833 0.3368 0.0000 (  5275 PWs)   bands (ev):

   -19.0394 -19.0394 -10.1468 -10.1468  -7.5784  -7.5784  -6.7742  -6.7742
     4.2830   4.2831   4.4553   4.4554   5.4136   5.4138   5.5977   5.5978

          k = 0.0833 0.4330 0.0000 (  5284 PWs)   bands (ev):

   -17.7808 -17.7808 -12.2678 -12.2678  -8.2128  -8.2128  -5.3975  -5.3975
     2.0921   2.0921   6.2051   6.2052   6.6697   6.6699   7.1857   7.1859

          k = 0.0833 0.5292 0.0000 (  5302 PWs)   bands (ev):

   -16.3043 -16.3043 -14.2062 -14.2062  -8.5410  -8.5410  -4.0914  -4.0914
     0.3280   0.3280   6.4821   6.4821   8.4218   8.4220   9.3395   9.3398

          k = 0.0833-0.5292 0.0000 (  5302 PWs)   bands (ev):

   -16.3043 -16.3043 -14.2062 -14.2062  -8.5410  -8.5410  -4.0914  -4.0914
     0.3280   0.3280   6.4821   6.4821   8.4218   8.4220   9.3395   9.3398

          k = 0.0833-0.4330 0.0000 (  5284 PWs)   bands (ev):

   -17.7808 -17.7808 -12.2678 -12.2678  -8.2128  -8.2128  -5.3975  -5.3975
     2.0921   2.0921   6.2051   6.2052   6.6697   6.6699   7.1857   7.1859

          k = 0.0833-0.3368 0.0000 (  5275 PWs)   bands (ev):

   -19.0394 -19.0394 -10.1468 -10.1468  -7.5784  -7.5784  -6.7742  -6.7742
     4.2830   4.2831   4.4553   4.4554   5.4136   5.4138   5.5977   5.5978

          k = 0.0833-0.2406 0.0000 (  5261 PWs)   bands (ev):

   -20.0030 -20.0030  -8.0750  -8.0749  -7.8880  -7.8880  -6.6927  -6.6927
     3.1147   3.1148   4.0587   4.0589   4.2368   4.2369   6.2931   6.2932

          k = 0.0833-0.1443 0.0000 (  5269 PWs)   bands (ev):

   -20.6524 -20.6524  -8.6546  -8.6546  -6.3656  -6.3655  -5.6956  -5.6956
     2.2215   2.2215   3.1645   3.1646   3.3325   3.3325   5.4307   5.4307

          k = 0.0833-0.0481 0.0000 (  5285 PWs)   bands (ev):

   -20.9791 -20.9791  -9.0436  -9.0436  -5.3317  -5.3317  -5.0190  -5.0190
     1.7744   1.7745   2.7159   2.7160   2.8798   2.8798   4.9853   4.9853

          k = 0.1667 0.0962 0.0000 (  5253 PWs)   bands (ev):

   -20.4896 -20.4896  -8.4616  -8.4616  -6.9691  -6.9691  -5.8106  -5.8106
     2.4447   2.4447   3.3882   3.3883   3.5586   3.5586   5.6517   5.6518

          k = 0.1667 0.1925 0.0000 (  5261 PWs)   bands (ev):

   -20.0030 -20.0030  -8.0750  -8.0749  -7.8880  -7.8880  -6.6927  -6.6927
     3.1147   3.1148   4.0587   4.0589   4.2368   4.2369   6.2931   6.2932

          k = 0.1667 0.2887 0.0000 (  5288 PWs)   bands (ev):

   -19.1994 -19.1994  -9.4056  -9.4056  -8.0529  -8.0529  -6.9526  -6.9526
     4.2293   4.2294   4.7415   4.7415   5.1714   5.1716   5.3661   5.3662

          k = 0.1667 0.3849 0.0000 (  5285 PWs)   bands (ev):

   -18.0930 -18.0930 -11.1317 -11.1317  -9.1086  -9.1086  -5.7021  -5.7021
     2.7985   2.7985   5.7811   5.7812   6.7082   6.7084   6.9419   6.9420

          k = 0.1667 0.4811 0.0000 (  5283 PWs)   bands (ev):

   -16.7192 -16.7192 -13.0400 -13.0400  -9.6846  -9.6846  -4.2785  -4.2785
     0.8908   0.8908   7.7441   7.7443   8.3849   8.3853   8.6000   8.6004

          k = 0.1667 0.5774 0.0000 (  5264 PWs)   bands (ev):

   -15.4893 -15.4893 -14.4703 -14.4703  -9.8694  -9.8694  -3.3880  -3.3880
    -0.1745  -0.1745   8.2887   8.2887   9.9334   9.9334  10.0066  10.0067

          k = 0.1667-0.4811 0.0000 (  5283 PWs)   bands (ev):

   -16.7192 -16.7192 -13.0400 -13.0400  -9.6846  -9.6846  -4.2785  -4.2785
     0.8908   0.8908   7.7441   7.7443   8.3849   8.3853   8.6000   8.6004

          k = 0.1667-0.3849 0.0000 (  5285 PWs)   bands (ev):

   -18.0930 -18.0930 -11.1317 -11.1317  -9.1086  -9.1086  -5.7021  -5.7021
     2.7985   2.7985   5.7811   5.7812   6.7082   6.7084   6.9419   6.9420

          k = 0.1667-0.2887 0.0000 (  5288 PWs)   bands (ev):

   -19.1994 -19.1994  -9.4056  -9.4056  -8.0529  -8.0529  -6.9526  -6.9526
     4.2293   4.2294   4.7415   4.7415   5.1714   5.1716   5.3661   5.3662

          k = 0.1667-0.1925 0.0000 (  5261 PWs)   bands (ev):

   -20.0030 -20.0030  -8.0750  -8.0749  -7.8880  -7.8880  -6.6927  -6.6927
     3.1147   3.1148   4.0587   4.0589   4.2368   4.2369   6.2931   6.2932

          k = 0.1667-0.0962 0.0000 (  5253 PWs)   bands (ev):

   -20.4896 -20.4896  -8.4616  -8.4616  -6.9691  -6.9691  -5.8106  -5.8106
     2.4447   2.4447   3.3882   3.3883   3.5586   3.5586   5.6517   5.6518

          k = 0.1667-0.0000 0.0000 (  5269 PWs)   bands (ev):

   -20.6524 -20.6524  -8.6546  -8.6546  -6.3656  -6.3656  -5.6956  -5.6956
     2.2215   2.2215   3.1645   3.1646   3.3325   3.3325   5.4307   5.4307

          k = 0.2500 0.1443 0.0000 (  5269 PWs)   bands (ev):

   -19.6801 -19.6801  -9.0667  -9.0667  -7.5127  -7.5127  -6.6896  -6.6896
     3.5593   3.5594   4.4942   4.4943   4.6837   4.6838   5.6212   5.6213

          k = 0.2500 0.2406 0.0000 (  5275 PWs)   bands (ev):

   -19.0394 -19.0394 -10.1468 -10.1468  -7.5784  -7.5784  -6.7742  -6.7742
     4.2830   4.2831   4.4553   4.4554   5.4136   5.4138   5.5977   5.5978

          k = 0.2500 0.3368 0.0000 (  5285 PWs)   bands (ev):

   -18.0930 -18.0930 -11.1317 -11.1317  -9.1086  -9.1086  -5.7021  -5.7021
     2.7985   2.7985   5.7811   5.7812   6.7082   6.7084   6.9419   6.9420

          k = 0.2500 0.4330 0.0000 (  5268 PWs)   bands (ev):

   -16.8665 -16.8665 -12.1679 -12.1679 -10.5890 -10.5890  -4.3622  -4.3622
     1.1870   1.1871   7.5309   7.5310   8.3086   8.3089   8.7263   8.7264

          k = 0.2500 0.5292 0.0000 (  5282 PWs)   bands (ev):

   -15.4470 -15.4470 -13.5867 -13.5867 -11.2964 -11.2964  -2.9795  -2.9795
    -0.3300  -0.3300   9.2306   9.2308   9.6662   9.6664  10.5494  10.5494

          k = 0.2500 0.6255 0.0000 (  5282 PWs)   bands (ev):

   -15.4470 -15.4470 -13.5867 -13.5867 -11.2964 -11.2964  -2.9795  -2.9795
    -0.3300  -0.3300   9.2306   9.2308   9.6662   9.6664  10.5494  10.5494

          k = 0.2500-0.4330 0.0000 (  5268 PWs)   bands (ev):

   -16.8665 -16.8665 -12.1679 -12.1679 -10.5890 -10.5890  -4.3622  -4.3622
     1.1870   1.1871   7.5309   7.5310   8.3086   8.3089   8.7263   8.7264

          k = 0.2500-0.3368 0.0000 (  5285 PWs)   bands (ev):

   -18.0930 -18.0930 -11.1317 -11.1317  -9.1086  -9.1086  -5.7021  -5.7021
     2.7985   2.7985   5.7811   5.7812   6.7082   6.7084   6.9419   6.9420

          k = 0.2500-0.2406 0.0000 (  5275 PWs)   bands (ev):

   -19.0394 -19.0394 -10.1468 -10.1468  -7.5784  -7.5784  -6.7742  -6.7742
     4.2830   4.2831   4.4553   4.4554   5.4136   5.4138   5.5977   5.5978

          k = 0.2500-0.1443 0.0000 (  5269 PWs)   bands (ev):

   -19.6801 -19.6801  -9.0667  -9.0667  -7.5127  -7.5127  -6.6895  -6.6895
     3.5593   3.5594   4.4942   4.4943   4.6837   4.6838   5.6212   5.6213

          k = 0.2500-0.0481 0.0000 (  5261 PWs)   bands (ev):

   -20.0030 -20.0030  -8.0750  -8.0750  -7.8880  -7.8880  -6.6927  -6.6927
     3.1147   3.1148   4.0587   4.0589   4.2368   4.2369   6.2931   6.2931

          k = 0.2500 0.0481 0.0000 (  5261 PWs)   bands (ev):

   -20.0030 -20.0030  -8.0750  -8.0750  -7.8880  -7.8880  -6.6927  -6.6927
     3.1147   3.1148   4.0587   4.0589   4.2368   4.2369   6.2931   6.2932

          k = 0.3333 0.1925 0.0000 (  5285 PWs)   bands (ev):

   -18.5628 -18.5628 -11.2685 -11.2685  -7.4224  -7.4224  -6.2470  -6.2470
     3.2775   3.2775   5.1102   5.1103   6.0213   6.0221   6.1383   6.1391

          k = 0.3333 0.2887 0.0000 (  5284 PWs)   bands (ev):

   -17.7808 -17.7808 -12.2678 -12.2678  -8.2128  -8.2128  -5.3975  -5.3975
     2.0921   2.0921   6.2051   6.2052   6.6697   6.6699   7.1857   7.1859

          k = 0.3333 0.3849 0.0000 (  5283 PWs)   bands (ev):

   -16.7192 -16.7192 -13.0400 -13.0400  -9.6846  -9.6846  -4.2785  -4.2785
     0.8908   0.8908   7.7441   7.7443   8.3849   8.3853   8.6000   8.6004

          k = 0.3333 0.4811 0.0000 (  5282 PWs)   bands (ev):

   -15.4470 -15.4470 -13.5867 -13.5867 -11.2964 -11.2964  -2.9795  -2.9795
    -0.3300  -0.3300   9.2306   9.2308   9.6662   9.6664  10.5494  10.5494

          k = 0.3333 0.5774 0.0000 (  5292 PWs)   bands (ev):

   -14.2330 -14.2330 -14.2309 -14.2309 -12.1877 -12.1877  -1.6261  -1.6261
    -1.6260  -1.6260   8.9861   8.9861  11.2344  11.2346  11.2385  11.2385

          k = 0.3333 0.6736 0.0000 (  5282 PWs)   bands (ev):

   -15.4470 -15.4470 -13.5867 -13.5867 -11.2964 -11.2964  -2.9795  -2.9795
    -0.3300  -0.3300   9.2306   9.2308   9.6662   9.6664  10.5494  10.5494

          k = 0.3333-0.3849 0.0000 (  5283 PWs)   bands (ev):

   -16.7192 -16.7192 -13.0400 -13.0400  -9.6846  -9.6846  -4.2785  -4.2785
     0.8908   0.8908   7.7441   7.7443   8.3849   8.3853   8.6000   8.6004

          k = 0.3333-0.2887 0.0000 (  5284 PWs)   bands (ev):

   -17.7808 -17.7808 -12.2678 -12.2678  -8.2128  -8.2128  -5.3975  -5.3975
     2.0921   2.0921   6.2051   6.2052   6.6697   6.6699   7.1857   7.1859

          k = 0.3333-0.1925 0.0000 (  5285 PWs)   bands (ev):

   -18.5628 -18.5628 -11.2685 -11.2685  -7.4224  -7.4224  -6.2470  -6.2470
     3.2775   3.2775   5.1102   5.1103   6.0213   6.0221   6.1383   6.1391

          k = 0.3333-0.0962 0.0000 (  5275 PWs)   bands (ev):

   -19.0394 -19.0394 -10.1468 -10.1468  -7.5784  -7.5784  -6.7742  -6.7742
     4.2830   4.2831   4.4553   4.4554   5.4136   5.4138   5.5977   5.5978

          k = 0.3333 0.0000 0.0000 (  5288 PWs)   bands (ev):

   -19.1994 -19.1994  -9.4056  -9.4056  -8.0529  -8.0529  -6.9526  -6.9526
     4.2293   4.2294   4.7415   4.7415   5.1714   5.1716   5.3661   5.3662

          k = 0.3333 0.0962 0.0000 (  5275 PWs)   bands (ev):

   -19.0394 -19.0394 -10.1468 -10.1468  -7.5784  -7.5784  -6.7742  -6.7742
     4.2830   4.2831   4.4553   4.4554   5.4136   5.4138   5.5977   5.5978

          k = 0.4167 0.2406 0.0000 (  5290 PWs)   bands (ev):

   -17.1691 -17.1691 -13.3665 -13.3665  -7.8949  -7.8949  -4.8275  -4.8275
     1.1478   1.1479   5.8236   5.8236   7.1203   7.1204   8.0790   8.0793

          k = 0.4167 0.3368 0.0000 (  5302 PWs)   bands (ev):

   -16.3043 -16.3043 -14.2062 -14.2062  -8.5410  -8.5410  -4.0914  -4.0914
     0.3280   0.3280   6.4821   6.4821   8.4218   8.4220   9.3395   9.3398

          k = 0.4167 0.4330 0.0000 (  5264 PWs)   bands (ev):

   -15.4893 -15.4893 -14.4703 -14.4703  -9.8694  -9.8694  -3.3880  -3.3880
    -0.1745  -0.1745   8.2887   8.2887   9.9334   9.9335  10.0066  10.0067

          k = 0.4167 0.5292 0.0000 (  5282 PWs)   bands (ev):

   -15.4470 -15.4470 -13.5867 -13.5867 -11.2964 -11.2964  -2.9795  -2.9795
    -0.3300  -0.3300   9.2306   9.2308   9.6662   9.6664  10.5494  10.5494

          k = 0.4167 0.6255 0.0000 (  5282 PWs)   bands (ev):

   -15.4470 -15.4469 -13.5867 -13.5867 -11.2964 -11.2964  -2.9795  -2.9795
    -0.3300  -0.3300   9.2306   9.2308   9.6662   9.6664  10.5494  10.5494

          k = 0.4167 0.7217 0.0000 (  5264 PWs)   bands (ev):

   -15.4893 -15.4893 -14.4703 -14.4703  -9.8694  -9.8694  -3.3880  -3.3880
    -0.1745  -0.1745   8.2887   8.2887   9.9334   9.9335  10.0066  10.0067

          k = 0.4167-0.3368 0.0000 (  5302 PWs)   bands (ev):

   -16.3043 -16.3043 -14.2062 -14.2062  -8.5410  -8.5410  -4.0914  -4.0914
     0.3280   0.3280   6.4821   6.4821   8.4218   8.4220   9.3395   9.3398

          k = 0.4167-0.2406 0.0000 (  5290 PWs)   bands (ev):

   -17.1691 -17.1691 -13.3665 -13.3665  -7.8949  -7.8949  -4.8275  -4.8275
     1.1478   1.1479   5.8236   5.8236   7.1203   7.1204   8.0790   8.0793

          k = 0.4167-0.1443 0.0000 (  5284 PWs)   bands (ev):

   -17.7808 -17.7808 -12.2678 -12.2678  -8.2128  -8.2128  -5.3975  -5.3975
     2.0921   2.0921   6.2051   6.2052   6.6697   6.6699   7.1857   7.1859

          k = 0.4167-0.0481 0.0000 (  5285 PWs)   bands (ev):

   -18.0930 -18.0930 -11.1317 -11.1317  -9.1086  -9.1086  -5.7021  -5.7021
     2.7985   2.7985   5.7811   5.7812   6.7082   6.7084   6.9419   6.9420

          k = 0.4167 0.0481 0.0000 (  5285 PWs)   bands (ev):

   -18.0930 -18.0930 -11.1317 -11.1317  -9.1086  -9.1086  -5.7021  -5.7021
     2.7985   2.7985   5.7811   5.7812   6.7082   6.7084   6.9419   6.9420

          k = 0.4167 0.1443 0.0000 (  5284 PWs)   bands (ev):

   -17.7808 -17.7808 -12.2678 -12.2678  -8.2128  -8.2128  -5.3975  -5.3975
     2.0921   2.0921   6.2051   6.2052   6.6697   6.6699   7.1857   7.1859

          k =-0.5000-0.2887 0.0000 (  5288 PWs)   bands (ev):

   -15.9104 -15.9104 -14.8679 -14.8679  -8.0572  -8.0572  -3.9852  -3.9852
     0.0531   0.0531   5.7440   5.7440   9.4379   9.4379   9.5728   9.5728

          k =-0.5000-0.1925 0.0000 (  5302 PWs)   bands (ev):

   -16.3043 -16.3043 -14.2062 -14.2062  -8.5410  -8.5410  -4.0914  -4.0914
     0.3280   0.3280   6.4821   6.4821   8.4218   8.4220   9.3395   9.3398

          k =-0.5000-0.0962 0.0000 (  5283 PWs)   bands (ev):

   -16.7192 -16.7192 -13.0400 -13.0400  -9.6846  -9.6846  -4.2785  -4.2785
     0.8908   0.8908   7.7441   7.7443   8.3849   8.3853   8.6000   8.6004

          k =-0.5000 0.0000 0.0000 (  5268 PWs)   bands (ev):

   -16.8665 -16.8665 -12.1679 -12.1679 -10.5890 -10.5890  -4.3622  -4.3622
     1.1870   1.1871   7.5309   7.5310   8.3086   8.3089   8.7263   8.7264

          k =-0.5000 0.0962 0.0000 (  5283 PWs)   bands (ev):

   -16.7192 -16.7192 -13.0400 -13.0400  -9.6846  -9.6846  -4.2785  -4.2785
     0.8908   0.8908   7.7441   7.7443   8.3849   8.3853   8.6000   8.6004

          k =-0.5000 0.1925 0.0000 (  5302 PWs)   bands (ev):

   -16.3043 -16.3043 -14.2062 -14.2062  -8.5410  -8.5410  -4.0914  -4.0914
     0.3280   0.3280   6.4821   6.4821   8.4219   8.4220   9.3395   9.3398

          k =-0.5000-0.8660 0.0000 (  5288 PWs)   bands (ev):

   -15.9104 -15.9104 -14.8679 -14.8679  -8.0571  -8.0571  -3.9852  -3.9852
     0.0531   0.0531   5.7440   5.7440   9.4379   9.4379   9.5728   9.5728

     the Fermi energy is  -1.626030 ev

!    total energy              =     -36.88731095 Ry
     total all-electron energy =      -152.415583 Ry
     estimated scf accuracy    <          7.6E-09 Ry
     smearing contrib. (-TS)   =      -0.00003134 Ry
     internal energy E=F+TS    =     -36.88727960 Ry

     The total energy is F=E-TS. E is the sum of the following terms:
     one-electron contribution =    -156.61857188 Ry
     hartree contribution      =      79.92799004 Ry
     xc contribution           =      -9.27208131 Ry
     ewald contribution        =      61.40972547 Ry
     electric field correction =      -0.00004189 Ry
     one-center paw contrib.   =     -12.33430002 Ry

     convergence has been achieved in  11 iterations

     negative rho (up, down):  3.549E-05 0.000E+00

     Forces acting on atoms (cartesian axes, Ry/au):

     atom    1 type  1   force =     0.00000005   -0.00000022    0.00000031
     atom    2 type  1   force =    -0.00000005    0.00000022   -0.00000031

     Total force =     0.000001     Total SCF correction =     0.000326
     SCF correction compared to forces is large: reduce conv_thr to get better values

     Writing all to output data dir ./tmp/graphene.save/ :
     XML data file, charge density, pseudopotentials, collected wavefunctions

     init_run     :      3.86s CPU      4.09s WALL (       1 calls)
     electrons    :    136.45s CPU    143.06s WALL (       1 calls)
     forces       :      1.25s CPU      1.30s WALL (       1 calls)

     Called by init_run:
     wfcinit      :      3.06s CPU      3.23s WALL (       1 calls)
     potinit      :      0.23s CPU      0.25s WALL (       1 calls)
     hinit0       :      0.44s CPU      0.45s WALL (       1 calls)

     Called by electrons:
     c_bands      :    120.84s CPU    125.92s WALL (      11 calls)
     sum_band     :     13.45s CPU     14.59s WALL (      11 calls)
     v_of_rho     :      0.60s CPU      0.63s WALL (      12 calls)
     newd         :      0.84s CPU      1.19s WALL (      12 calls)
     PAW_pot      :      0.33s CPU      0.34s WALL (      12 calls)
     mix_rho      :      0.33s CPU      0.35s WALL (      11 calls)

     Called by c_bands:
     init_us_2    :      0.62s CPU      0.63s WALL (    1776 calls)
     cegterg      :    118.41s CPU    123.47s WALL (     814 calls)

     Called by *egterg:
     cdiaghg      :      6.38s CPU      6.40s WALL (    3394 calls)
     h_psi        :     76.90s CPU     81.75s WALL (    3468 calls)
     s_psi        :      5.86s CPU      5.96s WALL (    3468 calls)
     g_psi        :      0.25s CPU      0.25s WALL (    2580 calls)

     Called by h_psi:
     h_psi:calbec :      6.46s CPU      6.68s WALL (    3468 calls)
     vloc_psi     :     63.85s CPU     68.39s WALL (    3468 calls)
     add_vuspsi   :      6.07s CPU      6.09s WALL (    3468 calls)

     General routines
     calbec       :      9.52s CPU      9.79s WALL (    4578 calls)
     fft          :      1.11s CPU      1.16s WALL (     297 calls)
     ffts         :      0.16s CPU      0.16s WALL (      92 calls)
     fftw         :     38.61s CPU     41.61s WALL (  184920 calls)
     interpolate  :      0.25s CPU      0.25s WALL (      48 calls)

     Parallel routines

     PWSCF        :   2m22.05s CPU   2m29.21s WALL


   This run was terminated on:  22:34:58  30Dec2025            

=------------------------------------------------------------------------------=
   JOB DONE.
=------------------------------------------------------------------------------=
