
     Program PWSCF v.7.4.1 starts on  1Oct2025 at 21:10:50 

     This program is part of the open-source Quantum ESPRESSO suite
     for quantum simulation of materials; please cite
         "P. Giannozzi et al., J. Phys.:Condens. Matter 21 395502 (2009);
         "P. Giannozzi et al., J. Phys.:Condens. Matter 29 465901 (2017);
         "P. Giannozzi et al., J. Chem. Phys. 152 154105 (2020);
          URL http://www.quantum-espresso.org", 
     in publications or presentations arising from this work. More details at
     http://www.quantum-espresso.org/quote

     Serial version
     12867 MiB available memory on the printing compute node when the environment starts

     Reading input from graphene_scf.in

     Current dimensions of program PWSCF are:
     Max number of different atomic species (ntypx) = 10
     Max number of k-points (npk) =  40000
     Max angular momentum in pseudopotentials (lmaxx) =  4
     file C.pbe-n-kjpaw_psl.1.0.0.UPF: wavefunction(s)  2S 2P renormalized
     Message from routine setup:
     using ibrav=0 with symmetry is DISCOURAGED, use correct ibrav instead


     G-vector sticks info
     --------------------
     sticks:   dense  smooth     PW     G-vecs:    dense   smooth      PW
     Sum        1483     421    121               275365    42211    7091

     Using Slab Decomposition



     bravais-lattice index     =            0
     lattice parameter (alat)  =       4.6540  a.u.
     unit-cell volume          =     531.7080 (a.u.)^3
     number of atoms/cell      =            2
     number of atomic types    =            1
     number of electrons       =         8.00
     number of Kohn-Sham states=            8
     kinetic-energy cutoff     =      70.0000  Ry
     charge density cutoff     =     980.0000  Ry
     scf convergence threshold =      1.0E-08
     mixing beta               =       0.7000
     number of iterations used =            8  plain     mixing
     Exchange-correlation= SLA  PW   PBX  PBC
                           (   1   4   3   4   0   0   0)

     celldm(1)=   4.653998  celldm(2)=   0.000000  celldm(3)=   0.000000
     celldm(4)=   0.000000  celldm(5)=   0.000000  celldm(6)=   0.000000

     crystal axes: (cart. coord. in units of alat)
               a(1) = (   1.000000   0.000000   0.000000 )  
               a(2) = (  -0.500000   0.866025   0.000000 )  
               a(3) = (   0.000000   0.000000   6.090654 )  

     reciprocal axes: (cart. coord. in units 2 pi/alat)
               b(1) = (  1.000000  0.577350 -0.000000 )  
               b(2) = (  0.000000  1.154701  0.000000 )  
               b(3) = (  0.000000 -0.000000  0.164186 )  


     PseudoPot. # 1 for C  read from file:
     ../../../../pseudos/C.pbe-n-kjpaw_psl.1.0.0.UPF
     MD5 check sum: 5d2aebdfa2cae82b50a7e79e9516da0f
     Pseudo is Projector augmented-wave + core cor, Zval =  4.0
     Generated using "atomic" code by A. Dal Corso  v.5.1
     Shape of augmentation charge: PSQ
     Using radial grid of 1073 points,  4 beta functions with: 
                l(1) =   0
                l(2) =   0
                l(3) =   1
                l(4) =   1
     Q(r) pseudized with 0 coefficients 


     atomic species   valence    mass     pseudopotential
     C                 4.00    12.01070     C ( 1.00)

     24 Sym. Ops., with inversion, found (12 have fractional translation)



   Cartesian axes

     site n.     atom                  positions (alat units)
         1        C      tau(   1) = (   0.0000000   0.0000000   0.0000000  )
         2        C      tau(   2) = (   0.0000000   0.5773503   0.0000000  )

     number of k points=    19  Gaussian smearing, width (Ry)=  0.0100
                       cart. coord. in units 2pi/alat
        k(    1) = (   0.0000000   0.0000000   0.0000000), wk =   0.0138889
        k(    2) = (   0.0000000   0.0962250   0.0000000), wk =   0.0833333
        k(    3) = (   0.0000000   0.1924501   0.0000000), wk =   0.0833333
        k(    4) = (   0.0000000   0.2886751   0.0000000), wk =   0.0833333
        k(    5) = (   0.0000000   0.3849002   0.0000000), wk =   0.0833333
        k(    6) = (   0.0000000   0.4811252   0.0000000), wk =   0.0833333
        k(    7) = (   0.0000000  -0.5773503   0.0000000), wk =   0.0416667
        k(    8) = (   0.0833333   0.1443376   0.0000000), wk =   0.0833333
        k(    9) = (   0.0833333   0.2405626   0.0000000), wk =   0.1666667
        k(   10) = (   0.0833333   0.3367877   0.0000000), wk =   0.1666667
        k(   11) = (   0.0833333   0.4330127   0.0000000), wk =   0.1666667
        k(   12) = (   0.0833333   0.5292377   0.0000000), wk =   0.1666667
        k(   13) = (   0.1666667   0.2886751   0.0000000), wk =   0.0833333
        k(   14) = (   0.1666667   0.3849002   0.0000000), wk =   0.1666667
        k(   15) = (   0.1666667   0.4811252   0.0000000), wk =   0.1666667
        k(   16) = (   0.1666667   0.5773503   0.0000000), wk =   0.0833333
        k(   17) = (   0.2500000   0.4330127   0.0000000), wk =   0.0833333
        k(   18) = (   0.2500000   0.5292377   0.0000000), wk =   0.1666667
        k(   19) = (   0.3333333   0.5773503   0.0000000), wk =   0.0277778

     Dense  grid:   275365 G-vectors     FFT dimensions: (  48,  48, 288)

     Smooth grid:    42211 G-vectors     FFT dimensions: (  27,  27, 160)

     Estimated max dynamical RAM per process >     383.21 MB

     Initial potential from superposition of free atoms

     starting charge       7.9999, renormalised to       8.0000

     negative rho (up, down):  9.573E-06 0.000E+00
     Starting wfcs are    8 randomized atomic wfcs

     total cpu time spent up to now is        4.7 secs

     Self-consistent Calculation

     iteration #  1     ecut=    70.00 Ry     beta= 0.70
     Davidson diagonalization with overlap
     ethr =  1.00E-02,  avg # of iterations =  5.4

     negative rho (up, down):  1.298E-06 0.000E+00

     total cpu time spent up to now is       10.0 secs

     total energy              =     -36.86073335 Ry
     estimated scf accuracy    <       0.19353244 Ry

     iteration #  2     ecut=    70.00 Ry     beta= 0.70
     Davidson diagonalization with overlap
     ethr =  2.42E-03,  avg # of iterations =  3.9

     negative rho (up, down):  1.560E-06 0.000E+00

     total cpu time spent up to now is       13.8 secs

     total energy              =     -36.88717192 Ry
     estimated scf accuracy    <       0.00195884 Ry

     iteration #  3     ecut=    70.00 Ry     beta= 0.70
     Davidson diagonalization with overlap
     c_bands:  1 eigenvalues not converged
     ethr =  2.45E-05,  avg # of iterations = 10.2

     negative rho (up, down):  3.082E-06 0.000E+00

     total cpu time spent up to now is       19.1 secs

     total energy              =     -36.88747548 Ry
     estimated scf accuracy    <       0.00015060 Ry

     iteration #  4     ecut=    70.00 Ry     beta= 0.70
     Davidson diagonalization with overlap
     ethr =  1.88E-06,  avg # of iterations =  3.8

     negative rho (up, down):  3.138E-06 0.000E+00

     total cpu time spent up to now is       24.4 secs

     total energy              =     -36.88748815 Ry
     estimated scf accuracy    <       0.00000186 Ry

     iteration #  5     ecut=    70.00 Ry     beta= 0.70
     Davidson diagonalization with overlap
     ethr =  2.32E-08,  avg # of iterations =  3.0

     negative rho (up, down):  3.111E-06 0.000E+00

     total cpu time spent up to now is       30.8 secs

     total energy              =     -36.88748927 Ry
     estimated scf accuracy    <       0.00000006 Ry

     iteration #  6     ecut=    70.00 Ry     beta= 0.70
     Davidson diagonalization with overlap
     ethr =  7.34E-10,  avg # of iterations =  2.6

     negative rho (up, down):  3.089E-06 0.000E+00

     total cpu time spent up to now is       35.9 secs

     End of self-consistent calculation

          k = 0.0000 0.0000 0.0000 (  5283 PWs)   bands (ev):

   -21.2634  -9.3525  -4.7559  -4.7559   1.5139   2.4015   2.8109   4.7172

          k = 0.0000 0.0962 0.0000 (  5251 PWs)   bands (ev):

   -21.0991  -9.1559  -5.4078  -5.0958   1.7375   2.6271   3.0383   4.9410

          k = 0.0000 0.1925 0.0000 (  5237 PWs)   bands (ev):

   -20.6081  -8.5713  -7.0493  -5.8917   2.4084   3.3021   3.7205   5.6094

          k = 0.0000 0.2887 0.0000 (  5251 PWs)   bands (ev):

   -19.7960  -9.1528  -7.6180  -6.7752   3.5245   4.4081   4.8564   5.5793

          k = 0.0000 0.3849 0.0000 (  5255 PWs)   bands (ev):

   -18.6750 -11.3615  -7.5116  -6.3463   3.2229   5.0745   6.0174   6.0495

          k = 0.0000 0.4811 0.0000 (  5270 PWs)   bands (ev):

   -17.2759 -13.4671  -7.9865  -4.9195   1.0809   5.7999   7.0903   8.0086

          k = 0.0000-0.5774 0.0000 (  5280 PWs)   bands (ev):

   -16.0064 -14.9800  -8.1495  -4.0723  -0.0206   5.7214   9.4032   9.5504

          k = 0.0833 0.1443 0.0000 (  5251 PWs)   bands (ev):

   -20.7715  -8.7652  -6.4437  -5.7762   2.1850   3.0775   3.4932   5.3877

          k = 0.0833 0.2406 0.0000 (  5240 PWs)   bands (ev):

   -20.1199  -8.1574  -7.9951  -6.7782   3.0793   3.9743   4.4030   6.2525

          k = 0.0833 0.3368 0.0000 (  5253 PWs)   bands (ev):

   -19.1532 -10.2357  -7.6678  -6.8761   4.2380   4.4163   5.3417   5.7654

          k = 0.0833 0.4330 0.0000 (  5260 PWs)   bands (ev):

   -17.8901 -12.3639  -8.3049  -5.4926   2.0314   6.1704   6.6544   7.1058

          k = 0.0833 0.5292 0.0000 (  5282 PWs)   bands (ev):

   -16.4063 -14.3111  -8.6345  -4.1794   0.2569   6.4609   8.3927   9.2654

          k = 0.1667 0.2887 0.0000 (  5262 PWs)   bands (ev):

   -19.3137  -9.4900  -8.1455  -7.0554   4.1955   4.6974   5.0887   5.5406

          k = 0.1667 0.3849 0.0000 (  5263 PWs)   bands (ev):

   -18.2036 -11.2216  -9.2050  -5.7988   2.7434   5.7492   6.6259   7.1302

          k = 0.1667 0.4811 0.0000 (  5264 PWs)   bands (ev):

   -16.8244 -13.1377  -9.7822  -4.3680   0.8249   7.7145   8.3765   8.5066

          k = 0.1667 0.5774 0.0000 (  5256 PWs)   bands (ev):

   -15.5846 -14.5788  -9.9675  -3.4724  -0.2468   8.2721   9.9688  10.1600

          k = 0.2500 0.4330 0.0000 (  5254 PWs)   bands (ev):

   -16.9726 -12.2576 -10.6941  -4.4523   1.1242   7.5039   8.2157   8.9423

          k = 0.2500 0.5292 0.0000 (  5270 PWs)   bands (ev):

   -15.5463 -13.6834 -11.4032  -3.0624  -0.4007   9.1799   9.6074  10.5388

          k = 0.3333 0.5774 0.0000 (  5268 PWs)   bands (ev):

   -14.3252 -14.3252 -12.3049  -1.7024  -1.7024   8.9196  11.2021  11.2021

     the Fermi energy is    -1.7024 ev

!    total energy              =     -36.88748929 Ry
     total all-electron energy =      -152.415685 Ry
     estimated scf accuracy    <          7.2E-10 Ry
     smearing contrib. (-TS)   =      -0.00015672 Ry
     internal energy E=F+TS    =     -36.88733257 Ry

     The total energy is F=E-TS. E is the sum of the following terms:
     one-electron contribution =    -157.20074689 Ry
     hartree contribution      =      80.22428025 Ry
     xc contribution           =      -9.28001963 Ry
     ewald contribution        =      61.70343446 Ry
     one-center paw contrib.   =     -12.33428076 Ry

     convergence has been achieved in   6 iterations

     negative rho (up, down):  3.089E-06 0.000E+00

     Forces acting on atoms (cartesian axes, Ry/au):

     atom    1 type  1   force =     0.00000000   -0.00000000    0.00000000
     atom    2 type  1   force =     0.00000000    0.00000000    0.00000000

     Total force =     0.000000     Total SCF correction =     0.000000


     Computing stress (Cartesian axis) and pressure


     negative rho (up, down):  3.089E-06 0.000E+00
          total   stress  (Ry/bohr**3)                   (kbar)     P=        3.21
   0.00003352   0.00000000   0.00000000            4.93        0.00        0.00
   0.00000000   0.00003352   0.00000000            0.00        4.93        0.00
   0.00000000   0.00000000  -0.00000149            0.00        0.00       -0.22


     Writing all to output data dir ./tmp/graphene.save/ :
     XML data file, charge density, pseudopotentials, collected wavefunctions

     init_run     :      4.00s CPU      4.58s WALL (       1 calls)
     electrons    :     36.65s CPU     31.14s WALL (       1 calls)
     forces       :      0.61s CPU      0.65s WALL (       1 calls)
     stress       :      3.30s CPU      4.18s WALL (       1 calls)

     Called by init_run:
     wfcinit      :      1.52s CPU      1.75s WALL (       1 calls)
     potinit      :      0.80s CPU      0.88s WALL (       1 calls)
     hinit0       :      1.33s CPU      1.40s WALL (       1 calls)

     Called by electrons:
     c_bands      :     28.99s CPU     22.94s WALL (       6 calls)
     sum_band     :      3.95s CPU      3.61s WALL (       6 calls)
     v_of_rho     :      1.92s CPU      2.28s WALL (       7 calls)
     newd         :      1.29s CPU      1.97s WALL (       7 calls)
     PAW_pot      :      0.71s CPU      0.74s WALL (       7 calls)
     mix_rho      :      0.15s CPU      0.16s WALL (       6 calls)

     Called by c_bands:
     init_us_2    :      0.51s CPU      0.38s WALL (     285 calls)
     cegterg      :     28.26s CPU     22.46s WALL (     114 calls)

     Called by *egterg:
     cdiaghg      :      0.19s CPU      0.16s WALL (     664 calls)
     h_psi        :     27.09s CPU     22.08s WALL (     683 calls)
     s_psi        :      0.34s CPU      0.35s WALL (     683 calls)
     g_psi        :      0.13s CPU      0.06s WALL (     550 calls)

     Called by h_psi:
     h_psi:calbec :      0.33s CPU      0.32s WALL (     683 calls)
     vloc_psi     :     25.17s CPU     19.21s WALL (     683 calls)
     add_vuspsi   :      1.49s CPU      2.50s WALL (     683 calls)

     General routines
     calbec       :      0.47s CPU      0.46s WALL (    1120 calls)
     fft          :      2.06s CPU      2.13s WALL (     114 calls)
     ffts         :      0.43s CPU      0.44s WALL (      13 calls)
     fftw         :     17.28s CPU     13.51s WALL (    6996 calls)
     interpolate  :      0.51s CPU      0.53s WALL (       7 calls)


     PWSCF        :     44.75s CPU     40.80s WALL


   This run was terminated on:  21:11:30   1Oct2025            

=------------------------------------------------------------------------------=
   JOB DONE.
=------------------------------------------------------------------------------=
