
     Program PWSCF v.7.4.1 starts on 29Jan2026 at  2:25:12 

     This program is part of the open-source Quantum ESPRESSO suite
     for quantum simulation of materials; please cite
         "P. Giannozzi et al., J. Phys.:Condens. Matter 21 395502 (2009);
         "P. Giannozzi et al., J. Phys.:Condens. Matter 29 465901 (2017);
         "P. Giannozzi et al., J. Chem. Phys. 152 154105 (2020);
          URL http://www.quantum-espresso.org", 
     in publications or presentations arising from this work. More details at
     http://www.quantum-espresso.org/quote

     Parallel version (MPI), running on    20 processors

     MPI processes distributed on     1 nodes
     124151 MiB available memory on the printing compute node when the environment starts
 
     Reading input from grap_SOC_scf.in

     Current dimensions of program PWSCF are:
     Max number of different atomic species (ntypx) = 10
     Max number of k-points (npk) =  40000
     Max angular momentum in pseudopotentials (lmaxx) =  4
     Presently stress not available with electric field and gates

     file C.rel-pbe-n-kjpaw_psl.1.0.0.UPF: wavefunction(s)  2S 2P 2P renormalized
 
     R & G space division:  proc/nbgrp/npool/nimage =      20
     Subspace diagonalization in iterative solution of the eigenvalue problem:
     a serial algorithm will be used

 
     Parallelization info
     --------------------
     sticks:   dense  smooth     PW     G-vecs:    dense   smooth      PW
     Min          52      21      6                 8339     2113     392
     Max          57      22      7                 8350     2140     425
     Sum        1045     421    139               166859    42343    8205
 
     Using Slab Decomposition
 


     bravais-lattice index     =            0
     lattice parameter (alat)  =       4.6624  a.u.
     unit-cell volume          =     533.6317 (a.u.)^3
     number of atoms/cell      =            2
     number of atomic types    =            1
     number of electrons       =         8.00
     number of Kohn-Sham states=           16
     kinetic-energy cutoff     =      70.0000  Ry
     charge density cutoff     =     700.0000  Ry
     scf convergence threshold =      1.0E-08
     mixing beta               =       0.1000
     number of iterations used =            8  plain     mixing
     Exchange-correlation= SLA  PW   PBX  PBC
                           (   1   4   3   4   0   0   0)
     Non magnetic calculation with spin-orbit


     celldm(1)=   4.662410  celldm(2)=   0.000000  celldm(3)=   0.000000
     celldm(4)=   0.000000  celldm(5)=   0.000000  celldm(6)=   0.000000

     crystal axes: (cart. coord. in units of alat)
               a(1) = (   1.000000   0.000000   0.000000 )  
               a(2) = (  -0.500000   0.866025   0.000000 )  
               a(3) = (   0.000000   0.000000   6.079666 )  

     reciprocal axes: (cart. coord. in units 2 pi/alat)
               b(1) = (  1.000000  0.577350  0.000000 )  
               b(2) = (  0.000000  1.154701  0.000000 )  
               b(3) = (  0.000000  0.000000  0.164483 )  


     PseudoPot. # 1 for C  read from file:
     ../../../PP_C/C.rel-pbe-n-kjpaw_psl.1.0.0.UPF
     MD5 check sum: dd2b8f743de1f3a10095e4114fb28074
     Pseudo is Projector augmented-wave + core cor, Zval =  4.0
     Generated using &quot;atomic&quot; code by A. Dal Corso  v.6.3
     Shape of augmentation charge: PSQ
     Using radial grid of 1073 points,  6 beta functions with: 
                l(1) =   0
                l(2) =   0
                l(3) =   1
                l(4) =   1
                l(5) =   1
                l(6) =   1
     Q(r) pseudized with 0 coefficients 


     atomic species   valence    mass     pseudopotential
     C                 4.00    12.01100     C ( 1.00)

     No symmetry found



   Cartesian axes

     site n.     atom                  positions (alat units)
         1        C      tau(   1) = (   0.0000000   0.0000000   3.0398328  )
         2        C      tau(   2) = (   0.0000000   0.5773503   3.0398328  )

     number of k points=    74  Gaussian smearing, width (Ry)=  0.0020
                       cart. coord. in units 2pi/alat
        k(    1) = (   0.0000000   0.0000000   0.0000000), wk =   0.0069444
        k(    2) = (   0.0000000   0.0962250   0.0000000), wk =   0.0138889
        k(    3) = (   0.0000000   0.1924501   0.0000000), wk =   0.0138889
        k(    4) = (   0.0000000   0.2886751   0.0000000), wk =   0.0138889
        k(    5) = (   0.0000000   0.3849002   0.0000000), wk =   0.0138889
        k(    6) = (   0.0000000   0.4811252   0.0000000), wk =   0.0138889
        k(    7) = (   0.0000000  -0.5773503   0.0000000), wk =   0.0069444
        k(    8) = (   0.0833333   0.0481125   0.0000000), wk =   0.0138889
        k(    9) = (   0.0833333   0.1443376   0.0000000), wk =   0.0138889
        k(   10) = (   0.0833333   0.2405626   0.0000000), wk =   0.0138889
        k(   11) = (   0.0833333   0.3367877   0.0000000), wk =   0.0138889
        k(   12) = (   0.0833333   0.4330127   0.0000000), wk =   0.0138889
        k(   13) = (   0.0833333   0.5292377   0.0000000), wk =   0.0138889
        k(   14) = (   0.0833333  -0.5292377   0.0000000), wk =   0.0138889
        k(   15) = (   0.0833333  -0.4330127   0.0000000), wk =   0.0138889
        k(   16) = (   0.0833333  -0.3367877   0.0000000), wk =   0.0138889
        k(   17) = (   0.0833333  -0.2405626   0.0000000), wk =   0.0138889
        k(   18) = (   0.0833333  -0.1443376   0.0000000), wk =   0.0138889
        k(   19) = (   0.0833333  -0.0481125   0.0000000), wk =   0.0138889
        k(   20) = (   0.1666667   0.0962250   0.0000000), wk =   0.0138889
        k(   21) = (   0.1666667   0.1924501   0.0000000), wk =   0.0138889
        k(   22) = (   0.1666667   0.2886751   0.0000000), wk =   0.0138889
        k(   23) = (   0.1666667   0.3849002   0.0000000), wk =   0.0138889
        k(   24) = (   0.1666667   0.4811252   0.0000000), wk =   0.0138889
        k(   25) = (   0.1666667   0.5773503   0.0000000), wk =   0.0138889
        k(   26) = (   0.1666667  -0.4811252   0.0000000), wk =   0.0138889
        k(   27) = (   0.1666667  -0.3849002   0.0000000), wk =   0.0138889
        k(   28) = (   0.1666667  -0.2886751   0.0000000), wk =   0.0138889
        k(   29) = (   0.1666667  -0.1924501   0.0000000), wk =   0.0138889
        k(   30) = (   0.1666667  -0.0962250   0.0000000), wk =   0.0138889
        k(   31) = (   0.1666667  -0.0000000   0.0000000), wk =   0.0138889
        k(   32) = (   0.2500000   0.1443376   0.0000000), wk =   0.0138889
        k(   33) = (   0.2500000   0.2405626   0.0000000), wk =   0.0138889
        k(   34) = (   0.2500000   0.3367877   0.0000000), wk =   0.0138889
        k(   35) = (   0.2500000   0.4330127   0.0000000), wk =   0.0138889
        k(   36) = (   0.2500000   0.5292377   0.0000000), wk =   0.0138889
        k(   37) = (   0.2500000   0.6254628   0.0000000), wk =   0.0138889
        k(   38) = (   0.2500000  -0.4330127   0.0000000), wk =   0.0138889
        k(   39) = (   0.2500000  -0.3367877   0.0000000), wk =   0.0138889
        k(   40) = (   0.2500000  -0.2405626   0.0000000), wk =   0.0138889
        k(   41) = (   0.2500000  -0.1443376   0.0000000), wk =   0.0138889
        k(   42) = (   0.2500000  -0.0481125   0.0000000), wk =   0.0138889
        k(   43) = (   0.2500000   0.0481125   0.0000000), wk =   0.0138889
        k(   44) = (   0.3333333   0.1924501   0.0000000), wk =   0.0138889
        k(   45) = (   0.3333333   0.2886751   0.0000000), wk =   0.0138889
        k(   46) = (   0.3333333   0.3849002   0.0000000), wk =   0.0138889
        k(   47) = (   0.3333333   0.4811252   0.0000000), wk =   0.0138889
        k(   48) = (   0.3333333   0.5773503   0.0000000), wk =   0.0138889
        k(   49) = (   0.3333333   0.6735753   0.0000000), wk =   0.0138889
        k(   50) = (   0.3333333  -0.3849002   0.0000000), wk =   0.0138889
        k(   51) = (   0.3333333  -0.2886751   0.0000000), wk =   0.0138889
        k(   52) = (   0.3333333  -0.1924501   0.0000000), wk =   0.0138889
        k(   53) = (   0.3333333  -0.0962250   0.0000000), wk =   0.0138889
        k(   54) = (   0.3333333  -0.0000000   0.0000000), wk =   0.0138889
        k(   55) = (   0.3333333   0.0962250   0.0000000), wk =   0.0138889
        k(   56) = (   0.4166667   0.2405626   0.0000000), wk =   0.0138889
        k(   57) = (   0.4166667   0.3367877   0.0000000), wk =   0.0138889
        k(   58) = (   0.4166667   0.4330127   0.0000000), wk =   0.0138889
        k(   59) = (   0.4166667   0.5292377   0.0000000), wk =   0.0138889
        k(   60) = (   0.4166667   0.6254628   0.0000000), wk =   0.0138889
        k(   61) = (   0.4166667   0.7216878   0.0000000), wk =   0.0138889
        k(   62) = (   0.4166667  -0.3367877   0.0000000), wk =   0.0138889
        k(   63) = (   0.4166667  -0.2405626   0.0000000), wk =   0.0138889
        k(   64) = (   0.4166667  -0.1443376   0.0000000), wk =   0.0138889
        k(   65) = (   0.4166667  -0.0481125   0.0000000), wk =   0.0138889
        k(   66) = (   0.4166667   0.0481125   0.0000000), wk =   0.0138889
        k(   67) = (   0.4166667   0.1443376   0.0000000), wk =   0.0138889
        k(   68) = (  -0.5000000  -0.2886751   0.0000000), wk =   0.0069444
        k(   69) = (  -0.5000000  -0.1924501   0.0000000), wk =   0.0138889
        k(   70) = (  -0.5000000  -0.0962250   0.0000000), wk =   0.0138889
        k(   71) = (  -0.5000000   0.0000000   0.0000000), wk =   0.0138889
        k(   72) = (  -0.5000000   0.0962250   0.0000000), wk =   0.0138889
        k(   73) = (  -0.5000000   0.1924501   0.0000000), wk =   0.0138889
        k(   74) = (  -0.5000000  -0.8660254   0.0000000), wk =   0.0069444

     Dense  grid:   166859 G-vectors     FFT dimensions: (  40,  40, 240)

     Smooth grid:    42343 G-vectors     FFT dimensions: (  25,  25, 160)

     Estimated max dynamical RAM per process >      40.42 MB

     Estimated total dynamical RAM >     808.50 MB

     Initial potential from superposition of free atoms

     starting charge       7.9999, renormalised to       8.0000

     negative rho (up, down):  2.223E-05 0.000E+00
 
     Adding external electric field

     Computed dipole along edir(3) : 
        Dipole               -0.0000 Ry au,         -0.0000 Debye
        Dipole field         -0.0000 Ry au, 
 
        E field amplitude [Ha a.u.]:  1.9447E-02
        Potential amp.        1.0474 Ry
        Total length         26.9286 bohr
 
     Starting wfcs are random
     Checking if some PAW data can be deallocated... 

     total cpu time spent up to now is        0.9 secs

     per-process dynamical memory:    53.7 Mb

     Self-consistent Calculation

     iteration #  1     ecut=    70.00 Ry     beta= 0.10
     Davidson diagonalization with overlap
     ethr =  1.00E-02,  avg # of iterations =  8.8

     negative rho (up, down):  2.098E-05 0.000E+00
 
     Adding external electric field

     Computed dipole along edir(3) : 
        Dipole                0.0244 Ry au,          0.0621 Debye
        Dipole field          0.0006 Ry au, 
 
        E field amplitude [Ha a.u.]:  1.9447E-02
        Potential amp.        1.0164 Ry
        Total length         26.9286 bohr
 

     total cpu time spent up to now is        8.4 secs

     total energy              =     -36.95458263 Ry
     estimated scf accuracy    <       0.20971427 Ry

     iteration #  2     ecut=    70.00 Ry     beta= 0.10
     Davidson diagonalization with overlap
     ethr =  2.62E-03,  avg # of iterations =  1.0

     negative rho (up, down):  2.546E-05 0.000E+00
 
     Adding external electric field

     Computed dipole along edir(3) : 
        Dipole                0.1523 Ry au,          0.3871 Debye
        Dipole field          0.0036 Ry au, 
 
        E field amplitude [Ha a.u.]:  1.9447E-02
        Potential amp.        0.8542 Ry
        Total length         26.9286 bohr
 

     total cpu time spent up to now is       10.1 secs

     total energy              =     -36.86389823 Ry
     estimated scf accuracy    <       0.15363689 Ry

     iteration #  3     ecut=    70.00 Ry     beta= 0.10
     Davidson diagonalization with overlap
     ethr =  1.92E-03,  avg # of iterations =  2.9

     negative rho (up, down):  2.540E-05 0.000E+00
 
     Adding external electric field

     Computed dipole along edir(3) : 
        Dipole                0.1166 Ry au,          0.2964 Debye
        Dipole field          0.0027 Ry au, 
 
        E field amplitude [Ha a.u.]:  1.9447E-02
        Potential amp.        0.8995 Ry
        Total length         26.9286 bohr
 

     total cpu time spent up to now is       12.3 secs

     total energy              =     -36.88915012 Ry
     estimated scf accuracy    <       0.00605126 Ry

     iteration #  4     ecut=    70.00 Ry     beta= 0.10
     Davidson diagonalization with overlap
     ethr =  7.56E-05,  avg # of iterations =  4.8

     negative rho (up, down):  2.757E-05 0.000E+00
 
     Adding external electric field

     Computed dipole along edir(3) : 
        Dipole                0.0842 Ry au,          0.2140 Debye
        Dipole field          0.0020 Ry au, 
 
        E field amplitude [Ha a.u.]:  1.9447E-02
        Potential amp.        0.9406 Ry
        Total length         26.9286 bohr
 

     total cpu time spent up to now is       15.0 secs

     total energy              =     -36.88926630 Ry
     estimated scf accuracy    <       0.00276200 Ry

     iteration #  5     ecut=    70.00 Ry     beta= 0.10
     Davidson diagonalization with overlap
     ethr =  3.45E-05,  avg # of iterations =  3.2

     negative rho (up, down):  2.564E-05 0.000E+00
 
     Adding external electric field

     Computed dipole along edir(3) : 
        Dipole                0.0980 Ry au,          0.2490 Debye
        Dipole field          0.0023 Ry au, 
 
        E field amplitude [Ha a.u.]:  1.9447E-02
        Potential amp.        0.9231 Ry
        Total length         26.9286 bohr
 

     total cpu time spent up to now is       17.3 secs

     total energy              =     -36.88950050 Ry
     estimated scf accuracy    <       0.00148266 Ry

     iteration #  6     ecut=    70.00 Ry     beta= 0.10
     Davidson diagonalization with overlap
     ethr =  1.85E-05,  avg # of iterations =  1.9

     negative rho (up, down):  2.932E-05 0.000E+00
 
     Adding external electric field

     Computed dipole along edir(3) : 
        Dipole                0.1098 Ry au,          0.2791 Debye
        Dipole field          0.0026 Ry au, 
 
        E field amplitude [Ha a.u.]:  1.9447E-02
        Potential amp.        0.9081 Ry
        Total length         26.9286 bohr
 

     total cpu time spent up to now is       19.1 secs

     total energy              =     -36.88951495 Ry
     estimated scf accuracy    <       0.00063464 Ry

     iteration #  7     ecut=    70.00 Ry     beta= 0.10
     Davidson diagonalization with overlap
     ethr =  7.93E-06,  avg # of iterations =  2.4

     negative rho (up, down):  3.051E-05 0.000E+00
 
     Adding external electric field

     Computed dipole along edir(3) : 
        Dipole                0.1113 Ry au,          0.2828 Debye
        Dipole field          0.0026 Ry au, 
 
        E field amplitude [Ha a.u.]:  1.9447E-02
        Potential amp.        0.9063 Ry
        Total length         26.9286 bohr
 

     total cpu time spent up to now is       21.0 secs

     total energy              =     -36.88952461 Ry
     estimated scf accuracy    <       0.00007192 Ry

     iteration #  8     ecut=    70.00 Ry     beta= 0.10
     Davidson diagonalization with overlap
     ethr =  8.99E-07,  avg # of iterations =  2.1

     negative rho (up, down):  3.288E-05 0.000E+00
 
     Adding external electric field

     Computed dipole along edir(3) : 
        Dipole                0.1142 Ry au,          0.2902 Debye
        Dipole field          0.0027 Ry au, 
 
        E field amplitude [Ha a.u.]:  1.9447E-02
        Potential amp.        0.9025 Ry
        Total length         26.9286 bohr
 

     total cpu time spent up to now is       22.9 secs

     total energy              =     -36.88951323 Ry
     estimated scf accuracy    <       0.00003577 Ry

     iteration #  9     ecut=    70.00 Ry     beta= 0.10
     Davidson diagonalization with overlap
     ethr =  4.47E-07,  avg # of iterations =  2.4

     negative rho (up, down):  3.260E-05 0.000E+00
 
     Adding external electric field

     Computed dipole along edir(3) : 
        Dipole                0.1154 Ry au,          0.2933 Debye
        Dipole field          0.0027 Ry au, 
 
        E field amplitude [Ha a.u.]:  1.9447E-02
        Potential amp.        0.9010 Ry
        Total length         26.9286 bohr
 

     total cpu time spent up to now is       24.9 secs

     total energy              =     -36.88951755 Ry
     estimated scf accuracy    <       0.00000173 Ry

     iteration # 10     ecut=    70.00 Ry     beta= 0.10
     Davidson diagonalization with overlap
     ethr =  2.16E-08,  avg # of iterations =  2.2

     negative rho (up, down):  3.282E-05 0.000E+00
 
     Adding external electric field

     Computed dipole along edir(3) : 
        Dipole                0.1146 Ry au,          0.2912 Debye
        Dipole field          0.0027 Ry au, 
 
        E field amplitude [Ha a.u.]:  1.9447E-02
        Potential amp.        0.9021 Ry
        Total length         26.9286 bohr
 

     total cpu time spent up to now is       26.9 secs

     total energy              =     -36.88951814 Ry
     estimated scf accuracy    <       0.00000077 Ry

     iteration # 11     ecut=    70.00 Ry     beta= 0.10
     Davidson diagonalization with overlap
     ethr =  9.58E-09,  avg # of iterations =  2.0

     negative rho (up, down):  3.305E-05 0.000E+00
 
     Adding external electric field

     Computed dipole along edir(3) : 
        Dipole                0.1149 Ry au,          0.2920 Debye
        Dipole field          0.0027 Ry au, 
 
        E field amplitude [Ha a.u.]:  1.9447E-02
        Potential amp.        0.9017 Ry
        Total length         26.9286 bohr
 

     total cpu time spent up to now is       28.9 secs

     total energy              =     -36.88951830 Ry
     estimated scf accuracy    <       0.00000011 Ry

     iteration # 12     ecut=    70.00 Ry     beta= 0.10
     Davidson diagonalization with overlap
     ethr =  1.39E-09,  avg # of iterations =  2.0

     negative rho (up, down):  3.320E-05 0.000E+00
 
     Adding external electric field

     Computed dipole along edir(3) : 
        Dipole                0.1148 Ry au,          0.2919 Debye
        Dipole field          0.0027 Ry au, 
 
        E field amplitude [Ha a.u.]:  1.9447E-02
        Potential amp.        0.9017 Ry
        Total length         26.9286 bohr
 

     total cpu time spent up to now is       30.8 secs

     total energy              =     -36.88951834 Ry
     estimated scf accuracy    <       0.00000001 Ry

     iteration # 13     ecut=    70.00 Ry     beta= 0.10
     Davidson diagonalization with overlap
     ethr =  1.37E-10,  avg # of iterations =  1.0

     negative rho (up, down):  3.473E-05 0.000E+00
 
     Adding external electric field

     Computed dipole along edir(3) : 
        Dipole                0.1148 Ry au,          0.2918 Debye
        Dipole field          0.0027 Ry au, 
 
        E field amplitude [Ha a.u.]:  1.9447E-02
        Potential amp.        0.9018 Ry
        Total length         26.9286 bohr
 

     total cpu time spent up to now is       32.5 secs

     End of self-consistent calculation

          k = 0.0000 0.0000 0.0000 (  5307 PWs)   bands (ev):

   -20.9431 -20.9431  -9.0407  -9.0407  -4.4866  -4.4866  -4.4774  -4.4774
    -1.1556  -1.1556   0.7852   0.7852   3.0899   3.0899   4.3992   4.3992

          k = 0.0000 0.0962 0.0000 (  5285 PWs)   bands (ev):

   -20.7794 -20.7794  -8.8450  -8.8450  -5.1326  -5.1326  -4.8199  -4.8199
    -0.9269  -0.9269   1.0105   1.0105   3.3115   3.3115   4.6189   4.6190

          k = 0.0000 0.1925 0.0000 (  5253 PWs)   bands (ev):

   -20.2899 -20.2898  -8.2630  -8.2629  -6.7698  -6.7698  -5.6114  -5.6114
    -0.2410  -0.2410   1.6860   1.6861   3.9764   3.9764   5.2745   5.2747

          k = 0.0000 0.2887 0.0000 (  5269 PWs)   bands (ev):

   -19.4804 -19.4804  -8.8673  -8.8673  -7.3138  -7.3138  -6.4903  -6.4903
     0.9021   0.9021   2.8087   2.8088   5.0798   5.0799   5.7664   5.7666

          k = 0.0000 0.3849 0.0000 (  5285 PWs)   bands (ev):

   -18.3631 -18.3631 -11.0690 -11.0690  -7.2231  -7.2231  -6.0479  -6.0478
     2.5009   2.5010   3.4656   3.4658   4.4076   4.4078   6.2291   6.2292

          k = 0.0000 0.4811 0.0000 (  5290 PWs)   bands (ev):

   -16.9695 -16.9694 -13.1669 -13.1669  -7.6956  -7.6956  -4.6278  -4.6278
     1.3446   1.3447   4.5608   4.5608   6.0214   6.0215   6.4133   6.4135

          k = 0.0000-0.5774 0.0000 (  5288 PWs)   bands (ev):

   -15.7108 -15.7108 -14.6682 -14.6682  -7.8579  -7.8579  -3.7849  -3.7849
     0.2499   0.2499   5.9442   5.9442   7.0718   7.0718   7.0766   7.0766

          k = 0.0833 0.0481 0.0000 (  5285 PWs)   bands (ev):

   -20.7794 -20.7794  -8.8450  -8.8450  -5.1326  -5.1326  -4.8199  -4.8199
    -0.9269  -0.9269   1.0105   1.0105   3.3115   3.3115   4.6189   4.6190

          k = 0.0833 0.1443 0.0000 (  5269 PWs)   bands (ev):

   -20.4527 -20.4527  -8.4560  -8.4560  -6.1663  -6.1663  -5.4964  -5.4964
    -0.4696  -0.4696   1.4610   1.4611   3.7552   3.7552   5.0573   5.0575

          k = 0.0833 0.2406 0.0000 (  5261 PWs)   bands (ev):

   -19.8033 -19.8032  -7.8757  -7.8756  -7.6892  -7.6891  -6.4934  -6.4934
     0.4449   0.4449   2.3608   2.3609   4.6420   4.6420   5.9209   5.9211

          k = 0.0833 0.3368 0.0000 (  5275 PWs)   bands (ev):

   -18.8397 -18.8397  -9.9474  -9.9473  -7.3791  -7.3791  -6.5752  -6.5752
     1.8164   1.8164   3.6973   3.6975   4.5135   4.5137   5.9629   5.9629

          k = 0.0833 0.4330 0.0000 (  5284 PWs)   bands (ev):

   -17.5811 -17.5811 -12.0683 -12.0682  -8.0135  -8.0135  -5.1981  -5.1981
     2.2885   2.2886   3.6467   3.6467   5.5069   5.5071   6.8383   6.8384

          k = 0.0833 0.5292 0.0000 (  5302 PWs)   bands (ev):

   -16.1047 -16.1046 -14.0066 -14.0065  -8.3417  -8.3417  -3.8914  -3.8913
     0.5254   0.5255   5.9313   5.9313   6.6820   6.6820   7.7296   7.7299

          k = 0.0833-0.5292 0.0000 (  5302 PWs)   bands (ev):

   -16.1047 -16.1046 -14.0066 -14.0065  -8.3417  -8.3417  -3.8914  -3.8913
     0.5254   0.5255   5.9313   5.9313   6.6820   6.6820   7.7296   7.7299

          k = 0.0833-0.4330 0.0000 (  5284 PWs)   bands (ev):

   -17.5811 -17.5811 -12.0683 -12.0682  -8.0135  -8.0135  -5.1981  -5.1981
     2.2885   2.2886   3.6467   3.6467   5.5069   5.5071   6.8383   6.8384

          k = 0.0833-0.3368 0.0000 (  5275 PWs)   bands (ev):

   -18.8397 -18.8397  -9.9474  -9.9473  -7.3791  -7.3791  -6.5752  -6.5752
     1.8164   1.8164   3.6973   3.6975   4.5135   4.5137   5.9629   5.9629

          k = 0.0833-0.2406 0.0000 (  5261 PWs)   bands (ev):

   -19.8033 -19.8032  -7.8757  -7.8756  -7.6892  -7.6891  -6.4934  -6.4934
     0.4449   0.4449   2.3608   2.3609   4.6420   4.6420   5.9208   5.9210

          k = 0.0833-0.1443 0.0000 (  5269 PWs)   bands (ev):

   -20.4527 -20.4527  -8.4560  -8.4560  -6.1663  -6.1663  -5.4964  -5.4964
    -0.4696  -0.4696   1.4610   1.4611   3.7552   3.7552   5.0573   5.0575

          k = 0.0833-0.0481 0.0000 (  5285 PWs)   bands (ev):

   -20.7794 -20.7794  -8.8450  -8.8450  -5.1326  -5.1326  -4.8199  -4.8199
    -0.9269  -0.9269   1.0105   1.0105   3.3115   3.3115   4.6189   4.6190

          k = 0.1667 0.0962 0.0000 (  5253 PWs)   bands (ev):

   -20.2899 -20.2898  -8.2630  -8.2629  -6.7698  -6.7698  -5.6114  -5.6114
    -0.2410  -0.2410   1.6860   1.6861   3.9764   3.9764   5.2745   5.2747

          k = 0.1667 0.1925 0.0000 (  5261 PWs)   bands (ev):

   -19.8033 -19.8032  -7.8757  -7.8756  -7.6892  -7.6891  -6.4934  -6.4934
     0.4449   0.4449   2.3608   2.3609   4.6420   4.6420   5.9208   5.9210

          k = 0.1667 0.2887 0.0000 (  5288 PWs)   bands (ev):

   -18.9997 -18.9997  -9.2063  -9.2062  -7.8536  -7.8536  -6.7536  -6.7536
     1.5879   1.5879   3.4832   3.4833   4.9411   4.9413   5.7501   5.7501

          k = 0.1667 0.3849 0.0000 (  5285 PWs)   bands (ev):

   -17.8933 -17.8933 -10.9322 -10.9322  -8.9092  -8.9092  -5.5029  -5.5028
     2.9962   2.9964   3.1893   3.1894   5.0486   5.0488   7.2890   7.2890

          k = 0.1667 0.4811 0.0000 (  5283 PWs)   bands (ev):

   -16.5196 -16.5195 -12.8404 -12.8404  -9.4851  -9.4851  -4.0788  -4.0787
     1.0897   1.0898   5.2446   5.2447   7.0389   7.0392   8.5616   8.5618

          k = 0.1667 0.5774 0.0000 (  5264 PWs)   bands (ev):

   -15.2897 -15.2897 -14.2706 -14.2706  -9.6700  -9.6699  -3.1878  -3.1877
     0.0240   0.0240   7.7544   7.7544   7.7569   7.7569   8.4869   8.4869

          k = 0.1667-0.4811 0.0000 (  5283 PWs)   bands (ev):

   -16.5196 -16.5195 -12.8404 -12.8404  -9.4851  -9.4851  -4.0788  -4.0787
     1.0897   1.0898   5.2446   5.2447   7.0389   7.0392   8.5616   8.5618

          k = 0.1667-0.3849 0.0000 (  5285 PWs)   bands (ev):

   -17.8933 -17.8933 -10.9322 -10.9322  -8.9092  -8.9092  -5.5029  -5.5028
     2.9962   2.9964   3.1893   3.1894   5.0486   5.0488   7.2890   7.2890

          k = 0.1667-0.2887 0.0000 (  5288 PWs)   bands (ev):

   -18.9997 -18.9997  -9.2063  -9.2062  -7.8536  -7.8536  -6.7536  -6.7536
     1.5879   1.5879   3.4832   3.4833   4.9411   4.9413   5.7501   5.7501

          k = 0.1667-0.1925 0.0000 (  5261 PWs)   bands (ev):

   -19.8033 -19.8032  -7.8757  -7.8756  -7.6892  -7.6891  -6.4934  -6.4934
     0.4449   0.4449   2.3608   2.3609   4.6420   4.6420   5.9208   5.9210

          k = 0.1667-0.0962 0.0000 (  5253 PWs)   bands (ev):

   -20.2899 -20.2898  -8.2630  -8.2629  -6.7698  -6.7698  -5.6114  -5.6114
    -0.2410  -0.2410   1.6860   1.6861   3.9764   3.9764   5.2744   5.2747

          k = 0.1667-0.0000 0.0000 (  5269 PWs)   bands (ev):

   -20.4527 -20.4527  -8.4560  -8.4560  -6.1663  -6.1663  -5.4964  -5.4964
    -0.4696  -0.4696   1.4610   1.4611   3.7552   3.7552   5.0573   5.0575

          k = 0.2500 0.1443 0.0000 (  5269 PWs)   bands (ev):

   -19.4804 -19.4804  -8.8673  -8.8673  -7.3138  -7.3138  -6.4903  -6.4903
     0.9021   0.9021   2.8087   2.8088   5.0798   5.0799   5.7664   5.7666

          k = 0.2500 0.2406 0.0000 (  5275 PWs)   bands (ev):

   -18.8397 -18.8397  -9.9474  -9.9473  -7.3791  -7.3791  -6.5752  -6.5752
     1.8164   1.8164   3.6973   3.6975   4.5135   4.5137   5.9629   5.9629

          k = 0.2500 0.3368 0.0000 (  5285 PWs)   bands (ev):

   -17.8933 -17.8933 -10.9322 -10.9322  -8.9092  -8.9092  -5.5029  -5.5028
     2.9962   2.9964   3.1893   3.1894   5.0486   5.0488   7.2890   7.2890

          k = 0.2500 0.4330 0.0000 (  5268 PWs)   bands (ev):

   -16.6669 -16.6668 -11.9684 -11.9684 -10.3895 -10.3895  -4.1626  -4.1625
     1.3870   1.3872   5.0153   5.0153   6.8022   6.8025   9.0257   9.0257

          k = 0.2500 0.5292 0.0000 (  5282 PWs)   bands (ev):

   -15.2474 -15.2473 -13.3871 -13.3871 -11.0968 -11.0967  -2.7794  -2.7794
    -0.1302  -0.1301   7.2956   7.2956   8.8015   8.8019   9.8325   9.8330

          k = 0.2500 0.6255 0.0000 (  5282 PWs)   bands (ev):

   -15.2474 -15.2473 -13.3871 -13.3871 -11.0968 -11.0967  -2.7794  -2.7794
    -0.1302  -0.1301   7.2956   7.2956   8.8015   8.8019   9.8325   9.8330

          k = 0.2500-0.4330 0.0000 (  5268 PWs)   bands (ev):

   -16.6669 -16.6668 -11.9684 -11.9684 -10.3895 -10.3895  -4.1626  -4.1625
     1.3870   1.3872   5.0153   5.0153   6.8022   6.8025   9.0257   9.0257

          k = 0.2500-0.3368 0.0000 (  5285 PWs)   bands (ev):

   -17.8933 -17.8933 -10.9322 -10.9322  -8.9092  -8.9092  -5.5029  -5.5028
     2.9962   2.9964   3.1893   3.1894   5.0486   5.0488   7.2890   7.2890

          k = 0.2500-0.2406 0.0000 (  5275 PWs)   bands (ev):

   -18.8397 -18.8397  -9.9474  -9.9473  -7.3791  -7.3791  -6.5752  -6.5752
     1.8164   1.8164   3.6973   3.6975   4.5135   4.5137   5.9629   5.9629

          k = 0.2500-0.1443 0.0000 (  5269 PWs)   bands (ev):

   -19.4804 -19.4804  -8.8673  -8.8673  -7.3138  -7.3138  -6.4903  -6.4903
     0.9021   0.9021   2.8087   2.8088   5.0798   5.0799   5.7664   5.7666

          k = 0.2500-0.0481 0.0000 (  5261 PWs)   bands (ev):

   -19.8033 -19.8032  -7.8757  -7.8756  -7.6892  -7.6891  -6.4934  -6.4934
     0.4449   0.4449   2.3608   2.3609   4.6420   4.6420   5.9209   5.9211

          k = 0.2500 0.0481 0.0000 (  5261 PWs)   bands (ev):

   -19.8033 -19.8032  -7.8757  -7.8756  -7.6892  -7.6891  -6.4934  -6.4934
     0.4449   0.4449   2.3608   2.3609   4.6420   4.6420   5.9209   5.9211

          k = 0.3333 0.1925 0.0000 (  5285 PWs)   bands (ev):

   -18.3631 -18.3631 -11.0690 -11.0690  -7.2231  -7.2231  -6.0479  -6.0478
     2.5009   2.5010   3.4656   3.4658   4.4076   4.4078   6.2291   6.2292

          k = 0.3333 0.2887 0.0000 (  5284 PWs)   bands (ev):

   -17.5811 -17.5811 -12.0683 -12.0682  -8.0135  -8.0135  -5.1981  -5.1981
     2.2885   2.2886   3.6467   3.6467   5.5069   5.5071   6.8383   6.8384

          k = 0.3333 0.3849 0.0000 (  5283 PWs)   bands (ev):

   -16.5196 -16.5195 -12.8404 -12.8404  -9.4851  -9.4851  -4.0788  -4.0787
     1.0897   1.0898   5.2446   5.2447   7.0389   7.0392   8.5617   8.5618

          k = 0.3333 0.4811 0.0000 (  5282 PWs)   bands (ev):

   -15.2474 -15.2473 -13.3871 -13.3871 -11.0968 -11.0967  -2.7794  -2.7794
    -0.1302  -0.1301   7.2956   7.2956   8.8015   8.8019   9.8325   9.8328

          k = 0.3333 0.5774 0.0000 (  5292 PWs)   bands (ev):

   -14.0335 -14.0334 -14.0314 -14.0313 -11.9879 -11.9879  -1.4259  -1.4259
    -1.4258  -1.4257   9.0286   9.0286   9.8081   9.8082   9.8087   9.8091

          k = 0.3333 0.6736 0.0000 (  5282 PWs)   bands (ev):

   -15.2474 -15.2473 -13.3871 -13.3871 -11.0968 -11.0967  -2.7794  -2.7794
    -0.1302  -0.1301   7.2956   7.2956   8.8015   8.8019   9.8325   9.8328

          k = 0.3333-0.3849 0.0000 (  5283 PWs)   bands (ev):

   -16.5196 -16.5195 -12.8404 -12.8404  -9.4851  -9.4851  -4.0788  -4.0787
     1.0897   1.0898   5.2446   5.2447   7.0389   7.0392   8.5616   8.5618

          k = 0.3333-0.2887 0.0000 (  5284 PWs)   bands (ev):

   -17.5811 -17.5811 -12.0683 -12.0682  -8.0135  -8.0135  -5.1981  -5.1981
     2.2885   2.2886   3.6467   3.6467   5.5069   5.5071   6.8383   6.8385

          k = 0.3333-0.1925 0.0000 (  5285 PWs)   bands (ev):

   -18.3631 -18.3631 -11.0690 -11.0690  -7.2231  -7.2231  -6.0479  -6.0478
     2.5009   2.5010   3.4656   3.4658   4.4076   4.4078   6.2291   6.2292

          k = 0.3333-0.0962 0.0000 (  5275 PWs)   bands (ev):

   -18.8397 -18.8397  -9.9474  -9.9473  -7.3791  -7.3791  -6.5752  -6.5752
     1.8164   1.8164   3.6973   3.6975   4.5135   4.5137   5.9629   5.9629

          k = 0.3333-0.0000 0.0000 (  5288 PWs)   bands (ev):

   -18.9997 -18.9997  -9.2063  -9.2062  -7.8536  -7.8536  -6.7536  -6.7536
     1.5879   1.5879   3.4832   3.4833   4.9411   4.9412   5.7501   5.7501

          k = 0.3333 0.0962 0.0000 (  5275 PWs)   bands (ev):

   -18.8397 -18.8397  -9.9474  -9.9473  -7.3791  -7.3791  -6.5752  -6.5752
     1.8164   1.8164   3.6973   3.6975   4.5135   4.5137   5.9629   5.9629

          k = 0.4167 0.2406 0.0000 (  5290 PWs)   bands (ev):

   -16.9695 -16.9694 -13.1669 -13.1669  -7.6956  -7.6956  -4.6278  -4.6278
     1.3446   1.3447   4.5608   4.5608   6.0214   6.0215   6.4133   6.4135

          k = 0.4167 0.3368 0.0000 (  5302 PWs)   bands (ev):

   -16.1047 -16.1046 -14.0066 -14.0065  -8.3417  -8.3417  -3.8914  -3.8913
     0.5254   0.5255   5.9313   5.9313   6.6820   6.6820   7.7296   7.7299

          k = 0.4167 0.4330 0.0000 (  5264 PWs)   bands (ev):

   -15.2897 -15.2897 -14.2706 -14.2706  -9.6700  -9.6699  -3.1877  -3.1877
     0.0240   0.0240   7.7544   7.7544   7.7569   7.7569   8.4869   8.4869

          k = 0.4167 0.5292 0.0000 (  5282 PWs)   bands (ev):

   -15.2474 -15.2473 -13.3871 -13.3871 -11.0968 -11.0967  -2.7794  -2.7794
    -0.1302  -0.1301   7.2956   7.2956   8.8015   8.8019   9.8324   9.8328

          k = 0.4167 0.6255 0.0000 (  5282 PWs)   bands (ev):

   -15.2474 -15.2473 -13.3871 -13.3871 -11.0968 -11.0967  -2.7794  -2.7794
    -0.1302  -0.1301   7.2956   7.2956   8.8015   8.8019   9.8325   9.8329

          k = 0.4167 0.7217 0.0000 (  5264 PWs)   bands (ev):

   -15.2897 -15.2897 -14.2706 -14.2706  -9.6700  -9.6699  -3.1877  -3.1877
     0.0240   0.0240   7.7544   7.7544   7.7569   7.7569   8.4869   8.4869

          k = 0.4167-0.3368 0.0000 (  5302 PWs)   bands (ev):

   -16.1047 -16.1046 -14.0066 -14.0065  -8.3417  -8.3417  -3.8914  -3.8913
     0.5254   0.5255   5.9313   5.9313   6.6820   6.6820   7.7296   7.7299

          k = 0.4167-0.2406 0.0000 (  5290 PWs)   bands (ev):

   -16.9695 -16.9694 -13.1669 -13.1669  -7.6956  -7.6956  -4.6278  -4.6278
     1.3446   1.3447   4.5608   4.5608   6.0214   6.0215   6.4133   6.4135

          k = 0.4167-0.1443 0.0000 (  5284 PWs)   bands (ev):

   -17.5811 -17.5811 -12.0683 -12.0682  -8.0135  -8.0135  -5.1981  -5.1981
     2.2885   2.2886   3.6467   3.6467   5.5069   5.5071   6.8383   6.8384

          k = 0.4167-0.0481 0.0000 (  5285 PWs)   bands (ev):

   -17.8933 -17.8933 -10.9322 -10.9322  -8.9092  -8.9092  -5.5029  -5.5028
     2.9962   2.9964   3.1893   3.1894   5.0486   5.0488   7.2890   7.2890

          k = 0.4167 0.0481 0.0000 (  5285 PWs)   bands (ev):

   -17.8933 -17.8933 -10.9322 -10.9322  -8.9092  -8.9092  -5.5029  -5.5028
     2.9962   2.9964   3.1893   3.1894   5.0486   5.0488   7.2890   7.2890

          k = 0.4167 0.1443 0.0000 (  5284 PWs)   bands (ev):

   -17.5811 -17.5811 -12.0683 -12.0682  -8.0135  -8.0135  -5.1981  -5.1981
     2.2885   2.2886   3.6467   3.6467   5.5069   5.5071   6.8383   6.8384

          k =-0.5000-0.2887 0.0000 (  5288 PWs)   bands (ev):

   -15.7108 -15.7108 -14.6682 -14.6682  -7.8579  -7.8579  -3.7849  -3.7849
     0.2499   0.2499   5.9442   5.9442   7.0718   7.0718   7.0766   7.0766

          k =-0.5000-0.1925 0.0000 (  5302 PWs)   bands (ev):

   -16.1047 -16.1046 -14.0066 -14.0065  -8.3417  -8.3417  -3.8914  -3.8913
     0.5254   0.5255   5.9313   5.9313   6.6820   6.6820   7.7296   7.7299

          k =-0.5000-0.0962 0.0000 (  5283 PWs)   bands (ev):

   -16.5196 -16.5195 -12.8404 -12.8404  -9.4851  -9.4851  -4.0788  -4.0787
     1.0897   1.0898   5.2446   5.2447   7.0389   7.0392   8.5616   8.5618

          k =-0.5000 0.0000 0.0000 (  5268 PWs)   bands (ev):

   -16.6669 -16.6668 -11.9684 -11.9684 -10.3895 -10.3895  -4.1626  -4.1625
     1.3870   1.3872   5.0153   5.0153   6.8022   6.8025   9.0257   9.0257

          k =-0.5000 0.0962 0.0000 (  5283 PWs)   bands (ev):

   -16.5196 -16.5195 -12.8404 -12.8404  -9.4851  -9.4851  -4.0788  -4.0787
     1.0897   1.0898   5.2446   5.2447   7.0389   7.0392   8.5617   8.5618

          k =-0.5000 0.1925 0.0000 (  5302 PWs)   bands (ev):

   -16.1047 -16.1046 -14.0066 -14.0065  -8.3417  -8.3417  -3.8914  -3.8913
     0.5254   0.5255   5.9313   5.9313   6.6820   6.6820   7.7296   7.7299

          k =-0.5000-0.8660 0.0000 (  5288 PWs)   bands (ev):

   -15.7108 -15.7108 -14.6682 -14.6682  -7.8579  -7.8579  -3.7849  -3.7849
     0.2499   0.2499   5.9442   5.9442   7.0718   7.0718   7.0766   7.0766

     the Fermi energy is    -1.42583671 ev

!    total energy              =     -36.88951835 Ry
     total all-electron energy =      -152.417791 Ry
     estimated scf accuracy    <          2.2E-09 Ry
     smearing contrib. (-TS)   =      -0.00003134 Ry
     internal energy E=F+TS    =     -36.88948701 Ry

     The total energy is F=E-TS. E is the sum of the following terms:
     one-electron contribution =    -156.60387716 Ry
     hartree contribution      =      79.91433559 Ry
     xc contribution           =      -9.27120270 Ry
     ewald contribution        =      61.40972547 Ry
     electric field correction =      -0.00415443 Ry
     one-center paw contrib.   =     -12.33431378 Ry

     convergence has been achieved in  13 iterations

     negative rho (up, down):  3.473E-05 0.000E+00

     Forces acting on atoms (cartesian axes, Ry/au):

     atom    1 type  1   force =     0.00000000    0.00000028    0.00000033
     atom    2 type  1   force =    -0.00000000   -0.00000028   -0.00000033

     Total force =     0.000001     Total SCF correction =     0.000142
     SCF correction compared to forces is large: reduce conv_thr to get better values

     Writing all to output data dir ../tmp/graphene.save/ :
     XML data file, charge density, pseudopotentials, collected wavefunctions
 
     init_run     :      0.70s CPU      0.77s WALL (       1 calls)
     electrons    :     30.38s CPU     31.71s WALL (       1 calls)
     forces       :      0.11s CPU      0.11s WALL (       1 calls)

     Called by init_run:
     wfcinit      :      0.61s CPU      0.65s WALL (       1 calls)
     potinit      :      0.03s CPU      0.04s WALL (       1 calls)
     hinit0       :      0.02s CPU      0.02s WALL (       1 calls)

     Called by electrons:
     c_bands      :     25.67s CPU     26.73s WALL (      13 calls)
     sum_band     :      4.06s CPU      4.24s WALL (      13 calls)
     v_of_rho     :      0.15s CPU      0.17s WALL (      14 calls)
     newd         :      0.24s CPU      0.25s WALL (      14 calls)
     PAW_pot      :      0.15s CPU      0.15s WALL (      14 calls)
     mix_rho      :      0.09s CPU      0.09s WALL (      13 calls)

     Called by c_bands:
     init_us_2    :      0.18s CPU      0.19s WALL (    2072 calls)
     cegterg      :     24.91s CPU     25.91s WALL (     962 calls)

     Called by *egterg:
     cdiaghg      :      3.53s CPU      3.60s WALL (    3694 calls)
     h_psi        :     18.94s CPU     19.82s WALL (    3768 calls)
     s_psi        :      0.43s CPU      0.45s WALL (    3768 calls)
     g_psi        :      0.07s CPU      0.07s WALL (    2732 calls)

     Called by h_psi:
     h_psi:calbec :      0.53s CPU      0.56s WALL (    3768 calls)
     vloc_psi     :     17.81s CPU     18.63s WALL (    3768 calls)
     add_vuspsi   :      0.44s CPU      0.46s WALL (    3768 calls)

     General routines
     calbec       :      0.69s CPU      0.72s WALL (    5026 calls)
     fft          :      0.17s CPU      0.18s WALL (     347 calls)
     ffts         :      0.01s CPU      0.01s WALL (     108 calls)
     fftw         :     15.54s CPU     16.25s WALL (  201892 calls)
     interpolate  :      0.03s CPU      0.03s WALL (      56 calls)
 
     Parallel routines
 
     PWSCF        :     31.51s CPU     35.69s WALL

 
   This run was terminated on:   2:25:47  29Jan2026            

=------------------------------------------------------------------------------=
   JOB DONE.
=------------------------------------------------------------------------------=
