
     Program PWSCF v.7.4.1 starts on 18Nov2025 at 12:28:52 

     This program is part of the open-source Quantum ESPRESSO suite
     for quantum simulation of materials; please cite
         "P. Giannozzi et al., J. Phys.:Condens. Matter 21 395502 (2009);
         "P. Giannozzi et al., J. Phys.:Condens. Matter 29 465901 (2017);
         "P. Giannozzi et al., J. Chem. Phys. 152 154105 (2020);
          URL http://www.quantum-espresso.org", 
     in publications or presentations arising from this work. More details at
     http://www.quantum-espresso.org/quote

     Parallel version (MPI), running on     6 processors

     MPI processes distributed on     1 nodes
     122969 MiB available memory on the printing compute node when the environment starts
 
     Reading input from 1-agnr_scf.in

     Current dimensions of program PWSCF are:
     Max number of different atomic species (ntypx) = 10
     Max number of k-points (npk) =  40000
     Max angular momentum in pseudopotentials (lmaxx) =  4
     file C.pbe-n-kjpaw_psl.1.0.0.UPF: wavefunction(s)  2S 2P renormalized
     file H.pbe-kjpaw_psl.1.0.0.UPF: wavefunction(s)  1S renormalized
 
     R & G space division:  proc/nbgrp/npool/nimage =       6
     Subspace diagonalization in iterative solution of the eigenvalue problem:
     a serial algorithm will be used

 
     Parallelization info
     --------------------
     sticks:   dense  smooth     PW     G-vecs:    dense   smooth      PW
     Min        4722    1890    519              1506646   381314   54615
     Max        4723    1891    520              1506653   381321   54622
     Sum       28333   11345   3117              9039883  2287895  327715
 
     Using Slab Decomposition
 


     bravais-lattice index     =            0
     lattice parameter (alat)  =       8.0993  a.u.
     unit-cell volume          =   28908.8086 (a.u.)^3
     number of atoms/cell      =            8
     number of atomic types    =            2
     number of electrons       =        20.00
     number of Kohn-Sham states=           14
     kinetic-energy cutoff     =      70.0000  Ry
     charge density cutoff     =     700.0000  Ry
     scf convergence threshold =      1.0E-08
     mixing beta               =       0.5000
     number of iterations used =            8  plain     mixing
     Exchange-correlation= SLA  PW   PBX  PBC
                           (   1   4   3   4   0   0   0)

     celldm(1)=   8.099301  celldm(2)=   0.000000  celldm(3)=   0.000000
     celldm(4)=   0.000000  celldm(5)=   0.000000  celldm(6)=   0.000000

     crystal axes: (cart. coord. in units of alat)
               a(1) = (   0.000000   0.000000   1.000000 )  
               a(2) = (   7.750657   0.000000   0.000000 )  
               a(3) = (   0.000000   7.020193   0.000000 )  

     reciprocal axes: (cart. coord. in units 2 pi/alat)
               b(1) = (  0.000000  0.000000  1.000000 )  
               b(2) = (  0.129021  0.000000  0.000000 )  
               b(3) = (  0.000000  0.142446  0.000000 )  


     PseudoPot. # 1 for C  read from file:
     ../../../../pseudos/C.pbe-n-kjpaw_psl.1.0.0.UPF
     MD5 check sum: 5f16ad9a65e90284d1d834d4ab3b0f7d
     Pseudo is Projector augmented-wave + core cor, Zval =  4.0
     Generated using &quot;atomic&quot; code by A. Dal Corso  v.6.3
     Shape of augmentation charge: PSQ
     Using radial grid of 1073 points,  4 beta functions with: 
                l(1) =   0
                l(2) =   0
                l(3) =   1
                l(4) =   1
     Q(r) pseudized with 0 coefficients 


     PseudoPot. # 2 for H  read from file:
     ../../../../pseudos/H.pbe-kjpaw_psl.1.0.0.UPF
     MD5 check sum: d81a744832360e4a8af0b0b5b123bc2a
     Pseudo is Projector augmented-wave, Zval =  1.0
     Generated using &quot;atomic&quot; code by A. Dal Corso  v.6.3MaX
     Shape of augmentation charge: PSQ
     Using radial grid of  929 points,  2 beta functions with: 
                l(1) =   0
                l(2) =   0
     Q(r) pseudized with 0 coefficients 


     atomic species   valence    mass     pseudopotential
     C                 4.00    12.01100     C ( 1.00)
     H                 1.00     1.00790     H ( 1.00)

     No symmetry found


                                    s                        frac. trans.

      isym =  1     identity                                     

 cryst.   s( 1) = (     1          0          0      )
                  (     0          1          0      )
                  (     0          0          1      )

 cart.    s( 1) = (  1.0000000  0.0000000  0.0000000 )
                  (  0.0000000  1.0000000  0.0000000 )
                  (  0.0000000  0.0000000  1.0000000 )


   Cartesian axes

     site n.     atom                  positions (alat units)
         1        C      tau(   1) = (   3.7200410   3.4997948   0.0000000  )
         2        C      tau(   2) = (   4.0078689   3.4997948   0.1661775  )
         3        C      tau(   3) = (   4.0078689   3.4997948   0.4985326  )
         4        C      tau(   4) = (   3.7200410   3.4997948   0.6647101  )
         5        H      tau(   5) = (   3.4997948   3.4997948   0.1271592  )
         6        H      tau(   6) = (   3.4997948   3.4997948   0.5375509  )
         7        H      tau(   7) = (   4.2281151   3.4997948   0.0390183  )
         8        H      tau(   8) = (   4.2281151   3.4997948   0.6256918  )

   Crystallographic axes

     site n.     atom                  positions (cryst. coord.)
         1        C      tau(   1) = (  0.0000000  0.4799646  0.4985326  )
         2        C      tau(   2) = (  0.1661775  0.5171005  0.4985326  )
         3        C      tau(   3) = (  0.4985326  0.5171005  0.4985326  )
         4        C      tau(   4) = (  0.6647101  0.4799646  0.4985326  )
         5        H      tau(   5) = (  0.1271592  0.4515481  0.4985326  )
         6        H      tau(   6) = (  0.5375509  0.4515481  0.4985326  )
         7        H      tau(   7) = (  0.0390183  0.5455170  0.4985326  )
         8        H      tau(   8) = (  0.6256918  0.5455170  0.4985326  )

     number of k points=     7  Gaussian smearing, width (Ry)=  0.0020
                       cart. coord. in units 2pi/alat
        k(    1) = (   0.0000000   0.0000000   0.0000000), wk =   0.1666667
        k(    2) = (   0.0000000   0.0000000   0.0833333), wk =   0.3333333
        k(    3) = (   0.0000000   0.0000000   0.1666667), wk =   0.3333333
        k(    4) = (   0.0000000   0.0000000   0.2500000), wk =   0.3333333
        k(    5) = (   0.0000000   0.0000000   0.3333333), wk =   0.3333333
        k(    6) = (   0.0000000   0.0000000   0.4166667), wk =   0.3333333
        k(    7) = (   0.0000000   0.0000000  -0.5000000), wk =   0.1666667

                       cryst. coord.
        k(    1) = (   0.0000000   0.0000000   0.0000000), wk =   0.1666667
        k(    2) = (   0.0833333   0.0000000   0.0000000), wk =   0.3333333
        k(    3) = (   0.1666667   0.0000000   0.0000000), wk =   0.3333333
        k(    4) = (   0.2500000   0.0000000   0.0000000), wk =   0.3333333
        k(    5) = (   0.3333333   0.0000000   0.0000000), wk =   0.3333333
        k(    6) = (   0.4166667   0.0000000   0.0000000), wk =   0.3333333
        k(    7) = (  -0.5000000   0.0000000   0.0000000), wk =   0.1666667

     Dense  grid:  9039883 G-vectors     FFT dimensions: (  72, 540, 480)

     Smooth grid:  2287895 G-vectors     FFT dimensions: (  45, 360, 320)

     Dynamical RAM for                 wfc:      10.18 MB

     Dynamical RAM for     wfc (w. buffer):      81.43 MB

     Dynamical RAM for           str. fact:      45.98 MB

     Dynamical RAM for           local pot:       0.00 MB

     Dynamical RAM for          nlocal pot:      29.08 MB

     Dynamical RAM for                qrad:       1.21 MB

     Dynamical RAM for          rho,v,vnew:     140.16 MB

     Dynamical RAM for               rhoin:      46.72 MB

     Dynamical RAM for            rho*nmix:     367.84 MB

     Dynamical RAM for           G-vectors:      89.12 MB

     Dynamical RAM for          h,s,v(r/c):       0.04 MB

     Dynamical RAM for          <psi|beta>:       0.01 MB

     Dynamical RAM for                 psi:      20.36 MB

     Dynamical RAM for                hpsi:      20.36 MB

     Dynamical RAM for                spsi:      20.36 MB

     Dynamical RAM for      wfcinit/wfcrot:      20.36 MB

     Dynamical RAM for           addusdens:    1080.52 MB

     Dynamical RAM for          addusforce:    1229.95 MB

     Dynamical RAM for         addusstress:    1149.49 MB

     Estimated static dynamical RAM per process >     621.33 MB

     Estimated max dynamical RAM per process >       2.17 GB

     Estimated total dynamical RAM >      13.00 GB

     Initial potential from superposition of free atoms

     starting charge      19.9998, renormalised to      20.0000

     negative rho (up, down):  5.473E-04 0.000E+00
     Starting wfcs are random
     Checking if some PAW data can be deallocated... 
       PAW data deallocated on    4 nodes for type:  1
       PAW data deallocated on    2 nodes for type:  2

     total cpu time spent up to now is       15.2 secs

     Self-consistent Calculation

     iteration #  1     ecut=    70.00 Ry     beta= 0.50
     Davidson diagonalization with overlap

---- Real-time Memory Report at c_bands before calling an iterative solver
          1445 MiB given to the printing process from OS
             0 MiB allocation reported by mallinfo(arena+hblkhd)
        117747 MiB available memory on the node where the printing process lives
------------------
     ethr =  1.00E-02,  avg # of iterations = 14.7

     negative rho (up, down):  4.163E-04 0.000E+00

     total cpu time spent up to now is       68.6 secs

     total energy              =     -78.31239319 Ry
     estimated scf accuracy    <       0.77612316 Ry

     iteration #  2     ecut=    70.00 Ry     beta= 0.50
     Davidson diagonalization with overlap

---- Real-time Memory Report at c_bands before calling an iterative solver
          1737 MiB given to the printing process from OS
             0 MiB allocation reported by mallinfo(arena+hblkhd)
        116426 MiB available memory on the node where the printing process lives
------------------
     ethr =  3.88E-03,  avg # of iterations =  2.0

     negative rho (up, down):  5.447E-04 0.000E+00

     total cpu time spent up to now is       86.8 secs

     total energy              =     -78.38651453 Ry
     estimated scf accuracy    <       0.05363252 Ry

     iteration #  3     ecut=    70.00 Ry     beta= 0.50
     Davidson diagonalization with overlap

---- Real-time Memory Report at c_bands before calling an iterative solver
          1749 MiB given to the printing process from OS
             0 MiB allocation reported by mallinfo(arena+hblkhd)
        116578 MiB available memory on the node where the printing process lives
------------------
     ethr =  2.68E-04,  avg # of iterations =  5.3

     negative rho (up, down):  6.633E-04 0.000E+00

     total cpu time spent up to now is      109.5 secs

     total energy              =     -78.39007070 Ry
     estimated scf accuracy    <       0.00728722 Ry

     iteration #  4     ecut=    70.00 Ry     beta= 0.50
     Davidson diagonalization with overlap

---- Real-time Memory Report at c_bands before calling an iterative solver
          1761 MiB given to the printing process from OS
             0 MiB allocation reported by mallinfo(arena+hblkhd)
        116264 MiB available memory on the node where the printing process lives
------------------
     ethr =  3.64E-05,  avg # of iterations = 10.3

     negative rho (up, down):  6.727E-04 0.000E+00

     total cpu time spent up to now is      134.2 secs

     total energy              =     -78.39103844 Ry
     estimated scf accuracy    <       0.00073374 Ry

     iteration #  5     ecut=    70.00 Ry     beta= 0.50
     Davidson diagonalization with overlap

---- Real-time Memory Report at c_bands before calling an iterative solver
          1773 MiB given to the printing process from OS
             0 MiB allocation reported by mallinfo(arena+hblkhd)
        115858 MiB available memory on the node where the printing process lives
------------------
     c_bands:  1 eigenvalues not converged
     c_bands:  1 eigenvalues not converged
     ethr =  3.67E-06,  avg # of iterations = 13.4

     negative rho (up, down):  6.827E-04 0.000E+00

     total cpu time spent up to now is      162.5 secs

     total energy              =     -78.39122207 Ry
     estimated scf accuracy    <       0.00004111 Ry

     iteration #  6     ecut=    70.00 Ry     beta= 0.50
     Davidson diagonalization with overlap

---- Real-time Memory Report at c_bands before calling an iterative solver
          1785 MiB given to the printing process from OS
             0 MiB allocation reported by mallinfo(arena+hblkhd)
        116371 MiB available memory on the node where the printing process lives
------------------
     ethr =  2.06E-07,  avg # of iterations =  3.9

     negative rho (up, down):  6.867E-04 0.000E+00

     total cpu time spent up to now is      182.3 secs

     total energy              =     -78.39122430 Ry
     estimated scf accuracy    <       0.00001259 Ry

     iteration #  7     ecut=    70.00 Ry     beta= 0.50
     Davidson diagonalization with overlap

---- Real-time Memory Report at c_bands before calling an iterative solver
          1797 MiB given to the printing process from OS
             0 MiB allocation reported by mallinfo(arena+hblkhd)
        116377 MiB available memory on the node where the printing process lives
------------------
     ethr =  6.30E-08,  avg # of iterations =  2.3

     negative rho (up, down):  6.877E-04 0.000E+00

     total cpu time spent up to now is      201.8 secs

     total energy              =     -78.39122774 Ry
     estimated scf accuracy    <       0.00000231 Ry

     iteration #  8     ecut=    70.00 Ry     beta= 0.50
     Davidson diagonalization with overlap

---- Real-time Memory Report at c_bands before calling an iterative solver
          1809 MiB given to the printing process from OS
             0 MiB allocation reported by mallinfo(arena+hblkhd)
        116288 MiB available memory on the node where the printing process lives
------------------
     ethr =  1.16E-08,  avg # of iterations =  1.9

     negative rho (up, down):  6.879E-04 0.000E+00

     total cpu time spent up to now is      219.0 secs

     total energy              =     -78.39122780 Ry
     estimated scf accuracy    <       0.00000031 Ry

     iteration #  9     ecut=    70.00 Ry     beta= 0.50
     Davidson diagonalization with overlap

---- Real-time Memory Report at c_bands before calling an iterative solver
          1826 MiB given to the printing process from OS
             0 MiB allocation reported by mallinfo(arena+hblkhd)
        115008 MiB available memory on the node where the printing process lives
------------------
     ethr =  1.57E-09,  avg # of iterations =  3.0

     negative rho (up, down):  6.879E-04 0.000E+00

     total cpu time spent up to now is      239.3 secs

     total energy              =     -78.39122793 Ry
     estimated scf accuracy    <       0.00000005 Ry

     iteration # 10     ecut=    70.00 Ry     beta= 0.50
     Davidson diagonalization with overlap

---- Real-time Memory Report at c_bands before calling an iterative solver
          1832 MiB given to the printing process from OS
             0 MiB allocation reported by mallinfo(arena+hblkhd)
        115813 MiB available memory on the node where the printing process lives
------------------
     ethr =  2.61E-10,  avg # of iterations =  2.3

     negative rho (up, down):  6.880E-04 0.000E+00

     total cpu time spent up to now is      257.9 secs

     End of self-consistent calculation

          k = 0.0000 0.0000 0.0000 (285921 PWs)   bands (ev):

   -20.7221 -16.6338 -15.7013 -13.0815 -11.5512 -11.3709  -8.9702  -8.8076
    -7.7270  -4.0157  -3.4133  -0.6491  -0.3867   0.0122

     occupation numbers 
     1.0000   1.0000   1.0000   1.0000   1.0000   1.0000   1.0000   1.0000
     1.0000   1.0000   0.0000   0.0000   0.0000   0.0000

          k = 0.0000 0.0000 0.0833 (285883 PWs)   bands (ev):

   -20.6831 -16.8220 -15.6465 -12.8660 -11.7648 -11.2751  -8.8728  -8.7633
    -7.8234  -4.3857  -3.0795  -0.5881  -0.3346   0.0683

     occupation numbers 
     1.0000   1.0000   1.0000   1.0000   1.0000   1.0000   1.0000   1.0000
     1.0000   1.0000   0.0000   0.0000   0.0000   0.0000

          k = 0.0000 0.0000 0.1667 (285837 PWs)   bands (ev):

   -20.5662 -17.2665 -15.5067 -12.3192 -12.1934 -11.1196  -8.6764  -8.6312
    -8.0912  -4.9731  -2.5859  -0.4091  -0.1787   0.2393

     occupation numbers 
     1.0000   1.0000   1.0000   1.0000   1.0000   1.0000   1.0000   1.0000
     1.0000   1.0000   0.0000   0.0000   0.0000   0.0000

          k = 0.0000 0.0000 0.2500 (285760 PWs)   bands (ev):

   -20.3724 -17.8069 -15.2958 -12.7113 -11.6018 -10.9027  -8.5471  -8.4794
    -8.4128  -5.5875  -2.0857  -0.1220   0.0805   0.5220

     occupation numbers 
     1.0000   1.0000   1.0000   1.0000   1.0000   1.0000   1.0000   1.0000
     1.0000   1.0000   0.0000   0.0000   0.0000   0.0000

          k = 0.0000 0.0000 0.3333 (285956 PWs)   bands (ev):

   -20.1036 -18.3579 -15.0133 -13.2489 -10.8253 -10.6162  -8.9315  -8.6027
    -8.1111  -6.1903  -1.5737   0.2649   0.4432   0.6959

     occupation numbers 
     1.0000   1.0000   1.0000   1.0000   1.0000   1.0000   1.0000   1.0000
     1.0000   1.0000   0.0000   0.0000   0.0000   0.0000

          k = 0.0000 0.0000 0.4167 (285986 PWs)   bands (ev):

   -19.7628 -18.8785 -14.6610 -13.7662 -10.2635 -10.0684  -9.4000  -8.8916
    -7.7307  -6.7584  -1.0362   0.1320   0.7405   0.9072

     occupation numbers 
     1.0000   1.0000   1.0000   1.0000   1.0000   1.0000   1.0000   1.0000
     1.0000   1.0000   0.0000   0.0000   0.0000   0.0000

          k = 0.0000 0.0000-0.5000 (286006 PWs)   bands (ev):

   -19.3895 -19.3132 -14.2710 -14.2130  -9.8783  -9.8277  -9.4323  -9.3662
    -7.3050  -7.2478  -0.4944  -0.4355   1.2359   1.2424

     occupation numbers 
     1.0000   1.0000   1.0000   1.0000   1.0000   1.0000   1.0000   1.0000
     1.0000   1.0000   0.0000   0.0000   0.0000   0.0000

     the Fermi energy is  -3.760944 ev

!    total energy              =     -78.39122793 Ry
     total all-electron energy =      -309.447599 Ry
     estimated scf accuracy    <          1.7E-09 Ry
     smearing contrib. (-TS)   =      -0.00000000 Ry
     internal energy E=F+TS    =     -78.39122793 Ry

     The total energy is F=E-TS. E is the sum of the following terms:
     one-electron contribution =    -397.97445915 Ry
     hartree contribution      =     201.52266349 Ry
     xc contribution           =     -21.18976600 Ry
     ewald contribution        =     163.91786060 Ry
     one-center paw contrib.   =     -24.66752687 Ry
      -> PAW hartree energy AE =      17.85713912 Ry
      -> PAW hartree energy PS =     -17.84012326 Ry
      -> PAW xc energy AE      =     -21.07874441 Ry
      -> PAW xc energy PS      =       8.72823048 Ry
      -> total E_H with PAW    =     201.53967935 Ry
      -> total E_XC with PAW   =     -33.54027993 Ry

     convergence has been achieved in  10 iterations

     negative rho (up, down):  6.880E-04 0.000E+00

     Forces acting on atoms (cartesian axes, Ry/au):

     atom    1 type  1   force =     0.03201023   -0.00000673   -0.09969653
     atom    2 type  1   force =    -0.03200930   -0.00000691    0.08180820
     atom    3 type  1   force =    -0.03200940   -0.00000707   -0.08180456
     atom    4 type  1   force =     0.03200890   -0.00000679    0.09969930
     atom    5 type  2   force =     0.00274671    0.00000689   -0.01104870
     atom    6 type  2   force =     0.00274765    0.00000693    0.01104549
     atom    7 type  2   force =    -0.00274743    0.00000694    0.00982456
     atom    8 type  2   force =    -0.00274734    0.00000674   -0.00982777
     The non-local contrib.  to forces
     atom    1 type  1   force =     0.03162045   -0.00000382   -0.05584056
     atom    2 type  1   force =    -0.03190060   -0.00000397    0.03600894
     atom    3 type  1   force =    -0.03190153   -0.00000474   -0.03601303
     atom    4 type  1   force =     0.03162164   -0.00000360    0.05584960
     atom    5 type  2   force =     0.06703477   -0.00000000   -0.03784133
     atom    6 type  2   force =     0.06703485    0.00000001    0.03784134
     atom    7 type  2   force =    -0.06700580    0.00000000    0.03783456
     atom    8 type  2   force =    -0.06700579   -0.00000002   -0.03783453
     The ionic contribution  to forces
     atom    1 type  1   force =    -4.64000631    0.00000000    0.72961810
     atom    2 type  1   force =     4.63987226    0.00000000   -0.84803705
     atom    3 type  1   force =     4.63987226    0.00000000    0.84803705
     atom    4 type  1   force =    -4.64000631    0.00000000   -0.72961810
     atom    5 type  2   force =    -3.19376619    0.00000000    0.79222952
     atom    6 type  2   force =    -3.19376619    0.00000000   -0.79222952
     atom    7 type  2   force =     3.19390025    0.00000000   -0.80428046
     atom    8 type  2   force =     3.19390025    0.00000000    0.80428046
     The local contribution  to forces
     atom    1 type  1   force =     4.63976952    0.00000520   -0.77395054
     atom    2 type  1   force =    -4.63936557    0.00000535    0.89366190
     atom    3 type  1   force =    -4.63936914    0.00000535   -0.89365952
     atom    4 type  1   force =     4.63976930    0.00000464    0.77393852
     atom    5 type  2   force =     3.12947468    0.00000017   -0.76543702
     atom    6 type  2   force =     3.12947639    0.00000025    0.76543724
     atom    7 type  2   force =    -3.12963916    0.00000018    0.77627035
     atom    8 type  2   force =    -3.12963930   -0.00000007   -0.77626989
     The core correction contribution to forces
     atom    1 type  1   force =     0.00058508   -0.00001443    0.00046752
     atom    2 type  1   force =    -0.00059291   -0.00001442    0.00016434
     atom    3 type  1   force =    -0.00059299   -0.00001441   -0.00015433
     atom    4 type  1   force =     0.00058516   -0.00001454   -0.00046117
     atom    5 type  2   force =     0.00000000    0.00000000    0.00000000
     atom    6 type  2   force =     0.00000000    0.00000000    0.00000000
     atom    7 type  2   force =     0.00000000    0.00000000    0.00000000
     atom    8 type  2   force =     0.00000000    0.00000000    0.00000000
     The Hubbard contrib.    to forces
     atom    1 type  1   force =     0.00000000    0.00000000    0.00000000
     atom    2 type  1   force =     0.00000000    0.00000000    0.00000000
     atom    3 type  1   force =     0.00000000    0.00000000    0.00000000
     atom    4 type  1   force =     0.00000000    0.00000000    0.00000000
     atom    5 type  2   force =     0.00000000    0.00000000    0.00000000
     atom    6 type  2   force =     0.00000000    0.00000000    0.00000000
     atom    7 type  2   force =     0.00000000    0.00000000    0.00000000
     atom    8 type  2   force =     0.00000000    0.00000000    0.00000000
     The SCF correction term to forces
     atom    1 type  1   force =     0.00004021   -0.00000051    0.00001067
     atom    2 type  1   force =    -0.00002376   -0.00000070    0.00001178
     atom    3 type  1   force =    -0.00001928   -0.00000010   -0.00001302
     atom    4 type  1   force =     0.00003783   -0.00000012   -0.00000783
     atom    5 type  2   force =     0.00000218   -0.00000012    0.00000186
     atom    6 type  2   force =     0.00000132   -0.00000016   -0.00000186
     atom    7 type  2   force =    -0.00000400   -0.00000007    0.00000182
     atom    8 type  2   force =    -0.00000377   -0.00000001   -0.00000209

     Total force =     0.194499     Total SCF correction =     0.000067


     Computing stress (Cartesian axis) and pressure


     negative rho (up, down):  6.880E-04 0.000E+00
          total   stress  (Ry/bohr**3)                   (kbar)     P=       -0.52
  -0.00000636  -0.00000000   0.00000000           -0.94       -0.00        0.00
  -0.00000000  -0.00000006   0.00000000           -0.00       -0.01        0.00
   0.00000000   0.00000000  -0.00000422            0.00        0.00       -0.62

     kinetic stress (kbar)    106.63     -0.00     -0.00
                               -0.00    121.98      0.00
                               -0.00      0.00    108.91

     local   stress (kbar)   -183.64      0.00      0.00
                                0.00    150.94     -0.00
                                0.00     -0.00  -2146.69

     nonloc. stress (kbar)     23.29     -0.00     -0.00
                               -0.00     21.47      0.00
                               -0.00      0.00     23.40

     hartree stress (kbar)     60.96     -0.00     -0.00
                               -0.00    -45.37      0.00
                               -0.00      0.00   1009.88

     exc-cor stress (kbar)     -6.06     -0.00     -0.00
                               -0.00     -7.11      0.00
                               -0.00      0.00     -5.90

     corecor stress (kbar)    -22.92     -0.00      0.00
                               -0.00    -22.51      0.00
                                0.00      0.00    -22.93

     ewald   stress (kbar)     20.80     -0.00     -0.00
                               -0.00   -219.41     -0.00
                               -0.00     -0.00   1032.72

     hubbard stress (kbar)      0.00      0.00      0.00
                                0.00      0.00      0.00
                                0.00      0.00      0.00

     DFT-D   stress (kbar)      0.00      0.00      0.00
                                0.00      0.00      0.00
                                0.00      0.00      0.00

     XDM     stress (kbar)      0.00      0.00      0.00
                                0.00      0.00      0.00
                                0.00      0.00      0.00

     dft-nl  stress (kbar)      0.00      0.00      0.00
                                0.00      0.00      0.00
                                0.00      0.00      0.00

     TS-vdW  stress (kbar)      0.00      0.00      0.00
                                0.00      0.00      0.00
                                0.00      0.00      0.00

     MDB     stress (kbar)      0.00      0.00      0.00
                                0.00      0.00      0.00
                                0.00      0.00      0.00

     3D-RISM stress (kbar)      0.00      0.00      0.00
                                0.00      0.00      0.00
                                0.00      0.00      0.00


     Writing all to output data dir ./tmp/AGNR.save/ :
     XML data file, charge density, pseudopotentials, collected wavefunctions
 
     init_run     :     13.57s CPU     14.82s WALL (       1 calls)
     electrons    :    311.82s CPU    243.28s WALL (       1 calls)
     forces       :      5.65s CPU      5.55s WALL (       1 calls)
     stress       :     20.91s CPU     17.49s WALL (       1 calls)

     Called by init_run:
     wfcinit      :      5.26s CPU      4.32s WALL (       1 calls)
     wfcinit:wfcr :      4.69s CPU      4.01s WALL (       7 calls)
     potinit      :      2.52s CPU      3.20s WALL (       1 calls)
     hinit0       :      1.19s CPU      2.15s WALL (       1 calls)

     Called by electrons:
     c_bands      :    229.21s CPU    162.56s WALL (      10 calls)
     sum_band     :     49.63s CPU     39.15s WALL (      10 calls)
     v_of_rho     :     16.83s CPU     21.61s WALL (      11 calls)
     v_h          :      1.57s CPU      2.10s WALL (      11 calls)
     v_xc         :     18.30s CPU     23.27s WALL (      13 calls)
     newd         :     12.44s CPU     16.30s WALL (      11 calls)
     PAW_pot      :      0.94s CPU      0.95s WALL (      11 calls)
     mix_rho      :      3.02s CPU      3.47s WALL (      10 calls)

     Called by c_bands:
     init_us_2    :      5.20s CPU      2.70s WALL (     161 calls)
     cegterg      :    223.73s CPU    159.66s WALL (      70 calls)

     Called by sum_band:
     sum_band:wei :      0.00s CPU      0.00s WALL (      10 calls)
     sum_band:loo :     29.92s CPU     20.50s WALL (      10 calls)
     sum_band:buf :      0.33s CPU      0.16s WALL (      70 calls)
     sum_band:ini :      2.36s CPU      1.19s WALL (      70 calls)
     sum_band:cal :      1.04s CPU      0.54s WALL (      70 calls)
     sum_band:bec :      0.00s CPU      0.00s WALL (      70 calls)
     addusdens    :     17.20s CPU     16.93s WALL (      10 calls)
                                        0.00s GPU  (      10 calls)
     addusd:skk   :      0.56s CPU      1.19s WALL (      20 calls)
                                        0.00s GPU  (      20 calls)

     Called by *egterg:
     cdiaghg      :      0.37s CPU      0.18s WALL (     483 calls)
     cegterg:over :      6.21s CPU      3.11s WALL (     413 calls)
     cegterg:upda :      5.38s CPU      2.70s WALL (     413 calls)
     cegterg:last :      8.01s CPU      4.01s WALL (     223 calls)
     h_psi        :    196.95s CPU    147.84s WALL (     490 calls)
     s_psi        :      5.10s CPU      2.56s WALL (     490 calls)
     g_psi        :      1.72s CPU      0.86s WALL (     413 calls)

     Called by h_psi:
     h_psi:calbec :      5.14s CPU      2.66s WALL (     490 calls)
     vloc_psi     :    184.96s CPU    141.69s WALL (     490 calls)
     add_vuspsi   :      5.55s CPU      2.78s WALL (     490 calls)

     General routines
     calbec       :      7.98s CPU      4.11s WALL (     679 calls)
     fft          :     18.93s CPU     21.89s WALL (     166 calls)
     ffts         :      1.41s CPU      1.15s WALL (      21 calls)
     fftw         :    160.10s CPU    120.98s WALL (    8264 calls)
     interpolate  :      2.07s CPU      2.37s WALL (      11 calls)
 
     Parallel routines

     PAW routines
     PAW_pot      :      0.94s CPU      0.95s WALL (      11 calls)
 
     PWSCF        :   5m52.66s CPU   4m44.38s WALL

 
   This run was terminated on:  12:33:36  18Nov2025            

=------------------------------------------------------------------------------=
   JOB DONE.
=------------------------------------------------------------------------------=
