
     Program PWSCF v.7.4.1 starts on 18Nov2025 at 12:34:27 

     This program is part of the open-source Quantum ESPRESSO suite
     for quantum simulation of materials; please cite
         "P. Giannozzi et al., J. Phys.:Condens. Matter 21 395502 (2009);
         "P. Giannozzi et al., J. Phys.:Condens. Matter 29 465901 (2017);
         "P. Giannozzi et al., J. Chem. Phys. 152 154105 (2020);
          URL http://www.quantum-espresso.org", 
     in publications or presentations arising from this work. More details at
     http://www.quantum-espresso.org/quote

     Parallel version (MPI), running on     6 processors

     MPI processes distributed on     1 nodes
     121882 MiB available memory on the printing compute node when the environment starts
 
     Reading input from 1-agnr_nscf.in

     Current dimensions of program PWSCF are:
     Max number of different atomic species (ntypx) = 10
     Max number of k-points (npk) =  40000
     Max angular momentum in pseudopotentials (lmaxx) =  4
     Message from routine input:
     WARNING: "startingwfc" set to random may spoil restart
     file C.pbe-n-kjpaw_psl.1.0.0.UPF: wavefunction(s)  2S 2P renormalized
     file H.pbe-kjpaw_psl.1.0.0.UPF: wavefunction(s)  1S renormalized
 
     R & G space division:  proc/nbgrp/npool/nimage =       6
     Subspace diagonalization in iterative solution of the eigenvalue problem:
     a serial algorithm will be used

 
     Parallelization info
     --------------------
     sticks:   dense  smooth     PW     G-vecs:    dense   smooth      PW
     Min        4722    1890    519              1506646   381314   54615
     Max        4723    1891    520              1506653   381321   54622
     Sum       28333   11345   3117              9039883  2287895  327715
 
     Using Slab Decomposition
 


     bravais-lattice index     =            0
     lattice parameter (alat)  =       8.0993  a.u.
     unit-cell volume          =   28908.8086 (a.u.)^3
     number of atoms/cell      =            8
     number of atomic types    =            2
     number of electrons       =        20.00
     number of Kohn-Sham states=           14
     kinetic-energy cutoff     =      70.0000  Ry
     charge density cutoff     =     700.0000  Ry
     Exchange-correlation= SLA  PW   PBX  PBC
                           (   1   4   3   4   0   0   0)

     celldm(1)=   8.099301  celldm(2)=   0.000000  celldm(3)=   0.000000
     celldm(4)=   0.000000  celldm(5)=   0.000000  celldm(6)=   0.000000

     crystal axes: (cart. coord. in units of alat)
               a(1) = (   0.000000   0.000000   1.000000 )  
               a(2) = (   7.750657   0.000000   0.000000 )  
               a(3) = (   0.000000   7.020193   0.000000 )  

     reciprocal axes: (cart. coord. in units 2 pi/alat)
               b(1) = (  0.000000  0.000000  1.000000 )  
               b(2) = (  0.129021  0.000000  0.000000 )  
               b(3) = (  0.000000  0.142446  0.000000 )  


     PseudoPot. # 1 for C  read from file:
     ../../../../pseudos/C.pbe-n-kjpaw_psl.1.0.0.UPF
     MD5 check sum: 5f16ad9a65e90284d1d834d4ab3b0f7d
     Pseudo is Projector augmented-wave + core cor, Zval =  4.0
     Generated using &quot;atomic&quot; code by A. Dal Corso  v.6.3
     Shape of augmentation charge: PSQ
     Using radial grid of 1073 points,  4 beta functions with: 
                l(1) =   0
                l(2) =   0
                l(3) =   1
                l(4) =   1
     Q(r) pseudized with 0 coefficients 


     PseudoPot. # 2 for H  read from file:
     ../../../../pseudos/H.pbe-kjpaw_psl.1.0.0.UPF
     MD5 check sum: d81a744832360e4a8af0b0b5b123bc2a
     Pseudo is Projector augmented-wave, Zval =  1.0
     Generated using &quot;atomic&quot; code by A. Dal Corso  v.6.3MaX
     Shape of augmentation charge: PSQ
     Using radial grid of  929 points,  2 beta functions with: 
                l(1) =   0
                l(2) =   0
     Q(r) pseudized with 0 coefficients 


     atomic species   valence    mass     pseudopotential
     C                 4.00    12.01100     C ( 1.00)
     H                 1.00     1.00790     H ( 1.00)

     No symmetry found


                                    s                        frac. trans.

      isym =  1     identity                                     

 cryst.   s( 1) = (     1          0          0      )
                  (     0          1          0      )
                  (     0          0          1      )

 cart.    s( 1) = (  1.0000000  0.0000000  0.0000000 )
                  (  0.0000000  1.0000000  0.0000000 )
                  (  0.0000000  0.0000000  1.0000000 )


   Cartesian axes

     site n.     atom                  positions (alat units)
         1        C      tau(   1) = (   3.7200410   3.4997948   0.0000000  )
         2        C      tau(   2) = (   4.0078689   3.4997948   0.1661775  )
         3        C      tau(   3) = (   4.0078689   3.4997948   0.4985326  )
         4        C      tau(   4) = (   3.7200410   3.4997948   0.6647101  )
         5        H      tau(   5) = (   3.4997948   3.4997948   0.1271592  )
         6        H      tau(   6) = (   3.4997948   3.4997948   0.5375509  )
         7        H      tau(   7) = (   4.2281151   3.4997948   0.0390183  )
         8        H      tau(   8) = (   4.2281151   3.4997948   0.6256918  )

   Crystallographic axes

     site n.     atom                  positions (cryst. coord.)
         1        C      tau(   1) = (  0.0000000  0.4799646  0.4985326  )
         2        C      tau(   2) = (  0.1661775  0.5171005  0.4985326  )
         3        C      tau(   3) = (  0.4985326  0.5171005  0.4985326  )
         4        C      tau(   4) = (  0.6647101  0.4799646  0.4985326  )
         5        H      tau(   5) = (  0.1271592  0.4515481  0.4985326  )
         6        H      tau(   6) = (  0.5375509  0.4515481  0.4985326  )
         7        H      tau(   7) = (  0.0390183  0.5455170  0.4985326  )
         8        H      tau(   8) = (  0.6256918  0.5455170  0.4985326  )

     number of k points=    76  Gaussian smearing, width (Ry)=  0.0020
                       cart. coord. in units 2pi/alat
        k(    1) = (   0.0000000   0.0000000   0.0000000), wk =   0.0133333
        k(    2) = (   0.0000000   0.0000000   0.0066667), wk =   0.0266667
        k(    3) = (   0.0000000   0.0000000   0.0133333), wk =   0.0266667
        k(    4) = (   0.0000000   0.0000000   0.0200000), wk =   0.0266667
        k(    5) = (   0.0000000   0.0000000   0.0266667), wk =   0.0266667
        k(    6) = (   0.0000000   0.0000000   0.0333333), wk =   0.0266667
        k(    7) = (   0.0000000   0.0000000   0.0400000), wk =   0.0266667
        k(    8) = (   0.0000000   0.0000000   0.0466667), wk =   0.0266667
        k(    9) = (   0.0000000   0.0000000   0.0533333), wk =   0.0266667
        k(   10) = (   0.0000000   0.0000000   0.0600000), wk =   0.0266667
        k(   11) = (   0.0000000   0.0000000   0.0666667), wk =   0.0266667
        k(   12) = (   0.0000000   0.0000000   0.0733333), wk =   0.0266667
        k(   13) = (   0.0000000   0.0000000   0.0800000), wk =   0.0266667
        k(   14) = (   0.0000000   0.0000000   0.0866667), wk =   0.0266667
        k(   15) = (   0.0000000   0.0000000   0.0933333), wk =   0.0266667
        k(   16) = (   0.0000000   0.0000000   0.1000000), wk =   0.0266667
        k(   17) = (   0.0000000   0.0000000   0.1066667), wk =   0.0266667
        k(   18) = (   0.0000000   0.0000000   0.1133333), wk =   0.0266667
        k(   19) = (   0.0000000   0.0000000   0.1200000), wk =   0.0266667
        k(   20) = (   0.0000000   0.0000000   0.1266667), wk =   0.0266667
        k(   21) = (   0.0000000   0.0000000   0.1333333), wk =   0.0266667
        k(   22) = (   0.0000000   0.0000000   0.1400000), wk =   0.0266667
        k(   23) = (   0.0000000   0.0000000   0.1466667), wk =   0.0266667
        k(   24) = (   0.0000000   0.0000000   0.1533333), wk =   0.0266667
        k(   25) = (   0.0000000   0.0000000   0.1600000), wk =   0.0266667
        k(   26) = (   0.0000000   0.0000000   0.1666667), wk =   0.0266667
        k(   27) = (   0.0000000   0.0000000   0.1733333), wk =   0.0266667
        k(   28) = (   0.0000000   0.0000000   0.1800000), wk =   0.0266667
        k(   29) = (   0.0000000   0.0000000   0.1866667), wk =   0.0266667
        k(   30) = (   0.0000000   0.0000000   0.1933333), wk =   0.0266667
        k(   31) = (   0.0000000   0.0000000   0.2000000), wk =   0.0266667
        k(   32) = (   0.0000000   0.0000000   0.2066667), wk =   0.0266667
        k(   33) = (   0.0000000   0.0000000   0.2133333), wk =   0.0266667
        k(   34) = (   0.0000000   0.0000000   0.2200000), wk =   0.0266667
        k(   35) = (   0.0000000   0.0000000   0.2266667), wk =   0.0266667
        k(   36) = (   0.0000000   0.0000000   0.2333333), wk =   0.0266667
        k(   37) = (   0.0000000   0.0000000   0.2400000), wk =   0.0266667
        k(   38) = (   0.0000000   0.0000000   0.2466667), wk =   0.0266667
        k(   39) = (   0.0000000   0.0000000   0.2533333), wk =   0.0266667
        k(   40) = (   0.0000000   0.0000000   0.2600000), wk =   0.0266667
        k(   41) = (   0.0000000   0.0000000   0.2666667), wk =   0.0266667
        k(   42) = (   0.0000000   0.0000000   0.2733333), wk =   0.0266667
        k(   43) = (   0.0000000   0.0000000   0.2800000), wk =   0.0266667
        k(   44) = (   0.0000000   0.0000000   0.2866667), wk =   0.0266667
        k(   45) = (   0.0000000   0.0000000   0.2933333), wk =   0.0266667
        k(   46) = (   0.0000000   0.0000000   0.3000000), wk =   0.0266667
        k(   47) = (   0.0000000   0.0000000   0.3066667), wk =   0.0266667
        k(   48) = (   0.0000000   0.0000000   0.3133333), wk =   0.0266667
        k(   49) = (   0.0000000   0.0000000   0.3200000), wk =   0.0266667
        k(   50) = (   0.0000000   0.0000000   0.3266667), wk =   0.0266667
        k(   51) = (   0.0000000   0.0000000   0.3333333), wk =   0.0266667
        k(   52) = (   0.0000000   0.0000000   0.3400000), wk =   0.0266667
        k(   53) = (   0.0000000   0.0000000   0.3466667), wk =   0.0266667
        k(   54) = (   0.0000000   0.0000000   0.3533333), wk =   0.0266667
        k(   55) = (   0.0000000   0.0000000   0.3600000), wk =   0.0266667
        k(   56) = (   0.0000000   0.0000000   0.3666667), wk =   0.0266667
        k(   57) = (   0.0000000   0.0000000   0.3733333), wk =   0.0266667
        k(   58) = (   0.0000000   0.0000000   0.3800000), wk =   0.0266667
        k(   59) = (   0.0000000   0.0000000   0.3866667), wk =   0.0266667
        k(   60) = (   0.0000000   0.0000000   0.3933333), wk =   0.0266667
        k(   61) = (   0.0000000   0.0000000   0.4000000), wk =   0.0266667
        k(   62) = (   0.0000000   0.0000000   0.4066667), wk =   0.0266667
        k(   63) = (   0.0000000   0.0000000   0.4133333), wk =   0.0266667
        k(   64) = (   0.0000000   0.0000000   0.4200000), wk =   0.0266667
        k(   65) = (   0.0000000   0.0000000   0.4266667), wk =   0.0266667
        k(   66) = (   0.0000000   0.0000000   0.4333333), wk =   0.0266667
        k(   67) = (   0.0000000   0.0000000   0.4400000), wk =   0.0266667
        k(   68) = (   0.0000000   0.0000000   0.4466667), wk =   0.0266667
        k(   69) = (   0.0000000   0.0000000   0.4533333), wk =   0.0266667
        k(   70) = (   0.0000000   0.0000000   0.4600000), wk =   0.0266667
        k(   71) = (   0.0000000   0.0000000   0.4666667), wk =   0.0266667
        k(   72) = (   0.0000000   0.0000000   0.4733333), wk =   0.0266667
        k(   73) = (   0.0000000   0.0000000   0.4800000), wk =   0.0266667
        k(   74) = (   0.0000000   0.0000000   0.4866667), wk =   0.0266667
        k(   75) = (   0.0000000   0.0000000   0.4933333), wk =   0.0266667
        k(   76) = (   0.0000000   0.0000000  -0.5000000), wk =   0.0133333

                       cryst. coord.
        k(    1) = (   0.0000000   0.0000000   0.0000000), wk =   0.0133333
        k(    2) = (   0.0066667   0.0000000   0.0000000), wk =   0.0266667
        k(    3) = (   0.0133333   0.0000000   0.0000000), wk =   0.0266667
        k(    4) = (   0.0200000   0.0000000   0.0000000), wk =   0.0266667
        k(    5) = (   0.0266667   0.0000000   0.0000000), wk =   0.0266667
        k(    6) = (   0.0333333   0.0000000   0.0000000), wk =   0.0266667
        k(    7) = (   0.0400000   0.0000000   0.0000000), wk =   0.0266667
        k(    8) = (   0.0466667   0.0000000   0.0000000), wk =   0.0266667
        k(    9) = (   0.0533333   0.0000000   0.0000000), wk =   0.0266667
        k(   10) = (   0.0600000   0.0000000   0.0000000), wk =   0.0266667
        k(   11) = (   0.0666667   0.0000000   0.0000000), wk =   0.0266667
        k(   12) = (   0.0733333   0.0000000   0.0000000), wk =   0.0266667
        k(   13) = (   0.0800000   0.0000000   0.0000000), wk =   0.0266667
        k(   14) = (   0.0866667   0.0000000   0.0000000), wk =   0.0266667
        k(   15) = (   0.0933333   0.0000000   0.0000000), wk =   0.0266667
        k(   16) = (   0.1000000   0.0000000   0.0000000), wk =   0.0266667
        k(   17) = (   0.1066667   0.0000000   0.0000000), wk =   0.0266667
        k(   18) = (   0.1133333   0.0000000   0.0000000), wk =   0.0266667
        k(   19) = (   0.1200000   0.0000000   0.0000000), wk =   0.0266667
        k(   20) = (   0.1266667   0.0000000   0.0000000), wk =   0.0266667
        k(   21) = (   0.1333333   0.0000000   0.0000000), wk =   0.0266667
        k(   22) = (   0.1400000   0.0000000   0.0000000), wk =   0.0266667
        k(   23) = (   0.1466667   0.0000000   0.0000000), wk =   0.0266667
        k(   24) = (   0.1533333   0.0000000   0.0000000), wk =   0.0266667
        k(   25) = (   0.1600000   0.0000000   0.0000000), wk =   0.0266667
        k(   26) = (   0.1666667   0.0000000   0.0000000), wk =   0.0266667
        k(   27) = (   0.1733333   0.0000000   0.0000000), wk =   0.0266667
        k(   28) = (   0.1800000   0.0000000   0.0000000), wk =   0.0266667
        k(   29) = (   0.1866667   0.0000000   0.0000000), wk =   0.0266667
        k(   30) = (   0.1933333   0.0000000   0.0000000), wk =   0.0266667
        k(   31) = (   0.2000000   0.0000000   0.0000000), wk =   0.0266667
        k(   32) = (   0.2066667   0.0000000   0.0000000), wk =   0.0266667
        k(   33) = (   0.2133333   0.0000000   0.0000000), wk =   0.0266667
        k(   34) = (   0.2200000   0.0000000   0.0000000), wk =   0.0266667
        k(   35) = (   0.2266667   0.0000000   0.0000000), wk =   0.0266667
        k(   36) = (   0.2333333   0.0000000   0.0000000), wk =   0.0266667
        k(   37) = (   0.2400000   0.0000000   0.0000000), wk =   0.0266667
        k(   38) = (   0.2466667   0.0000000   0.0000000), wk =   0.0266667
        k(   39) = (   0.2533333   0.0000000   0.0000000), wk =   0.0266667
        k(   40) = (   0.2600000   0.0000000   0.0000000), wk =   0.0266667
        k(   41) = (   0.2666667   0.0000000   0.0000000), wk =   0.0266667
        k(   42) = (   0.2733333   0.0000000   0.0000000), wk =   0.0266667
        k(   43) = (   0.2800000   0.0000000   0.0000000), wk =   0.0266667
        k(   44) = (   0.2866667   0.0000000   0.0000000), wk =   0.0266667
        k(   45) = (   0.2933333   0.0000000   0.0000000), wk =   0.0266667
        k(   46) = (   0.3000000   0.0000000   0.0000000), wk =   0.0266667
        k(   47) = (   0.3066667   0.0000000   0.0000000), wk =   0.0266667
        k(   48) = (   0.3133333   0.0000000   0.0000000), wk =   0.0266667
        k(   49) = (   0.3200000   0.0000000   0.0000000), wk =   0.0266667
        k(   50) = (   0.3266667   0.0000000   0.0000000), wk =   0.0266667
        k(   51) = (   0.3333333   0.0000000   0.0000000), wk =   0.0266667
        k(   52) = (   0.3400000   0.0000000   0.0000000), wk =   0.0266667
        k(   53) = (   0.3466667   0.0000000   0.0000000), wk =   0.0266667
        k(   54) = (   0.3533333   0.0000000   0.0000000), wk =   0.0266667
        k(   55) = (   0.3600000   0.0000000   0.0000000), wk =   0.0266667
        k(   56) = (   0.3666667   0.0000000   0.0000000), wk =   0.0266667
        k(   57) = (   0.3733333   0.0000000   0.0000000), wk =   0.0266667
        k(   58) = (   0.3800000   0.0000000   0.0000000), wk =   0.0266667
        k(   59) = (   0.3866667   0.0000000   0.0000000), wk =   0.0266667
        k(   60) = (   0.3933333   0.0000000   0.0000000), wk =   0.0266667
        k(   61) = (   0.4000000   0.0000000   0.0000000), wk =   0.0266667
        k(   62) = (   0.4066667   0.0000000   0.0000000), wk =   0.0266667
        k(   63) = (   0.4133333   0.0000000   0.0000000), wk =   0.0266667
        k(   64) = (   0.4200000   0.0000000   0.0000000), wk =   0.0266667
        k(   65) = (   0.4266667   0.0000000   0.0000000), wk =   0.0266667
        k(   66) = (   0.4333333   0.0000000   0.0000000), wk =   0.0266667
        k(   67) = (   0.4400000   0.0000000   0.0000000), wk =   0.0266667
        k(   68) = (   0.4466667   0.0000000   0.0000000), wk =   0.0266667
        k(   69) = (   0.4533333   0.0000000   0.0000000), wk =   0.0266667
        k(   70) = (   0.4600000   0.0000000   0.0000000), wk =   0.0266667
        k(   71) = (   0.4666667   0.0000000   0.0000000), wk =   0.0266667
        k(   72) = (   0.4733333   0.0000000   0.0000000), wk =   0.0266667
        k(   73) = (   0.4800000   0.0000000   0.0000000), wk =   0.0266667
        k(   74) = (   0.4866667   0.0000000   0.0000000), wk =   0.0266667
        k(   75) = (   0.4933333   0.0000000   0.0000000), wk =   0.0266667
        k(   76) = (  -0.5000000   0.0000000   0.0000000), wk =   0.0133333

     Dense  grid:  9039883 G-vectors     FFT dimensions: (  72, 540, 480)

     Smooth grid:  2287895 G-vectors     FFT dimensions: (  45, 360, 320)

     Dynamical RAM for                 wfc:      10.18 MB

     Dynamical RAM for     wfc (w. buffer):      10.18 MB

     Dynamical RAM for           str. fact:      45.98 MB

     Dynamical RAM for           local pot:       0.00 MB

     Dynamical RAM for          nlocal pot:      29.08 MB

     Dynamical RAM for                qrad:       1.21 MB

     Dynamical RAM for          rho,v,vnew:     140.16 MB

     Dynamical RAM for           G-vectors:      89.12 MB

     Dynamical RAM for          h,s,v(r/c):       0.04 MB

     Dynamical RAM for          <psi|beta>:       0.01 MB

     Dynamical RAM for                 psi:      20.36 MB

     Dynamical RAM for                hpsi:      20.36 MB

     Dynamical RAM for                spsi:      20.36 MB

     Dynamical RAM for      wfcinit/wfcrot:      20.36 MB

     Dynamical RAM for           addusdens:    1080.52 MB

     Estimated static dynamical RAM per process >     503.36 MB

     Estimated max dynamical RAM per process >       1.55 GB

     Estimated total dynamical RAM >       9.28 GB

     Atomic positions and unit cell read from directory:
     ./tmp/AGNR.save/
 

     The potential is recalculated from file :
     ./tmp/AGNR.save/charge-density


     negative rho (up, down):  6.880E-04 0.000E+00
     Starting wfcs are random
     Checking if some PAW data can be deallocated... 
       PAW data deallocated on    4 nodes for type:  1
       PAW data deallocated on    2 nodes for type:  2

     Band Structure Calculation
     Davidson diagonalization with overlap

     Computing kpt #:     1  of    76
     c_bands:  1 eigenvalues not converged
     total cpu time spent up to now is       43.4 secs

     Computing kpt #:     2  of    76
     c_bands:  1 eigenvalues not converged
     total cpu time spent up to now is       77.6 secs

     Computing kpt #:     3  of    76
     c_bands:  1 eigenvalues not converged
     total cpu time spent up to now is      110.6 secs

     Computing kpt #:     4  of    76
     total cpu time spent up to now is      142.5 secs

     Computing kpt #:     5  of    76
     c_bands:  1 eigenvalues not converged
     total cpu time spent up to now is      175.1 secs

     Computing kpt #:     6  of    76
     c_bands:  1 eigenvalues not converged
     total cpu time spent up to now is      207.7 secs

     Computing kpt #:     7  of    76
     c_bands:  1 eigenvalues not converged
     total cpu time spent up to now is      240.2 secs

     Computing kpt #:     8  of    76
     total cpu time spent up to now is      272.3 secs

     Computing kpt #:     9  of    76
     total cpu time spent up to now is      303.5 secs

     Computing kpt #:    10  of    76
     total cpu time spent up to now is      335.6 secs

     Computing kpt #:    11  of    76
     total cpu time spent up to now is      368.0 secs

     Computing kpt #:    12  of    76
     c_bands:  1 eigenvalues not converged
     total cpu time spent up to now is      401.2 secs

     Computing kpt #:    13  of    76
     total cpu time spent up to now is      433.8 secs

     Computing kpt #:    14  of    76
     c_bands:  1 eigenvalues not converged
     total cpu time spent up to now is      466.6 secs

     Computing kpt #:    15  of    76
     c_bands:  1 eigenvalues not converged
     total cpu time spent up to now is      499.4 secs

     Computing kpt #:    16  of    76
     c_bands:  1 eigenvalues not converged
     total cpu time spent up to now is      532.0 secs

     Computing kpt #:    17  of    76
     c_bands:  1 eigenvalues not converged
     total cpu time spent up to now is      564.5 secs

     Computing kpt #:    18  of    76
     c_bands:  1 eigenvalues not converged
     total cpu time spent up to now is      597.1 secs

     Computing kpt #:    19  of    76
     total cpu time spent up to now is      629.9 secs

     Computing kpt #:    20  of    76
     c_bands:  1 eigenvalues not converged
     total cpu time spent up to now is      662.2 secs

     Computing kpt #:    21  of    76
     total cpu time spent up to now is      694.7 secs

     Computing kpt #:    22  of    76
     total cpu time spent up to now is      727.3 secs

     Computing kpt #:    23  of    76
     total cpu time spent up to now is      759.0 secs

     Computing kpt #:    24  of    76
     c_bands:  1 eigenvalues not converged
     total cpu time spent up to now is      791.4 secs

     Computing kpt #:    25  of    76
     c_bands:  1 eigenvalues not converged
     total cpu time spent up to now is      824.2 secs

     Computing kpt #:    26  of    76
     c_bands:  1 eigenvalues not converged
     total cpu time spent up to now is      856.6 secs

     Computing kpt #:    27  of    76
     total cpu time spent up to now is      889.2 secs

     Computing kpt #:    28  of    76
     c_bands:  1 eigenvalues not converged
     total cpu time spent up to now is      921.9 secs

     Computing kpt #:    29  of    76
     c_bands:  1 eigenvalues not converged
     total cpu time spent up to now is      954.8 secs

     Computing kpt #:    30  of    76
     c_bands:  1 eigenvalues not converged
     total cpu time spent up to now is      988.0 secs

     Computing kpt #:    31  of    76
     c_bands:  1 eigenvalues not converged
     total cpu time spent up to now is     2093.0 secs

     Computing kpt #:    32  of    76
     c_bands:  1 eigenvalues not converged
     total cpu time spent up to now is     2125.9 secs

     Computing kpt #:    33  of    76
     c_bands:  1 eigenvalues not converged
     total cpu time spent up to now is     2159.1 secs

     Computing kpt #:    34  of    76
     c_bands:  1 eigenvalues not converged
     total cpu time spent up to now is     2192.5 secs

     Computing kpt #:    35  of    76
     total cpu time spent up to now is     2225.5 secs

     Computing kpt #:    36  of    76
     c_bands:  1 eigenvalues not converged
     total cpu time spent up to now is     2258.9 secs

     Computing kpt #:    37  of    76
     c_bands:  1 eigenvalues not converged
     total cpu time spent up to now is     2292.6 secs

     Computing kpt #:    38  of    76
     c_bands:  1 eigenvalues not converged
     total cpu time spent up to now is     2325.9 secs

     Computing kpt #:    39  of    76
     c_bands:  1 eigenvalues not converged
     total cpu time spent up to now is     2359.2 secs

     Computing kpt #:    40  of    76
     c_bands:  1 eigenvalues not converged
     total cpu time spent up to now is     2393.4 secs

     Computing kpt #:    41  of    76
     c_bands:  1 eigenvalues not converged
     total cpu time spent up to now is     2426.7 secs

     Computing kpt #:    42  of    76
     c_bands:  1 eigenvalues not converged
     total cpu time spent up to now is     2460.1 secs

     Computing kpt #:    43  of    76
     c_bands:  1 eigenvalues not converged
     total cpu time spent up to now is     2493.4 secs

     Computing kpt #:    44  of    76
     c_bands:  1 eigenvalues not converged
     total cpu time spent up to now is     2527.5 secs

     Computing kpt #:    45  of    76
     c_bands:  1 eigenvalues not converged
     total cpu time spent up to now is     2561.0 secs

     Computing kpt #:    46  of    76
     c_bands:  1 eigenvalues not converged
     total cpu time spent up to now is     2594.5 secs

     Computing kpt #:    47  of    76
     c_bands:  1 eigenvalues not converged
     total cpu time spent up to now is     2627.9 secs

     Computing kpt #:    48  of    76
     c_bands:  1 eigenvalues not converged
     total cpu time spent up to now is     2662.3 secs

     Computing kpt #:    49  of    76
     c_bands:  1 eigenvalues not converged
     total cpu time spent up to now is     2696.3 secs

     Computing kpt #:    50  of    76
     total cpu time spent up to now is     2727.0 secs

     Computing kpt #:    51  of    76
     total cpu time spent up to now is     2757.7 secs

     Computing kpt #:    52  of    76
     total cpu time spent up to now is     2789.1 secs

     Computing kpt #:    53  of    76
     total cpu time spent up to now is     2816.9 secs

     Computing kpt #:    54  of    76
     total cpu time spent up to now is     2845.5 secs

     Computing kpt #:    55  of    76
     total cpu time spent up to now is     2874.3 secs

     Computing kpt #:    56  of    76
     total cpu time spent up to now is     2902.8 secs

     Computing kpt #:    57  of    76
     total cpu time spent up to now is     2930.3 secs

     Computing kpt #:    58  of    76
     total cpu time spent up to now is     2958.2 secs

     Computing kpt #:    59  of    76
     total cpu time spent up to now is     2986.0 secs

     Computing kpt #:    60  of    76
     total cpu time spent up to now is     3013.8 secs

     Computing kpt #:    61  of    76
     total cpu time spent up to now is     3040.5 secs

     Computing kpt #:    62  of    76
     total cpu time spent up to now is     3066.8 secs

     Computing kpt #:    63  of    76
     total cpu time spent up to now is     3092.2 secs

     Computing kpt #:    64  of    76
     total cpu time spent up to now is     3119.8 secs

     Computing kpt #:    65  of    76
     total cpu time spent up to now is     3146.5 secs

     Computing kpt #:    66  of    76
     total cpu time spent up to now is     3172.3 secs

     Computing kpt #:    67  of    76
     total cpu time spent up to now is     3198.6 secs

     Computing kpt #:    68  of    76
     total cpu time spent up to now is     3224.8 secs

     Computing kpt #:    69  of    76
     total cpu time spent up to now is     3251.3 secs

     Computing kpt #:    70  of    76
     total cpu time spent up to now is     3277.2 secs

     Computing kpt #:    71  of    76
     total cpu time spent up to now is     3834.9 secs

     Computing kpt #:    72  of    76
     total cpu time spent up to now is     3862.2 secs

     Computing kpt #:    73  of    76
     total cpu time spent up to now is     3888.6 secs

     Computing kpt #:    74  of    76
     total cpu time spent up to now is     3914.7 secs

     Computing kpt #:    75  of    76
     total cpu time spent up to now is     3942.0 secs

     Computing kpt #:    76  of    76
     total cpu time spent up to now is     3969.6 secs

     ethr =  5.00E-11,  avg # of iterations =102.1

     total cpu time spent up to now is     3969.6 secs

     End of band structure calculation

          k = 0.0000 0.0000 0.0000 (285921 PWs)   bands (ev):

   -20.7222 -16.6338 -15.7014 -13.0815 -11.5511 -11.3708  -8.9702  -8.8077
    -7.7270  -4.0157  -3.4134  -0.6492  -0.3868   0.0111

     occupation numbers 
     1.0000   1.0000   1.0000   1.0000   1.0000   1.0000   1.0000   1.0000
     1.0000   1.0000   0.0000   0.0000   0.0000   0.0000

          k = 0.0000 0.0000 0.0067 (285927 PWs)   bands (ev):

   -20.7220 -16.6351 -15.7010 -13.0800 -11.5531 -11.3697  -8.9695  -8.8074
    -7.7276  -4.0194  -3.4100  -0.6488  -0.3865   0.0114

     occupation numbers 
     1.0000   1.0000   1.0000   1.0000   1.0000   1.0000   1.0000   1.0000
     1.0000   1.0000   0.0000   0.0000   0.0000   0.0000

          k = 0.0000 0.0000 0.0133 (285901 PWs)   bands (ev):

   -20.7212 -16.6390 -15.6999 -13.0757 -11.5588 -11.3664  -8.9674  -8.8065
    -7.7295  -4.0302  -3.3999  -0.6476  -0.3855   0.0125

     occupation numbers 
     1.0000   1.0000   1.0000   1.0000   1.0000   1.0000   1.0000   1.0000
     1.0000   1.0000   0.0000   0.0000   0.0000   0.0000

          k = 0.0000 0.0000 0.0200 (285863 PWs)   bands (ev):

   -20.7200 -16.6455 -15.6980 -13.0685 -11.5679 -11.3613  -8.9640  -8.8051
    -7.7326  -4.0475  -3.3839  -0.6456  -0.3838   0.0143

     occupation numbers 
     1.0000   1.0000   1.0000   1.0000   1.0000   1.0000   1.0000   1.0000
     1.0000   1.0000   0.0000   0.0000   0.0000   0.0000

          k = 0.0000 0.0000 0.0267 (285877 PWs)   bands (ev):

   -20.7182 -16.6545 -15.6953 -13.0584 -11.5801 -11.3547  -8.9592  -8.8031
    -7.7370  -4.0703  -3.3627  -0.6429  -0.3815   0.0169

     occupation numbers 
     1.0000   1.0000   1.0000   1.0000   1.0000   1.0000   1.0000   1.0000
     1.0000   1.0000   0.0000   0.0000   0.0000   0.0000

          k = 0.0000 0.0000 0.0333 (285959 PWs)   bands (ev):

   -20.7160 -16.6660 -15.6920 -13.0455 -11.5949 -11.3471  -8.9532  -8.8006
    -7.7427  -4.0978  -3.3374  -0.6393  -0.3785   0.0201

     occupation numbers 
     1.0000   1.0000   1.0000   1.0000   1.0000   1.0000   1.0000   1.0000
     1.0000   1.0000   0.0000   0.0000   0.0000   0.0000

          k = 0.0000 0.0000 0.0400 (285919 PWs)   bands (ev):

   -20.7132 -16.6799 -15.6879 -13.0298 -11.6120 -11.3387  -8.9459  -8.7975
    -7.7495  -4.1290  -3.3087  -0.6350  -0.3748   0.0241

     occupation numbers 
     1.0000   1.0000   1.0000   1.0000   1.0000   1.0000   1.0000   1.0000
     1.0000   1.0000   0.0000   0.0000   0.0000   0.0000

          k = 0.0000 0.0000 0.0467 (285943 PWs)   bands (ev):

   -20.7100 -16.6961 -15.6832 -13.0115 -11.6310 -11.3298  -8.9374  -8.7938
    -7.7576  -4.1633  -3.2775  -0.6299  -0.3704   0.0288

     occupation numbers 
     1.0000   1.0000   1.0000   1.0000   1.0000   1.0000   1.0000   1.0000
     1.0000   1.0000   0.0000   0.0000   0.0000   0.0000

          k = 0.0000 0.0000 0.0533 (285983 PWs)   bands (ev):

   -20.7062 -16.7145 -15.6779 -12.9906 -11.6519 -11.3205  -8.9278  -8.7895
    -7.7669  -4.2001  -3.2442  -0.6240  -0.3654   0.0343

     occupation numbers 
     1.0000   1.0000   1.0000   1.0000   1.0000   1.0000   1.0000   1.0000
     1.0000   1.0000   0.0000   0.0000   0.0000   0.0000

          k = 0.0000 0.0000 0.0600 (285959 PWs)   bands (ev):

   -20.7020 -16.7350 -15.6719 -12.9671 -11.6745 -11.3108  -8.9171  -8.7847
    -7.7774  -4.2389  -3.2093  -0.6174  -0.3598   0.0404

     occupation numbers 
     1.0000   1.0000   1.0000   1.0000   1.0000   1.0000   1.0000   1.0000
     1.0000   1.0000   0.0000   0.0000   0.0000   0.0000

          k = 0.0000 0.0000 0.0667 (285931 PWs)   bands (ev):

   -20.6972 -16.7575 -15.6653 -12.9411 -11.6985 -11.3009  -8.9055  -8.7793
    -7.7891  -4.2793  -3.1733  -0.6100  -0.3534   0.0473

     occupation numbers 
     1.0000   1.0000   1.0000   1.0000   1.0000   1.0000   1.0000   1.0000
     1.0000   1.0000   0.0000   0.0000   0.0000   0.0000

          k = 0.0000 0.0000 0.0733 (285943 PWs)   bands (ev):

   -20.6920 -16.7820 -15.6582 -12.9128 -11.7240 -11.2907  -8.8930  -8.7734
    -7.8020  -4.3211  -3.1363  -0.6018  -0.3464   0.0549

     occupation numbers 
     1.0000   1.0000   1.0000   1.0000   1.0000   1.0000   1.0000   1.0000
     1.0000   1.0000   0.0000   0.0000   0.0000   0.0000

          k = 0.0000 0.0000 0.0800 (285905 PWs)   bands (ev):

   -20.6862 -16.8082 -15.6505 -12.8821 -11.7509 -11.2803  -8.8797  -8.7669
    -7.8160  -4.3640  -3.0987  -0.5928  -0.3388   0.0633

     occupation numbers 
     1.0000   1.0000   1.0000   1.0000   1.0000   1.0000   1.0000   1.0000
     1.0000   1.0000   0.0000   0.0000   0.0000   0.0000

          k = 0.0000 0.0000 0.0867 (285903 PWs)   bands (ev):

   -20.6800 -16.8361 -15.6423 -12.8493 -11.7790 -11.2697  -8.8656  -8.7598
    -7.8311  -4.4078  -3.0604  -0.5831  -0.3304   0.0723

     occupation numbers 
     1.0000   1.0000   1.0000   1.0000   1.0000   1.0000   1.0000   1.0000
     1.0000   1.0000   0.0000   0.0000   0.0000   0.0000

          k = 0.0000 0.0000 0.0933 (285891 PWs)   bands (ev):

   -20.6732 -16.8656 -15.6336 -12.8145 -11.8083 -11.2589  -8.8510  -8.7522
    -7.8473  -4.4524  -3.0218  -0.5727  -0.3214   0.0821

     occupation numbers 
     1.0000   1.0000   1.0000   1.0000   1.0000   1.0000   1.0000   1.0000
     1.0000   1.0000   0.0000   0.0000   0.0000   0.0000

          k = 0.0000 0.0000 0.1000 (285887 PWs)   bands (ev):

   -20.6660 -16.8966 -15.6244 -12.7776 -11.8388 -11.2478  -8.8359  -8.7440
    -7.8646  -4.4977  -2.9828  -0.5614  -0.3118   0.0926

     occupation numbers 
     1.0000   1.0000   1.0000   1.0000   1.0000   1.0000   1.0000   1.0000
     1.0000   1.0000   0.0000   0.0000   0.0000   0.0000

          k = 0.0000 0.0000 0.1067 (285885 PWs)   bands (ev):

   -20.6582 -16.9289 -15.6147 -12.7388 -11.8703 -11.2364  -8.8203  -8.7353
    -7.8829  -4.5436  -2.9435  -0.5495  -0.3014   0.1039

     occupation numbers 
     1.0000   1.0000   1.0000   1.0000   1.0000   1.0000   1.0000   1.0000
     1.0000   1.0000   0.0000   0.0000   0.0000   0.0000

          k = 0.0000 0.0000 0.1133 (285869 PWs)   bands (ev):

   -20.6500 -16.9625 -15.6046 -12.6982 -11.9028 -11.2248  -8.8044  -8.7259
    -7.9023  -4.5900  -2.9041  -0.5368  -0.2904   0.1158

     occupation numbers 
     1.0000   1.0000   1.0000   1.0000   1.0000   1.0000   1.0000   1.0000
     1.0000   1.0000   0.0000   0.0000   0.0000   0.0000

          k = 0.0000 0.0000 0.1200 (285851 PWs)   bands (ev):

   -20.6413 -16.9973 -15.5939 -12.6559 -11.9364 -11.2128  -8.7883  -8.7161
    -7.9227  -4.6368  -2.8646  -0.5234  -0.2788   0.1285

     occupation numbers 
     1.0000   1.0000   1.0000   1.0000   1.0000   1.0000   1.0000   1.0000
     1.0000   1.0000   0.0000   0.0000   0.0000   0.0000

          k = 0.0000 0.0000 0.1267 (285869 PWs)   bands (ev):

   -20.6320 -17.0331 -15.5828 -12.6119 -11.9708 -11.2006  -8.7720  -8.7056
    -7.9441  -4.6840  -2.8249  -0.5092  -0.2665   0.1419

     occupation numbers 
     1.0000   1.0000   1.0000   1.0000   1.0000   1.0000   1.0000   1.0000
     1.0000   1.0000   0.0000   0.0000   0.0000   0.0000

          k = 0.0000 0.0000 0.1333 (285869 PWs)   bands (ev):

   -20.6223 -17.0700 -15.5713 -12.5665 -12.0061 -11.1880  -8.7557  -8.6946
    -7.9664  -4.7316  -2.7852  -0.4943  -0.2535   0.1561

     occupation numbers 
     1.0000   1.0000   1.0000   1.0000   1.0000   1.0000   1.0000   1.0000
     1.0000   1.0000   0.0000   0.0000   0.0000   0.0000

          k = 0.0000 0.0000 0.1400 (285871 PWs)   bands (ev):

   -20.6121 -17.1078 -15.5593 -12.5196 -12.0421 -11.1750  -8.7394  -8.6831
    -7.9896  -4.7795  -2.7454  -0.4787  -0.2399   0.1709

     occupation numbers 
     1.0000   1.0000   1.0000   1.0000   1.0000   1.0000   1.0000   1.0000
     1.0000   1.0000   0.0000   0.0000   0.0000   0.0000

          k = 0.0000 0.0000 0.1467 (285879 PWs)   bands (ev):

   -20.6014 -17.1464 -15.5468 -12.4713 -12.0789 -11.1617  -8.7232  -8.6710
    -8.0137  -4.8276  -2.7055  -0.4624  -0.2256   0.1865

     occupation numbers 
     1.0000   1.0000   1.0000   1.0000   1.0000   1.0000   1.0000   1.0000
     1.0000   1.0000   0.0000   0.0000   0.0000   0.0000

          k = 0.0000 0.0000 0.1533 (285829 PWs)   bands (ev):

   -20.5902 -17.1858 -15.5339 -12.4218 -12.1164 -11.1481  -8.7073  -8.6583
    -8.0387  -4.8759  -2.6657  -0.4454  -0.2106   0.2028

     occupation numbers 
     1.0000   1.0000   1.0000   1.0000   1.0000   1.0000   1.0000   1.0000
     1.0000   1.0000   0.0000   0.0000   0.0000   0.0000

          k = 0.0000 0.0000 0.1600 (285811 PWs)   bands (ev):

   -20.5785 -17.2258 -15.5205 -12.3711 -12.1546 -11.1340  -8.6916  -8.6451
    -8.0646  -4.9245  -2.6258  -0.4277  -0.1950   0.2199

     occupation numbers 
     1.0000   1.0000   1.0000   1.0000   1.0000   1.0000   1.0000   1.0000
     1.0000   1.0000   0.0000   0.0000   0.0000   0.0000

          k = 0.0000 0.0000 0.1667 (285837 PWs)   bands (ev):

   -20.5663 -17.2665 -15.5067 -12.3192 -12.1933 -11.1195  -8.6764  -8.6313
    -8.0912  -4.9732  -2.5859  -0.4092  -0.1787   0.2376

     occupation numbers 
     1.0000   1.0000   1.0000   1.0000   1.0000   1.0000   1.0000   1.0000
     1.0000   1.0000   0.0000   0.0000   0.0000   0.0000

          k = 0.0000 0.0000 0.1733 (285817 PWs)   bands (ev):

   -20.5536 -17.3078 -15.4924 -12.2663 -12.2326 -11.1047  -8.6616  -8.6170
    -8.1186  -5.0220  -2.5461  -0.3901  -0.1618   0.2561

     occupation numbers 
     1.0000   1.0000   1.0000   1.0000   1.0000   1.0000   1.0000   1.0000
     1.0000   1.0000   0.0000   0.0000   0.0000   0.0000

          k = 0.0000 0.0000 0.1800 (285793 PWs)   bands (ev):

   -20.5404 -17.3496 -15.4777 -12.2725 -12.2123 -11.0894  -8.6473  -8.6021
    -8.1467  -5.0710  -2.5062  -0.3703  -0.1442   0.2753

     occupation numbers 
     1.0000   1.0000   1.0000   1.0000   1.0000   1.0000   1.0000   1.0000
     1.0000   1.0000   0.0000   0.0000   0.0000   0.0000

          k = 0.0000 0.0000 0.1867 (285771 PWs)   bands (ev):

   -20.5267 -17.3918 -15.4626 -12.3128 -12.1575 -11.0737  -8.6337  -8.5867
    -8.1756  -5.1201  -2.4662  -0.3498  -0.1259   0.2953

     occupation numbers 
     1.0000   1.0000   1.0000   1.0000   1.0000   1.0000   1.0000   1.0000
     1.0000   1.0000   0.0000   0.0000   0.0000   0.0000

          k = 0.0000 0.0000 0.1933 (285749 PWs)   bands (ev):

   -20.5125 -17.4344 -15.4469 -12.3534 -12.1018 -11.0575  -8.6207  -8.5707
    -8.2051  -5.1692  -2.4263  -0.3287  -0.1070   0.3159

     occupation numbers 
     1.0000   1.0000   1.0000   1.0000   1.0000   1.0000   1.0000   1.0000
     1.0000   1.0000   0.0000   0.0000   0.0000   0.0000

          k = 0.0000 0.0000 0.2000 (285751 PWs)   bands (ev):

   -20.4979 -17.4774 -15.4309 -12.3945 -12.0453 -11.0410  -8.6085  -8.5542
    -8.2353  -5.2184  -2.3864  -0.3068  -0.0874   0.3373

     occupation numbers 
     1.0000   1.0000   1.0000   1.0000   1.0000   1.0000   1.0000   1.0000
     1.0000   1.0000   0.0000   0.0000   0.0000   0.0000

          k = 0.0000 0.0000 0.2067 (285725 PWs)   bands (ev):

   -20.4828 -17.5207 -15.4143 -12.4359 -11.9881 -11.0240  -8.5971  -8.5371
    -8.2661  -5.2677  -2.3464  -0.2843  -0.0672   0.3594

     occupation numbers 
     1.0000   1.0000   1.0000   1.0000   1.0000   1.0000   1.0000   1.0000
     1.0000   1.0000   0.0000   0.0000   0.0000   0.0000

          k = 0.0000 0.0000 0.2133 (285711 PWs)   bands (ev):

   -20.4671 -17.5643 -15.3974 -12.4777 -11.9302 -11.0065  -8.5866  -8.5195
    -8.2975  -5.3169  -2.3065  -0.2611  -0.0463   0.3823

     occupation numbers 
     1.0000   1.0000   1.0000   1.0000   1.0000   1.0000   1.0000   1.0000
     1.0000   1.0000   0.0000   0.0000   0.0000   0.0000

          k = 0.0000 0.0000 0.2200 (285734 PWs)   bands (ev):

   -20.4510 -17.6081 -15.3799 -12.5197 -11.8716 -10.9887  -8.5770  -8.5013
    -8.3294  -5.3662  -2.2664  -0.2373  -0.0247   0.4058

     occupation numbers 
     1.0000   1.0000   1.0000   1.0000   1.0000   1.0000   1.0000   1.0000
     1.0000   1.0000   0.0000   0.0000   0.0000   0.0000

          k = 0.0000 0.0000 0.2267 (285748 PWs)   bands (ev):

   -20.4344 -17.6521 -15.3620 -12.5619 -11.8125 -10.9703  -8.5684  -8.4826
    -8.3619  -5.4155  -2.2264  -0.2128  -0.0025   0.4301

     occupation numbers 
     1.0000   1.0000   1.0000   1.0000   1.0000   1.0000   1.0000   1.0000
     1.0000   1.0000   0.0000   0.0000   0.0000   0.0000

          k = 0.0000 0.0000 0.2333 (285732 PWs)   bands (ev):

   -20.4173 -17.6962 -15.3437 -12.6044 -11.7529 -10.9515  -8.5609  -8.4634
    -8.3949  -5.4647  -2.1863  -0.1877   0.0204   0.4551

     occupation numbers 
     1.0000   1.0000   1.0000   1.0000   1.0000   1.0000   1.0000   1.0000
     1.0000   1.0000   0.0000   0.0000   0.0000   0.0000

          k = 0.0000 0.0000 0.2400 (285740 PWs)   bands (ev):

   -20.3998 -17.7405 -15.3248 -12.6470 -11.6928 -10.9323  -8.5545  -8.4436
    -8.4284  -5.5139  -2.1461  -0.1619   0.0439   0.4809

     occupation numbers 
     1.0000   1.0000   1.0000   1.0000   1.0000   1.0000   1.0000   1.0000
     1.0000   1.0000   0.0000   0.0000   0.0000   0.0000

          k = 0.0000 0.0000 0.2467 (285758 PWs)   bands (ev):

   -20.3817 -17.7848 -15.3056 -12.6898 -11.6322 -10.9126  -8.5492  -8.4623
    -8.4233  -5.5630  -2.1059  -0.1354   0.0681   0.5073

     occupation numbers 
     1.0000   1.0000   1.0000   1.0000   1.0000   1.0000   1.0000   1.0000
     1.0000   1.0000   0.0000   0.0000   0.0000   0.0000

          k = 0.0000 0.0000 0.2533 (285806 PWs)   bands (ev):

   -20.3632 -17.8292 -15.2858 -12.7327 -11.5713 -10.8925  -8.5452  -8.4966
    -8.4024  -5.6121  -2.0656  -0.1084   0.0929   0.5345

     occupation numbers 
     1.0000   1.0000   1.0000   1.0000   1.0000   1.0000   1.0000   1.0000
     1.0000   1.0000   0.0000   0.0000   0.0000   0.0000

          k = 0.0000 0.0000 0.2600 (285810 PWs)   bands (ev):

   -20.3442 -17.8736 -15.2656 -12.7757 -11.5100 -10.8719  -8.5424  -8.5312
    -8.3810  -5.6610  -2.0253  -0.0806   0.1185   0.5625

     occupation numbers 
     1.0000   1.0000   1.0000   1.0000   1.0000   1.0000   1.0000   1.0000
     1.0000   1.0000   0.0000   0.0000   0.0000   0.0000

          k = 0.0000 0.0000 0.2667 (285886 PWs)   bands (ev):

   -20.3247 -17.9181 -15.2450 -12.8188 -11.4485 -10.8509  -8.5664  -8.5407
    -8.3591  -5.7099  -1.9848  -0.0523   0.1447   0.5911

     occupation numbers 
     1.0000   1.0000   1.0000   1.0000   1.0000   1.0000   1.0000   1.0000
     1.0000   1.0000   0.0000   0.0000   0.0000   0.0000

          k = 0.0000 0.0000 0.2733 (285872 PWs)   bands (ev):

   -20.3047 -17.9625 -15.2239 -12.8619 -11.3866 -10.8294  -8.6018  -8.5405
    -8.3367  -5.7586  -1.9443  -0.0233   0.1715   0.6205

     occupation numbers 
     1.0000   1.0000   1.0000   1.0000   1.0000   1.0000   1.0000   1.0000
     1.0000   1.0000   0.0000   0.0000   0.0000   0.0000

          k = 0.0000 0.0000 0.2800 (285896 PWs)   bands (ev):

   -20.2842 -18.0069 -15.2023 -12.9051 -11.3246 -10.8075  -8.6375  -8.5417
    -8.3137  -5.8073  -1.9036   0.0063   0.1990   0.6506

     occupation numbers 
     1.0000   1.0000   1.0000   1.0000   1.0000   1.0000   1.0000   1.0000
     1.0000   1.0000   0.0000   0.0000   0.0000   0.0000

          k = 0.0000 0.0000 0.2867 (285884 PWs)   bands (ev):

   -20.2633 -18.0512 -15.1803 -12.9482 -11.2624 -10.7851  -8.6735  -8.5442
    -8.2902  -5.8558  -1.8629   0.0365   0.2272   0.6814

     occupation numbers 
     1.0000   1.0000   1.0000   1.0000   1.0000   1.0000   1.0000   1.0000
     1.0000   1.0000   0.0000   0.0000   0.0000   0.0000

          k = 0.0000 0.0000 0.2933 (285918 PWs)   bands (ev):

   -20.2419 -18.0954 -15.1578 -12.9914 -11.2001 -10.7623  -8.7098  -8.5481
    -8.2662  -5.9041  -1.8220   0.0673   0.2561   0.7130

     occupation numbers 
     1.0000   1.0000   1.0000   1.0000   1.0000   1.0000   1.0000   1.0000
     1.0000   1.0000   0.0000   0.0000   0.0000   0.0000

          k = 0.0000 0.0000 0.3000 (285910 PWs)   bands (ev):

   -20.2200 -18.1395 -15.1348 -13.0345 -11.1376 -10.7390  -8.7463  -8.5535
    -8.2416  -5.9523  -1.7810   0.0988   0.2856   0.7459

     occupation numbers 
     1.0000   1.0000   1.0000   1.0000   1.0000   1.0000   1.0000   1.0000
     1.0000   1.0000   0.0000   0.0000   0.0000   0.0000

          k = 0.0000 0.0000 0.3067 (285898 PWs)   bands (ev):

   -20.1977 -18.1835 -15.1114 -13.0775 -11.0751 -10.7153  -8.7830  -8.5603
    -8.2166  -6.0003  -1.7398   0.1308   0.3157   0.7653

     occupation numbers 
     1.0000   1.0000   1.0000   1.0000   1.0000   1.0000   1.0000   1.0000
     1.0000   1.0000   0.0000   0.0000   0.0000   0.0000

          k = 0.0000 0.0000 0.3133 (285912 PWs)   bands (ev):

   -20.1749 -18.2274 -15.0876 -13.1205 -11.0126 -10.6912  -8.8199  -8.5687
    -8.1910  -6.0481  -1.6986   0.1635   0.3466   0.7647

     occupation numbers 
     1.0000   1.0000   1.0000   1.0000   1.0000   1.0000   1.0000   1.0000
     1.0000   1.0000   0.0000   0.0000   0.0000   0.0000

          k = 0.0000 0.0000 0.3200 (285978 PWs)   bands (ev):

   -20.1516 -18.2711 -15.0633 -13.1634 -10.9501 -10.6666  -8.8570  -8.5785
    -8.1649  -6.0958  -1.6571   0.1967   0.3781   0.7516

     occupation numbers 
     1.0000   1.0000   1.0000   1.0000   1.0000   1.0000   1.0000   1.0000
     1.0000   1.0000   0.0000   0.0000   0.0000   0.0000

          k = 0.0000 0.0000 0.3267 (285900 PWs)   bands (ev):

   -20.1279 -18.3146 -15.0385 -13.2062 -10.8877 -10.6416  -8.8942  -8.5898
    -8.1383  -6.1432  -1.6155   0.2305   0.4103   0.7276

     occupation numbers 
     1.0000   1.0000   1.0000   1.0000   1.0000   1.0000   1.0000   1.0000
     1.0000   1.0000   0.0000   0.0000   0.0000   0.0000

          k = 0.0000 0.0000 0.3333 (285956 PWs)   bands (ev):

   -20.1037 -18.3579 -15.0133 -13.2488 -10.8253 -10.6161  -8.9315  -8.6027
    -8.1112  -6.1904  -1.5738   0.2649   0.4431   0.6958

     occupation numbers 
     1.0000   1.0000   1.0000   1.0000   1.0000   1.0000   1.0000   1.0000
     1.0000   1.0000   0.0000   0.0000   0.0000   0.0000

          k = 0.0000 0.0000 0.3400 (285994 PWs)   bands (ev):

   -20.0790 -18.4010 -14.9876 -13.2913 -10.7631 -10.5902  -8.9689  -8.6170
    -8.0836  -6.2374  -1.5319   0.2999   0.4766   0.6589

     occupation numbers 
     1.0000   1.0000   1.0000   1.0000   1.0000   1.0000   1.0000   1.0000
     1.0000   1.0000   0.0000   0.0000   0.0000   0.0000

          k = 0.0000 0.0000 0.3467 (286026 PWs)   bands (ev):

   -20.0539 -18.4440 -14.9615 -13.3337 -10.7010 -10.5639  -9.0064  -8.6330
    -8.0555  -6.2842  -1.4898   0.3355   0.5108   0.6185

     occupation numbers 
     1.0000   1.0000   1.0000   1.0000   1.0000   1.0000   1.0000   1.0000
     1.0000   1.0000   0.0000   0.0000   0.0000   0.0000

          k = 0.0000 0.0000 0.3533 (286016 PWs)   bands (ev):

   -20.0283 -18.4866 -14.9349 -13.3759 -10.6392 -10.5372  -9.0439  -8.6504
    -8.0269  -6.3307  -1.4475   0.3716   0.5456   0.5760

     occupation numbers 
     1.0000   1.0000   1.0000   1.0000   1.0000   1.0000   1.0000   1.0000
     1.0000   1.0000   0.0000   0.0000   0.0000   0.0000

          k = 0.0000 0.0000 0.3600 (286006 PWs)   bands (ev):

   -20.0022 -18.5291 -14.9079 -13.4179 -10.5776 -10.5100  -9.0815  -8.6694
    -7.9978  -6.3769  -1.4050   0.4083   0.5318   0.5811

     occupation numbers 
     1.0000   1.0000   1.0000   1.0000   1.0000   1.0000   1.0000   1.0000
     1.0000   1.0000   0.0000   0.0000   0.0000   0.0000

          k = 0.0000 0.0000 0.3667 (285976 PWs)   bands (ev):

   -19.9757 -18.5713 -14.8805 -13.4598 -10.5163 -10.4824  -9.1191  -8.6899
    -7.9681  -6.4229  -1.3624   0.4455   0.4866   0.6172

     occupation numbers 
     1.0000   1.0000   1.0000   1.0000   1.0000   1.0000   1.0000   1.0000
     1.0000   1.0000   0.0000   0.0000   0.0000   0.0000

          k = 0.0000 0.0000 0.3733 (285984 PWs)   bands (ev):

   -19.9488 -18.6132 -14.8526 -13.5014 -10.4569 -10.4528  -9.1568  -8.7120
    -7.9381  -6.4686  -1.3196   0.4405   0.4832   0.6539

     occupation numbers 
     1.0000   1.0000   1.0000   1.0000   1.0000   1.0000   1.0000   1.0000
     1.0000   1.0000   0.0000   0.0000   0.0000   0.0000

          k = 0.0000 0.0000 0.3800 (285972 PWs)   bands (ev):

   -19.9214 -18.6549 -14.8243 -13.5428 -10.4264 -10.3943  -9.1943  -8.7355
    -7.9075  -6.5141  -1.2765   0.3939   0.5215   0.6913

     occupation numbers 
     1.0000   1.0000   1.0000   1.0000   1.0000   1.0000   1.0000   1.0000
     1.0000   1.0000   0.0000   0.0000   0.0000   0.0000

          k = 0.0000 0.0000 0.3867 (285954 PWs)   bands (ev):

   -19.8936 -18.6962 -14.7956 -13.5840 -10.3976 -10.3340  -9.2319  -8.7606
    -7.8764  -6.5592  -1.2333   0.3468   0.5602   0.7293

     occupation numbers 
     1.0000   1.0000   1.0000   1.0000   1.0000   1.0000   1.0000   1.0000
     1.0000   1.0000   0.0000   0.0000   0.0000   0.0000

          k = 0.0000 0.0000 0.3933 (285918 PWs)   bands (ev):

   -19.8653 -18.7373 -14.7664 -13.6249 -10.3684 -10.2742  -9.2694  -8.7872
    -7.8449  -6.6041  -1.1898   0.2994   0.5995   0.7678

     occupation numbers 
     1.0000   1.0000   1.0000   1.0000   1.0000   1.0000   1.0000   1.0000
     1.0000   1.0000   0.0000   0.0000   0.0000   0.0000

          k = 0.0000 0.0000 0.4000 (285962 PWs)   bands (ev):

   -19.8366 -18.7780 -14.7368 -13.6656 -10.3389 -10.2147  -9.3068  -8.8152
    -7.8129  -6.6486  -1.1462   0.2517   0.6392   0.8070

     occupation numbers 
     1.0000   1.0000   1.0000   1.0000   1.0000   1.0000   1.0000   1.0000
     1.0000   1.0000   0.0000   0.0000   0.0000   0.0000

          k = 0.0000 0.0000 0.4067 (285976 PWs)   bands (ev):

   -19.8074 -18.8185 -14.7068 -13.7060 -10.3090 -10.1558  -9.3442  -8.8447
    -7.7804  -6.6928  -1.1023   0.2039   0.6794   0.8466

     occupation numbers 
     1.0000   1.0000   1.0000   1.0000   1.0000   1.0000   1.0000   1.0000
     1.0000   1.0000   0.0000   0.0000   0.0000   0.0000

          k = 0.0000 0.0000 0.4133 (285936 PWs)   bands (ev):

   -19.7778 -18.8586 -14.6763 -13.7462 -10.2787 -10.0974  -9.3814  -8.8757
    -7.7474  -6.7367  -1.0583   0.1559   0.7200   0.8868

     occupation numbers 
     1.0000   1.0000   1.0000   1.0000   1.0000   1.0000   1.0000   1.0000
     1.0000   1.0000   0.0000   0.0000   0.0000   0.0000

          k = 0.0000 0.0000 0.4200 (286030 PWs)   bands (ev):

   -19.7478 -18.8984 -14.6455 -13.7860 -10.2481 -10.0396  -9.4185  -8.9080
    -7.7140  -6.7802  -1.0140   0.1079   0.7610   0.9273

     occupation numbers 
     1.0000   1.0000   1.0000   1.0000   1.0000   1.0000   1.0000   1.0000
     1.0000   1.0000   0.0000   0.0000   0.0000   0.0000

          k = 0.0000 0.0000 0.4267 (286052 PWs)   bands (ev):

   -19.7174 -18.9378 -14.6142 -13.8256 -10.2171  -9.9824  -9.4554  -8.9417
    -7.6802  -6.8234  -0.9696   0.0599   0.8023   0.9682

     occupation numbers 
     1.0000   1.0000   1.0000   1.0000   1.0000   1.0000   1.0000   1.0000
     1.0000   1.0000   0.0000   0.0000   0.0000   0.0000

          k = 0.0000 0.0000 0.4333 (285998 PWs)   bands (ev):

   -19.6866 -18.9768 -14.5826 -13.8648 -10.1858  -9.9259  -9.4922  -8.9768
    -7.6459  -6.8663  -0.9249   0.0119   0.8440   1.0093

     occupation numbers 
     1.0000   1.0000   1.0000   1.0000   1.0000   1.0000   1.0000   1.0000
     1.0000   1.0000   0.0000   0.0000   0.0000   0.0000

          k = 0.0000 0.0000 0.4400 (286056 PWs)   bands (ev):

   -19.6554 -19.0155 -14.5506 -13.9038 -10.1541  -9.8701  -9.5287  -9.0133
    -7.6111  -6.9088  -0.8800  -0.0360   0.8859   1.0505

     occupation numbers 
     1.0000   1.0000   1.0000   1.0000   1.0000   1.0000   1.0000   1.0000
     1.0000   1.0000   0.0000   0.0000   0.0000   0.0000

          k = 0.0000 0.0000 0.4467 (286058 PWs)   bands (ev):

   -19.6239 -19.0538 -14.5181 -13.9424 -10.1222  -9.8151  -9.5650  -9.0510
    -7.5760  -6.9508  -0.8350  -0.0839   0.9279   1.0914

     occupation numbers 
     1.0000   1.0000   1.0000   1.0000   1.0000   1.0000   1.0000   1.0000
     1.0000   1.0000   0.0000   0.0000   0.0000   0.0000

          k = 0.0000 0.0000 0.4533 (286028 PWs)   bands (ev):

   -19.5919 -19.0916 -14.4854 -13.9806 -10.0899  -9.7612  -9.6007  -9.0900
    -7.5404  -6.9925  -0.7897  -0.1317   0.9701   1.1315

     occupation numbers 
     1.0000   1.0000   1.0000   1.0000   1.0000   1.0000   1.0000   1.0000
     1.0000   1.0000   0.0000   0.0000   0.0000   0.0000

          k = 0.0000 0.0000 0.4600 (286030 PWs)   bands (ev):

   -19.5597 -19.1289 -14.4523 -14.0184 -10.0573  -9.7094  -9.6351  -9.1301
    -7.5045  -7.0338  -0.7444  -0.1793   1.0122   1.1702

     occupation numbers 
     1.0000   1.0000   1.0000   1.0000   1.0000   1.0000   1.0000   1.0000
     1.0000   1.0000   0.0000   0.0000   0.0000   0.0000

          k = 0.0000 0.0000 0.4667 (286048 PWs)   bands (ev):

   -19.5273 -19.1657 -14.4189 -14.0558 -10.0246  -9.6817  -9.6458  -9.1714
    -7.4682  -7.0746  -0.6989  -0.2267   1.0540   1.2062

     occupation numbers 
     1.0000   1.0000   1.0000   1.0000   1.0000   1.0000   1.0000   1.0000
     1.0000   1.0000   0.0000   0.0000   0.0000   0.0000

          k = 0.0000 0.0000 0.4733 (286012 PWs)   bands (ev):

   -19.4947 -19.2018 -14.3853 -14.0927  -9.9916  -9.7112  -9.6000  -9.2137
    -7.4316  -7.1148  -0.6533  -0.2738   1.0952   1.2370

     occupation numbers 
     1.0000   1.0000   1.0000   1.0000   1.0000   1.0000   1.0000   1.0000
     1.0000   1.0000   0.0000   0.0000   0.0000   0.0000

          k = 0.0000 0.0000 0.4800 (286028 PWs)   bands (ev):

   -19.4624 -19.2369 -14.3517 -14.1289  -9.9587  -9.7452  -9.5506  -9.2568
    -7.3950  -7.1543  -0.6078  -0.3205   1.1354   1.2590

     occupation numbers 
     1.0000   1.0000   1.0000   1.0000   1.0000   1.0000   1.0000   1.0000
     1.0000   1.0000   0.0000   0.0000   0.0000   0.0000

          k = 0.0000 0.0000 0.4867 (286032 PWs)   bands (ev):

   -19.4310 -19.2703 -14.3186 -14.1638  -9.9261  -9.7788  -9.5024  -9.3001
    -7.3587  -7.1926  -0.5629  -0.3663   1.1738   1.2675

     occupation numbers 
     1.0000   1.0000   1.0000   1.0000   1.0000   1.0000   1.0000   1.0000
     1.0000   1.0000   0.0000   0.0000   0.0000   0.0000

          k = 0.0000 0.0000 0.4933 (286040 PWs)   bands (ev):

   -19.4033 -19.2992 -14.2879 -14.1956  -9.8957  -9.8099  -9.4579  -9.3416
    -7.3246  -7.2279  -0.5202  -0.4095   1.2090   1.2603

     occupation numbers 
     1.0000   1.0000   1.0000   1.0000   1.0000   1.0000   1.0000   1.0000
     1.0000   1.0000   0.0000   0.0000   0.0000   0.0000

          k = 0.0000 0.0000-0.5000 (286006 PWs)   bands (ev):

   -19.3897 -19.3132 -14.2710 -14.2129  -9.8782  -9.8276  -9.4324  -9.3661
    -7.3051  -7.2478  -0.4944  -0.4355   1.2359   1.2425

     occupation numbers 
     1.0000   1.0000   1.0000   1.0000   1.0000   1.0000   1.0000   1.0000
     1.0000   1.0000   0.0000   0.0000   0.0000   0.0000

     the Fermi energy is  -3.741742 ev
     (compare with:    -3.7609 eV, computed in scf)

     Writing all to output data dir ./tmp/AGNR.save/ :
     XML data file, pseudopotentials, collected wavefunctions
 
     init_run     :      8.75s CPU     10.27s WALL (       1 calls)
     electrons    :   3485.21s CPU   3959.00s WALL (       1 calls)

     Called by init_run:
     wfcinit      :      0.00s CPU      0.00s WALL (       1 calls)
     wfcinit:wfcr :     50.82s CPU     42.90s WALL (      76 calls)
     potinit      :      2.65s CPU      3.48s WALL (       1 calls)
     hinit0       :      1.15s CPU      1.33s WALL (       1 calls)

     Called by electrons:
     c_bands      :   3485.21s CPU   3958.99s WALL (       1 calls)
     v_of_rho     :      1.61s CPU      2.19s WALL (       1 calls)
     v_h          :      0.15s CPU      0.23s WALL (       1 calls)
     v_xc         :      1.46s CPU      1.96s WALL (       1 calls)
     newd         :      1.15s CPU      1.55s WALL (       1 calls)
     PAW_pot      :      0.09s CPU      0.09s WALL (       1 calls)

     Called by c_bands:
     init_us_2    :      2.56s CPU      1.30s WALL (      76 calls)
     cegterg      :   3424.44s CPU   3910.86s WALL (     404 calls)

     Called by sum_band:

     Called by *egterg:
     cdiaghg      :      5.54s CPU      2.77s WALL (    7835 calls)
     cegterg:over :    118.10s CPU     59.11s WALL (    7759 calls)
     cegterg:upda :     95.65s CPU     47.83s WALL (    7759 calls)
     cegterg:last :    148.47s CPU     74.28s WALL (    3529 calls)
     h_psi        :   2931.61s CPU   2606.46s WALL (    8239 calls)
     s_psi        :     81.47s CPU     40.75s WALL (    8239 calls)
     g_psi        :     29.35s CPU     14.71s WALL (    7759 calls)

     Called by h_psi:
     h_psi:calbec :     76.80s CPU     39.59s WALL (    8239 calls)
     vloc_psi     :   2745.72s CPU   2510.44s WALL (    8239 calls)
     add_vuspsi   :     88.89s CPU     44.55s WALL (    8239 calls)

     General routines
     calbec       :     76.71s CPU     39.55s WALL (    8239 calls)
     fft          :      2.15s CPU      2.48s WALL (      13 calls)
     ffts         :      0.60s CPU      0.61s WALL (       1 calls)
     fftw         :   2078.11s CPU   2023.59s WALL (  100866 calls)
     interpolate  :      0.72s CPU      0.77s WALL (       1 calls)
     davcio       :      0.48s CPU      0.62s WALL (     152 calls)
 
     Parallel routines

     PAW routines
     PAW_pot      :      0.09s CPU      0.09s WALL (       1 calls)
 
     PWSCF        :  58m16.00s CPU      1h 6m WALL

 
   This run was terminated on:  13:40:44  18Nov2025            

=------------------------------------------------------------------------------=
   JOB DONE.
=------------------------------------------------------------------------------=
