C  H 
 1.0000000000000000
     0.0000000000000000    0.0000000000000000    2.4745034017409751
    39.4179974369273580    0.0000000000000000    0.0000000000000000
     0.0000000000000000   30.0883046097560971    0.0000000000000000
 C   H  
   8   2
Cartesian
 16.0900000000000034 15.0000000000000000  0.0000000000000000
 16.8022311594000051 15.0000000000000000  1.2336205548144878
 18.2266934782000050 15.0000000000000000  1.2336205548144878
 18.9389246376000031 15.0000000000000000  0.0000000000000000
 20.3633869564000030 15.0000000000000000  0.0000000000000000
 21.0756181158000047 15.0000000000000000  1.2336205548144878
 22.5000804346000045 15.0000000000000000  1.2336205548144878
 23.2123115940000062 15.0000000000000000  0.0000000000000000
 15.0000000000000036 15.0000000000000000  0.0000000000000000
 24.3023115940000025 15.0000000000000000  0.0000000000000000
