
     Program PWSCF v.7.4.1 starts on 20Nov2025 at 15:45:43 

     This program is part of the open-source Quantum ESPRESSO suite
     for quantum simulation of materials; please cite
         "P. Giannozzi et al., J. Phys.:Condens. Matter 21 395502 (2009);
         "P. Giannozzi et al., J. Phys.:Condens. Matter 29 465901 (2017);
         "P. Giannozzi et al., J. Chem. Phys. 152 154105 (2020);
          URL http://www.quantum-espresso.org", 
     in publications or presentations arising from this work. More details at
     http://www.quantum-espresso.org/quote

     Parallel version (MPI), running on     6 processors

     MPI processes distributed on     1 nodes
     2437 MiB available memory on the printing compute node when the environment starts

     Reading input from 4-zgnr_bands.in

     Current dimensions of program PWSCF are:
     Max number of different atomic species (ntypx) = 10
     Max number of k-points (npk) =  40000
     Max angular momentum in pseudopotentials (lmaxx) =  4
     Message from routine input:
     WARNING: "startingwfc" set to random may spoil restart
     file C.pbe-n-kjpaw_psl.1.0.0.UPF: wavefunction(s)  2S 2P renormalized
     file H.pbe-kjpaw_psl.1.0.0.UPF: wavefunction(s)  1S renormalized

     R & G space division:  proc/nbgrp/npool/nimage =       6
     Subspace diagonalization in iterative solution of the eigenvalue problem:
     a serial algorithm will be used


     Parallelization info
     --------------------
     sticks:   dense  smooth     PW     G-vecs:    dense   smooth      PW
     Min        3234    1298    375              1032507   261370   41185
     Max        3235    1299    376              1032512   261372   41192
     Sum       19405    7789   2255              6195059  1568223  247137

     Using Slab Decomposition



     bravais-lattice index     =            0
     lattice parameter (alat)  =       4.6761  a.u.
     unit-cell volume          =   19805.0950 (a.u.)^3
     number of atoms/cell      =           10
     number of atomic types    =            2
     number of electrons       =        34.00
     number of Kohn-Sham states=           21
     kinetic-energy cutoff     =      70.0000  Ry
     charge density cutoff     =     700.0000  Ry
     Exchange-correlation= SLA  PW   PBX  PBC
                           (   1   4   3   4   0   0   0)

     celldm(1)=   4.676134  celldm(2)=   0.000000  celldm(3)=   0.000000
     celldm(4)=   0.000000  celldm(5)=   0.000000  celldm(6)=   0.000000

     crystal axes: (cart. coord. in units of alat)
               a(1) = (   0.000000   0.000000   1.000000 )  
               a(2) = (  15.929660   0.000000   0.000000 )  
               a(3) = (   0.000000  12.159330   0.000000 )  

     reciprocal axes: (cart. coord. in units 2 pi/alat)
               b(1) = (  0.000000  0.000000  1.000000 )  
               b(2) = (  0.062776  0.000000  0.000000 )  
               b(3) = (  0.000000  0.082241  0.000000 )  


     PseudoPot. # 1 for C  read from file:
     ../../../pseudos/C.pbe-n-kjpaw_psl.1.0.0.UPF
     MD5 check sum: 5f16ad9a65e90284d1d834d4ab3b0f7d
     Pseudo is Projector augmented-wave + core cor, Zval =  4.0
     Generated using &quot;atomic&quot; code by A. Dal Corso  v.6.3
     Shape of augmentation charge: PSQ
     Using radial grid of 1073 points,  4 beta functions with: 
                l(1) =   0
                l(2) =   0
                l(3) =   1
                l(4) =   1
     Q(r) pseudized with 0 coefficients 


     PseudoPot. # 2 for H  read from file:
     ../../../pseudos/H.pbe-kjpaw_psl.1.0.0.UPF
     MD5 check sum: d81a744832360e4a8af0b0b5b123bc2a
     Pseudo is Projector augmented-wave, Zval =  1.0
     Generated using &quot;atomic&quot; code by A. Dal Corso  v.6.3MaX
     Shape of augmentation charge: PSQ
     Using radial grid of  929 points,  2 beta functions with: 
                l(1) =   0
                l(2) =   0
     Q(r) pseudized with 0 coefficients 


     atomic species   valence    mass     pseudopotential
     C                 4.00    12.01100     C ( 1.00)
     H                 1.00     1.00790     H ( 1.00)

     No symmetry found


                                    s                        frac. trans.

      isym =  1     identity                                     

 cryst.   s( 1) = (     1          0          0      )
                  (     0          1          0      )
                  (     0          0          1      )

 cart.    s( 1) = (  1.0000000  0.0000000  0.0000000 )
                  (  0.0000000  1.0000000  0.0000000 )
                  (  0.0000000  0.0000000  1.0000000 )


   Cartesian axes

     site n.     atom                  positions (alat units)
         1        C      tau(   1) = (   6.5023148   6.0618223   0.0000000  )
         2        C      tau(   2) = (   6.7901427   6.0618223   0.4985326  )
         3        C      tau(   3) = (   7.3657985   6.0618223   0.4985326  )
         4        C      tau(   4) = (   7.6536264   6.0618223   0.0000000  )
         5        C      tau(   5) = (   8.2292823   6.0618223   0.0000000  )
         6        C      tau(   6) = (   8.5171102   6.0618223   0.4985326  )
         7        C      tau(   7) = (   9.0927660   6.0618223   0.4985326  )
         8        C      tau(   8) = (   9.3805939   6.0618223   0.0000000  )
         9        H      tau(   9) = (   6.0618223   6.0618223   0.0000000  )
        10        H      tau(  10) = (   9.8210864   6.0618223   0.0000000  )

   Crystallographic axes

     site n.     atom                  positions (cryst. coord.)
         1        C      tau(   1) = (  0.0000000  0.4081892  0.4985326  )
         2        C      tau(   2) = (  0.4985326  0.4262579  0.4985326  )
         3        C      tau(   3) = (  0.4985326  0.4623952  0.4985326  )
         4        C      tau(   4) = (  0.0000000  0.4804639  0.4985326  )
         5        C      tau(   5) = (  0.0000000  0.5166013  0.4985326  )
         6        C      tau(   6) = (  0.4985326  0.5346699  0.4985326  )
         7        C      tau(   7) = (  0.4985326  0.5708073  0.4985326  )
         8        C      tau(   8) = (  0.0000000  0.5888760  0.4985326  )
         9        H      tau(   9) = (  0.0000000  0.3805368  0.4985326  )
        10        H      tau(  10) = (  0.0000000  0.6165283  0.4985326  )

     number of k points=   201  Gaussian smearing, width (Ry)=  0.0020
                       cart. coord. in units 2pi/alat
        k(    1) = (   0.0000000   0.0000000  -0.5000000), wk =   0.0099502
        k(    2) = (   0.0000000   0.0000000  -0.4950000), wk =   0.0099502
        k(    3) = (   0.0000000   0.0000000  -0.4900000), wk =   0.0099502
        k(    4) = (   0.0000000   0.0000000  -0.4850000), wk =   0.0099502
        k(    5) = (   0.0000000   0.0000000  -0.4800000), wk =   0.0099502
        k(    6) = (   0.0000000   0.0000000  -0.4750000), wk =   0.0099502
        k(    7) = (   0.0000000   0.0000000  -0.4700000), wk =   0.0099502
        k(    8) = (   0.0000000   0.0000000  -0.4650000), wk =   0.0099502
        k(    9) = (   0.0000000   0.0000000  -0.4600000), wk =   0.0099502
        k(   10) = (   0.0000000   0.0000000  -0.4550000), wk =   0.0099502
        k(   11) = (   0.0000000   0.0000000  -0.4500000), wk =   0.0099502
        k(   12) = (   0.0000000   0.0000000  -0.4450000), wk =   0.0099502
        k(   13) = (   0.0000000   0.0000000  -0.4400000), wk =   0.0099502
        k(   14) = (   0.0000000   0.0000000  -0.4350000), wk =   0.0099502
        k(   15) = (   0.0000000   0.0000000  -0.4300000), wk =   0.0099502
        k(   16) = (   0.0000000   0.0000000  -0.4250000), wk =   0.0099502
        k(   17) = (   0.0000000   0.0000000  -0.4200000), wk =   0.0099502
        k(   18) = (   0.0000000   0.0000000  -0.4150000), wk =   0.0099502
        k(   19) = (   0.0000000   0.0000000  -0.4100000), wk =   0.0099502
        k(   20) = (   0.0000000   0.0000000  -0.4050000), wk =   0.0099502
        k(   21) = (   0.0000000   0.0000000  -0.4000000), wk =   0.0099502
        k(   22) = (   0.0000000   0.0000000  -0.3950000), wk =   0.0099502
        k(   23) = (   0.0000000   0.0000000  -0.3900000), wk =   0.0099502
        k(   24) = (   0.0000000   0.0000000  -0.3850000), wk =   0.0099502
        k(   25) = (   0.0000000   0.0000000  -0.3800000), wk =   0.0099502
        k(   26) = (   0.0000000   0.0000000  -0.3750000), wk =   0.0099502
        k(   27) = (   0.0000000   0.0000000  -0.3700000), wk =   0.0099502
        k(   28) = (   0.0000000   0.0000000  -0.3650000), wk =   0.0099502
        k(   29) = (   0.0000000   0.0000000  -0.3600000), wk =   0.0099502
        k(   30) = (   0.0000000   0.0000000  -0.3550000), wk =   0.0099502
        k(   31) = (   0.0000000   0.0000000  -0.3500000), wk =   0.0099502
        k(   32) = (   0.0000000   0.0000000  -0.3450000), wk =   0.0099502
        k(   33) = (   0.0000000   0.0000000  -0.3400000), wk =   0.0099502
        k(   34) = (   0.0000000   0.0000000  -0.3350000), wk =   0.0099502
        k(   35) = (   0.0000000   0.0000000  -0.3300000), wk =   0.0099502
        k(   36) = (   0.0000000   0.0000000  -0.3250000), wk =   0.0099502
        k(   37) = (   0.0000000   0.0000000  -0.3200000), wk =   0.0099502
        k(   38) = (   0.0000000   0.0000000  -0.3150000), wk =   0.0099502
        k(   39) = (   0.0000000   0.0000000  -0.3100000), wk =   0.0099502
        k(   40) = (   0.0000000   0.0000000  -0.3050000), wk =   0.0099502
        k(   41) = (   0.0000000   0.0000000  -0.3000000), wk =   0.0099502
        k(   42) = (   0.0000000   0.0000000  -0.2950000), wk =   0.0099502
        k(   43) = (   0.0000000   0.0000000  -0.2900000), wk =   0.0099502
        k(   44) = (   0.0000000   0.0000000  -0.2850000), wk =   0.0099502
        k(   45) = (   0.0000000   0.0000000  -0.2800000), wk =   0.0099502
        k(   46) = (   0.0000000   0.0000000  -0.2750000), wk =   0.0099502
        k(   47) = (   0.0000000   0.0000000  -0.2700000), wk =   0.0099502
        k(   48) = (   0.0000000   0.0000000  -0.2650000), wk =   0.0099502
        k(   49) = (   0.0000000   0.0000000  -0.2600000), wk =   0.0099502
        k(   50) = (   0.0000000   0.0000000  -0.2550000), wk =   0.0099502
        k(   51) = (   0.0000000   0.0000000  -0.2500000), wk =   0.0099502
        k(   52) = (   0.0000000   0.0000000  -0.2450000), wk =   0.0099502
        k(   53) = (   0.0000000   0.0000000  -0.2400000), wk =   0.0099502
        k(   54) = (   0.0000000   0.0000000  -0.2350000), wk =   0.0099502
        k(   55) = (   0.0000000   0.0000000  -0.2300000), wk =   0.0099502
        k(   56) = (   0.0000000   0.0000000  -0.2250000), wk =   0.0099502
        k(   57) = (   0.0000000   0.0000000  -0.2200000), wk =   0.0099502
        k(   58) = (   0.0000000   0.0000000  -0.2150000), wk =   0.0099502
        k(   59) = (   0.0000000   0.0000000  -0.2100000), wk =   0.0099502
        k(   60) = (   0.0000000   0.0000000  -0.2050000), wk =   0.0099502
        k(   61) = (   0.0000000   0.0000000  -0.2000000), wk =   0.0099502
        k(   62) = (   0.0000000   0.0000000  -0.1950000), wk =   0.0099502
        k(   63) = (   0.0000000   0.0000000  -0.1900000), wk =   0.0099502
        k(   64) = (   0.0000000   0.0000000  -0.1850000), wk =   0.0099502
        k(   65) = (   0.0000000   0.0000000  -0.1800000), wk =   0.0099502
        k(   66) = (   0.0000000   0.0000000  -0.1750000), wk =   0.0099502
        k(   67) = (   0.0000000   0.0000000  -0.1700000), wk =   0.0099502
        k(   68) = (   0.0000000   0.0000000  -0.1650000), wk =   0.0099502
        k(   69) = (   0.0000000   0.0000000  -0.1600000), wk =   0.0099502
        k(   70) = (   0.0000000   0.0000000  -0.1550000), wk =   0.0099502
        k(   71) = (   0.0000000   0.0000000  -0.1500000), wk =   0.0099502
        k(   72) = (   0.0000000   0.0000000  -0.1450000), wk =   0.0099502
        k(   73) = (   0.0000000   0.0000000  -0.1400000), wk =   0.0099502
        k(   74) = (   0.0000000   0.0000000  -0.1350000), wk =   0.0099502
        k(   75) = (   0.0000000   0.0000000  -0.1300000), wk =   0.0099502
        k(   76) = (   0.0000000   0.0000000  -0.1250000), wk =   0.0099502
        k(   77) = (   0.0000000   0.0000000  -0.1200000), wk =   0.0099502
        k(   78) = (   0.0000000   0.0000000  -0.1150000), wk =   0.0099502
        k(   79) = (   0.0000000   0.0000000  -0.1100000), wk =   0.0099502
        k(   80) = (   0.0000000   0.0000000  -0.1050000), wk =   0.0099502
        k(   81) = (   0.0000000   0.0000000  -0.1000000), wk =   0.0099502
        k(   82) = (   0.0000000   0.0000000  -0.0950000), wk =   0.0099502
        k(   83) = (   0.0000000   0.0000000  -0.0900000), wk =   0.0099502
        k(   84) = (   0.0000000   0.0000000  -0.0850000), wk =   0.0099502
        k(   85) = (   0.0000000   0.0000000  -0.0800000), wk =   0.0099502
        k(   86) = (   0.0000000   0.0000000  -0.0750000), wk =   0.0099502
        k(   87) = (   0.0000000   0.0000000  -0.0700000), wk =   0.0099502
        k(   88) = (   0.0000000   0.0000000  -0.0650000), wk =   0.0099502
        k(   89) = (   0.0000000   0.0000000  -0.0600000), wk =   0.0099502
        k(   90) = (   0.0000000   0.0000000  -0.0550000), wk =   0.0099502
        k(   91) = (   0.0000000   0.0000000  -0.0500000), wk =   0.0099502
        k(   92) = (   0.0000000   0.0000000  -0.0450000), wk =   0.0099502
        k(   93) = (   0.0000000   0.0000000  -0.0400000), wk =   0.0099502
        k(   94) = (   0.0000000   0.0000000  -0.0350000), wk =   0.0099502
        k(   95) = (   0.0000000   0.0000000  -0.0300000), wk =   0.0099502
        k(   96) = (   0.0000000   0.0000000  -0.0250000), wk =   0.0099502
        k(   97) = (   0.0000000   0.0000000  -0.0200000), wk =   0.0099502
        k(   98) = (   0.0000000   0.0000000  -0.0150000), wk =   0.0099502
        k(   99) = (   0.0000000   0.0000000  -0.0100000), wk =   0.0099502
        k(  100) = (   0.0000000   0.0000000  -0.0050000), wk =   0.0099502
        k(  101) = (   0.0000000   0.0000000   0.0000000), wk =   0.0099502
        k(  102) = (   0.0000000   0.0000000   0.0050000), wk =   0.0099502
        k(  103) = (   0.0000000   0.0000000   0.0100000), wk =   0.0099502
        k(  104) = (   0.0000000   0.0000000   0.0150000), wk =   0.0099502
        k(  105) = (   0.0000000   0.0000000   0.0200000), wk =   0.0099502
        k(  106) = (   0.0000000   0.0000000   0.0250000), wk =   0.0099502
        k(  107) = (   0.0000000   0.0000000   0.0300000), wk =   0.0099502
        k(  108) = (   0.0000000   0.0000000   0.0350000), wk =   0.0099502
        k(  109) = (   0.0000000   0.0000000   0.0400000), wk =   0.0099502
        k(  110) = (   0.0000000   0.0000000   0.0450000), wk =   0.0099502
        k(  111) = (   0.0000000   0.0000000   0.0500000), wk =   0.0099502
        k(  112) = (   0.0000000   0.0000000   0.0550000), wk =   0.0099502
        k(  113) = (   0.0000000   0.0000000   0.0600000), wk =   0.0099502
        k(  114) = (   0.0000000   0.0000000   0.0650000), wk =   0.0099502
        k(  115) = (   0.0000000   0.0000000   0.0700000), wk =   0.0099502
        k(  116) = (   0.0000000   0.0000000   0.0750000), wk =   0.0099502
        k(  117) = (   0.0000000   0.0000000   0.0800000), wk =   0.0099502
        k(  118) = (   0.0000000   0.0000000   0.0850000), wk =   0.0099502
        k(  119) = (   0.0000000   0.0000000   0.0900000), wk =   0.0099502
        k(  120) = (   0.0000000   0.0000000   0.0950000), wk =   0.0099502
        k(  121) = (   0.0000000   0.0000000   0.1000000), wk =   0.0099502
        k(  122) = (   0.0000000   0.0000000   0.1050000), wk =   0.0099502
        k(  123) = (   0.0000000   0.0000000   0.1100000), wk =   0.0099502
        k(  124) = (   0.0000000   0.0000000   0.1150000), wk =   0.0099502
        k(  125) = (   0.0000000   0.0000000   0.1200000), wk =   0.0099502
        k(  126) = (   0.0000000   0.0000000   0.1250000), wk =   0.0099502
        k(  127) = (   0.0000000   0.0000000   0.1300000), wk =   0.0099502
        k(  128) = (   0.0000000   0.0000000   0.1350000), wk =   0.0099502
        k(  129) = (   0.0000000   0.0000000   0.1400000), wk =   0.0099502
        k(  130) = (   0.0000000   0.0000000   0.1450000), wk =   0.0099502
        k(  131) = (   0.0000000   0.0000000   0.1500000), wk =   0.0099502
        k(  132) = (   0.0000000   0.0000000   0.1550000), wk =   0.0099502
        k(  133) = (   0.0000000   0.0000000   0.1600000), wk =   0.0099502
        k(  134) = (   0.0000000   0.0000000   0.1650000), wk =   0.0099502
        k(  135) = (   0.0000000   0.0000000   0.1700000), wk =   0.0099502
        k(  136) = (   0.0000000   0.0000000   0.1750000), wk =   0.0099502
        k(  137) = (   0.0000000   0.0000000   0.1800000), wk =   0.0099502
        k(  138) = (   0.0000000   0.0000000   0.1850000), wk =   0.0099502
        k(  139) = (   0.0000000   0.0000000   0.1900000), wk =   0.0099502
        k(  140) = (   0.0000000   0.0000000   0.1950000), wk =   0.0099502
        k(  141) = (   0.0000000   0.0000000   0.2000000), wk =   0.0099502
        k(  142) = (   0.0000000   0.0000000   0.2050000), wk =   0.0099502
        k(  143) = (   0.0000000   0.0000000   0.2100000), wk =   0.0099502
        k(  144) = (   0.0000000   0.0000000   0.2150000), wk =   0.0099502
        k(  145) = (   0.0000000   0.0000000   0.2200000), wk =   0.0099502
        k(  146) = (   0.0000000   0.0000000   0.2250000), wk =   0.0099502
        k(  147) = (   0.0000000   0.0000000   0.2300000), wk =   0.0099502
        k(  148) = (   0.0000000   0.0000000   0.2350000), wk =   0.0099502
        k(  149) = (   0.0000000   0.0000000   0.2400000), wk =   0.0099502
        k(  150) = (   0.0000000   0.0000000   0.2450000), wk =   0.0099502
        k(  151) = (   0.0000000   0.0000000   0.2500000), wk =   0.0099502
        k(  152) = (   0.0000000   0.0000000   0.2550000), wk =   0.0099502
        k(  153) = (   0.0000000   0.0000000   0.2600000), wk =   0.0099502
        k(  154) = (   0.0000000   0.0000000   0.2650000), wk =   0.0099502
        k(  155) = (   0.0000000   0.0000000   0.2700000), wk =   0.0099502
        k(  156) = (   0.0000000   0.0000000   0.2750000), wk =   0.0099502
        k(  157) = (   0.0000000   0.0000000   0.2800000), wk =   0.0099502
        k(  158) = (   0.0000000   0.0000000   0.2850000), wk =   0.0099502
        k(  159) = (   0.0000000   0.0000000   0.2900000), wk =   0.0099502
        k(  160) = (   0.0000000   0.0000000   0.2950000), wk =   0.0099502
        k(  161) = (   0.0000000   0.0000000   0.3000000), wk =   0.0099502
        k(  162) = (   0.0000000   0.0000000   0.3050000), wk =   0.0099502
        k(  163) = (   0.0000000   0.0000000   0.3100000), wk =   0.0099502
        k(  164) = (   0.0000000   0.0000000   0.3150000), wk =   0.0099502
        k(  165) = (   0.0000000   0.0000000   0.3200000), wk =   0.0099502
        k(  166) = (   0.0000000   0.0000000   0.3250000), wk =   0.0099502
        k(  167) = (   0.0000000   0.0000000   0.3300000), wk =   0.0099502
        k(  168) = (   0.0000000   0.0000000   0.3350000), wk =   0.0099502
        k(  169) = (   0.0000000   0.0000000   0.3400000), wk =   0.0099502
        k(  170) = (   0.0000000   0.0000000   0.3450000), wk =   0.0099502
        k(  171) = (   0.0000000   0.0000000   0.3500000), wk =   0.0099502
        k(  172) = (   0.0000000   0.0000000   0.3550000), wk =   0.0099502
        k(  173) = (   0.0000000   0.0000000   0.3600000), wk =   0.0099502
        k(  174) = (   0.0000000   0.0000000   0.3650000), wk =   0.0099502
        k(  175) = (   0.0000000   0.0000000   0.3700000), wk =   0.0099502
        k(  176) = (   0.0000000   0.0000000   0.3750000), wk =   0.0099502
        k(  177) = (   0.0000000   0.0000000   0.3800000), wk =   0.0099502
        k(  178) = (   0.0000000   0.0000000   0.3850000), wk =   0.0099502
        k(  179) = (   0.0000000   0.0000000   0.3900000), wk =   0.0099502
        k(  180) = (   0.0000000   0.0000000   0.3950000), wk =   0.0099502
        k(  181) = (   0.0000000   0.0000000   0.4000000), wk =   0.0099502
        k(  182) = (   0.0000000   0.0000000   0.4050000), wk =   0.0099502
        k(  183) = (   0.0000000   0.0000000   0.4100000), wk =   0.0099502
        k(  184) = (   0.0000000   0.0000000   0.4150000), wk =   0.0099502
        k(  185) = (   0.0000000   0.0000000   0.4200000), wk =   0.0099502
        k(  186) = (   0.0000000   0.0000000   0.4250000), wk =   0.0099502
        k(  187) = (   0.0000000   0.0000000   0.4300000), wk =   0.0099502
        k(  188) = (   0.0000000   0.0000000   0.4350000), wk =   0.0099502
        k(  189) = (   0.0000000   0.0000000   0.4400000), wk =   0.0099502
        k(  190) = (   0.0000000   0.0000000   0.4450000), wk =   0.0099502
        k(  191) = (   0.0000000   0.0000000   0.4500000), wk =   0.0099502
        k(  192) = (   0.0000000   0.0000000   0.4550000), wk =   0.0099502
        k(  193) = (   0.0000000   0.0000000   0.4600000), wk =   0.0099502
        k(  194) = (   0.0000000   0.0000000   0.4650000), wk =   0.0099502
        k(  195) = (   0.0000000   0.0000000   0.4700000), wk =   0.0099502
        k(  196) = (   0.0000000   0.0000000   0.4750000), wk =   0.0099502
        k(  197) = (   0.0000000   0.0000000   0.4800000), wk =   0.0099502
        k(  198) = (   0.0000000   0.0000000   0.4850000), wk =   0.0099502
        k(  199) = (   0.0000000   0.0000000   0.4900000), wk =   0.0099502
        k(  200) = (   0.0000000   0.0000000   0.4950000), wk =   0.0099502
        k(  201) = (   0.0000000   0.0000000   0.5000000), wk =   0.0099502

                       cryst. coord.
        k(    1) = (  -0.5000000   0.0000000   0.0000000), wk =   0.0099502
        k(    2) = (  -0.4950000   0.0000000   0.0000000), wk =   0.0099502
        k(    3) = (  -0.4900000   0.0000000   0.0000000), wk =   0.0099502
        k(    4) = (  -0.4850000   0.0000000   0.0000000), wk =   0.0099502
        k(    5) = (  -0.4800000   0.0000000   0.0000000), wk =   0.0099502
        k(    6) = (  -0.4750000   0.0000000   0.0000000), wk =   0.0099502
        k(    7) = (  -0.4700000   0.0000000   0.0000000), wk =   0.0099502
        k(    8) = (  -0.4650000   0.0000000   0.0000000), wk =   0.0099502
        k(    9) = (  -0.4600000   0.0000000   0.0000000), wk =   0.0099502
        k(   10) = (  -0.4550000   0.0000000   0.0000000), wk =   0.0099502
        k(   11) = (  -0.4500000   0.0000000   0.0000000), wk =   0.0099502
        k(   12) = (  -0.4450000   0.0000000   0.0000000), wk =   0.0099502
        k(   13) = (  -0.4400000   0.0000000   0.0000000), wk =   0.0099502
        k(   14) = (  -0.4350000   0.0000000   0.0000000), wk =   0.0099502
        k(   15) = (  -0.4300000   0.0000000   0.0000000), wk =   0.0099502
        k(   16) = (  -0.4250000   0.0000000   0.0000000), wk =   0.0099502
        k(   17) = (  -0.4200000   0.0000000   0.0000000), wk =   0.0099502
        k(   18) = (  -0.4150000   0.0000000   0.0000000), wk =   0.0099502
        k(   19) = (  -0.4100000   0.0000000   0.0000000), wk =   0.0099502
        k(   20) = (  -0.4050000   0.0000000   0.0000000), wk =   0.0099502
        k(   21) = (  -0.4000000   0.0000000   0.0000000), wk =   0.0099502
        k(   22) = (  -0.3950000   0.0000000   0.0000000), wk =   0.0099502
        k(   23) = (  -0.3900000   0.0000000   0.0000000), wk =   0.0099502
        k(   24) = (  -0.3850000   0.0000000   0.0000000), wk =   0.0099502
        k(   25) = (  -0.3800000   0.0000000   0.0000000), wk =   0.0099502
        k(   26) = (  -0.3750000   0.0000000   0.0000000), wk =   0.0099502
        k(   27) = (  -0.3700000   0.0000000   0.0000000), wk =   0.0099502
        k(   28) = (  -0.3650000   0.0000000   0.0000000), wk =   0.0099502
        k(   29) = (  -0.3600000   0.0000000   0.0000000), wk =   0.0099502
        k(   30) = (  -0.3550000   0.0000000   0.0000000), wk =   0.0099502
        k(   31) = (  -0.3500000   0.0000000   0.0000000), wk =   0.0099502
        k(   32) = (  -0.3450000   0.0000000   0.0000000), wk =   0.0099502
        k(   33) = (  -0.3400000   0.0000000   0.0000000), wk =   0.0099502
        k(   34) = (  -0.3350000   0.0000000   0.0000000), wk =   0.0099502
        k(   35) = (  -0.3300000   0.0000000   0.0000000), wk =   0.0099502
        k(   36) = (  -0.3250000   0.0000000   0.0000000), wk =   0.0099502
        k(   37) = (  -0.3200000   0.0000000   0.0000000), wk =   0.0099502
        k(   38) = (  -0.3150000   0.0000000   0.0000000), wk =   0.0099502
        k(   39) = (  -0.3100000   0.0000000   0.0000000), wk =   0.0099502
        k(   40) = (  -0.3050000   0.0000000   0.0000000), wk =   0.0099502
        k(   41) = (  -0.3000000   0.0000000   0.0000000), wk =   0.0099502
        k(   42) = (  -0.2950000   0.0000000   0.0000000), wk =   0.0099502
        k(   43) = (  -0.2900000   0.0000000   0.0000000), wk =   0.0099502
        k(   44) = (  -0.2850000   0.0000000   0.0000000), wk =   0.0099502
        k(   45) = (  -0.2800000   0.0000000   0.0000000), wk =   0.0099502
        k(   46) = (  -0.2750000   0.0000000   0.0000000), wk =   0.0099502
        k(   47) = (  -0.2700000   0.0000000   0.0000000), wk =   0.0099502
        k(   48) = (  -0.2650000   0.0000000   0.0000000), wk =   0.0099502
        k(   49) = (  -0.2600000   0.0000000   0.0000000), wk =   0.0099502
        k(   50) = (  -0.2550000   0.0000000   0.0000000), wk =   0.0099502
        k(   51) = (  -0.2500000   0.0000000   0.0000000), wk =   0.0099502
        k(   52) = (  -0.2450000   0.0000000   0.0000000), wk =   0.0099502
        k(   53) = (  -0.2400000   0.0000000   0.0000000), wk =   0.0099502
        k(   54) = (  -0.2350000   0.0000000   0.0000000), wk =   0.0099502
        k(   55) = (  -0.2300000   0.0000000   0.0000000), wk =   0.0099502
        k(   56) = (  -0.2250000   0.0000000   0.0000000), wk =   0.0099502
        k(   57) = (  -0.2200000   0.0000000   0.0000000), wk =   0.0099502
        k(   58) = (  -0.2150000   0.0000000   0.0000000), wk =   0.0099502
        k(   59) = (  -0.2100000   0.0000000   0.0000000), wk =   0.0099502
        k(   60) = (  -0.2050000   0.0000000   0.0000000), wk =   0.0099502
        k(   61) = (  -0.2000000   0.0000000   0.0000000), wk =   0.0099502
        k(   62) = (  -0.1950000   0.0000000   0.0000000), wk =   0.0099502
        k(   63) = (  -0.1900000   0.0000000   0.0000000), wk =   0.0099502
        k(   64) = (  -0.1850000   0.0000000   0.0000000), wk =   0.0099502
        k(   65) = (  -0.1800000   0.0000000   0.0000000), wk =   0.0099502
        k(   66) = (  -0.1750000   0.0000000   0.0000000), wk =   0.0099502
        k(   67) = (  -0.1700000   0.0000000   0.0000000), wk =   0.0099502
        k(   68) = (  -0.1650000   0.0000000   0.0000000), wk =   0.0099502
        k(   69) = (  -0.1600000   0.0000000   0.0000000), wk =   0.0099502
        k(   70) = (  -0.1550000   0.0000000   0.0000000), wk =   0.0099502
        k(   71) = (  -0.1500000   0.0000000   0.0000000), wk =   0.0099502
        k(   72) = (  -0.1450000   0.0000000   0.0000000), wk =   0.0099502
        k(   73) = (  -0.1400000   0.0000000   0.0000000), wk =   0.0099502
        k(   74) = (  -0.1350000   0.0000000   0.0000000), wk =   0.0099502
        k(   75) = (  -0.1300000   0.0000000   0.0000000), wk =   0.0099502
        k(   76) = (  -0.1250000   0.0000000   0.0000000), wk =   0.0099502
        k(   77) = (  -0.1200000   0.0000000   0.0000000), wk =   0.0099502
        k(   78) = (  -0.1150000   0.0000000   0.0000000), wk =   0.0099502
        k(   79) = (  -0.1100000   0.0000000   0.0000000), wk =   0.0099502
        k(   80) = (  -0.1050000   0.0000000   0.0000000), wk =   0.0099502
        k(   81) = (  -0.1000000   0.0000000   0.0000000), wk =   0.0099502
        k(   82) = (  -0.0950000   0.0000000   0.0000000), wk =   0.0099502
        k(   83) = (  -0.0900000   0.0000000   0.0000000), wk =   0.0099502
        k(   84) = (  -0.0850000   0.0000000   0.0000000), wk =   0.0099502
        k(   85) = (  -0.0800000   0.0000000   0.0000000), wk =   0.0099502
        k(   86) = (  -0.0750000   0.0000000   0.0000000), wk =   0.0099502
        k(   87) = (  -0.0700000   0.0000000   0.0000000), wk =   0.0099502
        k(   88) = (  -0.0650000   0.0000000   0.0000000), wk =   0.0099502
        k(   89) = (  -0.0600000   0.0000000   0.0000000), wk =   0.0099502
        k(   90) = (  -0.0550000   0.0000000   0.0000000), wk =   0.0099502
        k(   91) = (  -0.0500000   0.0000000   0.0000000), wk =   0.0099502
        k(   92) = (  -0.0450000   0.0000000   0.0000000), wk =   0.0099502
        k(   93) = (  -0.0400000   0.0000000   0.0000000), wk =   0.0099502
        k(   94) = (  -0.0350000   0.0000000   0.0000000), wk =   0.0099502
        k(   95) = (  -0.0300000   0.0000000   0.0000000), wk =   0.0099502
        k(   96) = (  -0.0250000   0.0000000   0.0000000), wk =   0.0099502
        k(   97) = (  -0.0200000   0.0000000   0.0000000), wk =   0.0099502
        k(   98) = (  -0.0150000   0.0000000   0.0000000), wk =   0.0099502
        k(   99) = (  -0.0100000   0.0000000   0.0000000), wk =   0.0099502
        k(  100) = (  -0.0050000   0.0000000   0.0000000), wk =   0.0099502
        k(  101) = (   0.0000000   0.0000000   0.0000000), wk =   0.0099502
        k(  102) = (   0.0050000   0.0000000   0.0000000), wk =   0.0099502
        k(  103) = (   0.0100000   0.0000000   0.0000000), wk =   0.0099502
        k(  104) = (   0.0150000   0.0000000   0.0000000), wk =   0.0099502
        k(  105) = (   0.0200000   0.0000000   0.0000000), wk =   0.0099502
        k(  106) = (   0.0250000   0.0000000   0.0000000), wk =   0.0099502
        k(  107) = (   0.0300000   0.0000000   0.0000000), wk =   0.0099502
        k(  108) = (   0.0350000   0.0000000   0.0000000), wk =   0.0099502
        k(  109) = (   0.0400000   0.0000000   0.0000000), wk =   0.0099502
        k(  110) = (   0.0450000   0.0000000   0.0000000), wk =   0.0099502
        k(  111) = (   0.0500000   0.0000000   0.0000000), wk =   0.0099502
        k(  112) = (   0.0550000   0.0000000   0.0000000), wk =   0.0099502
        k(  113) = (   0.0600000   0.0000000   0.0000000), wk =   0.0099502
        k(  114) = (   0.0650000   0.0000000   0.0000000), wk =   0.0099502
        k(  115) = (   0.0700000   0.0000000   0.0000000), wk =   0.0099502
        k(  116) = (   0.0750000   0.0000000   0.0000000), wk =   0.0099502
        k(  117) = (   0.0800000   0.0000000   0.0000000), wk =   0.0099502
        k(  118) = (   0.0850000   0.0000000   0.0000000), wk =   0.0099502
        k(  119) = (   0.0900000   0.0000000   0.0000000), wk =   0.0099502
        k(  120) = (   0.0950000   0.0000000   0.0000000), wk =   0.0099502
        k(  121) = (   0.1000000   0.0000000   0.0000000), wk =   0.0099502
        k(  122) = (   0.1050000   0.0000000   0.0000000), wk =   0.0099502
        k(  123) = (   0.1100000   0.0000000   0.0000000), wk =   0.0099502
        k(  124) = (   0.1150000   0.0000000   0.0000000), wk =   0.0099502
        k(  125) = (   0.1200000   0.0000000   0.0000000), wk =   0.0099502
        k(  126) = (   0.1250000   0.0000000   0.0000000), wk =   0.0099502
        k(  127) = (   0.1300000   0.0000000   0.0000000), wk =   0.0099502
        k(  128) = (   0.1350000   0.0000000   0.0000000), wk =   0.0099502
        k(  129) = (   0.1400000   0.0000000   0.0000000), wk =   0.0099502
        k(  130) = (   0.1450000   0.0000000   0.0000000), wk =   0.0099502
        k(  131) = (   0.1500000   0.0000000   0.0000000), wk =   0.0099502
        k(  132) = (   0.1550000   0.0000000   0.0000000), wk =   0.0099502
        k(  133) = (   0.1600000   0.0000000   0.0000000), wk =   0.0099502
        k(  134) = (   0.1650000   0.0000000   0.0000000), wk =   0.0099502
        k(  135) = (   0.1700000   0.0000000   0.0000000), wk =   0.0099502
        k(  136) = (   0.1750000   0.0000000   0.0000000), wk =   0.0099502
        k(  137) = (   0.1800000   0.0000000   0.0000000), wk =   0.0099502
        k(  138) = (   0.1850000   0.0000000   0.0000000), wk =   0.0099502
        k(  139) = (   0.1900000   0.0000000   0.0000000), wk =   0.0099502
        k(  140) = (   0.1950000   0.0000000   0.0000000), wk =   0.0099502
        k(  141) = (   0.2000000   0.0000000   0.0000000), wk =   0.0099502
        k(  142) = (   0.2050000   0.0000000   0.0000000), wk =   0.0099502
        k(  143) = (   0.2100000   0.0000000   0.0000000), wk =   0.0099502
        k(  144) = (   0.2150000   0.0000000   0.0000000), wk =   0.0099502
        k(  145) = (   0.2200000   0.0000000   0.0000000), wk =   0.0099502
        k(  146) = (   0.2250000   0.0000000   0.0000000), wk =   0.0099502
        k(  147) = (   0.2300000   0.0000000   0.0000000), wk =   0.0099502
        k(  148) = (   0.2350000   0.0000000   0.0000000), wk =   0.0099502
        k(  149) = (   0.2400000   0.0000000   0.0000000), wk =   0.0099502
        k(  150) = (   0.2450000   0.0000000   0.0000000), wk =   0.0099502
        k(  151) = (   0.2500000   0.0000000   0.0000000), wk =   0.0099502
        k(  152) = (   0.2550000   0.0000000   0.0000000), wk =   0.0099502
        k(  153) = (   0.2600000   0.0000000   0.0000000), wk =   0.0099502
        k(  154) = (   0.2650000   0.0000000   0.0000000), wk =   0.0099502
        k(  155) = (   0.2700000   0.0000000   0.0000000), wk =   0.0099502
        k(  156) = (   0.2750000   0.0000000   0.0000000), wk =   0.0099502
        k(  157) = (   0.2800000   0.0000000   0.0000000), wk =   0.0099502
        k(  158) = (   0.2850000   0.0000000   0.0000000), wk =   0.0099502
        k(  159) = (   0.2900000   0.0000000   0.0000000), wk =   0.0099502
        k(  160) = (   0.2950000   0.0000000   0.0000000), wk =   0.0099502
        k(  161) = (   0.3000000   0.0000000   0.0000000), wk =   0.0099502
        k(  162) = (   0.3050000   0.0000000   0.0000000), wk =   0.0099502
        k(  163) = (   0.3100000   0.0000000   0.0000000), wk =   0.0099502
        k(  164) = (   0.3150000   0.0000000   0.0000000), wk =   0.0099502
        k(  165) = (   0.3200000   0.0000000   0.0000000), wk =   0.0099502
        k(  166) = (   0.3250000   0.0000000   0.0000000), wk =   0.0099502
        k(  167) = (   0.3300000   0.0000000   0.0000000), wk =   0.0099502
        k(  168) = (   0.3350000   0.0000000   0.0000000), wk =   0.0099502
        k(  169) = (   0.3400000   0.0000000   0.0000000), wk =   0.0099502
        k(  170) = (   0.3450000   0.0000000   0.0000000), wk =   0.0099502
        k(  171) = (   0.3500000   0.0000000   0.0000000), wk =   0.0099502
        k(  172) = (   0.3550000   0.0000000   0.0000000), wk =   0.0099502
        k(  173) = (   0.3600000   0.0000000   0.0000000), wk =   0.0099502
        k(  174) = (   0.3650000   0.0000000   0.0000000), wk =   0.0099502
        k(  175) = (   0.3700000   0.0000000   0.0000000), wk =   0.0099502
        k(  176) = (   0.3750000   0.0000000   0.0000000), wk =   0.0099502
        k(  177) = (   0.3800000   0.0000000   0.0000000), wk =   0.0099502
        k(  178) = (   0.3850000   0.0000000   0.0000000), wk =   0.0099502
        k(  179) = (   0.3900000   0.0000000   0.0000000), wk =   0.0099502
        k(  180) = (   0.3950000   0.0000000   0.0000000), wk =   0.0099502
        k(  181) = (   0.4000000   0.0000000   0.0000000), wk =   0.0099502
        k(  182) = (   0.4050000   0.0000000   0.0000000), wk =   0.0099502
        k(  183) = (   0.4100000   0.0000000   0.0000000), wk =   0.0099502
        k(  184) = (   0.4150000   0.0000000   0.0000000), wk =   0.0099502
        k(  185) = (   0.4200000   0.0000000   0.0000000), wk =   0.0099502
        k(  186) = (   0.4250000   0.0000000   0.0000000), wk =   0.0099502
        k(  187) = (   0.4300000   0.0000000   0.0000000), wk =   0.0099502
        k(  188) = (   0.4350000   0.0000000   0.0000000), wk =   0.0099502
        k(  189) = (   0.4400000   0.0000000   0.0000000), wk =   0.0099502
        k(  190) = (   0.4450000   0.0000000   0.0000000), wk =   0.0099502
        k(  191) = (   0.4500000   0.0000000   0.0000000), wk =   0.0099502
        k(  192) = (   0.4550000   0.0000000   0.0000000), wk =   0.0099502
        k(  193) = (   0.4600000   0.0000000   0.0000000), wk =   0.0099502
        k(  194) = (   0.4650000   0.0000000   0.0000000), wk =   0.0099502
        k(  195) = (   0.4700000   0.0000000   0.0000000), wk =   0.0099502
        k(  196) = (   0.4750000   0.0000000   0.0000000), wk =   0.0099502
        k(  197) = (   0.4800000   0.0000000   0.0000000), wk =   0.0099502
        k(  198) = (   0.4850000   0.0000000   0.0000000), wk =   0.0099502
        k(  199) = (   0.4900000   0.0000000   0.0000000), wk =   0.0099502
        k(  200) = (   0.4950000   0.0000000   0.0000000), wk =   0.0099502
        k(  201) = (   0.5000000   0.0000000   0.0000000), wk =   0.0099502

     Dense  grid:  6195059 G-vectors     FFT dimensions: (  40, 640, 480)

     Smooth grid:  1568223 G-vectors     FFT dimensions: (  25, 400, 320)

     Dynamical RAM for                 wfc:      10.46 MB

     Dynamical RAM for     wfc (w. buffer):      10.46 MB

     Dynamical RAM for           str. fact:      31.51 MB

     Dynamical RAM for           local pot:       0.00 MB

     Dynamical RAM for          nlocal pot:      33.87 MB

     Dynamical RAM for                qrad:       1.21 MB

     Dynamical RAM for          rho,v,vnew:      94.14 MB

     Dynamical RAM for           G-vectors:      61.07 MB

     Dynamical RAM for          h,s,v(r/c):       0.08 MB

     Dynamical RAM for          <psi|beta>:       0.02 MB

     Dynamical RAM for                 psi:      20.92 MB

     Dynamical RAM for                hpsi:      20.92 MB

     Dynamical RAM for                spsi:      20.92 MB

     Dynamical RAM for      wfcinit/wfcrot:      20.93 MB

     Dynamical RAM for           addusdens:     803.50 MB

     Estimated static dynamical RAM per process >     357.66 MB

     Estimated max dynamical RAM per process >       1.13 GB

     Estimated total dynamical RAM >       6.80 GB

     Atomic positions and unit cell read from directory:
     ./tmp/ZGNR.save/


     The potential is recalculated from file :
     ./tmp/ZGNR.save/charge-density


     negative rho (up, down):  7.598E-04 0.000E+00
     Starting wfcs are random
     Checking if some PAW data can be deallocated... 
       PAW data deallocated on    2 nodes for type:  1
       PAW data deallocated on    4 nodes for type:  2

     Band Structure Calculation
     Davidson diagonalization with overlap

     Computing kpt #:     1  of   201
     total cpu time spent up to now is       73.2 secs

     Computing kpt #:     2  of   201
     total cpu time spent up to now is      132.5 secs

     Computing kpt #:     3  of   201
     total cpu time spent up to now is      195.7 secs

     Computing kpt #:     4  of   201
     total cpu time spent up to now is      257.9 secs

     Computing kpt #:     5  of   201
     total cpu time spent up to now is      320.4 secs

     Computing kpt #:     6  of   201
     total cpu time spent up to now is      388.0 secs

     Computing kpt #:     7  of   201
     total cpu time spent up to now is      449.2 secs

     Computing kpt #:     8  of   201
     total cpu time spent up to now is      508.7 secs

     Computing kpt #:     9  of   201
     total cpu time spent up to now is      570.1 secs

     Computing kpt #:    10  of   201
     total cpu time spent up to now is      631.8 secs

     Computing kpt #:    11  of   201
     total cpu time spent up to now is      699.2 secs

     Computing kpt #:    12  of   201
     total cpu time spent up to now is      761.3 secs

     Computing kpt #:    13  of   201
     total cpu time spent up to now is      830.1 secs

     Computing kpt #:    14  of   201
     total cpu time spent up to now is      891.2 secs

     Computing kpt #:    15  of   201
     total cpu time spent up to now is      959.4 secs

     Computing kpt #:    16  of   201
     total cpu time spent up to now is     1030.9 secs

     Computing kpt #:    17  of   201
     total cpu time spent up to now is     1092.7 secs

     Computing kpt #:    18  of   201
     total cpu time spent up to now is     1160.1 secs

     Computing kpt #:    19  of   201
     total cpu time spent up to now is     1232.2 secs

     Computing kpt #:    20  of   201
     total cpu time spent up to now is     1306.6 secs

     Computing kpt #:    21  of   201
     total cpu time spent up to now is     1376.3 secs

     Computing kpt #:    22  of   201
     total cpu time spent up to now is     1447.3 secs

     Computing kpt #:    23  of   201
     total cpu time spent up to now is     1516.3 secs

     Computing kpt #:    24  of   201
     total cpu time spent up to now is     1587.5 secs

     Computing kpt #:    25  of   201
     total cpu time spent up to now is     1659.2 secs

     Computing kpt #:    26  of   201
     total cpu time spent up to now is     1732.0 secs

     Computing kpt #:    27  of   201
     total cpu time spent up to now is     1805.7 secs

     Computing kpt #:    28  of   201
     total cpu time spent up to now is     1878.5 secs

     Computing kpt #:    29  of   201
     total cpu time spent up to now is     1954.1 secs

     Computing kpt #:    30  of   201
     total cpu time spent up to now is     2034.5 secs

     Computing kpt #:    31  of   201
     total cpu time spent up to now is     2114.1 secs

     Computing kpt #:    32  of   201
     total cpu time spent up to now is     2207.5 secs

     Computing kpt #:    33  of   201
     total cpu time spent up to now is     2293.2 secs

     Computing kpt #:    34  of   201
     c_bands:  1 eigenvalues not converged
     total cpu time spent up to now is     2386.3 secs

     Computing kpt #:    35  of   201
     total cpu time spent up to now is     2477.0 secs

     Computing kpt #:    36  of   201
     c_bands:  1 eigenvalues not converged
     total cpu time spent up to now is     2571.5 secs

     Computing kpt #:    37  of   201
     total cpu time spent up to now is     2665.0 secs

     Computing kpt #:    38  of   201
     c_bands:  1 eigenvalues not converged
     total cpu time spent up to now is     2761.3 secs

     Computing kpt #:    39  of   201
     total cpu time spent up to now is     2848.7 secs

     Computing kpt #:    40  of   201
     total cpu time spent up to now is     2944.9 secs

     Computing kpt #:    41  of   201
     c_bands:  1 eigenvalues not converged
     total cpu time spent up to now is     3044.4 secs

     Computing kpt #:    42  of   201
     c_bands:  2 eigenvalues not converged
     total cpu time spent up to now is     3146.3 secs

     Computing kpt #:    43  of   201
     total cpu time spent up to now is     3243.7 secs

     Computing kpt #:    44  of   201
     total cpu time spent up to now is     3335.1 secs

     Computing kpt #:    45  of   201
     total cpu time spent up to now is     3421.4 secs

     Computing kpt #:    46  of   201
     total cpu time spent up to now is     3502.4 secs

     Computing kpt #:    47  of   201
     total cpu time spent up to now is     3585.5 secs

     Computing kpt #:    48  of   201
     total cpu time spent up to now is     3670.8 secs

     Computing kpt #:    49  of   201
     total cpu time spent up to now is     3754.2 secs

     Computing kpt #:    50  of   201
     total cpu time spent up to now is     3838.9 secs

     Computing kpt #:    51  of   201
     total cpu time spent up to now is     3922.9 secs

     Computing kpt #:    52  of   201
     total cpu time spent up to now is     4007.7 secs

     Computing kpt #:    53  of   201
     total cpu time spent up to now is     4093.2 secs

     Computing kpt #:    54  of   201
     total cpu time spent up to now is     4176.8 secs

     Computing kpt #:    55  of   201
     total cpu time spent up to now is     4261.3 secs

     Computing kpt #:    56  of   201
     total cpu time spent up to now is     4343.9 secs

     Computing kpt #:    57  of   201
     total cpu time spent up to now is     4428.0 secs

     Computing kpt #:    58  of   201
     total cpu time spent up to now is     4514.4 secs

     Computing kpt #:    59  of   201
     total cpu time spent up to now is     4606.3 secs

     Computing kpt #:    60  of   201
     total cpu time spent up to now is     4694.0 secs

     Computing kpt #:    61  of   201
     total cpu time spent up to now is     4779.8 secs

     Computing kpt #:    62  of   201
     total cpu time spent up to now is     4873.1 secs

     Computing kpt #:    63  of   201
     total cpu time spent up to now is     4961.7 secs

     Computing kpt #:    64  of   201
     total cpu time spent up to now is     5048.8 secs

     Computing kpt #:    65  of   201
     total cpu time spent up to now is     5142.5 secs

     Computing kpt #:    66  of   201
     total cpu time spent up to now is     5237.4 secs

     Computing kpt #:    67  of   201
     total cpu time spent up to now is     5335.1 secs

     Computing kpt #:    68  of   201
     total cpu time spent up to now is     5433.8 secs

     Computing kpt #:    69  of   201
     c_bands:  1 eigenvalues not converged
     total cpu time spent up to now is     5535.2 secs

     Computing kpt #:    70  of   201
     c_bands:  1 eigenvalues not converged
     total cpu time spent up to now is     5635.3 secs

     Computing kpt #:    71  of   201
     c_bands:  1 eigenvalues not converged
     total cpu time spent up to now is     5734.9 secs

     Computing kpt #:    72  of   201
     total cpu time spent up to now is     5833.9 secs

     Computing kpt #:    73  of   201
     total cpu time spent up to now is     5932.4 secs

     Computing kpt #:    74  of   201
     total cpu time spent up to now is     6031.7 secs

     Computing kpt #:    75  of   201
     total cpu time spent up to now is     6133.8 secs

     Computing kpt #:    76  of   201
     total cpu time spent up to now is     6232.8 secs

     Computing kpt #:    77  of   201
     total cpu time spent up to now is     6325.7 secs

     Computing kpt #:    78  of   201
     total cpu time spent up to now is     6424.6 secs

     Computing kpt #:    79  of   201
     total cpu time spent up to now is     6521.5 secs

     Computing kpt #:    80  of   201
     total cpu time spent up to now is     6616.0 secs

     Computing kpt #:    81  of   201
     total cpu time spent up to now is     6712.0 secs

     Computing kpt #:    82  of   201
     total cpu time spent up to now is     6807.9 secs

     Computing kpt #:    83  of   201
     total cpu time spent up to now is     6904.4 secs

     Computing kpt #:    84  of   201
     total cpu time spent up to now is     6997.7 secs

     Computing kpt #:    85  of   201
     total cpu time spent up to now is     7094.1 secs

     Computing kpt #:    86  of   201
     total cpu time spent up to now is     7190.1 secs

     Computing kpt #:    87  of   201
     total cpu time spent up to now is     7286.0 secs

     Computing kpt #:    88  of   201
     total cpu time spent up to now is     7381.6 secs

     Computing kpt #:    89  of   201
     total cpu time spent up to now is     7476.0 secs

     Computing kpt #:    90  of   201
     total cpu time spent up to now is     7571.1 secs

     Computing kpt #:    91  of   201
     total cpu time spent up to now is     7667.6 secs

     Computing kpt #:    92  of   201
     total cpu time spent up to now is     7763.0 secs

     Computing kpt #:    93  of   201
     total cpu time spent up to now is     7859.8 secs

     Computing kpt #:    94  of   201
     total cpu time spent up to now is     7954.2 secs

     Computing kpt #:    95  of   201
     total cpu time spent up to now is     8052.9 secs

     Computing kpt #:    96  of   201
     total cpu time spent up to now is     8147.7 secs

     Computing kpt #:    97  of   201
     total cpu time spent up to now is     8242.8 secs

     Computing kpt #:    98  of   201
     total cpu time spent up to now is     8337.8 secs

     Computing kpt #:    99  of   201
     total cpu time spent up to now is     8433.0 secs

     Computing kpt #:   100  of   201
     total cpu time spent up to now is     8530.7 secs

     Computing kpt #:   101  of   201
     total cpu time spent up to now is     8628.4 secs

     Computing kpt #:   102  of   201
     total cpu time spent up to now is     8720.9 secs

     Computing kpt #:   103  of   201
     total cpu time spent up to now is     8817.7 secs

     Computing kpt #:   104  of   201
     total cpu time spent up to now is     8912.4 secs

     Computing kpt #:   105  of   201
     total cpu time spent up to now is     9008.9 secs

     Computing kpt #:   106  of   201
     total cpu time spent up to now is     9108.2 secs

     Computing kpt #:   107  of   201
     total cpu time spent up to now is     9205.9 secs

     Computing kpt #:   108  of   201
     total cpu time spent up to now is     9302.7 secs

     Computing kpt #:   109  of   201
     total cpu time spent up to now is     9398.2 secs

     Computing kpt #:   110  of   201
     total cpu time spent up to now is     9494.9 secs

     Computing kpt #:   111  of   201
     total cpu time spent up to now is     9587.7 secs

     Computing kpt #:   112  of   201
     total cpu time spent up to now is     9684.4 secs

     Computing kpt #:   113  of   201
     total cpu time spent up to now is     9778.7 secs

     Computing kpt #:   114  of   201
     total cpu time spent up to now is     9873.4 secs

     Computing kpt #:   115  of   201
     total cpu time spent up to now is     9971.0 secs

     Computing kpt #:   116  of   201
     total cpu time spent up to now is    10064.2 secs

     Computing kpt #:   117  of   201
     total cpu time spent up to now is    10161.2 secs

     Computing kpt #:   118  of   201
     total cpu time spent up to now is    10258.8 secs

     Computing kpt #:   119  of   201
     total cpu time spent up to now is    10353.0 secs

     Computing kpt #:   120  of   201
     total cpu time spent up to now is    10446.3 secs

     Computing kpt #:   121  of   201
     total cpu time spent up to now is    10542.3 secs

     Computing kpt #:   122  of   201
     total cpu time spent up to now is    10635.3 secs

     Computing kpt #:   123  of   201
     total cpu time spent up to now is    10731.1 secs

     Computing kpt #:   124  of   201
     total cpu time spent up to now is    10829.2 secs

     Computing kpt #:   125  of   201
     total cpu time spent up to now is    10929.1 secs

     Computing kpt #:   126  of   201
     total cpu time spent up to now is    11029.4 secs

     Computing kpt #:   127  of   201
     total cpu time spent up to now is    11128.7 secs

     Computing kpt #:   128  of   201
     total cpu time spent up to now is    11228.6 secs

     Computing kpt #:   129  of   201
     c_bands:  1 eigenvalues not converged
     total cpu time spent up to now is    11328.3 secs

     Computing kpt #:   130  of   201
     c_bands:  1 eigenvalues not converged
     total cpu time spent up to now is    11427.5 secs

     Computing kpt #:   131  of   201
     c_bands:  1 eigenvalues not converged
     total cpu time spent up to now is    11529.8 secs

     Computing kpt #:   132  of   201
     c_bands:  1 eigenvalues not converged
     total cpu time spent up to now is    11634.1 secs

     Computing kpt #:   133  of   201
     c_bands:  1 eigenvalues not converged
     total cpu time spent up to now is    11734.6 secs

     Computing kpt #:   134  of   201
     c_bands:  1 eigenvalues not converged
     total cpu time spent up to now is    11834.8 secs

     Computing kpt #:   135  of   201
     total cpu time spent up to now is    11934.2 secs

     Computing kpt #:   136  of   201
     total cpu time spent up to now is    12027.2 secs

     Computing kpt #:   137  of   201
     total cpu time spent up to now is    12121.2 secs

     Computing kpt #:   138  of   201
     total cpu time spent up to now is    12212.2 secs

     Computing kpt #:   139  of   201
     total cpu time spent up to now is    12304.3 secs

     Computing kpt #:   140  of   201
     total cpu time spent up to now is    12391.3 secs

     Computing kpt #:   141  of   201
     total cpu time spent up to now is    12477.3 secs

     Computing kpt #:   142  of   201
     total cpu time spent up to now is    12563.3 secs

     Computing kpt #:   143  of   201
     total cpu time spent up to now is    12648.2 secs

     Computing kpt #:   144  of   201
     total cpu time spent up to now is    12734.4 secs

     Computing kpt #:   145  of   201
     total cpu time spent up to now is    12818.8 secs

     Computing kpt #:   146  of   201
     total cpu time spent up to now is    12903.4 secs

     Computing kpt #:   147  of   201
     total cpu time spent up to now is    12988.6 secs

     Computing kpt #:   148  of   201
     total cpu time spent up to now is    13071.5 secs

     Computing kpt #:   149  of   201
     total cpu time spent up to now is    13155.7 secs

     Computing kpt #:   150  of   201
     total cpu time spent up to now is    13239.7 secs

     Computing kpt #:   151  of   201
     total cpu time spent up to now is    13325.1 secs

     Computing kpt #:   152  of   201
     total cpu time spent up to now is    13406.7 secs

     Computing kpt #:   153  of   201
     total cpu time spent up to now is    13488.3 secs

     Computing kpt #:   154  of   201
     total cpu time spent up to now is    13572.3 secs

     Computing kpt #:   155  of   201
     total cpu time spent up to now is    13660.3 secs

     Computing kpt #:   156  of   201
     total cpu time spent up to now is    13746.0 secs

     Computing kpt #:   157  of   201
     total cpu time spent up to now is    13829.8 secs

     Computing kpt #:   158  of   201
     total cpu time spent up to now is    13920.9 secs

     Computing kpt #:   159  of   201
     total cpu time spent up to now is    14015.7 secs

     Computing kpt #:   160  of   201
     c_bands:  1 eigenvalues not converged
     total cpu time spent up to now is    14115.5 secs

     Computing kpt #:   161  of   201
     c_bands:  1 eigenvalues not converged
     total cpu time spent up to now is    14210.5 secs

     Computing kpt #:   162  of   201
     total cpu time spent up to now is    14305.1 secs

     Computing kpt #:   163  of   201
     total cpu time spent up to now is    14393.1 secs

     Computing kpt #:   164  of   201
     total cpu time spent up to now is    14485.9 secs

     Computing kpt #:   165  of   201
     total cpu time spent up to now is    14571.2 secs

     Computing kpt #:   166  of   201
     total cpu time spent up to now is    14662.7 secs

     Computing kpt #:   167  of   201
     c_bands:  1 eigenvalues not converged
     total cpu time spent up to now is    14754.3 secs

     Computing kpt #:   168  of   201
     c_bands:  1 eigenvalues not converged
     total cpu time spent up to now is    14845.3 secs

     Computing kpt #:   169  of   201
     total cpu time spent up to now is    14929.3 secs

     Computing kpt #:   170  of   201
     c_bands:  1 eigenvalues not converged
     total cpu time spent up to now is    15020.4 secs

     Computing kpt #:   171  of   201
     total cpu time spent up to now is    15099.3 secs

     Computing kpt #:   172  of   201
     total cpu time spent up to now is    15176.5 secs

     Computing kpt #:   173  of   201
     total cpu time spent up to now is    15257.9 secs

     Computing kpt #:   174  of   201
     total cpu time spent up to now is    15330.9 secs

     Computing kpt #:   175  of   201
     total cpu time spent up to now is    15407.5 secs

     Computing kpt #:   176  of   201
     total cpu time spent up to now is    15480.3 secs

     Computing kpt #:   177  of   201
     total cpu time spent up to now is    15551.2 secs

     Computing kpt #:   178  of   201
     total cpu time spent up to now is    15621.2 secs

     Computing kpt #:   179  of   201
     total cpu time spent up to now is    15693.2 secs

     Computing kpt #:   180  of   201
     total cpu time spent up to now is    15765.2 secs

     Computing kpt #:   181  of   201
     total cpu time spent up to now is    15836.9 secs

     Computing kpt #:   182  of   201
     total cpu time spent up to now is    15913.6 secs

     Computing kpt #:   183  of   201
     total cpu time spent up to now is    15984.4 secs

     Computing kpt #:   184  of   201
     total cpu time spent up to now is    16052.3 secs

     Computing kpt #:   185  of   201
     total cpu time spent up to now is    16120.9 secs

     Computing kpt #:   186  of   201
     total cpu time spent up to now is    16182.5 secs

     Computing kpt #:   187  of   201
     total cpu time spent up to now is    16244.0 secs

     Computing kpt #:   188  of   201
     total cpu time spent up to now is    16314.9 secs

     Computing kpt #:   189  of   201
     total cpu time spent up to now is    16376.9 secs

     Computing kpt #:   190  of   201
     total cpu time spent up to now is    16439.5 secs

     Computing kpt #:   191  of   201
     total cpu time spent up to now is    16501.3 secs

     Computing kpt #:   192  of   201
     total cpu time spent up to now is    16561.3 secs

     Computing kpt #:   193  of   201
     total cpu time spent up to now is    16629.2 secs

     Computing kpt #:   194  of   201
     total cpu time spent up to now is    16690.0 secs

     Computing kpt #:   195  of   201
     total cpu time spent up to now is    16750.1 secs

     Computing kpt #:   196  of   201
     total cpu time spent up to now is    16811.4 secs

     Computing kpt #:   197  of   201
     total cpu time spent up to now is    16870.8 secs

     Computing kpt #:   198  of   201
     total cpu time spent up to now is    16931.6 secs

     Computing kpt #:   199  of   201
     total cpu time spent up to now is    16993.6 secs

     Computing kpt #:   200  of   201
     total cpu time spent up to now is    17053.7 secs

     Computing kpt #:   201  of   201
     total cpu time spent up to now is    17116.8 secs

     ethr =  2.94E-11,  avg # of iterations = 79.3

     total cpu time spent up to now is    17116.8 secs

     End of band structure calculation

          k = 0.0000 0.0000-0.5000 (196164 PWs)   bands (ev):

   -18.6242 -18.5704 -18.0697 -17.2121 -16.4623 -16.0236 -14.9348 -14.7073
   -11.9035 -11.8412 -10.6013 -10.4307  -9.8751  -6.2555  -6.2129  -6.0432
    -3.7942  -3.7131  -1.5999  -1.3526  -1.0334

          k = 0.0000 0.0000-0.4950 (196146 PWs)   bands (ev):

   -18.6788 -18.5159 -18.0769 -17.2044 -16.4743 -16.0103 -14.9570 -14.6843
   -11.9428 -11.8014 -10.6108 -10.4213  -9.8753  -6.3065  -6.1635  -6.0461
    -3.7927  -3.7144  -1.5961  -1.3700  -1.0135

          k = 0.0000 0.0000-0.4900 (196146 PWs)   bands (ev):

   -18.7534 -18.4414 -18.0980 -17.1818 -16.5069 -15.9739 -15.0080 -14.6310
   -12.0022 -11.7408 -10.6349 -10.3976  -9.8761  -6.3752  -6.0996  -6.0547
    -3.7882  -3.7182  -1.5848  -1.4129  -0.9632

          k = 0.0000 0.0000-0.4850 (196086 PWs)   bands (ev):

   -18.8292 -18.3658 -18.1308 -17.1465 -16.5526 -15.9218 -15.0700 -14.5651
   -12.0633 -11.6775 -10.6667 -10.3663  -9.8774  -6.4462  -6.0689  -6.0369
    -3.7810  -3.7243  -1.5661  -1.4674  -0.8960

          k = 0.0000 0.0000-0.4800 (196098 PWs)   bands (ev):

   -18.9052 -18.2905 -18.1731 -17.1007 -16.6055 -15.8597 -15.1359 -14.4936
   -12.1244 -11.6133 -10.7024 -10.3313  -9.8792  -6.5184  -6.0885  -5.9765
    -3.7715  -3.7322  -1.5403  -1.5257  -0.8199

          k = 0.0000 0.0000-0.4750 (196128 PWs)   bands (ev):

   -18.9810 -18.2226 -18.2160 -17.0469 -16.6616 -15.7914 -15.2032 -14.4191
   -12.1853 -11.5485 -10.7401 -10.2946  -9.8816  -6.5914  -6.1131  -5.9189
    -3.7602  -3.7413  -1.5838  -1.5078  -0.7383

          k = 0.0000 0.0000-0.4700 (196116 PWs)   bands (ev):

   -19.0564 -18.2774 -18.1427 -16.9869 -16.7186 -15.7188 -15.2706 -14.3427
   -12.2457 -11.4832 -10.7790 -10.2570  -9.8844  -6.6652  -6.1426  -5.8647
    -3.7510  -3.7478  -1.6398  -1.4690  -0.6531

          k = 0.0000 0.0000-0.4650 (196066 PWs)   bands (ev):

   -19.1315 -18.3360 -18.0715 -16.9224 -16.7745 -15.6432 -15.3377 -14.2649
   -12.3056 -11.4176 -10.8185 -10.2188  -9.8877  -6.7394  -6.1764  -5.8144
    -3.7604  -3.7350  -1.6923  -1.4244  -0.5651

          k = 0.0000 0.0000-0.4600 (196094 PWs)   bands (ev):

   -19.2062 -18.3973 -18.0030 -16.8546 -16.8279 -15.5654 -15.4039 -14.1860
   -12.3649 -11.3517 -10.8584 -10.1805  -9.8915  -6.8141  -6.2142  -5.7685
    -3.7688  -3.7227  -1.7404  -1.3744  -0.4750

          k = 0.0000 0.0000-0.4550 (196146 PWs)   bands (ev):

   -19.2803 -18.4606 -17.9386 -16.8773 -16.7844 -15.4858 -15.4690 -14.1062
   -12.4236 -11.2855 -10.8986 -10.1422  -9.8958  -6.8890  -6.2557  -5.7274
    -3.7753  -3.7117  -1.7831  -1.3195  -0.3830

          k = 0.0000 0.0000-0.4500 (196122 PWs)   bands (ev):

   -19.3539 -18.5251 -17.8797 -16.9207 -16.7128 -15.5324 -15.4048 -14.0255
   -12.4816 -11.2191 -10.9388 -10.1040  -9.9006  -6.9641  -6.3004  -5.6918
    -3.7791  -3.7029  -1.8198  -1.2601  -0.2895

          k = 0.0000 0.0000-0.4450 (196078 PWs)   bands (ev):

   -19.4270 -18.5906 -17.8287 -16.9557 -16.6408 -15.5937 -15.3225 -13.9440
   -12.5388 -11.1524 -10.9791 -10.0659  -9.9059  -7.0392  -6.3480  -5.6620
    -3.7794  -3.6973  -1.8498  -1.1967  -0.1946

          k = 0.0000 0.0000-0.4400 (196082 PWs)   bands (ev):

   -19.4995 -18.6567 -17.7880 -16.9798 -16.5692 -15.6522 -15.2392 -13.8619
   -12.5952 -11.0856 -11.0193 -10.0280  -9.9116  -7.1144  -6.3982  -5.6385
    -3.7755  -3.6954  -1.8725  -1.1296  -0.0985

          k = 0.0000 0.0000-0.4350 (196058 PWs)   bands (ev):

   -19.5714 -18.7230 -17.7605 -16.9900 -16.4996 -15.7066 -15.1550 -13.7790
   -12.6508 -11.0595 -11.0187  -9.9904  -9.9177  -7.1895  -6.4506  -5.6215
    -3.7668  -3.6982  -1.8876  -1.0593  -0.0013

          k = 0.0000 0.0000-0.4300 (196062 PWs)   bands (ev):

   -19.6427 -18.7895 -17.7480 -16.9845 -16.4341 -15.7550 -15.0700 -13.6956
   -12.7054 -11.0994 -10.9516  -9.9531  -9.9243  -7.2644  -6.5049  -5.6113
    -3.7531  -3.7059  -1.8946  -0.9861   0.0969

          k = 0.0000 0.0000-0.4250 (196076 PWs)   bands (ev):

   -19.7134 -18.8559 -17.7510 -16.9628 -16.3761 -15.7941 -14.9842 -13.6116
   -12.7592 -11.1391 -10.8844  -9.9313  -9.9162  -7.3392  -6.5610  -5.6078
    -3.7341  -3.7190  -1.8936  -0.9102   0.1960

          k = 0.0000 0.0000-0.4200 (196076 PWs)   bands (ev):

   -19.7834 -18.9222 -17.7679 -16.9264 -16.3306 -15.8191 -14.8978 -13.5270
   -12.8118 -11.1786 -10.8171  -9.9387  -9.8796  -7.4137  -6.6184  -5.6110
    -3.7376  -3.7096  -1.8846  -0.8319   0.2960

          k = 0.0000 0.0000-0.4150 (196038 PWs)   bands (ev):

   -19.8527 -18.9882 -17.7961 -16.8780 -16.3039 -15.8237 -14.8109 -13.4418
   -12.8634 -11.2178 -10.7498  -9.9465  -9.8435  -7.4879  -6.6771  -5.6205
    -3.7616  -3.6799  -1.8680  -0.7516   0.3967

          k = 0.0000 0.0000-0.4100 (196050 PWs)   bands (ev):

   -19.9214 -19.0539 -17.8329 -16.8204 -16.2998 -15.8042 -14.7235 -13.3562
   -12.9137 -11.2567 -10.6824  -9.9546  -9.8078  -7.5618  -6.7367  -5.6359
    -3.7906  -3.6453  -1.8441  -0.6694   0.4980

          k = 0.0000 0.0000-0.4050 (196052 PWs)   bands (ev):

   -19.9894 -19.1192 -17.8759 -16.7560 -16.3165 -15.7625 -14.6356 -13.2701
   -12.9627 -11.2951 -10.6151  -9.9631  -9.7725  -7.6353  -6.7972  -5.6569
    -3.8245  -3.6060  -1.8135  -0.5855   0.6001

          k = 0.0000 0.0000-0.4000 (196056 PWs)   bands (ev):

   -20.0567 -19.1840 -17.9232 -16.6866 -16.3482 -15.7046 -14.5475 -13.1836
   -13.0102 -11.3330 -10.5478  -9.9718  -9.7377  -7.7084  -6.8584  -5.6828
    -3.8626  -3.5625  -1.7768  -0.5002   0.7027

          k = 0.0000 0.0000-0.3950 (196000 PWs)   bands (ev):

   -20.1232 -19.2484 -17.9736 -16.6137 -16.3893 -15.6359 -14.4592 -13.0966
   -13.0561 -11.3705 -10.4806  -9.9809  -9.7033  -7.7810  -6.9201  -5.7133
    -3.9046  -3.5153  -1.7346  -0.4135   0.8058

          k = 0.0000 0.0000-0.3900 (196008 PWs)   bands (ev):

   -20.1891 -19.3122 -18.0261 -16.5384 -16.4360 -15.5605 -14.3709 -13.1001
   -13.0093 -11.4074 -10.4135  -9.9902  -9.6695  -7.8531  -6.9822  -5.7477
    -3.9499  -3.4647  -1.6876  -0.3257   0.9094

          k = 0.0000 0.0000-0.3850 (195964 PWs)   bands (ev):

   -20.2542 -19.3754 -18.0799 -16.4860 -16.4613 -15.4806 -14.2827 -13.1421
   -12.9217 -11.4436 -10.3466  -9.9997  -9.6362  -7.9247  -7.0446  -5.7855
    -3.9981  -3.4114  -1.6364  -0.2370   1.0134

          k = 0.0000 0.0000-0.3800 (195996 PWs)   bands (ev):

   -20.3186 -19.4381 -18.1347 -16.5379 -16.3831 -15.3977 -14.1950 -13.1815
   -12.8339 -11.4790 -10.2800 -10.0092  -9.6034  -7.9958  -7.1072  -5.8263
    -4.0486  -3.3557  -1.5816  -0.1473   1.1178

          k = 0.0000 0.0000-0.3750 (196006 PWs)   bands (ev):

   -20.3823 -19.5001 -18.1900 -16.5910 -16.3043 -15.3127 -14.1080 -13.2180
   -12.7458 -11.5136 -10.2139 -10.0186  -9.5711  -8.0663  -7.1699  -5.8696
    -4.1012  -3.2980  -1.5236  -0.0570   1.2225

          k = 0.0000 0.0000-0.3700 (196008 PWs)   bands (ev):

   -20.4452 -19.5615 -18.2455 -16.6445 -16.2253 -15.2263 -14.0225 -13.2509
   -12.6578 -11.5471 -10.1490 -10.0271  -9.5394  -8.1362  -7.2325  -5.9152
    -4.1555  -3.2387  -1.4630   0.0339   1.3275

          k = 0.0000 0.0000-0.3650 (195956 PWs)   bands (ev):

   -20.5074 -19.6222 -18.3011 -16.6983 -16.1465 -15.1387 -13.9394 -13.2789
   -12.5699 -11.5794 -10.0899 -10.0303  -9.5083  -8.2055  -7.2951  -5.9625
    -4.2110  -3.1781  -1.4002   0.1252   1.4326

          k = 0.0000 0.0000-0.3600 (195982 PWs)   bands (ev):

   -20.5688 -19.6823 -18.3567 -16.7520 -16.0682 -15.0504 -13.8602 -13.3005
   -12.4823 -11.6102 -10.0645 -10.0001  -9.4778  -8.2741  -7.3575  -6.0114
    -4.2676  -3.1166  -1.3356   0.2169   1.5379

          k = 0.0000 0.0000-0.3550 (195942 PWs)   bands (ev):

   -20.6294 -19.7416 -18.4120 -16.8056 -15.9908 -14.9616 -13.7874 -13.3128
   -12.3954 -11.6391 -10.0692  -9.9402  -9.4478  -8.3421  -7.4197  -6.0615
    -4.3251  -3.0544  -1.2695   0.3088   1.6433

          k = 0.0000 0.0000-0.3500 (195884 PWs)   bands (ev):

   -20.6893 -19.8003 -18.4670 -16.8588 -15.9147 -14.8725 -13.7249 -13.3119
   -12.3098 -11.6655 -10.0784  -9.8761  -9.4184  -8.4094  -7.4817  -6.1126
    -4.3831  -2.9918  -1.2023   0.4008   1.7488

          k = 0.0000 0.0000-0.3450 (195872 PWs)   bands (ev):

   -20.7483 -19.8583 -18.5216 -16.9116 -15.8402 -14.7832 -13.6771 -13.2931
   -12.2265 -11.6882 -10.0886  -9.8114  -9.3896  -8.4760  -7.5433  -6.1645
    -4.4415  -2.9289  -1.1342   0.4927   1.8542

          k = 0.0000 0.0000-0.3400 (195890 PWs)   bands (ev):

   -20.8067 -19.9155 -18.5758 -16.9639 -15.7678 -14.6940 -13.6460 -13.2540
   -12.1474 -11.7053 -10.0992  -9.7466  -9.3614  -8.5419  -7.6045  -6.2171
    -4.5002  -2.8661  -1.0656   0.5845   1.8770

          k = 0.0000 0.0000-0.3350 (195888 PWs)   bands (ev):

   -20.8642 -19.9720 -18.6295 -17.0157 -15.6978 -14.6050 -13.6292 -13.1968
   -12.0761 -11.7131 -10.1099  -9.6820  -9.3338  -8.6070  -7.6654  -6.2700
    -4.5590  -2.8035  -0.9966   0.6761   1.8246

          k = 0.0000 0.0000-0.3300 (195842 PWs)   bands (ev):

   -20.9209 -20.0277 -18.6826 -17.0669 -15.6306 -14.5164 -13.6211 -13.1267
   -12.0185 -11.7057 -10.1206  -9.6178  -9.3068  -8.6714  -7.7257  -6.3233
    -4.6178  -2.7412  -0.9275   0.7672   1.7724

          k = 0.0000 0.0000-0.3250 (195870 PWs)   bands (ev):

   -20.9769 -20.0827 -18.7352 -17.1175 -15.5669 -14.4283 -13.6167 -13.0483
   -11.9812 -11.6761 -10.1313  -9.5538  -9.2804  -8.7350  -7.7856  -6.3768
    -4.6764  -2.6794  -0.8584   0.8577   1.7204

          k = 0.0000 0.0000-0.3200 (195804 PWs)   bands (ev):

   -21.0320 -20.1370 -18.7871 -17.1675 -15.5070 -14.3411 -13.6125 -12.9648
   -11.9650 -11.6237 -10.1418  -9.4903  -9.2546  -8.7979  -7.8449  -6.4304
    -4.7349  -2.6183  -0.7896   0.9475   1.6685

          k = 0.0000 0.0000-0.3150 (195814 PWs)   bands (ev):

   -21.0864 -20.1905 -18.8385 -17.2168 -15.4514 -14.2548 -13.6061 -12.8782
   -11.9633 -11.5547 -10.1521  -9.4272  -9.2294  -8.8599  -7.9037  -6.4839
    -4.7930  -2.5580  -0.7213   1.0365   1.6168

          k = 0.0000 0.0000-0.3100 (195794 PWs)   bands (ev):

   -21.1399 -20.2432 -18.8891 -17.2655 -15.4006 -14.1698 -13.5960 -12.7895
   -11.9692 -11.4761 -10.1622  -9.3646  -9.2048  -8.9212  -7.9619  -6.5373
    -4.8508  -2.4985  -0.6536   1.1243   1.5654

          k = 0.0000 0.0000-0.3050 (195782 PWs)   bands (ev):

   -21.1926 -20.2951 -18.9391 -17.3135 -15.3550 -14.0863 -13.5812 -12.6996
   -11.9780 -11.3920 -10.1719  -9.3025  -9.1807  -8.9817  -8.0194  -6.5905
    -4.9082  -2.4400  -0.5867   1.2107   1.5136

          k = 0.0000 0.0000-0.3000 (195796 PWs)   bands (ev):

   -21.2446 -20.3463 -18.9885 -17.3608 -15.3149 -14.0046 -13.5609 -12.6090
   -11.9874 -11.3047 -10.1812  -9.2409  -9.1572  -9.0413  -8.0763  -6.6435
    -4.9650  -2.3827  -0.5207   1.2954   1.4571

          k = 0.0000 0.0000-0.2950 (195790 PWs)   bands (ev):

   -21.2957 -20.3966 -19.0371 -17.4073 -15.2805 -13.9251 -13.5348 -12.5179
   -11.9958 -11.2155 -10.1900  -9.1799  -9.1343  -9.1001  -8.1326  -6.6961
    -5.0214  -2.3265  -0.4558   1.3780   1.4011

          k = 0.0000 0.0000-0.2900 (195778 PWs)   bands (ev):

   -21.3460 -20.4462 -19.0850 -17.4532 -15.2519 -13.8482 -13.5025 -12.4269
   -12.0021 -11.1250 -10.1981  -9.1580  -9.1194  -9.1119  -8.1881  -6.7483
    -5.0772  -2.2715  -0.3921   1.3458   1.3621

          k = 0.0000 0.0000-0.2850 (195764 PWs)   bands (ev):

   -21.3954 -20.4950 -19.1322 -17.4984 -15.2290 -13.7742 -13.4641 -12.3360
   -12.0057 -11.0338 -10.2056  -9.2151  -9.0900  -9.0596  -8.2429  -6.8001
    -5.1323  -2.2179  -0.3298   1.2912   1.3121

          k = 0.0000 0.0000-0.2800 (195724 PWs)   bands (ev):

   -21.4441 -20.5430 -19.1786 -17.5428 -15.2117 -13.7038 -13.4196 -12.2455
   -12.0057 -10.9420 -10.2122  -9.2713  -9.0686  -9.0005  -8.2970  -6.8514
    -5.1868  -2.1657  -0.2690   1.2372   1.2624

          k = 0.0000 0.0000-0.2750 (195730 PWs)   bands (ev):

   -21.4919 -20.5901 -19.2243 -17.5865 -15.1996 -13.6372 -13.3694 -12.1557
   -12.0016 -10.8499 -10.2178  -9.3267  -9.0477  -8.9420  -8.3504  -6.9022
    -5.2406  -2.1149  -0.2098   1.1840   1.2131

          k = 0.0000 0.0000-0.2700 (195708 PWs)   bands (ev):

   -21.5389 -20.6365 -19.2693 -17.6295 -15.1924 -13.5752 -13.3138 -12.0667
   -11.9928 -10.7577 -10.2222  -9.3812  -9.0272  -8.8842  -8.4029  -6.9524
    -5.2937  -2.0656  -0.1523   1.1315   1.1642

          k = 0.0000 0.0000-0.2650 (195676 PWs)   bands (ev):

   -21.5851 -20.6821 -19.3135 -17.6717 -15.1896 -13.5180 -13.2532 -11.9790
   -11.9788 -10.6654 -10.2252  -9.4348  -9.0072  -8.8272  -8.4547  -7.0021
    -5.3461  -2.0178  -0.0967   1.0797   1.1157

          k = 0.0000 0.0000-0.2600 (195684 PWs)   bands (ev):

   -21.6305 -20.7268 -19.3569 -17.7132 -15.1907 -13.4662 -13.1882 -11.9592
   -11.8925 -10.5733 -10.2267  -9.4874  -8.9875  -8.7709  -8.5057  -7.0511
    -5.3977  -1.9716  -0.0431   1.0286   1.0677

          k = 0.0000 0.0000-0.2550 (195664 PWs)   bands (ev):

   -21.6750 -20.7708 -19.3995 -17.7539 -15.1953 -13.4200 -13.1191 -11.9336
   -11.8078 -10.4814 -10.2262  -9.5392  -8.9681  -8.7154  -8.5559  -7.0994
    -5.4485  -1.9270   0.0085   0.9783   1.0202

          k = 0.0000 0.0000-0.2500 (195668 PWs)   bands (ev):

   -21.7186 -20.8139 -19.4414 -17.7939 -15.2030 -13.3796 -13.0466 -11.9019
   -11.7252 -10.3898 -10.2236  -9.5901  -8.9489  -8.6607  -8.6053  -7.1471
    -5.4985  -1.8840   0.0579   0.9287   0.9732

          k = 0.0000 0.0000-0.2450 (195660 PWs)   bands (ev):

   -21.7615 -20.8562 -19.4825 -17.8331 -15.2132 -13.3452 -12.9711 -11.8639
   -11.6450 -10.2987 -10.2185  -9.6401  -8.9300  -8.6538  -8.6068  -7.1940
    -5.5477  -1.8427   0.1050   0.8799   0.9268

          k = 0.0000 0.0000-0.2400 (195634 PWs)   bands (ev):

   -21.8035 -20.8976 -19.5228 -17.8715 -15.2257 -13.3166 -12.8929 -11.8199
   -11.5677 -10.2104 -10.2081  -9.6891  -8.9111  -8.7015  -8.5538  -7.2402
    -5.5960  -1.8030   0.1498   0.8319   0.8810

          k = 0.0000 0.0000-0.2350 (195602 PWs)   bands (ev):

   -21.8446 -20.9383 -19.5624 -17.9092 -15.2400 -13.2935 -12.8125 -11.7701
   -11.4938 -10.1989 -10.1183  -9.7372  -8.8922  -8.7483  -8.5017  -7.2857
    -5.6435  -1.7649   0.1921   0.7846   0.8357

          k = 0.0000 0.0000-0.2300 (195606 PWs)   bands (ev):

   -21.8850 -20.9781 -19.6011 -17.9462 -15.2558 -13.2756 -12.7302 -11.7149
   -11.4237 -10.1836 -10.0294  -9.7843  -8.8733  -8.7942  -8.4505  -7.3303
    -5.6901  -1.7285   0.2319   0.7381   0.7911

          k = 0.0000 0.0000-0.2250 (195545 PWs)   bands (ev):

   -21.9244 -21.0171 -19.6390 -17.9823 -15.2730 -13.2625 -12.6463 -11.6547
   -11.3579 -10.1639  -9.9416  -9.8305  -8.8540  -8.8393  -8.4002  -7.3742
    -5.7358  -1.6937   0.2690   0.6925   0.7472

          k = 0.0000 0.0000-0.2200 (195545 PWs)   bands (ev):

   -21.9630 -21.0553 -19.6762 -18.0177 -15.2911 -13.2535 -12.5612 -11.5902
   -11.2970 -10.1395  -9.8758  -9.8551  -8.8835  -8.8343  -8.3509  -7.4173
    -5.7807  -1.6606   0.3035   0.6476   0.7040

          k = 0.0000 0.0000-0.2150 (195549 PWs)   bands (ev):

   -22.0008 -21.0926 -19.7125 -18.0523 -15.3101 -13.2483 -12.4751 -11.5219
   -11.2413 -10.1099  -9.9201  -9.7701  -8.9267  -8.8140  -8.3025  -7.4596
    -5.8246  -1.6290   0.3353   0.6036   0.6614

          k = 0.0000 0.0000-0.2100 (195607 PWs)   bands (ev):

   -22.0377 -21.1291 -19.7480 -18.0861 -15.3298 -13.2463 -12.3883 -11.4503
   -11.1911 -10.0750  -9.9635  -9.6871  -8.9691  -8.7927  -8.2551  -7.5010
    -5.8677  -1.5991   0.3642   0.5604   0.6196

          k = 0.0000 0.0000-0.2050 (195667 PWs)   bands (ev):

   -22.0738 -21.1647 -19.7827 -18.1192 -15.3499 -13.2471 -12.3011 -11.3759
   -11.1466 -10.0345 -10.0059  -9.6063  -9.0106  -8.7701  -8.2087  -7.5416
    -5.9098  -1.5707   0.3904   0.5181   0.5785

          k = 0.0000 0.0000-0.2000 (195697 PWs)   bands (ev):

   -22.1090 -21.1995 -19.8166 -18.1514 -15.3703 -13.2502 -12.2135 -11.2992
   -11.1076 -10.0473  -9.9886  -9.5282  -9.0511  -8.7458  -8.1634  -7.5813
    -5.9509  -1.5438   0.4136   0.4766   0.5382

          k = 0.0000 0.0000-0.1950 (195683 PWs)   bands (ev):

   -22.1434 -21.2335 -19.8497 -18.1829 -15.3910 -13.2552 -12.1259 -11.2206
   -11.0739 -10.0877  -9.9375  -9.4533  -9.0907  -8.7194  -8.1191  -7.6201
    -5.9912  -1.5184   0.4340   0.4359   0.4987

          k = 0.0000 0.0000-0.1900 (195677 PWs)   bands (ev):

   -22.1769 -21.2666 -19.8820 -18.2136 -15.4118 -13.2619 -12.0386 -11.1405
   -11.0451 -10.1272  -9.8817  -9.3823  -9.1294  -8.6903  -8.0759  -7.6581
    -6.0304  -1.4945   0.3962   0.4515   0.4600

          k = 0.0000 0.0000-0.1850 (195691 PWs)   bands (ev):

   -22.2096 -21.2989 -19.9135 -18.2436 -15.4327 -13.2700 -11.9516 -11.0593
   -11.0207 -10.1657  -9.8216  -9.3158  -9.1671  -8.6580  -8.0338  -7.6951
    -6.0688  -1.4720   0.3573   0.4221   0.4661

          k = 0.0000 0.0000-0.1800 (195731 PWs)   bands (ev):

   -22.2414 -21.3303 -19.9441 -18.2727 -15.4535 -13.2791 -11.8653 -11.0001
   -10.9773 -10.2032  -9.7578  -9.2543  -9.2039  -8.6218  -7.9927  -7.7313
    -6.1061  -1.4509   0.3193   0.3851   0.4779

          k = 0.0000 0.0000-0.1750 (195723 PWs)   bands (ev):

   -22.2723 -21.3609 -19.9739 -18.3011 -15.4741 -13.2892 -11.7799 -10.9825
   -10.8947 -10.2397  -9.6909  -9.2397  -9.1984  -8.5813  -7.9528  -7.7665
    -6.1425  -1.4311   0.2822   0.3489   0.4868

          k = 0.0000 0.0000-0.1700 (195749 PWs)   bands (ev):

   -22.3024 -21.3906 -20.0029 -18.3286 -15.4946 -13.2999 -11.6958 -10.9673
   -10.8118 -10.2752  -9.6215  -9.2746  -9.1484  -8.5362  -7.9141  -7.8009
    -6.1780  -1.4126   0.2461   0.3136   0.4930

          k = 0.0000 0.0000-0.1650 (195771 PWs)   bands (ev):

   -22.3316 -21.4195 -20.0311 -18.3554 -15.5148 -13.3112 -11.6134 -10.9538
   -10.7289 -10.3098  -9.5502  -9.3085  -9.1044  -8.4866  -7.8764  -7.8343
    -6.2124  -1.3953   0.2109   0.2791   0.4966

          k = 0.0000 0.0000-0.1600 (195773 PWs)   bands (ev):

   -22.3600 -21.4476 -20.0584 -18.3814 -15.5347 -13.3228 -11.5332 -10.9411
   -10.6461 -10.3433  -9.4773  -9.3415  -9.0661  -8.4327  -7.8667  -7.8400
    -6.2459  -1.3793   0.1766   0.2456   0.4976

          k = 0.0000 0.0000-0.1550 (195755 PWs)   bands (ev):

   -22.3875 -21.4747 -20.0849 -18.4066 -15.5543 -13.3348 -11.4558 -10.9283
   -10.5637 -10.3758  -9.4035  -9.3735  -9.0331  -8.3752  -7.8983  -7.8047
    -6.2783  -1.3643   0.1432   0.2130   0.4962

          k = 0.0000 0.0000-0.1500 (195785 PWs)   bands (ev):

   -22.4141 -21.5011 -20.1106 -18.4310 -15.5735 -13.3469 -11.3824 -10.9142
   -10.4819 -10.4074  -9.4045  -9.3289  -9.0048  -8.3145  -7.9288  -7.7706
    -6.3098  -1.3505   0.1109   0.1813   0.4855

          k = 0.0000 0.0000-0.1450 (195805 PWs)   bands (ev):

   -22.4399 -21.5265 -20.1354 -18.4546 -15.5923 -13.3591 -11.3141 -10.8974
   -10.4379 -10.4007  -9.4345  -9.2541  -8.9805  -8.2515  -7.9585  -7.7377
    -6.3403  -1.3377   0.0795   0.1506   0.4528

          k = 0.0000 0.0000-0.1400 (195817 PWs)   bands (ev):

   -22.4648 -21.5512 -20.1595 -18.4775 -15.6106 -13.3713 -11.2527 -10.8760
   -10.4674 -10.3204  -9.4635  -9.1793  -8.9597  -8.1869  -7.9871  -7.7060
    -6.3698  -1.3258   0.0490   0.1208   0.4211

          k = 0.0000 0.0000-0.1350 (195841 PWs)   bands (ev):

   -22.4888 -21.5749 -20.1827 -18.4995 -15.6285 -13.3834 -11.2001 -10.8480
   -10.4959 -10.2412  -9.4916  -9.1047  -8.9417  -8.1213  -8.0148  -7.6755
    -6.3983  -1.3149   0.0196   0.0919   0.3907

          k = 0.0000 0.0000-0.1300 (195833 PWs)   bands (ev):

   -22.5119 -21.5978 -20.2050 -18.5207 -15.6459 -13.3954 -11.1578 -10.8119
   -10.5234 -10.1631  -9.5186  -9.0307  -8.9261  -8.0551  -8.0416  -7.6462
    -6.4257  -1.3049  -0.0089   0.0640   0.3613

          k = 0.0000 0.0000-0.1250 (195853 PWs)   bands (ev):

   -22.5342 -21.6199 -20.2265 -18.5412 -15.6627 -13.4072 -11.1260 -10.7675
   -10.5498 -10.0864  -9.5447  -8.9575  -8.9126  -8.0673  -7.9890  -7.6182
    -6.4522  -1.2958  -0.0363   0.0371   0.3331

          k = 0.0000 0.0000-0.1200 (195807 PWs)   bands (ev):

   -22.5557 -21.6411 -20.2472 -18.5608 -15.6790 -13.4188 -11.1034 -10.7161
   -10.5753 -10.0112  -9.5697  -8.9008  -8.8853  -8.0921  -7.9232  -7.5915
    -6.4776  -1.2874  -0.0627   0.0112   0.3059

          k = 0.0000 0.0000-0.1150 (195871 PWs)   bands (ev):

   -22.5762 -21.6614 -20.2670 -18.5797 -15.6948 -13.4302 -11.0880 -10.6598
   -10.5997  -9.9376  -9.5938  -8.8905  -8.8143  -8.1159  -7.8582  -7.5660
    -6.5020  -1.2797  -0.0881  -0.0137   0.2799

          k = 0.0000 0.0000-0.1100 (195861 PWs)   bands (ev):

   -22.5959 -21.6809 -20.2860 -18.5977 -15.7100 -13.4412 -11.0777 -10.6231
   -10.6005  -9.8657  -9.6168  -8.8815  -8.7447  -8.1387  -7.7943  -7.5417
    -6.5254  -1.2728  -0.1125  -0.0376   0.2550

          k = 0.0000 0.0000-0.1050 (195895 PWs)   bands (ev):

   -22.6147 -21.6995 -20.3042 -18.6150 -15.7245 -13.4520 -11.0711 -10.6454
   -10.5398  -9.7957  -9.6389  -8.8735  -8.6766  -8.1605  -7.7316  -7.5188
    -6.5478  -1.2665  -0.1359  -0.0605   0.2312

          k = 0.0000 0.0000-0.1000 (195861 PWs)   bands (ev):

   -22.6327 -21.7172 -20.3215 -18.6314 -15.7385 -13.4623 -11.0671 -10.6668
   -10.4789  -9.7277  -9.6599  -8.8666  -8.6102  -8.1813  -7.6705  -7.4971
    -6.5692  -1.2608  -0.1582  -0.0824   0.2085

          k = 0.0000 0.0000-0.0950 (195865 PWs)   bands (ev):

   -22.6498 -21.7341 -20.3380 -18.6471 -15.7519 -13.4723 -11.0649 -10.6871
   -10.4187  -9.6799  -9.6619  -8.8605  -8.5458  -8.2011  -7.6111  -7.4766
    -6.5895  -1.2556  -0.1794  -0.1033   0.1869

          k = 0.0000 0.0000-0.0900 (195877 PWs)   bands (ev):

   -22.6660 -21.7501 -20.3537 -18.6619 -15.7646 -13.4819 -11.0639 -10.7063
   -10.3596  -9.6989  -9.5983  -8.8552  -8.4833  -8.2200  -7.5536  -7.4575
    -6.6088  -1.2510  -0.1996  -0.1231   0.1665

          k = 0.0000 0.0000-0.0850 (195875 PWs)   bands (ev):

   -22.6813 -21.7653 -20.3685 -18.6760 -15.7767 -13.4910 -11.0638 -10.7246
   -10.3023  -9.7169  -9.5370  -8.8507  -8.4230  -8.2378  -7.4983  -7.4396
    -6.6270  -1.2468  -0.2188  -0.1419   0.1471

          k = 0.0000 0.0000-0.0800 (195879 PWs)   bands (ev):

   -22.6957 -21.7796 -20.3824 -18.6892 -15.7882 -13.4997 -11.0644 -10.7418
   -10.2469  -9.7339  -9.4783  -8.8469  -8.3651  -8.2546  -7.4452  -7.4230
    -6.6442  -1.2431  -0.2368  -0.1596   0.1288

          k = 0.0000 0.0000-0.0750 (195887 PWs)   bands (ev):

   -22.7093 -21.7930 -20.3955 -18.7017 -15.7990 -13.5080 -11.0654 -10.7580
   -10.1938  -9.7499  -9.4221  -8.8437  -8.3097  -8.2704  -7.4076  -7.3945
    -6.6604  -1.2398  -0.2539  -0.1764   0.1116

          k = 0.0000 0.0000-0.0700 (195907 PWs)   bands (ev):

   -22.7220 -21.8056 -20.4078 -18.7133 -15.8091 -13.5157 -11.0668 -10.7731
   -10.1432  -9.7648  -9.3687  -8.8412  -8.2852  -8.2568  -7.3936  -7.3464
    -6.6756  -1.2369  -0.2698  -0.1920   0.0956

          k = 0.0000 0.0000-0.0650 (195897 PWs)   bands (ev):

   -22.7339 -21.8173 -20.4192 -18.7242 -15.8186 -13.5230 -11.0683 -10.7872
   -10.0954  -9.7787  -9.3180  -8.8393  -8.2990  -8.2068  -7.3807  -7.3010
    -6.6897  -1.2343  -0.2846  -0.2066   0.0806

          k = 0.0000 0.0000-0.0600 (195875 PWs)   bands (ev):

   -22.7448 -21.8282 -20.4298 -18.7342 -15.8273 -13.5298 -11.0700 -10.8002
   -10.0504  -9.7916  -9.2702  -8.8380  -8.3118  -8.1596  -7.3691  -7.2584
    -6.7028  -1.2321  -0.2984  -0.2201   0.0667

          k = 0.0000 0.0000-0.0550 (195861 PWs)   bands (ev):

   -22.7549 -21.8381 -20.4395 -18.7435 -15.8354 -13.5361 -11.0717 -10.8123
   -10.0085  -9.8035  -9.2253  -8.8373  -8.3235  -8.1155  -7.3587  -7.2188
    -6.7148  -1.2301  -0.3111  -0.2326   0.0540

          k = 0.0000 0.0000-0.0500 (195883 PWs)   bands (ev):

   -22.7641 -21.8472 -20.4484 -18.7519 -15.8428 -13.5418 -11.0733 -10.8232
    -9.9698  -9.8143  -9.1834  -8.8373  -8.3343  -8.0746  -7.3494  -7.1822
    -6.7258  -1.2283  -0.3227  -0.2440   0.0423

          k = 0.0000 0.0000-0.0450 (195919 PWs)   bands (ev):

   -22.7724 -21.8555 -20.4565 -18.7595 -15.8496 -13.5471 -11.0749 -10.8332
    -9.9344  -9.8241  -9.1445  -8.8380  -8.3440  -8.0370  -7.3413  -7.1488
    -6.7357  -1.2268  -0.3332  -0.2543   0.0318

          k = 0.0000 0.0000-0.0400 (195929 PWs)   bands (ev):

   -22.7799 -21.8628 -20.4637 -18.7664 -15.8556 -13.5518 -11.0765 -10.8420
    -9.9024  -9.8329  -9.1088  -8.8394  -8.3527  -8.0029  -7.3342  -7.1186
    -6.7446  -1.2256  -0.3426  -0.2636   0.0223

          k = 0.0000 0.0000-0.0350 (195939 PWs)   bands (ev):

   -22.7865 -21.8693 -20.4700 -18.7724 -15.8609 -13.5559 -11.0779 -10.8499
    -9.8739  -9.8406  -9.0762  -8.8414  -8.3604  -7.9723  -7.3282  -7.0918
    -6.7525  -1.2245  -0.3509  -0.2718   0.0140

          k = 0.0000 0.0000-0.0300 (195935 PWs)   bands (ev):

   -22.7922 -21.8750 -20.4755 -18.7776 -15.8655 -13.5596 -11.0791 -10.8567
    -9.8491  -9.8473  -9.0469  -8.8442  -8.3670  -7.9455  -7.3232  -7.0683
    -6.7593  -1.2236  -0.3581  -0.2788   0.0068

          k = 0.0000 0.0000-0.0250 (195949 PWs)   bands (ev):

   -22.7970 -21.8798 -20.4802 -18.7821 -15.8694 -13.5626 -11.0802 -10.8624
    -9.8530  -9.8279  -9.0208  -8.8477  -8.3727  -7.9226  -7.3191  -7.0484
    -6.7651  -1.2228  -0.3642  -0.2848   0.0007

          k = 0.0000 0.0000-0.0200 (195953 PWs)   bands (ev):

   -22.8009 -21.8837 -20.4840 -18.7857 -15.8726 -13.5651 -11.0811 -10.8671
    -9.8577  -9.8105  -8.9982  -8.8517  -8.3773  -7.9036  -7.3158  -7.0320
    -6.7698  -1.2222  -0.3691  -0.2898  -0.0043

          k = 0.0000 0.0000-0.0150 (195947 PWs)   bands (ev):

   -22.8040 -21.8867 -20.4870 -18.7885 -15.8751 -13.5671 -11.0819 -10.8708
    -9.8613  -9.7969  -8.9793  -8.8562  -8.3809  -7.8887  -7.3133  -7.0192
    -6.7734  -1.2218  -0.3730  -0.2936  -0.0082

          k = 0.0000 0.0000-0.0100 (195897 PWs)   bands (ev):

   -22.8062 -21.8889 -20.4891 -18.7905 -15.8769 -13.5685 -11.0824 -10.8734
    -9.8639  -9.7872  -8.9647  -8.8604  -8.3834  -7.8780  -7.3116  -7.0100
    -6.7761  -1.2215  -0.3758  -0.2963  -0.0110

          k = 0.0000 0.0000-0.0050 (195925 PWs)   bands (ev):

   -22.8075 -21.8902 -20.4904 -18.7917 -15.8780 -13.5693 -11.0827 -10.8750
    -9.8654  -9.7814  -8.9552  -8.8637  -8.3850  -7.8716  -7.3106  -7.0045
    -6.7776  -1.2213  -0.3775  -0.2979  -0.0127

          k = 0.0000 0.0000 0.0000 (195953 PWs)   bands (ev):

   -22.8080 -21.8906 -20.4908 -18.7921 -15.8783 -13.5696 -11.0828 -10.8755
    -9.8659  -9.7794  -8.9519  -8.8650  -8.3855  -7.8694  -7.3103  -7.0027
    -6.7782  -1.2212  -0.3780  -0.2985  -0.0132

          k = 0.0000 0.0000 0.0050 (195925 PWs)   bands (ev):

   -22.8075 -21.8902 -20.4904 -18.7917 -15.8780 -13.5693 -11.0827 -10.8750
    -9.8654  -9.7814  -8.9552  -8.8637  -8.3850  -7.8716  -7.3106  -7.0045
    -6.7776  -1.2213  -0.3775  -0.2979  -0.0127

          k = 0.0000 0.0000 0.0100 (195897 PWs)   bands (ev):

   -22.8062 -21.8889 -20.4891 -18.7905 -15.8769 -13.5685 -11.0824 -10.8734
    -9.8639  -9.7872  -8.9647  -8.8604  -8.3834  -7.8780  -7.3116  -7.0100
    -6.7761  -1.2215  -0.3758  -0.2963  -0.0110

          k = 0.0000 0.0000 0.0150 (195947 PWs)   bands (ev):

   -22.8040 -21.8867 -20.4870 -18.7885 -15.8751 -13.5671 -11.0819 -10.8708
    -9.8613  -9.7969  -8.9793  -8.8562  -8.3809  -7.8887  -7.3133  -7.0192
    -6.7734  -1.2218  -0.3730  -0.2936  -0.0082

          k = 0.0000 0.0000 0.0200 (195953 PWs)   bands (ev):

   -22.8009 -21.8837 -20.4840 -18.7857 -15.8726 -13.5651 -11.0811 -10.8671
    -9.8577  -9.8105  -8.9982  -8.8517  -8.3773  -7.9036  -7.3158  -7.0320
    -6.7698  -1.2222  -0.3691  -0.2898  -0.0043

          k = 0.0000 0.0000 0.0250 (195949 PWs)   bands (ev):

   -22.7970 -21.8798 -20.4802 -18.7821 -15.8694 -13.5626 -11.0802 -10.8624
    -9.8530  -9.8279  -9.0208  -8.8477  -8.3727  -7.9226  -7.3191  -7.0484
    -6.7651  -1.2228  -0.3642  -0.2848   0.0007

          k = 0.0000 0.0000 0.0300 (195935 PWs)   bands (ev):

   -22.7922 -21.8750 -20.4755 -18.7776 -15.8655 -13.5596 -11.0791 -10.8567
    -9.8491  -9.8473  -9.0469  -8.8442  -8.3670  -7.9455  -7.3232  -7.0683
    -6.7593  -1.2236  -0.3581  -0.2788   0.0068

          k = 0.0000 0.0000 0.0350 (195939 PWs)   bands (ev):

   -22.7865 -21.8693 -20.4700 -18.7724 -15.8609 -13.5559 -11.0779 -10.8499
    -9.8739  -9.8406  -9.0762  -8.8414  -8.3604  -7.9723  -7.3282  -7.0918
    -6.7525  -1.2245  -0.3509  -0.2718   0.0140

          k = 0.0000 0.0000 0.0400 (195929 PWs)   bands (ev):

   -22.7799 -21.8628 -20.4637 -18.7664 -15.8556 -13.5518 -11.0765 -10.8420
    -9.9024  -9.8329  -9.1088  -8.8394  -8.3527  -8.0029  -7.3342  -7.1186
    -6.7446  -1.2256  -0.3426  -0.2636   0.0223

          k = 0.0000 0.0000 0.0450 (195919 PWs)   bands (ev):

   -22.7724 -21.8555 -20.4565 -18.7595 -15.8496 -13.5471 -11.0749 -10.8332
    -9.9344  -9.8241  -9.1445  -8.8380  -8.3440  -8.0370  -7.3413  -7.1488
    -6.7357  -1.2268  -0.3332  -0.2543   0.0318

          k = 0.0000 0.0000 0.0500 (195883 PWs)   bands (ev):

   -22.7641 -21.8472 -20.4484 -18.7519 -15.8428 -13.5418 -11.0733 -10.8232
    -9.9698  -9.8143  -9.1834  -8.8373  -8.3343  -8.0746  -7.3494  -7.1822
    -6.7258  -1.2283  -0.3227  -0.2440   0.0423

          k = 0.0000 0.0000 0.0550 (195861 PWs)   bands (ev):

   -22.7549 -21.8381 -20.4395 -18.7435 -15.8354 -13.5361 -11.0717 -10.8123
   -10.0085  -9.8035  -9.2253  -8.8373  -8.3235  -8.1155  -7.3587  -7.2188
    -6.7148  -1.2301  -0.3111  -0.2326   0.0540

          k = 0.0000 0.0000 0.0600 (195875 PWs)   bands (ev):

   -22.7448 -21.8282 -20.4298 -18.7342 -15.8273 -13.5298 -11.0700 -10.8002
   -10.0504  -9.7916  -9.2702  -8.8380  -8.3118  -8.1596  -7.3691  -7.2584
    -6.7028  -1.2321  -0.2984  -0.2201   0.0667

          k = 0.0000 0.0000 0.0650 (195897 PWs)   bands (ev):

   -22.7339 -21.8173 -20.4192 -18.7242 -15.8186 -13.5230 -11.0683 -10.7872
   -10.0954  -9.7787  -9.3180  -8.8393  -8.2990  -8.2068  -7.3807  -7.3010
    -6.6897  -1.2343  -0.2846  -0.2066   0.0806

          k = 0.0000 0.0000 0.0700 (195907 PWs)   bands (ev):

   -22.7220 -21.8056 -20.4078 -18.7133 -15.8091 -13.5157 -11.0668 -10.7731
   -10.1432  -9.7648  -9.3687  -8.8412  -8.2852  -8.2568  -7.3936  -7.3464
    -6.6756  -1.2369  -0.2698  -0.1920   0.0956

          k = 0.0000 0.0000 0.0750 (195887 PWs)   bands (ev):

   -22.7093 -21.7930 -20.3955 -18.7017 -15.7990 -13.5080 -11.0654 -10.7580
   -10.1938  -9.7499  -9.4221  -8.8437  -8.3097  -8.2704  -7.4076  -7.3945
    -6.6604  -1.2398  -0.2539  -0.1764   0.1116

          k = 0.0000 0.0000 0.0800 (195879 PWs)   bands (ev):

   -22.6957 -21.7796 -20.3824 -18.6892 -15.7882 -13.4997 -11.0644 -10.7418
   -10.2469  -9.7339  -9.4783  -8.8469  -8.3651  -8.2546  -7.4452  -7.4230
    -6.6442  -1.2431  -0.2368  -0.1596   0.1288

          k = 0.0000 0.0000 0.0850 (195875 PWs)   bands (ev):

   -22.6813 -21.7653 -20.3685 -18.6760 -15.7767 -13.4910 -11.0638 -10.7246
   -10.3023  -9.7169  -9.5370  -8.8507  -8.4230  -8.2378  -7.4983  -7.4396
    -6.6270  -1.2468  -0.2188  -0.1419   0.1471

          k = 0.0000 0.0000 0.0900 (195877 PWs)   bands (ev):

   -22.6660 -21.7501 -20.3537 -18.6619 -15.7646 -13.4819 -11.0639 -10.7063
   -10.3596  -9.6989  -9.5983  -8.8552  -8.4833  -8.2200  -7.5536  -7.4575
    -6.6088  -1.2510  -0.1996  -0.1231   0.1665

          k = 0.0000 0.0000 0.0950 (195865 PWs)   bands (ev):

   -22.6498 -21.7341 -20.3380 -18.6471 -15.7519 -13.4723 -11.0649 -10.6871
   -10.4187  -9.6799  -9.6619  -8.8605  -8.5458  -8.2011  -7.6111  -7.4766
    -6.5895  -1.2556  -0.1794  -0.1033   0.1869

          k = 0.0000 0.0000 0.1000 (195861 PWs)   bands (ev):

   -22.6327 -21.7172 -20.3215 -18.6314 -15.7385 -13.4623 -11.0671 -10.6668
   -10.4789  -9.7277  -9.6599  -8.8666  -8.6102  -8.1813  -7.6705  -7.4971
    -6.5692  -1.2608  -0.1582  -0.0824   0.2085

          k = 0.0000 0.0000 0.1050 (195895 PWs)   bands (ev):

   -22.6147 -21.6995 -20.3042 -18.6150 -15.7245 -13.4520 -11.0711 -10.6454
   -10.5398  -9.7957  -9.6389  -8.8735  -8.6766  -8.1605  -7.7316  -7.5188
    -6.5478  -1.2665  -0.1359  -0.0605   0.2312

          k = 0.0000 0.0000 0.1100 (195861 PWs)   bands (ev):

   -22.5959 -21.6809 -20.2860 -18.5977 -15.7100 -13.4412 -11.0777 -10.6231
   -10.6005  -9.8657  -9.6168  -8.8815  -8.7447  -8.1387  -7.7943  -7.5417
    -6.5254  -1.2728  -0.1125  -0.0376   0.2550

          k = 0.0000 0.0000 0.1150 (195871 PWs)   bands (ev):

   -22.5762 -21.6614 -20.2670 -18.5797 -15.6948 -13.4302 -11.0880 -10.6598
   -10.5997  -9.9376  -9.5938  -8.8905  -8.8143  -8.1159  -7.8582  -7.5660
    -6.5020  -1.2797  -0.0881  -0.0137   0.2799

          k = 0.0000 0.0000 0.1200 (195807 PWs)   bands (ev):

   -22.5557 -21.6411 -20.2472 -18.5608 -15.6790 -13.4188 -11.1034 -10.7161
   -10.5753 -10.0112  -9.5697  -8.9008  -8.8853  -8.0921  -7.9232  -7.5915
    -6.4776  -1.2874  -0.0627   0.0112   0.3059

          k = 0.0000 0.0000 0.1250 (195853 PWs)   bands (ev):

   -22.5342 -21.6199 -20.2265 -18.5412 -15.6627 -13.4072 -11.1260 -10.7675
   -10.5498 -10.0864  -9.5447  -8.9575  -8.9126  -8.0673  -7.9890  -7.6182
    -6.4522  -1.2958  -0.0363   0.0371   0.3331

          k = 0.0000 0.0000 0.1300 (195833 PWs)   bands (ev):

   -22.5119 -21.5978 -20.2050 -18.5207 -15.6459 -13.3954 -11.1578 -10.8119
   -10.5234 -10.1631  -9.5186  -9.0307  -8.9261  -8.0551  -8.0416  -7.6462
    -6.4257  -1.3049  -0.0089   0.0640   0.3613

          k = 0.0000 0.0000 0.1350 (195841 PWs)   bands (ev):

   -22.4888 -21.5749 -20.1827 -18.4995 -15.6285 -13.3834 -11.2001 -10.8480
   -10.4959 -10.2412  -9.4916  -9.1047  -8.9417  -8.1213  -8.0148  -7.6755
    -6.3983  -1.3149   0.0196   0.0919   0.3907

          k = 0.0000 0.0000 0.1400 (195817 PWs)   bands (ev):

   -22.4648 -21.5512 -20.1595 -18.4775 -15.6106 -13.3713 -11.2527 -10.8760
   -10.4674 -10.3204  -9.4635  -9.1793  -8.9597  -8.1869  -7.9871  -7.7060
    -6.3698  -1.3258   0.0490   0.1208   0.4211

          k = 0.0000 0.0000 0.1450 (195805 PWs)   bands (ev):

   -22.4399 -21.5265 -20.1354 -18.4546 -15.5923 -13.3591 -11.3141 -10.8974
   -10.4379 -10.4007  -9.4345  -9.2541  -8.9805  -8.2515  -7.9585  -7.7377
    -6.3403  -1.3377   0.0795   0.1506   0.4528

          k = 0.0000 0.0000 0.1500 (195785 PWs)   bands (ev):

   -22.4141 -21.5011 -20.1106 -18.4310 -15.5735 -13.3469 -11.3824 -10.9142
   -10.4819 -10.4074  -9.4045  -9.3289  -9.0048  -8.3145  -7.9288  -7.7706
    -6.3098  -1.3505   0.1109   0.1813   0.4855

          k = 0.0000 0.0000 0.1550 (195755 PWs)   bands (ev):

   -22.3875 -21.4747 -20.0849 -18.4066 -15.5543 -13.3348 -11.4558 -10.9283
   -10.5637 -10.3758  -9.4035  -9.3735  -9.0331  -8.3752  -7.8983  -7.8047
    -6.2783  -1.3643   0.1432   0.2130   0.4962

          k = 0.0000 0.0000 0.1600 (195773 PWs)   bands (ev):

   -22.3600 -21.4476 -20.0584 -18.3814 -15.5347 -13.3228 -11.5332 -10.9411
   -10.6461 -10.3433  -9.4773  -9.3415  -9.0661  -8.4327  -7.8667  -7.8400
    -6.2459  -1.3793   0.1766   0.2456   0.4976

          k = 0.0000 0.0000 0.1650 (195771 PWs)   bands (ev):

   -22.3316 -21.4195 -20.0311 -18.3554 -15.5148 -13.3112 -11.6134 -10.9538
   -10.7289 -10.3098  -9.5502  -9.3085  -9.1044  -8.4866  -7.8764  -7.8343
    -6.2124  -1.3953   0.2109   0.2791   0.4966

          k = 0.0000 0.0000 0.1700 (195749 PWs)   bands (ev):

   -22.3024 -21.3906 -20.0029 -18.3286 -15.4946 -13.2999 -11.6958 -10.9673
   -10.8118 -10.2752  -9.6215  -9.2746  -9.1484  -8.5362  -7.9141  -7.8009
    -6.1780  -1.4126   0.2461   0.3136   0.4930

          k = 0.0000 0.0000 0.1750 (195723 PWs)   bands (ev):

   -22.2723 -21.3609 -19.9739 -18.3011 -15.4741 -13.2892 -11.7799 -10.9825
   -10.8947 -10.2397  -9.6909  -9.2397  -9.1984  -8.5813  -7.9528  -7.7665
    -6.1425  -1.4311   0.2822   0.3489   0.4868

          k = 0.0000 0.0000 0.1800 (195731 PWs)   bands (ev):

   -22.2414 -21.3303 -19.9441 -18.2727 -15.4535 -13.2791 -11.8653 -11.0001
   -10.9773 -10.2032  -9.7578  -9.2543  -9.2039  -8.6218  -7.9927  -7.7313
    -6.1061  -1.4509   0.3193   0.3851   0.4779

          k = 0.0000 0.0000 0.1850 (195691 PWs)   bands (ev):

   -22.2096 -21.2989 -19.9135 -18.2436 -15.4327 -13.2700 -11.9516 -11.0593
   -11.0207 -10.1657  -9.8216  -9.3158  -9.1671  -8.6580  -8.0338  -7.6951
    -6.0688  -1.4720   0.3573   0.4221   0.4661

          k = 0.0000 0.0000 0.1900 (195677 PWs)   bands (ev):

   -22.1769 -21.2666 -19.8820 -18.2136 -15.4118 -13.2619 -12.0386 -11.1405
   -11.0451 -10.1272  -9.8817  -9.3823  -9.1294  -8.6903  -8.0759  -7.6581
    -6.0304  -1.4945   0.3962   0.4515   0.4600

          k = 0.0000 0.0000 0.1950 (195683 PWs)   bands (ev):

   -22.1434 -21.2335 -19.8497 -18.1829 -15.3910 -13.2552 -12.1259 -11.2206
   -11.0739 -10.0877  -9.9375  -9.4533  -9.0907  -8.7194  -8.1191  -7.6201
    -5.9912  -1.5184   0.4340   0.4359   0.4987

          k = 0.0000 0.0000 0.2000 (195697 PWs)   bands (ev):

   -22.1090 -21.1995 -19.8166 -18.1514 -15.3703 -13.2502 -12.2135 -11.2992
   -11.1076 -10.0473  -9.9886  -9.5282  -9.0511  -8.7458  -8.1634  -7.5813
    -5.9509  -1.5438   0.4136   0.4766   0.5382

          k = 0.0000 0.0000 0.2050 (195667 PWs)   bands (ev):

   -22.0738 -21.1647 -19.7827 -18.1192 -15.3499 -13.2471 -12.3011 -11.3759
   -11.1466 -10.0345 -10.0059  -9.6063  -9.0106  -8.7701  -8.2087  -7.5416
    -5.9098  -1.5707   0.3904   0.5181   0.5785

          k = 0.0000 0.0000 0.2100 (195607 PWs)   bands (ev):

   -22.0377 -21.1291 -19.7480 -18.0861 -15.3298 -13.2463 -12.3883 -11.4503
   -11.1911 -10.0750  -9.9635  -9.6871  -8.9691  -8.7927  -8.2551  -7.5010
    -5.8677  -1.5991   0.3642   0.5604   0.6196

          k = 0.0000 0.0000 0.2150 (195549 PWs)   bands (ev):

   -22.0008 -21.0926 -19.7125 -18.0523 -15.3101 -13.2483 -12.4751 -11.5219
   -11.2413 -10.1099  -9.9201  -9.7701  -8.9267  -8.8140  -8.3025  -7.4596
    -5.8246  -1.6290   0.3353   0.6036   0.6614

          k = 0.0000 0.0000 0.2200 (195545 PWs)   bands (ev):

   -21.9630 -21.0553 -19.6762 -18.0177 -15.2911 -13.2535 -12.5612 -11.5902
   -11.2970 -10.1395  -9.8758  -9.8551  -8.8835  -8.8343  -8.3509  -7.4173
    -5.7807  -1.6606   0.3035   0.6476   0.7040

          k = 0.0000 0.0000 0.2250 (195545 PWs)   bands (ev):

   -21.9244 -21.0171 -19.6390 -17.9823 -15.2730 -13.2625 -12.6463 -11.6547
   -11.3579 -10.1639  -9.9416  -9.8305  -8.8540  -8.8393  -8.4002  -7.3742
    -5.7358  -1.6937   0.2690   0.6925   0.7472

          k = 0.0000 0.0000 0.2300 (195606 PWs)   bands (ev):

   -21.8850 -20.9781 -19.6011 -17.9462 -15.2558 -13.2756 -12.7302 -11.7149
   -11.4237 -10.1836 -10.0294  -9.7843  -8.8733  -8.7942  -8.4505  -7.3303
    -5.6901  -1.7285   0.2319   0.7381   0.7911

          k = 0.0000 0.0000 0.2350 (195602 PWs)   bands (ev):

   -21.8446 -20.9383 -19.5624 -17.9092 -15.2400 -13.2935 -12.8125 -11.7701
   -11.4938 -10.1989 -10.1183  -9.7372  -8.8922  -8.7483  -8.5017  -7.2857
    -5.6435  -1.7649   0.1921   0.7846   0.8357

          k = 0.0000 0.0000 0.2400 (195634 PWs)   bands (ev):

   -21.8035 -20.8976 -19.5228 -17.8715 -15.2257 -13.3166 -12.8929 -11.8199
   -11.5677 -10.2104 -10.2081  -9.6891  -8.9111  -8.7015  -8.5538  -7.2402
    -5.5960  -1.8030   0.1498   0.8319   0.8810

          k = 0.0000 0.0000 0.2450 (195660 PWs)   bands (ev):

   -21.7615 -20.8562 -19.4825 -17.8331 -15.2132 -13.3452 -12.9711 -11.8639
   -11.6450 -10.2987 -10.2185  -9.6401  -8.9300  -8.6538  -8.6068  -7.1940
    -5.5477  -1.8427   0.1050   0.8799   0.9268

          k = 0.0000 0.0000 0.2500 (195668 PWs)   bands (ev):

   -21.7186 -20.8139 -19.4414 -17.7939 -15.2030 -13.3796 -13.0466 -11.9019
   -11.7252 -10.3898 -10.2236  -9.5901  -8.9489  -8.6607  -8.6053  -7.1471
    -5.4985  -1.8840   0.0579   0.9287   0.9732

          k = 0.0000 0.0000 0.2550 (195664 PWs)   bands (ev):

   -21.6750 -20.7708 -19.3995 -17.7539 -15.1953 -13.4200 -13.1191 -11.9336
   -11.8078 -10.4814 -10.2262  -9.5392  -8.9681  -8.7154  -8.5559  -7.0994
    -5.4485  -1.9270   0.0085   0.9783   1.0202

          k = 0.0000 0.0000 0.2600 (195684 PWs)   bands (ev):

   -21.6305 -20.7268 -19.3569 -17.7132 -15.1907 -13.4662 -13.1882 -11.9592
   -11.8925 -10.5733 -10.2267  -9.4874  -8.9875  -8.7709  -8.5057  -7.0511
    -5.3977  -1.9716  -0.0431   1.0286   1.0677

          k = 0.0000 0.0000 0.2650 (195676 PWs)   bands (ev):

   -21.5851 -20.6821 -19.3135 -17.6717 -15.1896 -13.5180 -13.2532 -11.9790
   -11.9788 -10.6654 -10.2252  -9.4348  -9.0072  -8.8272  -8.4547  -7.0021
    -5.3461  -2.0178  -0.0967   1.0797   1.1157

          k = 0.0000 0.0000 0.2700 (195708 PWs)   bands (ev):

   -21.5389 -20.6365 -19.2693 -17.6295 -15.1924 -13.5752 -13.3138 -12.0667
   -11.9928 -10.7577 -10.2222  -9.3812  -9.0272  -8.8842  -8.4029  -6.9524
    -5.2937  -2.0656  -0.1523   1.1315   1.1642

          k = 0.0000 0.0000 0.2750 (195730 PWs)   bands (ev):

   -21.4919 -20.5901 -19.2243 -17.5865 -15.1996 -13.6372 -13.3694 -12.1557
   -12.0016 -10.8499 -10.2178  -9.3267  -9.0477  -8.9420  -8.3504  -6.9022
    -5.2406  -2.1149  -0.2098   1.1840   1.2131

          k = 0.0000 0.0000 0.2800 (195724 PWs)   bands (ev):

   -21.4441 -20.5430 -19.1786 -17.5428 -15.2117 -13.7038 -13.4196 -12.2455
   -12.0057 -10.9420 -10.2122  -9.2713  -9.0686  -9.0005  -8.2970  -6.8514
    -5.1868  -2.1657  -0.2690   1.2372   1.2624

          k = 0.0000 0.0000 0.2850 (195764 PWs)   bands (ev):

   -21.3954 -20.4950 -19.1322 -17.4984 -15.2290 -13.7742 -13.4641 -12.3360
   -12.0057 -11.0338 -10.2056  -9.2151  -9.0900  -9.0596  -8.2429  -6.8001
    -5.1323  -2.2179  -0.3298   1.2912   1.3121

          k = 0.0000 0.0000 0.2900 (195778 PWs)   bands (ev):

   -21.3460 -20.4462 -19.0850 -17.4532 -15.2519 -13.8482 -13.5025 -12.4269
   -12.0021 -11.1250 -10.1981  -9.1580  -9.1194  -9.1119  -8.1881  -6.7483
    -5.0772  -2.2715  -0.3921   1.3458   1.3621

          k = 0.0000 0.0000 0.2950 (195790 PWs)   bands (ev):

   -21.2957 -20.3966 -19.0371 -17.4073 -15.2805 -13.9251 -13.5348 -12.5179
   -11.9958 -11.2155 -10.1900  -9.1799  -9.1343  -9.1001  -8.1326  -6.6961
    -5.0214  -2.3265  -0.4558   1.3780   1.4011

          k = 0.0000 0.0000 0.3000 (195796 PWs)   bands (ev):

   -21.2446 -20.3463 -18.9885 -17.3608 -15.3149 -14.0046 -13.5609 -12.6090
   -11.9874 -11.3047 -10.1812  -9.2409  -9.1572  -9.0413  -8.0763  -6.6435
    -4.9650  -2.3827  -0.5207   1.2954   1.4571

          k = 0.0000 0.0000 0.3050 (195782 PWs)   bands (ev):

   -21.1926 -20.2951 -18.9391 -17.3135 -15.3550 -14.0863 -13.5812 -12.6996
   -11.9780 -11.3920 -10.1719  -9.3025  -9.1807  -8.9817  -8.0194  -6.5905
    -4.9082  -2.4400  -0.5867   1.2107   1.5136

          k = 0.0000 0.0000 0.3100 (195794 PWs)   bands (ev):

   -21.1399 -20.2432 -18.8891 -17.2655 -15.4006 -14.1698 -13.5960 -12.7895
   -11.9692 -11.4761 -10.1622  -9.3646  -9.2048  -8.9212  -7.9619  -6.5373
    -4.8508  -2.4985  -0.6536   1.1243   1.5654

          k = 0.0000 0.0000 0.3150 (195814 PWs)   bands (ev):

   -21.0864 -20.1905 -18.8385 -17.2168 -15.4514 -14.2548 -13.6061 -12.8782
   -11.9633 -11.5547 -10.1521  -9.4272  -9.2294  -8.8599  -7.9037  -6.4839
    -4.7930  -2.5580  -0.7213   1.0365   1.6168

          k = 0.0000 0.0000 0.3200 (195804 PWs)   bands (ev):

   -21.0320 -20.1370 -18.7871 -17.1675 -15.5070 -14.3411 -13.6125 -12.9648
   -11.9650 -11.6237 -10.1418  -9.4903  -9.2546  -8.7979  -7.8449  -6.4304
    -4.7349  -2.6183  -0.7896   0.9475   1.6685

          k = 0.0000 0.0000 0.3250 (195870 PWs)   bands (ev):

   -20.9769 -20.0827 -18.7352 -17.1175 -15.5669 -14.4283 -13.6167 -13.0483
   -11.9812 -11.6761 -10.1313  -9.5538  -9.2804  -8.7350  -7.7856  -6.3768
    -4.6764  -2.6794  -0.8584   0.8577   1.7204

          k = 0.0000 0.0000 0.3300 (195842 PWs)   bands (ev):

   -20.9209 -20.0277 -18.6826 -17.0669 -15.6306 -14.5164 -13.6211 -13.1267
   -12.0185 -11.7057 -10.1206  -9.6178  -9.3068  -8.6714  -7.7257  -6.3233
    -4.6178  -2.7412  -0.9275   0.7672   1.7724

          k = 0.0000 0.0000 0.3350 (195888 PWs)   bands (ev):

   -20.8642 -19.9720 -18.6295 -17.0157 -15.6978 -14.6050 -13.6292 -13.1968
   -12.0761 -11.7131 -10.1099  -9.6820  -9.3338  -8.6070  -7.6654  -6.2700
    -4.5590  -2.8035  -0.9966   0.6761   1.8246

          k = 0.0000 0.0000 0.3400 (195890 PWs)   bands (ev):

   -20.8067 -19.9155 -18.5758 -16.9639 -15.7678 -14.6940 -13.6460 -13.2540
   -12.1474 -11.7053 -10.0992  -9.7466  -9.3614  -8.5419  -7.6045  -6.2171
    -4.5002  -2.8661  -1.0656   0.5845   1.8770

          k = 0.0000 0.0000 0.3450 (195872 PWs)   bands (ev):

   -20.7483 -19.8583 -18.5216 -16.9116 -15.8402 -14.7832 -13.6771 -13.2931
   -12.2265 -11.6882 -10.0886  -9.8114  -9.3896  -8.4760  -7.5433  -6.1645
    -4.4415  -2.9289  -1.1342   0.4927   1.8542

          k = 0.0000 0.0000 0.3500 (195884 PWs)   bands (ev):

   -20.6893 -19.8003 -18.4670 -16.8588 -15.9147 -14.8725 -13.7249 -13.3119
   -12.3098 -11.6655 -10.0784  -9.8761  -9.4184  -8.4094  -7.4817  -6.1126
    -4.3831  -2.9918  -1.2023   0.4008   1.7488

          k = 0.0000 0.0000 0.3550 (195942 PWs)   bands (ev):

   -20.6294 -19.7416 -18.4120 -16.8056 -15.9908 -14.9616 -13.7874 -13.3128
   -12.3954 -11.6391 -10.0692  -9.9402  -9.4478  -8.3421  -7.4197  -6.0615
    -4.3251  -3.0544  -1.2695   0.3088   1.6433

          k = 0.0000 0.0000 0.3600 (195982 PWs)   bands (ev):

   -20.5688 -19.6823 -18.3567 -16.7520 -16.0682 -15.0504 -13.8602 -13.3005
   -12.4823 -11.6102 -10.0645 -10.0001  -9.4778  -8.2741  -7.3575  -6.0114
    -4.2676  -3.1166  -1.3356   0.2169   1.5379

          k = 0.0000 0.0000 0.3650 (195956 PWs)   bands (ev):

   -20.5074 -19.6222 -18.3011 -16.6983 -16.1465 -15.1387 -13.9394 -13.2789
   -12.5699 -11.5794 -10.0899 -10.0303  -9.5083  -8.2055  -7.2951  -5.9625
    -4.2110  -3.1781  -1.4002   0.1252   1.4326

          k = 0.0000 0.0000 0.3700 (196008 PWs)   bands (ev):

   -20.4452 -19.5615 -18.2455 -16.6445 -16.2253 -15.2263 -14.0225 -13.2509
   -12.6578 -11.5471 -10.1490 -10.0271  -9.5394  -8.1362  -7.2325  -5.9152
    -4.1555  -3.2387  -1.4630   0.0339   1.3275

          k = 0.0000 0.0000 0.3750 (196006 PWs)   bands (ev):

   -20.3823 -19.5001 -18.1900 -16.5910 -16.3043 -15.3127 -14.1080 -13.2180
   -12.7458 -11.5136 -10.2139 -10.0186  -9.5711  -8.0663  -7.1699  -5.8696
    -4.1012  -3.2980  -1.5236  -0.0570   1.2225

          k = 0.0000 0.0000 0.3800 (195996 PWs)   bands (ev):

   -20.3186 -19.4381 -18.1347 -16.5379 -16.3831 -15.3977 -14.1950 -13.1815
   -12.8339 -11.4790 -10.2800 -10.0092  -9.6034  -7.9958  -7.1072  -5.8263
    -4.0486  -3.3557  -1.5816  -0.1473   1.1178

          k = 0.0000 0.0000 0.3850 (195964 PWs)   bands (ev):

   -20.2542 -19.3754 -18.0799 -16.4860 -16.4613 -15.4806 -14.2827 -13.1421
   -12.9217 -11.4436 -10.3466  -9.9997  -9.6362  -7.9247  -7.0446  -5.7855
    -3.9981  -3.4114  -1.6364  -0.2370   1.0134

          k = 0.0000 0.0000 0.3900 (196008 PWs)   bands (ev):

   -20.1891 -19.3122 -18.0261 -16.5384 -16.4360 -15.5605 -14.3709 -13.1001
   -13.0093 -11.4074 -10.4135  -9.9902  -9.6695  -7.8531  -6.9822  -5.7477
    -3.9499  -3.4647  -1.6876  -0.3257   0.9094

          k = 0.0000 0.0000 0.3950 (196000 PWs)   bands (ev):

   -20.1232 -19.2484 -17.9736 -16.6137 -16.3893 -15.6359 -14.4592 -13.0966
   -13.0561 -11.3705 -10.4806  -9.9809  -9.7033  -7.7810  -6.9201  -5.7133
    -3.9046  -3.5153  -1.7346  -0.4135   0.8058

          k = 0.0000 0.0000 0.4000 (196056 PWs)   bands (ev):

   -20.0567 -19.1840 -17.9232 -16.6866 -16.3482 -15.7046 -14.5475 -13.1836
   -13.0102 -11.3330 -10.5478  -9.9718  -9.7377  -7.7084  -6.8584  -5.6828
    -3.8626  -3.5625  -1.7768  -0.5002   0.7027

          k = 0.0000 0.0000 0.4050 (196052 PWs)   bands (ev):

   -19.9894 -19.1192 -17.8759 -16.7560 -16.3165 -15.7625 -14.6356 -13.2701
   -12.9627 -11.2951 -10.6151  -9.9631  -9.7725  -7.6353  -6.7972  -5.6569
    -3.8245  -3.6060  -1.8135  -0.5855   0.6001

          k = 0.0000 0.0000 0.4100 (196050 PWs)   bands (ev):

   -19.9214 -19.0539 -17.8329 -16.8204 -16.2998 -15.8042 -14.7235 -13.3562
   -12.9137 -11.2567 -10.6824  -9.9546  -9.8078  -7.5618  -6.7367  -5.6359
    -3.7906  -3.6453  -1.8441  -0.6694   0.4980

          k = 0.0000 0.0000 0.4150 (196038 PWs)   bands (ev):

   -19.8527 -18.9882 -17.7961 -16.8780 -16.3039 -15.8237 -14.8109 -13.4418
   -12.8634 -11.2178 -10.7498  -9.9465  -9.8435  -7.4879  -6.6771  -5.6205
    -3.7616  -3.6799  -1.8680  -0.7516   0.3967

          k = 0.0000 0.0000 0.4200 (196076 PWs)   bands (ev):

   -19.7834 -18.9222 -17.7679 -16.9264 -16.3306 -15.8191 -14.8978 -13.5270
   -12.8118 -11.1786 -10.8171  -9.9387  -9.8796  -7.4137  -6.6184  -5.6110
    -3.7376  -3.7096  -1.8846  -0.8319   0.2960

          k = 0.0000 0.0000 0.4250 (196076 PWs)   bands (ev):

   -19.7134 -18.8559 -17.7510 -16.9628 -16.3761 -15.7941 -14.9842 -13.6116
   -12.7592 -11.1391 -10.8844  -9.9313  -9.9162  -7.3392  -6.5610  -5.6078
    -3.7341  -3.7190  -1.8936  -0.9102   0.1960

          k = 0.0000 0.0000 0.4300 (196062 PWs)   bands (ev):

   -19.6427 -18.7895 -17.7480 -16.9845 -16.4341 -15.7550 -15.0700 -13.6956
   -12.7054 -11.0994 -10.9516  -9.9531  -9.9243  -7.2644  -6.5049  -5.6113
    -3.7531  -3.7059  -1.8946  -0.9861   0.0969

          k = 0.0000 0.0000 0.4350 (196058 PWs)   bands (ev):

   -19.5714 -18.7230 -17.7605 -16.9900 -16.4996 -15.7066 -15.1550 -13.7790
   -12.6508 -11.0595 -11.0187  -9.9904  -9.9177  -7.1895  -6.4506  -5.6215
    -3.7668  -3.6982  -1.8876  -1.0593  -0.0013

          k = 0.0000 0.0000 0.4400 (196082 PWs)   bands (ev):

   -19.4995 -18.6567 -17.7880 -16.9798 -16.5692 -15.6522 -15.2392 -13.8619
   -12.5952 -11.0856 -11.0193 -10.0280  -9.9116  -7.1144  -6.3982  -5.6385
    -3.7755  -3.6954  -1.8725  -1.1296  -0.0985

          k = 0.0000 0.0000 0.4450 (196078 PWs)   bands (ev):

   -19.4270 -18.5906 -17.8287 -16.9557 -16.6408 -15.5937 -15.3225 -13.9440
   -12.5388 -11.1524 -10.9791 -10.0659  -9.9059  -7.0392  -6.3480  -5.6620
    -3.7794  -3.6973  -1.8498  -1.1967  -0.1946

          k = 0.0000 0.0000 0.4500 (196122 PWs)   bands (ev):

   -19.3539 -18.5251 -17.8797 -16.9207 -16.7128 -15.5324 -15.4048 -14.0255
   -12.4816 -11.2191 -10.9388 -10.1040  -9.9006  -6.9641  -6.3004  -5.6918
    -3.7791  -3.7029  -1.8198  -1.2601  -0.2895

          k = 0.0000 0.0000 0.4550 (196146 PWs)   bands (ev):

   -19.2803 -18.4606 -17.9386 -16.8773 -16.7844 -15.4858 -15.4690 -14.1062
   -12.4236 -11.2855 -10.8986 -10.1422  -9.8958  -6.8890  -6.2557  -5.7274
    -3.7753  -3.7117  -1.7831  -1.3195  -0.3830

          k = 0.0000 0.0000 0.4600 (196094 PWs)   bands (ev):

   -19.2062 -18.3973 -18.0030 -16.8546 -16.8279 -15.5654 -15.4039 -14.1860
   -12.3649 -11.3517 -10.8584 -10.1805  -9.8915  -6.8141  -6.2142  -5.7685
    -3.7688  -3.7227  -1.7404  -1.3744  -0.4750

          k = 0.0000 0.0000 0.4650 (196066 PWs)   bands (ev):

   -19.1315 -18.3360 -18.0715 -16.9224 -16.7745 -15.6432 -15.3377 -14.2649
   -12.3056 -11.4176 -10.8185 -10.2188  -9.8877  -6.7394  -6.1764  -5.8144
    -3.7604  -3.7350  -1.6923  -1.4244  -0.5651

          k = 0.0000 0.0000 0.4700 (196116 PWs)   bands (ev):

   -19.0564 -18.2774 -18.1427 -16.9869 -16.7186 -15.7188 -15.2706 -14.3427
   -12.2457 -11.4832 -10.7790 -10.2570  -9.8844  -6.6652  -6.1426  -5.8647
    -3.7510  -3.7478  -1.6398  -1.4690  -0.6531

          k = 0.0000 0.0000 0.4750 (196128 PWs)   bands (ev):

   -18.9810 -18.2226 -18.2160 -17.0469 -16.6616 -15.7914 -15.2032 -14.4191
   -12.1853 -11.5485 -10.7401 -10.2946  -9.8816  -6.5914  -6.1131  -5.9189
    -3.7602  -3.7413  -1.5838  -1.5078  -0.7383

          k = 0.0000 0.0000 0.4800 (196098 PWs)   bands (ev):

   -18.9052 -18.2905 -18.1731 -17.1007 -16.6055 -15.8597 -15.1359 -14.4936
   -12.1244 -11.6133 -10.7024 -10.3313  -9.8792  -6.5184  -6.0885  -5.9765
    -3.7715  -3.7322  -1.5403  -1.5257  -0.8199

          k = 0.0000 0.0000 0.4850 (196086 PWs)   bands (ev):

   -18.8292 -18.3658 -18.1308 -17.1465 -16.5526 -15.9218 -15.0700 -14.5651
   -12.0633 -11.6775 -10.6667 -10.3663  -9.8774  -6.4462  -6.0689  -6.0369
    -3.7810  -3.7243  -1.5661  -1.4674  -0.8960

          k = 0.0000 0.0000 0.4900 (196146 PWs)   bands (ev):

   -18.7534 -18.4414 -18.0980 -17.1818 -16.5069 -15.9739 -15.0080 -14.6310
   -12.0022 -11.7408 -10.6349 -10.3976  -9.8761  -6.3752  -6.0996  -6.0547
    -3.7882  -3.7182  -1.5848  -1.4129  -0.9632

          k = 0.0000 0.0000 0.4950 (196146 PWs)   bands (ev):

   -18.6788 -18.5159 -18.0769 -17.2044 -16.4743 -16.0103 -14.9570 -14.6843
   -11.9428 -11.8014 -10.6108 -10.4213  -9.8753  -6.3065  -6.1635  -6.0461
    -3.7927  -3.7144  -1.5961  -1.3700  -1.0135

          k = 0.0000 0.0000 0.5000 (196164 PWs)   bands (ev):

   -18.6242 -18.5704 -18.0697 -17.2121 -16.4623 -16.0236 -14.9348 -14.7073
   -11.9035 -11.8412 -10.6013 -10.4307  -9.8751  -6.2555  -6.2129  -6.0432
    -3.7942  -3.7131  -1.5999  -1.3526  -1.0334

     Writing all to output data dir ./tmp/ZGNR.save/ :
     XML data file, pseudopotentials, collected wavefunctions

     init_run     :     11.14s CPU     12.32s WALL (       1 calls)
     electrons    :  16865.97s CPU  17104.45s WALL (       1 calls)

     Called by init_run:
     wfcinit      :      0.00s CPU      0.00s WALL (       1 calls)
     wfcinit:wfcr :    323.23s CPU    329.51s WALL (     201 calls)
     potinit      :      2.56s CPU      3.18s WALL (       1 calls)
     hinit0       :      1.22s CPU      1.30s WALL (       1 calls)

     Called by electrons:
     c_bands      :  16865.97s CPU  17104.44s WALL (       1 calls)
     v_of_rho     :      1.70s CPU      1.97s WALL (       1 calls)
     v_h          :      0.18s CPU      0.21s WALL (       1 calls)
     v_xc         :      1.52s CPU      1.75s WALL (       1 calls)
     newd         :      2.59s CPU      3.00s WALL (       1 calls)
     PAW_pot      :      0.07s CPU      0.07s WALL (       1 calls)

     Called by c_bands:
     init_us_2    :      8.28s CPU      8.29s WALL (     201 calls)
     cegterg      :  16523.60s CPU  16754.45s WALL (     867 calls)

     Called by sum_band:

     Called by *egterg:
     cdiaghg      :      8.98s CPU      9.01s WALL (   16146 calls)
     cegterg:over :   1393.21s CPU   1393.57s WALL (   15945 calls)
     cegterg:upda :    855.33s CPU    855.42s WALL (   15945 calls)
     cegterg:last :   2224.10s CPU   2224.22s WALL (    8100 calls)
     h_psi        :  10826.19s CPU  11062.47s WALL (   17013 calls)
     s_psi        :   1296.17s CPU   1296.26s WALL (   17013 calls)
     g_psi        :     23.79s CPU     23.84s WALL (   15945 calls)

     Called by h_psi:
     h_psi:calbec :   1274.59s CPU   1274.87s WALL (   17013 calls)
     vloc_psi     :   8210.97s CPU   8446.84s WALL (   17013 calls)
     add_vuspsi   :   1281.77s CPU   1281.89s WALL (   17013 calls)

     General routines
     calbec       :   1274.52s CPU   1274.81s WALL (   17013 calls)
     fft          :      2.28s CPU      2.46s WALL (      13 calls)
     ffts         :      0.45s CPU      0.45s WALL (       1 calls)
     fftw         :   4505.24s CPU   4738.70s WALL (  352146 calls)
     interpolate  :      0.58s CPU      0.60s WALL (       1 calls)
     davcio       :      0.13s CPU     36.37s WALL (     402 calls)

     Parallel routines

     PAW routines
     PAW_pot      :      0.07s CPU      0.07s WALL (       1 calls)

     PWSCF        :      4h41m CPU      4h46m WALL


   This run was terminated on:  20:32: 1  20Nov2025            

=------------------------------------------------------------------------------=
   JOB DONE.
=------------------------------------------------------------------------------=
