
     Program PWSCF v.7.4.1 starts on  1Nov2025 at 22:45:49 

     This program is part of the open-source Quantum ESPRESSO suite
     for quantum simulation of materials; please cite
         "P. Giannozzi et al., J. Phys.:Condens. Matter 21 395502 (2009);
         "P. Giannozzi et al., J. Phys.:Condens. Matter 29 465901 (2017);
         "P. Giannozzi et al., J. Chem. Phys. 152 154105 (2020);
          URL http://www.quantum-espresso.org", 
     in publications or presentations arising from this work. More details at
     http://www.quantum-espresso.org/quote

     Serial version
     12907 MiB available memory on the printing compute node when the environment starts

     Reading input from grap_SOC_scf.in

     Current dimensions of program PWSCF are:
     Max number of different atomic species (ntypx) = 10
     Max number of k-points (npk) =  40000
     Max angular momentum in pseudopotentials (lmaxx) =  4
     Presently stress not available with electric field and gates

     file C.rel-pbe-n-kjpaw_psl.0.1.UPF: wavefunction(s)  2P 2P renormalized


     G-vector sticks info
     --------------------
     sticks:   dense  smooth     PW     G-vecs:    dense   smooth      PW
     Sum        1045     421    139               166859    42343    8205

     Using Slab Decomposition



     bravais-lattice index     =            0
     lattice parameter (alat)  =       4.6624  a.u.
     unit-cell volume          =     533.6317 (a.u.)^3
     number of atoms/cell      =            2
     number of atomic types    =            1
     number of electrons       =         8.00
     number of Kohn-Sham states=           16
     kinetic-energy cutoff     =      70.0000  Ry
     charge density cutoff     =     700.0000  Ry
     scf convergence threshold =      1.0E-08
     mixing beta               =       0.1000
     number of iterations used =            8  plain     mixing
     Exchange-correlation= SLA  PW   PBX  PBC
                           (   1   4   3   4   0   0   0)
     Non magnetic calculation with spin-orbit


     celldm(1)=   4.662410  celldm(2)=   0.000000  celldm(3)=   0.000000
     celldm(4)=   0.000000  celldm(5)=   0.000000  celldm(6)=   0.000000

     crystal axes: (cart. coord. in units of alat)
               a(1) = (   1.000000   0.000000  -0.000000 )  
               a(2) = (  -0.500000   0.866025   0.000000 )  
               a(3) = (  -0.000000   0.000000   6.079666 )  

     reciprocal axes: (cart. coord. in units 2 pi/alat)
               b(1) = (  1.000000  0.577350  0.000000 )  
               b(2) = ( -0.000000  1.154701 -0.000000 )  
               b(3) = (  0.000000  0.000000  0.164483 )  


     PseudoPot. # 1 for C  read from file:
     ../../../pseudos/C.rel-pbe-n-kjpaw_psl.0.1.UPF
     MD5 check sum: 5ef0b8f55ac4be3c3db5d31256eeff6b
     Pseudo is Projector augmented-wave + core cor, Zval =  4.0
     Generated using &quot;atomic&quot; code by A. Dal Corso  v.6.3
     Shape of augmentation charge: BESSEL
     Using radial grid of 1073 points,  6 beta functions with: 
                l(1) =   0
                l(2) =   0
                l(3) =   1
                l(4) =   1
                l(5) =   1
                l(6) =   1
     Q(r) pseudized with 0 coefficients 


     atomic species   valence    mass     pseudopotential
     C                 4.00    12.01100     C ( 1.00)

     No symmetry found



   Cartesian axes

     site n.     atom                  positions (alat units)
         1        C      tau(   1) = (   0.0000000   0.0000000   3.0398328  )
         2        C      tau(   2) = (   0.0000000   0.5773503   3.0398328  )

     number of k points=    74  Gaussian smearing, width (Ry)=  0.0020
                       cart. coord. in units 2pi/alat
        k(    1) = (   0.0000000   0.0000000   0.0000000), wk =   0.0069444
        k(    2) = (   0.0000000   0.0962250   0.0000000), wk =   0.0138889
        k(    3) = (   0.0000000   0.1924501   0.0000000), wk =   0.0138889
        k(    4) = (   0.0000000   0.2886751   0.0000000), wk =   0.0138889
        k(    5) = (   0.0000000   0.3849002   0.0000000), wk =   0.0138889
        k(    6) = (   0.0000000   0.4811252   0.0000000), wk =   0.0138889
        k(    7) = (   0.0000000  -0.5773503   0.0000000), wk =   0.0069444
        k(    8) = (   0.0833333   0.0481125   0.0000000), wk =   0.0138889
        k(    9) = (   0.0833333   0.1443376   0.0000000), wk =   0.0138889
        k(   10) = (   0.0833333   0.2405626   0.0000000), wk =   0.0138889
        k(   11) = (   0.0833333   0.3367877   0.0000000), wk =   0.0138889
        k(   12) = (   0.0833333   0.4330127   0.0000000), wk =   0.0138889
        k(   13) = (   0.0833333   0.5292377   0.0000000), wk =   0.0138889
        k(   14) = (   0.0833333  -0.5292377   0.0000000), wk =   0.0138889
        k(   15) = (   0.0833333  -0.4330127   0.0000000), wk =   0.0138889
        k(   16) = (   0.0833333  -0.3367877   0.0000000), wk =   0.0138889
        k(   17) = (   0.0833333  -0.2405626   0.0000000), wk =   0.0138889
        k(   18) = (   0.0833333  -0.1443376   0.0000000), wk =   0.0138889
        k(   19) = (   0.0833333  -0.0481125   0.0000000), wk =   0.0138889
        k(   20) = (   0.1666667   0.0962250   0.0000000), wk =   0.0138889
        k(   21) = (   0.1666667   0.1924501   0.0000000), wk =   0.0138889
        k(   22) = (   0.1666667   0.2886751   0.0000000), wk =   0.0138889
        k(   23) = (   0.1666667   0.3849002   0.0000000), wk =   0.0138889
        k(   24) = (   0.1666667   0.4811252   0.0000000), wk =   0.0138889
        k(   25) = (   0.1666667   0.5773503   0.0000000), wk =   0.0138889
        k(   26) = (   0.1666667  -0.4811252   0.0000000), wk =   0.0138889
        k(   27) = (   0.1666667  -0.3849002   0.0000000), wk =   0.0138889
        k(   28) = (   0.1666667  -0.2886751   0.0000000), wk =   0.0138889
        k(   29) = (   0.1666667  -0.1924501   0.0000000), wk =   0.0138889
        k(   30) = (   0.1666667  -0.0962250   0.0000000), wk =   0.0138889
        k(   31) = (   0.1666667  -0.0000000   0.0000000), wk =   0.0138889
        k(   32) = (   0.2500000   0.1443376   0.0000000), wk =   0.0138889
        k(   33) = (   0.2500000   0.2405626   0.0000000), wk =   0.0138889
        k(   34) = (   0.2500000   0.3367877   0.0000000), wk =   0.0138889
        k(   35) = (   0.2500000   0.4330127   0.0000000), wk =   0.0138889
        k(   36) = (   0.2500000   0.5292377   0.0000000), wk =   0.0138889
        k(   37) = (   0.2500000   0.6254628   0.0000000), wk =   0.0138889
        k(   38) = (   0.2500000  -0.4330127   0.0000000), wk =   0.0138889
        k(   39) = (   0.2500000  -0.3367877   0.0000000), wk =   0.0138889
        k(   40) = (   0.2500000  -0.2405626   0.0000000), wk =   0.0138889
        k(   41) = (   0.2500000  -0.1443376   0.0000000), wk =   0.0138889
        k(   42) = (   0.2500000  -0.0481125   0.0000000), wk =   0.0138889
        k(   43) = (   0.2500000   0.0481125   0.0000000), wk =   0.0138889
        k(   44) = (   0.3333333   0.1924501   0.0000000), wk =   0.0138889
        k(   45) = (   0.3333333   0.2886751   0.0000000), wk =   0.0138889
        k(   46) = (   0.3333333   0.3849002   0.0000000), wk =   0.0138889
        k(   47) = (   0.3333333   0.4811252   0.0000000), wk =   0.0138889
        k(   48) = (   0.3333333   0.5773503   0.0000000), wk =   0.0138889
        k(   49) = (   0.3333333   0.6735753   0.0000000), wk =   0.0138889
        k(   50) = (   0.3333333  -0.3849002   0.0000000), wk =   0.0138889
        k(   51) = (   0.3333333  -0.2886751   0.0000000), wk =   0.0138889
        k(   52) = (   0.3333333  -0.1924501   0.0000000), wk =   0.0138889
        k(   53) = (   0.3333333  -0.0962250   0.0000000), wk =   0.0138889
        k(   54) = (   0.3333333   0.0000000   0.0000000), wk =   0.0138889
        k(   55) = (   0.3333333   0.0962250   0.0000000), wk =   0.0138889
        k(   56) = (   0.4166667   0.2405626   0.0000000), wk =   0.0138889
        k(   57) = (   0.4166667   0.3367877   0.0000000), wk =   0.0138889
        k(   58) = (   0.4166667   0.4330127   0.0000000), wk =   0.0138889
        k(   59) = (   0.4166667   0.5292377   0.0000000), wk =   0.0138889
        k(   60) = (   0.4166667   0.6254628   0.0000000), wk =   0.0138889
        k(   61) = (   0.4166667   0.7216878   0.0000000), wk =   0.0138889
        k(   62) = (   0.4166667  -0.3367877   0.0000000), wk =   0.0138889
        k(   63) = (   0.4166667  -0.2405626   0.0000000), wk =   0.0138889
        k(   64) = (   0.4166667  -0.1443376   0.0000000), wk =   0.0138889
        k(   65) = (   0.4166667  -0.0481125   0.0000000), wk =   0.0138889
        k(   66) = (   0.4166667   0.0481125   0.0000000), wk =   0.0138889
        k(   67) = (   0.4166667   0.1443376   0.0000000), wk =   0.0138889
        k(   68) = (  -0.5000000  -0.2886751   0.0000000), wk =   0.0069444
        k(   69) = (  -0.5000000  -0.1924501   0.0000000), wk =   0.0138889
        k(   70) = (  -0.5000000  -0.0962250   0.0000000), wk =   0.0138889
        k(   71) = (  -0.5000000   0.0000000   0.0000000), wk =   0.0138889
        k(   72) = (  -0.5000000   0.0962250   0.0000000), wk =   0.0138889
        k(   73) = (  -0.5000000   0.1924501   0.0000000), wk =   0.0138889
        k(   74) = (  -0.5000000  -0.8660254   0.0000000), wk =   0.0069444

     Dense  grid:   166859 G-vectors     FFT dimensions: (  40,  40, 240)

     Smooth grid:    42343 G-vectors     FFT dimensions: (  25,  25, 160)

     Estimated max dynamical RAM per process >     784.94 MB

     Initial potential from superposition of free atoms

     starting charge       7.9999, renormalised to       8.0000

     negative rho (up, down):  2.781E-05 0.000E+00

     Adding external electric field

     Computed dipole along edir(3) : 
        Dipole               -0.0000 Ry au,         -0.0000 Debye
        Dipole field         -0.0000 Ry au, 

        E field amplitude [Ha a.u.]:  1.9447E-03
        Potential amp.        0.1047 Ry
        Total length         26.9286 bohr

     Starting wfcs are random

     total cpu time spent up to now is        8.2 secs

     Self-consistent Calculation

     iteration #  1     ecut=    70.00 Ry     beta= 0.10
     Davidson diagonalization with overlap
     ethr =  1.00E-02,  avg # of iterations =  8.8

     negative rho (up, down):  2.270E-05 0.000E+00

     Adding external electric field

     Computed dipole along edir(3) : 
        Dipole                0.0024 Ry au,          0.0062 Debye
        Dipole field          0.0001 Ry au, 

        E field amplitude [Ha a.u.]:  1.9447E-03
        Potential amp.        0.1016 Ry
        Total length         26.9286 bohr


     total cpu time spent up to now is       92.6 secs

     total energy              =     -36.95392841 Ry
     estimated scf accuracy    <       0.20221660 Ry

     iteration #  2     ecut=    70.00 Ry     beta= 0.10
     Davidson diagonalization with overlap
     ethr =  2.53E-03,  avg # of iterations =  1.0

     negative rho (up, down):  1.043E-04 0.000E+00

     Adding external electric field

     Computed dipole along edir(3) : 
        Dipole                0.0186 Ry au,          0.0472 Debye
        Dipole field          0.0004 Ry au, 

        E field amplitude [Ha a.u.]:  1.9447E-03
        Potential amp.        0.0812 Ry
        Total length         26.9286 bohr


     total cpu time spent up to now is      108.4 secs

     total energy              =     -36.85261978 Ry
     estimated scf accuracy    <       0.15630123 Ry

     iteration #  3     ecut=    70.00 Ry     beta= 0.10
     Davidson diagonalization with overlap
     ethr =  1.95E-03,  avg # of iterations =  4.3

     negative rho (up, down):  7.596E-05 0.000E+00

     Adding external electric field

     Computed dipole along edir(3) : 
        Dipole                0.0169 Ry au,          0.0429 Debye
        Dipole field          0.0004 Ry au, 

        E field amplitude [Ha a.u.]:  1.9447E-03
        Potential amp.        0.0833 Ry
        Total length         26.9286 bohr


     total cpu time spent up to now is      128.0 secs

     total energy              =     -36.87789209 Ry
     estimated scf accuracy    <       0.00306182 Ry

     iteration #  4     ecut=    70.00 Ry     beta= 0.10
     Davidson diagonalization with overlap
     ethr =  3.83E-05,  avg # of iterations =  7.4

     negative rho (up, down):  7.563E-05 0.000E+00

     Adding external electric field

     Computed dipole along edir(3) : 
        Dipole                0.0224 Ry au,          0.0569 Debye
        Dipole field          0.0005 Ry au, 

        E field amplitude [Ha a.u.]:  1.9447E-03
        Potential amp.        0.0763 Ry
        Total length         26.9286 bohr


     total cpu time spent up to now is      173.9 secs

     total energy              =     -36.90338756 Ry
     estimated scf accuracy    <       0.00700581 Ry

     iteration #  5     ecut=    70.00 Ry     beta= 0.10
     Davidson diagonalization with overlap
     ethr =  3.83E-05,  avg # of iterations =  5.1

     negative rho (up, down):  1.501E-04 0.000E+00

     Adding external electric field

     Computed dipole along edir(3) : 
        Dipole                0.0129 Ry au,          0.0328 Debye
        Dipole field          0.0003 Ry au, 

        E field amplitude [Ha a.u.]:  1.9447E-03
        Potential amp.        0.0884 Ry
        Total length         26.9286 bohr


     total cpu time spent up to now is      201.9 secs

     total energy              =     -36.88919196 Ry
     estimated scf accuracy    <       0.03582834 Ry

     iteration #  6     ecut=    70.00 Ry     beta= 0.10
     Davidson diagonalization with overlap
     ethr =  3.83E-05,  avg # of iterations =  5.2

     negative rho (up, down):  4.750E-04 0.000E+00

     Adding external electric field

     Computed dipole along edir(3) : 
        Dipole                0.0062 Ry au,          0.0159 Debye
        Dipole field          0.0001 Ry au, 

        E field amplitude [Ha a.u.]:  1.9447E-03
        Potential amp.        0.0968 Ry
        Total length         26.9286 bohr


     total cpu time spent up to now is      231.9 secs

     total energy              =     -36.88748519 Ry
     estimated scf accuracy    <       0.00555492 Ry

     iteration #  7     ecut=    70.00 Ry     beta= 0.10
     Davidson diagonalization with overlap
     ethr =  3.83E-05,  avg # of iterations =  5.5

     negative rho (up, down):  3.512E-04 0.000E+00

     Adding external electric field

     Computed dipole along edir(3) : 
        Dipole                0.0093 Ry au,          0.0236 Debye
        Dipole field          0.0002 Ry au, 

        E field amplitude [Ha a.u.]:  1.9447E-03
        Potential amp.        0.0929 Ry
        Total length         26.9286 bohr


     total cpu time spent up to now is      258.1 secs

     total energy              =     -36.88900507 Ry
     estimated scf accuracy    <       0.00043117 Ry

     iteration #  8     ecut=    70.00 Ry     beta= 0.10
     Davidson diagonalization with overlap
     ethr =  5.39E-06,  avg # of iterations =  5.2

     negative rho (up, down):  3.259E-04 0.000E+00

     Adding external electric field

     Computed dipole along edir(3) : 
        Dipole                0.0098 Ry au,          0.0250 Debye
        Dipole field          0.0002 Ry au, 

        E field amplitude [Ha a.u.]:  1.9447E-03
        Potential amp.        0.0923 Ry
        Total length         26.9286 bohr


     total cpu time spent up to now is      286.6 secs

     total energy              =     -36.88923111 Ry
     estimated scf accuracy    <       0.00095254 Ry

     iteration #  9     ecut=    70.00 Ry     beta= 0.10
     Davidson diagonalization with overlap
     ethr =  5.39E-06,  avg # of iterations =  1.1

     negative rho (up, down):  1.907E-04 0.000E+00

     Adding external electric field

     Computed dipole along edir(3) : 
        Dipole                0.0111 Ry au,          0.0281 Debye
        Dipole field          0.0003 Ry au, 

        E field amplitude [Ha a.u.]:  1.9447E-03
        Potential amp.        0.0907 Ry
        Total length         26.9286 bohr


     total cpu time spent up to now is      302.6 secs

     total energy              =     -36.88897232 Ry
     estimated scf accuracy    <       0.00073451 Ry

     iteration # 10     ecut=    70.00 Ry     beta= 0.10
     Davidson diagonalization with overlap
     ethr =  5.39E-06,  avg # of iterations =  1.7

     negative rho (up, down):  1.196E-04 0.000E+00

     Adding external electric field

     Computed dipole along edir(3) : 
        Dipole                0.0114 Ry au,          0.0290 Debye
        Dipole field          0.0003 Ry au, 

        E field amplitude [Ha a.u.]:  1.9447E-03
        Potential amp.        0.0903 Ry
        Total length         26.9286 bohr


     total cpu time spent up to now is      319.1 secs

     total energy              =     -36.88892326 Ry
     estimated scf accuracy    <       0.00026642 Ry

     iteration # 11     ecut=    70.00 Ry     beta= 0.10
     Davidson diagonalization with overlap
     ethr =  3.33E-06,  avg # of iterations =  4.3

     negative rho (up, down):  1.126E-04 0.000E+00

     Adding external electric field

     Computed dipole along edir(3) : 
        Dipole                0.0114 Ry au,          0.0289 Debye
        Dipole field          0.0003 Ry au, 

        E field amplitude [Ha a.u.]:  1.9447E-03
        Potential amp.        0.0903 Ry
        Total length         26.9286 bohr


     total cpu time spent up to now is      338.8 secs

     total energy              =     -36.88894070 Ry
     estimated scf accuracy    <       0.00011406 Ry

     iteration # 12     ecut=    70.00 Ry     beta= 0.10
     Davidson diagonalization with overlap
     ethr =  1.43E-06,  avg # of iterations =  2.4

     negative rho (up, down):  4.501E-05 0.000E+00

     Adding external electric field

     Computed dipole along edir(3) : 
        Dipole                0.0135 Ry au,          0.0343 Debye
        Dipole field          0.0003 Ry au, 

        E field amplitude [Ha a.u.]:  1.9447E-03
        Potential amp.        0.0876 Ry
        Total length         26.9286 bohr


     total cpu time spent up to now is      355.9 secs

     total energy              =     -36.88892310 Ry
     estimated scf accuracy    <       0.00009146 Ry

     iteration # 13     ecut=    70.00 Ry     beta= 0.10
     Davidson diagonalization with overlap
     ethr =  1.14E-06,  avg # of iterations =  5.8

     negative rho (up, down):  3.212E-05 0.000E+00

     Adding external electric field

     Computed dipole along edir(3) : 
        Dipole                0.0134 Ry au,          0.0340 Debye
        Dipole field          0.0003 Ry au, 

        E field amplitude [Ha a.u.]:  1.9447E-03
        Potential amp.        0.0878 Ry
        Total length         26.9286 bohr


     total cpu time spent up to now is      391.7 secs

     total energy              =     -36.88906527 Ry
     estimated scf accuracy    <       0.00031220 Ry

     iteration # 14     ecut=    70.00 Ry     beta= 0.10
     Davidson diagonalization with overlap
     ethr =  1.14E-06,  avg # of iterations =  1.0

     negative rho (up, down):  3.380E-05 0.000E+00

     Adding external electric field

     Computed dipole along edir(3) : 
        Dipole                0.0116 Ry au,          0.0294 Debye
        Dipole field          0.0003 Ry au, 

        E field amplitude [Ha a.u.]:  1.9447E-03
        Potential amp.        0.0900 Ry
        Total length         26.9286 bohr


     total cpu time spent up to now is      407.6 secs

     total energy              =     -36.88889807 Ry
     estimated scf accuracy    <       0.00029754 Ry

     iteration # 15     ecut=    70.00 Ry     beta= 0.10
     Davidson diagonalization with overlap
     ethr =  1.14E-06,  avg # of iterations =  4.7

     negative rho (up, down):  5.693E-05 0.000E+00

     Adding external electric field

     Computed dipole along edir(3) : 
        Dipole                0.0097 Ry au,          0.0246 Debye
        Dipole field          0.0002 Ry au, 

        E field amplitude [Ha a.u.]:  1.9447E-03
        Potential amp.        0.0925 Ry
        Total length         26.9286 bohr


     total cpu time spent up to now is      430.9 secs

     total energy              =     -36.88893266 Ry
     estimated scf accuracy    <       0.00001450 Ry

     iteration # 16     ecut=    70.00 Ry     beta= 0.10
     Davidson diagonalization with overlap
     ethr =  1.81E-07,  avg # of iterations =  5.0

     negative rho (up, down):  3.199E-05 0.000E+00

     Adding external electric field

     Computed dipole along edir(3) : 
        Dipole                0.0116 Ry au,          0.0296 Debye
        Dipole field          0.0003 Ry au, 

        E field amplitude [Ha a.u.]:  1.9447E-03
        Potential amp.        0.0900 Ry
        Total length         26.9286 bohr


     total cpu time spent up to now is      462.9 secs

     total energy              =     -36.88891552 Ry
     estimated scf accuracy    <       0.00009203 Ry

     iteration # 17     ecut=    70.00 Ry     beta= 0.10
     Davidson diagonalization with overlap
     ethr =  1.81E-07,  avg # of iterations =  4.1

     negative rho (up, down):  2.725E-05 0.000E+00

     Adding external electric field

     Computed dipole along edir(3) : 
        Dipole                0.0114 Ry au,          0.0289 Debye
        Dipole field          0.0003 Ry au, 

        E field amplitude [Ha a.u.]:  1.9447E-03
        Potential amp.        0.0903 Ry
        Total length         26.9286 bohr


     total cpu time spent up to now is      489.9 secs

     total energy              =     -36.88893281 Ry
     estimated scf accuracy    <       0.00000093 Ry

     iteration # 18     ecut=    70.00 Ry     beta= 0.10
     Davidson diagonalization with overlap
     ethr =  1.17E-08,  avg # of iterations =  1.3

     negative rho (up, down):  2.137E-05 0.000E+00

     Adding external electric field

     Computed dipole along edir(3) : 
        Dipole                0.0115 Ry au,          0.0292 Debye
        Dipole field          0.0003 Ry au, 

        E field amplitude [Ha a.u.]:  1.9447E-03
        Potential amp.        0.0901 Ry
        Total length         26.9286 bohr


     total cpu time spent up to now is      506.1 secs

     total energy              =     -36.88893379 Ry
     estimated scf accuracy    <       0.00000038 Ry

     iteration # 19     ecut=    70.00 Ry     beta= 0.10
     Davidson diagonalization with overlap
     ethr =  4.71E-09,  avg # of iterations =  3.5

     negative rho (up, down):  1.958E-05 0.000E+00

     Adding external electric field

     Computed dipole along edir(3) : 
        Dipole                0.0115 Ry au,          0.0293 Debye
        Dipole field          0.0003 Ry au, 

        E field amplitude [Ha a.u.]:  1.9447E-03
        Potential amp.        0.0901 Ry
        Total length         26.9286 bohr


     total cpu time spent up to now is      530.7 secs

     total energy              =     -36.88893324 Ry
     estimated scf accuracy    <       0.00000255 Ry

     iteration # 20     ecut=    70.00 Ry     beta= 0.10
     Davidson diagonalization with overlap
     ethr =  4.71E-09,  avg # of iterations =  1.0

     negative rho (up, down):  1.802E-05 0.000E+00

     Adding external electric field

     Computed dipole along edir(3) : 
        Dipole                0.0115 Ry au,          0.0292 Debye
        Dipole field          0.0003 Ry au, 

        E field amplitude [Ha a.u.]:  1.9447E-03
        Potential amp.        0.0902 Ry
        Total length         26.9286 bohr


     total cpu time spent up to now is      546.7 secs

     total energy              =     -36.88893327 Ry
     estimated scf accuracy    <       0.00000117 Ry

     iteration # 21     ecut=    70.00 Ry     beta= 0.10
     Davidson diagonalization with overlap
     ethr =  4.71E-09,  avg # of iterations =  1.0

     negative rho (up, down):  1.619E-05 0.000E+00

     Adding external electric field

     Computed dipole along edir(3) : 
        Dipole                0.0113 Ry au,          0.0288 Debye
        Dipole field          0.0003 Ry au, 

        E field amplitude [Ha a.u.]:  1.9447E-03
        Potential amp.        0.0903 Ry
        Total length         26.9286 bohr


     total cpu time spent up to now is      562.7 secs

     total energy              =     -36.88893292 Ry
     estimated scf accuracy    <       0.00000123 Ry

     iteration # 22     ecut=    70.00 Ry     beta= 0.10
     Davidson diagonalization with overlap
     ethr =  4.71E-09,  avg # of iterations =  2.7

     negative rho (up, down):  1.672E-05 0.000E+00

     Adding external electric field

     Computed dipole along edir(3) : 
        Dipole                0.0113 Ry au,          0.0288 Debye
        Dipole field          0.0003 Ry au, 

        E field amplitude [Ha a.u.]:  1.9447E-03
        Potential amp.        0.0904 Ry
        Total length         26.9286 bohr


     total cpu time spent up to now is      580.4 secs

     total energy              =     -36.88893284 Ry
     estimated scf accuracy    <       0.00000043 Ry

     iteration # 23     ecut=    70.00 Ry     beta= 0.10
     Davidson diagonalization with overlap
     ethr =  4.71E-09,  avg # of iterations =  2.8

     negative rho (up, down):  1.425E-05 0.000E+00

     Adding external electric field

     Computed dipole along edir(3) : 
        Dipole                0.0112 Ry au,          0.0285 Debye
        Dipole field          0.0003 Ry au, 

        E field amplitude [Ha a.u.]:  1.9447E-03
        Potential amp.        0.0905 Ry
        Total length         26.9286 bohr


     total cpu time spent up to now is      599.8 secs

     total energy              =     -36.88893322 Ry
     estimated scf accuracy    <       0.00000007 Ry

     iteration # 24     ecut=    70.00 Ry     beta= 0.10
     Davidson diagonalization with overlap
     ethr =  8.36E-10,  avg # of iterations =  3.9

     negative rho (up, down):  1.333E-05 0.000E+00

     Adding external electric field

     Computed dipole along edir(3) : 
        Dipole                0.0112 Ry au,          0.0284 Debye
        Dipole field          0.0003 Ry au, 

        E field amplitude [Ha a.u.]:  1.9447E-03
        Potential amp.        0.0906 Ry
        Total length         26.9286 bohr


     total cpu time spent up to now is      624.7 secs

     total energy              =     -36.88893303 Ry
     estimated scf accuracy    <       0.00000082 Ry

     iteration # 25     ecut=    70.00 Ry     beta= 0.10
     Davidson diagonalization with overlap
     ethr =  8.36E-10,  avg # of iterations =  4.3

     negative rho (up, down):  1.111E-05 0.000E+00

     Adding external electric field

     Computed dipole along edir(3) : 
        Dipole                0.0113 Ry au,          0.0288 Debye
        Dipole field          0.0003 Ry au, 

        E field amplitude [Ha a.u.]:  1.9447E-03
        Potential amp.        0.0903 Ry
        Total length         26.9286 bohr


     total cpu time spent up to now is      646.4 secs

     total energy              =     -36.88893292 Ry
     estimated scf accuracy    <       0.00000029 Ry

     iteration # 26     ecut=    70.00 Ry     beta= 0.10
     Davidson diagonalization with overlap
     ethr =  8.36E-10,  avg # of iterations =  3.8

     negative rho (up, down):  1.007E-05 0.000E+00

     Adding external electric field

     Computed dipole along edir(3) : 
        Dipole                0.0114 Ry au,          0.0290 Debye
        Dipole field          0.0003 Ry au, 

        E field amplitude [Ha a.u.]:  1.9447E-03
        Potential amp.        0.0903 Ry
        Total length         26.9286 bohr


     total cpu time spent up to now is      668.6 secs

     total energy              =     -36.88893296 Ry
     estimated scf accuracy    <       0.00000004 Ry

     iteration # 27     ecut=    70.00 Ry     beta= 0.10
     Davidson diagonalization with overlap
     ethr =  5.47E-10,  avg # of iterations =  1.3

     negative rho (up, down):  9.491E-06 0.000E+00

     Adding external electric field

     Computed dipole along edir(3) : 
        Dipole                0.0114 Ry au,          0.0290 Debye
        Dipole field          0.0003 Ry au, 

        E field amplitude [Ha a.u.]:  1.9447E-03
        Potential amp.        0.0903 Ry
        Total length         26.9286 bohr


     total cpu time spent up to now is      687.9 secs

     total energy              =     -36.88893296 Ry
     estimated scf accuracy    <       0.00000001 Ry

     iteration # 28     ecut=    70.00 Ry     beta= 0.10
     Davidson diagonalization with overlap
     ethr =  1.73E-10,  avg # of iterations =  2.4

     negative rho (up, down):  7.070E-06 0.000E+00

     Adding external electric field

     Computed dipole along edir(3) : 
        Dipole                0.0115 Ry au,          0.0293 Debye
        Dipole field          0.0003 Ry au, 

        E field amplitude [Ha a.u.]:  1.9447E-03
        Potential amp.        0.0901 Ry
        Total length         26.9286 bohr


     total cpu time spent up to now is      707.0 secs

     End of self-consistent calculation

          k = 0.0000 0.0000 0.0000 (  5307 PWs)   bands (ev):

   -21.1411 -21.1411  -9.2365  -9.2365  -4.6910  -4.6910  -4.6818  -4.6818
     1.5563   1.5563   2.5016   2.5016   2.6746   2.6746   4.7812   4.7812

          k = 0.0000 0.0962 0.0000 (  5285 PWs)   bands (ev):

   -20.9773 -20.9773  -9.0409  -9.0409  -5.3363  -5.3363  -5.0237  -5.0237
     1.7797   1.7797   2.7260   2.7261   2.9010   2.9011   5.0043   5.0043

          k = 0.0000 0.1925 0.0000 (  5253 PWs)   bands (ev):

   -20.4879 -20.4879  -8.4593  -8.4593  -6.9719  -6.9719  -5.8137  -5.8137
     2.4497   2.4497   3.3981   3.3982   3.5800   3.5801   5.6708   5.6708

          k = 0.0000 0.2887 0.0000 (  5269 PWs)   bands (ev):

   -19.6785 -19.6785  -9.0676  -9.0676  -7.5109  -7.5109  -6.6910  -6.6910
     3.5639   3.5640   4.5030   4.5032   4.7058   4.7059   5.6192   5.6192

          k = 0.0000 0.3849 0.0000 (  5285 PWs)   bands (ev):

   -18.5613 -18.5613 -11.2680 -11.2680  -7.4223  -7.4223  -6.2458  -6.2458
     3.2737   3.2738   5.1137   5.1138   6.0155   6.0162   6.1363   6.1370

          k = 0.0000 0.4811 0.0000 (  5290 PWs)   bands (ev):

   -17.1678 -17.1678 -13.3651 -13.3651  -7.8939  -7.8939  -4.8269  -4.8269
     1.1440   1.1440   5.8040   5.8040   7.1236   7.1237   8.0872   8.0874

          k = 0.0000-0.5774 0.0000 (  5288 PWs)   bands (ev):

   -15.9100 -15.9100 -14.8653 -14.8653  -8.0558  -8.0558  -3.9847  -3.9847
     0.0491   0.0491   5.7246   5.7246   9.4384   9.4384   9.5761   9.5761

          k = 0.0833 0.0481 0.0000 (  5285 PWs)   bands (ev):

   -20.9773 -20.9773  -9.0409  -9.0409  -5.3363  -5.3363  -5.0237  -5.0237
     1.7797   1.7797   2.7260   2.7261   2.9010   2.9011   5.0043   5.0043

          k = 0.0833 0.1443 0.0000 (  5269 PWs)   bands (ev):

   -20.6507 -20.6507  -8.6522  -8.6521  -6.3689  -6.3689  -5.6992  -5.6992
     2.2266   2.2266   3.1744   3.1745   3.3539   3.3539   5.4497   5.4497

          k = 0.0833 0.2406 0.0000 (  5261 PWs)   bands (ev):

   -20.0013 -20.0013  -8.0766  -8.0766  -7.8860  -7.8860  -6.6946  -6.6946
     3.1195   3.1195   4.0683   4.0685   4.2585   4.2586   6.3092   6.3093

          k = 0.0833 0.3368 0.0000 (  5275 PWs)   bands (ev):

   -19.0378 -19.0378 -10.1469 -10.1469  -7.5788  -7.5788  -6.7728  -6.7728
     4.2800   4.2801   4.4592   4.4594   5.4232   5.4235   5.6192   5.6194

          k = 0.0833 0.4330 0.0000 (  5284 PWs)   bands (ev):

   -17.7793 -17.7793 -12.2668 -12.2668  -8.2121  -8.2121  -5.3968  -5.3968
     2.0884   2.0884   6.2069   6.2071   6.6521   6.6523   7.1937   7.1938

          k = 0.0833 0.5292 0.0000 (  5302 PWs)   bands (ev):

   -16.3032 -16.3032 -14.2043 -14.2043  -8.5397  -8.5397  -4.0910  -4.0910
     0.3244   0.3244   6.4626   6.4626   8.4244   8.4245   9.3458   9.3461

          k = 0.0833-0.5292 0.0000 (  5302 PWs)   bands (ev):

   -16.3032 -16.3032 -14.2043 -14.2043  -8.5397  -8.5397  -4.0910  -4.0910
     0.3244   0.3244   6.4626   6.4626   8.4244   8.4245   9.3457   9.3460

          k = 0.0833-0.4330 0.0000 (  5284 PWs)   bands (ev):

   -17.7793 -17.7793 -12.2668 -12.2668  -8.2121  -8.2121  -5.3968  -5.3968
     2.0884   2.0884   6.2069   6.2071   6.6521   6.6523   7.1937   7.1938

          k = 0.0833-0.3368 0.0000 (  5275 PWs)   bands (ev):

   -19.0378 -19.0378 -10.1469 -10.1469  -7.5788  -7.5788  -6.7728  -6.7728
     4.2800   4.2801   4.4592   4.4594   5.4232   5.4235   5.6192   5.6194

          k = 0.0833-0.2406 0.0000 (  5261 PWs)   bands (ev):

   -20.0013 -20.0013  -8.0766  -8.0766  -7.8860  -7.8860  -6.6946  -6.6946
     3.1195   3.1195   4.0683   4.0685   4.2585   4.2586   6.3092   6.3103

          k = 0.0833-0.1443 0.0000 (  5269 PWs)   bands (ev):

   -20.6507 -20.6507  -8.6522  -8.6521  -6.3689  -6.3689  -5.6992  -5.6992
     2.2266   2.2266   3.1744   3.1745   3.3539   3.3539   5.4497   5.4497

          k = 0.0833-0.0481 0.0000 (  5285 PWs)   bands (ev):

   -20.9773 -20.9773  -9.0409  -9.0409  -5.3363  -5.3363  -5.0237  -5.0237
     1.7797   1.7797   2.7260   2.7261   2.9010   2.9011   5.0043   5.0043

          k = 0.1667 0.0962 0.0000 (  5253 PWs)   bands (ev):

   -20.4879 -20.4879  -8.4593  -8.4593  -6.9718  -6.9718  -5.8138  -5.8138
     2.4497   2.4497   3.3981   3.3982   3.5800   3.5801   5.6708   5.6708

          k = 0.1667 0.1925 0.0000 (  5261 PWs)   bands (ev):

   -20.0013 -20.0013  -8.0766  -8.0765  -7.8860  -7.8860  -6.6946  -6.6946
     3.1195   3.1195   4.0683   4.0685   4.2585   4.2586   6.3101   6.3102

          k = 0.1667 0.2887 0.0000 (  5288 PWs)   bands (ev):

   -19.1978 -19.1978  -9.4061  -9.4061  -8.0533  -8.0533  -6.9511  -6.9511
     4.2337   4.2338   4.7385   4.7385   5.1804   5.1805   5.3883   5.3884

          k = 0.1667 0.3849 0.0000 (  5285 PWs)   bands (ev):

   -18.0914 -18.0914 -11.1311 -11.1311  -9.1078  -9.1078  -5.7013  -5.7013
     2.7953   2.7953   5.7848   5.7849   6.7158   6.7161   6.9650   6.9652

          k = 0.1667 0.4811 0.0000 (  5283 PWs)   bands (ev):

   -16.7178 -16.7178 -13.0386 -13.0386  -9.6831  -9.6831  -4.2782  -4.2782
     0.8877   0.8877   7.7462   7.7464   8.3670   8.3674   8.6038   8.6042

          k = 0.1667 0.5774 0.0000 (  5264 PWs)   bands (ev):

   -15.4887 -15.4887 -14.4679 -14.4679  -9.8677  -9.8677  -3.3880  -3.3880
    -0.1775  -0.1775   8.2695   8.2695   9.9310   9.9310  10.0059  10.0060

          k = 0.1667-0.4811 0.0000 (  5283 PWs)   bands (ev):

   -16.7178 -16.7178 -13.0386 -13.0386  -9.6831  -9.6831  -4.2782  -4.2782
     0.8877   0.8877   7.7462   7.7464   8.3671   8.3674   8.6038   8.6042

          k = 0.1667-0.3849 0.0000 (  5285 PWs)   bands (ev):

   -18.0914 -18.0914 -11.1311 -11.1311  -9.1078  -9.1078  -5.7013  -5.7013
     2.7953   2.7953   5.7848   5.7849   6.7158   6.7161   6.9650   6.9652

          k = 0.1667-0.2887 0.0000 (  5288 PWs)   bands (ev):

   -19.1978 -19.1978  -9.4061  -9.4061  -8.0533  -8.0533  -6.9511  -6.9511
     4.2337   4.2338   4.7385   4.7385   5.1804   5.1805   5.3883   5.3884

          k = 0.1667-0.1925 0.0000 (  5261 PWs)   bands (ev):

   -20.0013 -20.0013  -8.0766  -8.0766  -7.8860  -7.8860  -6.6946  -6.6946
     3.1195   3.1195   4.0683   4.0685   4.2585   4.2586   6.3092   6.3102

          k = 0.1667-0.0962 0.0000 (  5253 PWs)   bands (ev):

   -20.4879 -20.4879  -8.4593  -8.4593  -6.9718  -6.9718  -5.8137  -5.8137
     2.4497   2.4497   3.3981   3.3982   3.5800   3.5801   5.6708   5.6708

          k = 0.1667-0.0000 0.0000 (  5269 PWs)   bands (ev):

   -20.6507 -20.6507  -8.6522  -8.6521  -6.3688  -6.3688  -5.6992  -5.6992
     2.2266   2.2266   3.1744   3.1745   3.3539   3.3539   5.4497   5.4497

          k = 0.2500 0.1443 0.0000 (  5269 PWs)   bands (ev):

   -19.6785 -19.6785  -9.0675  -9.0675  -7.5109  -7.5109  -6.6910  -6.6910
     3.5639   3.5640   4.5030   4.5032   4.7058   4.7059   5.6192   5.6192

          k = 0.2500 0.2406 0.0000 (  5275 PWs)   bands (ev):

   -19.0378 -19.0378 -10.1469 -10.1468  -7.5788  -7.5788  -6.7728  -6.7728
     4.2800   4.2801   4.4592   4.4594   5.4232   5.4235   5.6192   5.6194

          k = 0.2500 0.3368 0.0000 (  5285 PWs)   bands (ev):

   -18.0914 -18.0914 -11.1311 -11.1311  -9.1078  -9.1078  -5.7013  -5.7013
     2.7953   2.7953   5.7848   5.7849   6.7158   6.7161   6.9650   6.9652

          k = 0.2500 0.4330 0.0000 (  5268 PWs)   bands (ev):

   -16.8651 -16.8651 -12.1671 -12.1671 -10.5871 -10.5871  -4.3620  -4.3620
     1.1844   1.1844   7.5337   7.5339   8.3121   8.3124   8.7508   8.7509

          k = 0.2500 0.5292 0.0000 (  5282 PWs)   bands (ev):

   -15.4458 -15.4458 -13.5854 -13.5854 -11.2940 -11.2940  -2.9799  -2.9799
    -0.3322  -0.3321   9.2234   9.2235   9.6657   9.6659  10.5338  10.5338

          k = 0.2500 0.6255 0.0000 (  5282 PWs)   bands (ev):

   -15.4458 -15.4458 -13.5854 -13.5854 -11.2940 -11.2940  -2.9799  -2.9799
    -0.3322  -0.3321   9.2234   9.2235   9.6657   9.6659  10.5338  10.5338

          k = 0.2500-0.4330 0.0000 (  5268 PWs)   bands (ev):

   -16.8651 -16.8651 -12.1671 -12.1671 -10.5871 -10.5871  -4.3620  -4.3620
     1.1844   1.1844   7.5337   7.5339   8.3121   8.3124   8.7508   8.7509

          k = 0.2500-0.3368 0.0000 (  5285 PWs)   bands (ev):

   -18.0914 -18.0914 -11.1311 -11.1311  -9.1078  -9.1078  -5.7013  -5.7013
     2.7953   2.7953   5.7848   5.7849   6.7158   6.7161   6.9650   6.9652

          k = 0.2500-0.2406 0.0000 (  5275 PWs)   bands (ev):

   -19.0378 -19.0378 -10.1469 -10.1469  -7.5788  -7.5788  -6.7728  -6.7728
     4.2800   4.2801   4.4592   4.4594   5.4232   5.4235   5.6192   5.6194

          k = 0.2500-0.1443 0.0000 (  5269 PWs)   bands (ev):

   -19.6785 -19.6785  -9.0675  -9.0675  -7.5109  -7.5109  -6.6910  -6.6910
     3.5639   3.5640   4.5030   4.5032   4.7058   4.7059   5.6192   5.6192

          k = 0.2500-0.0481 0.0000 (  5261 PWs)   bands (ev):

   -20.0013 -20.0013  -8.0765  -8.0765  -7.8860  -7.8860  -6.6946  -6.6946
     3.1195   3.1195   4.0683   4.0685   4.2585   4.2586   6.3092   6.3093

          k = 0.2500 0.0481 0.0000 (  5261 PWs)   bands (ev):

   -20.0013 -20.0013  -8.0765  -8.0765  -7.8860  -7.8860  -6.6946  -6.6946
     3.1195   3.1195   4.0683   4.0685   4.2585   4.2586   6.3092   6.3095

          k = 0.3333 0.1925 0.0000 (  5285 PWs)   bands (ev):

   -18.5613 -18.5613 -11.2680 -11.2680  -7.4223  -7.4223  -6.2458  -6.2458
     3.2737   3.2738   5.1137   5.1138   6.0155   6.0162   6.1363   6.1370

          k = 0.3333 0.2887 0.0000 (  5284 PWs)   bands (ev):

   -17.7793 -17.7793 -12.2668 -12.2668  -8.2121  -8.2121  -5.3968  -5.3968
     2.0884   2.0885   6.2069   6.2071   6.6521   6.6522   7.1937   7.1938

          k = 0.3333 0.3849 0.0000 (  5283 PWs)   bands (ev):

   -16.7178 -16.7178 -13.0386 -13.0386  -9.6831  -9.6831  -4.2782  -4.2782
     0.8877   0.8878   7.7462   7.7464   8.3670   8.3674   8.6038   8.6042

          k = 0.3333 0.4811 0.0000 (  5282 PWs)   bands (ev):

   -15.4458 -15.4458 -13.5853 -13.5853 -11.2940 -11.2940  -2.9799  -2.9799
    -0.3321  -0.3321   9.2234   9.2235   9.6657   9.6659  10.5337  10.5338

          k = 0.3333 0.5774 0.0000 (  5292 PWs)   bands (ev):

   -14.2321 -14.2321 -14.2300 -14.2300 -12.1843 -12.1843  -1.6273  -1.6272
    -1.6272  -1.6272   8.9747   8.9747  11.2273  11.2275  11.2314  11.2314

          k = 0.3333 0.6736 0.0000 (  5282 PWs)   bands (ev):

   -15.4458 -15.4458 -13.5854 -13.5853 -11.2940 -11.2940  -2.9799  -2.9799
    -0.3322  -0.3321   9.2234   9.2235   9.6657   9.6659  10.5337  10.5338

          k = 0.3333-0.3849 0.0000 (  5283 PWs)   bands (ev):

   -16.7178 -16.7178 -13.0386 -13.0386  -9.6831  -9.6831  -4.2782  -4.2782
     0.8877   0.8877   7.7462   7.7464   8.3670   8.3674   8.6038   8.6042

          k = 0.3333-0.2887 0.0000 (  5284 PWs)   bands (ev):

   -17.7793 -17.7793 -12.2668 -12.2668  -8.2121  -8.2121  -5.3968  -5.3968
     2.0884   2.0884   6.2069   6.2071   6.6521   6.6523   7.1937   7.1939

          k = 0.3333-0.1925 0.0000 (  5285 PWs)   bands (ev):

   -18.5613 -18.5613 -11.2680 -11.2680  -7.4223  -7.4223  -6.2458  -6.2458
     3.2737   3.2738   5.1137   5.1138   6.0155   6.0162   6.1363   6.1370

          k = 0.3333-0.0962 0.0000 (  5275 PWs)   bands (ev):

   -19.0378 -19.0378 -10.1469 -10.1469  -7.5788  -7.5788  -6.7728  -6.7728
     4.2800   4.2801   4.4592   4.4594   5.4232   5.4235   5.6192   5.6194

          k = 0.3333 0.0000 0.0000 (  5288 PWs)   bands (ev):

   -19.1978 -19.1978  -9.4061  -9.4061  -8.0533  -8.0533  -6.9511  -6.9511
     4.2337   4.2338   4.7385   4.7385   5.1804   5.1805   5.3883   5.3884

          k = 0.3333 0.0962 0.0000 (  5275 PWs)   bands (ev):

   -19.0378 -19.0378 -10.1468 -10.1468  -7.5788  -7.5788  -6.7728  -6.7728
     4.2800   4.2801   4.4592   4.4594   5.4232   5.4235   5.6192   5.6194

          k = 0.4167 0.2406 0.0000 (  5290 PWs)   bands (ev):

   -17.1678 -17.1678 -13.3651 -13.3651  -7.8939  -7.8939  -4.8269  -4.8269
     1.1440   1.1440   5.8040   5.8040   7.1236   7.1237   8.0883   8.0885

          k = 0.4167 0.3368 0.0000 (  5302 PWs)   bands (ev):

   -16.3032 -16.3032 -14.2043 -14.2043  -8.5397  -8.5397  -4.0911  -4.0911
     0.3244   0.3244   6.4626   6.4626   8.4244   8.4245   9.3457   9.3460

          k = 0.4167 0.4330 0.0000 (  5264 PWs)   bands (ev):

   -15.4887 -15.4887 -14.4679 -14.4679  -9.8677  -9.8677  -3.3880  -3.3880
    -0.1775  -0.1775   8.2694   8.2694   9.9310   9.9310  10.0059  10.0060

          k = 0.4167 0.5292 0.0000 (  5282 PWs)   bands (ev):

   -15.4458 -15.4458 -13.5853 -13.5853 -11.2940 -11.2940  -2.9799  -2.9799
    -0.3321  -0.3321   9.2234   9.2235   9.6657   9.6659  10.5337  10.5338

          k = 0.4167 0.6255 0.0000 (  5282 PWs)   bands (ev):

   -15.4458 -15.4458 -13.5853 -13.5853 -11.2940 -11.2940  -2.9799  -2.9799
    -0.3321  -0.3321   9.2234   9.2235   9.6657   9.6659  10.5337  10.5338

          k = 0.4167 0.7217 0.0000 (  5264 PWs)   bands (ev):

   -15.4887 -15.4887 -14.4679 -14.4679  -9.8677  -9.8677  -3.3880  -3.3880
    -0.1775  -0.1775   8.2694   8.2694   9.9310   9.9311  10.0059  10.0060

          k = 0.4167-0.3368 0.0000 (  5302 PWs)   bands (ev):

   -16.3032 -16.3032 -14.2043 -14.2043  -8.5397  -8.5397  -4.0911  -4.0910
     0.3244   0.3244   6.4626   6.4626   8.4244   8.4245   9.3457   9.3461

          k = 0.4167-0.2406 0.0000 (  5290 PWs)   bands (ev):

   -17.1678 -17.1678 -13.3651 -13.3651  -7.8939  -7.8939  -4.8269  -4.8269
     1.1440   1.1440   5.8040   5.8040   7.1236   7.1237   8.0874   8.0876

          k = 0.4167-0.1443 0.0000 (  5284 PWs)   bands (ev):

   -17.7793 -17.7793 -12.2668 -12.2668  -8.2121  -8.2121  -5.3968  -5.3968
     2.0884   2.0884   6.2069   6.2071   6.6521   6.6523   7.1937   7.1938

          k = 0.4167-0.0481 0.0000 (  5285 PWs)   bands (ev):

   -18.0914 -18.0914 -11.1311 -11.1311  -9.1078  -9.1078  -5.7013  -5.7013
     2.7953   2.7953   5.7848   5.7849   6.7158   6.7161   6.9650   6.9652

          k = 0.4167 0.0481 0.0000 (  5285 PWs)   bands (ev):

   -18.0914 -18.0914 -11.1311 -11.1311  -9.1078  -9.1078  -5.7013  -5.7013
     2.7953   2.7953   5.7848   5.7849   6.7158   6.7161   6.9650   6.9652

          k = 0.4167 0.1443 0.0000 (  5284 PWs)   bands (ev):

   -17.7793 -17.7793 -12.2668 -12.2668  -8.2121  -8.2121  -5.3968  -5.3968
     2.0884   2.0885   6.2069   6.2071   6.6521   6.6522   7.1948   7.1950

          k =-0.5000-0.2887 0.0000 (  5288 PWs)   bands (ev):

   -15.9100 -15.9100 -14.8652 -14.8652  -8.0558  -8.0558  -3.9847  -3.9847
     0.0492   0.0492   5.7246   5.7246   9.4384   9.4384   9.5761   9.5761

          k =-0.5000-0.1925 0.0000 (  5302 PWs)   bands (ev):

   -16.3032 -16.3032 -14.2043 -14.2043  -8.5397  -8.5397  -4.0911  -4.0911
     0.3244   0.3244   6.4626   6.4626   8.4244   8.4245   9.3458   9.3461

          k =-0.5000-0.0962 0.0000 (  5283 PWs)   bands (ev):

   -16.7178 -16.7178 -13.0386 -13.0386  -9.6831  -9.6831  -4.2782  -4.2782
     0.8877   0.8878   7.7462   7.7464   8.3670   8.3674   8.6038   8.6042

          k =-0.5000 0.0000 0.0000 (  5268 PWs)   bands (ev):

   -16.8651 -16.8651 -12.1671 -12.1671 -10.5871 -10.5871  -4.3620  -4.3620
     1.1844   1.1844   7.5337   7.5339   8.3121   8.3123   8.7508   8.7509

          k =-0.5000 0.0962 0.0000 (  5283 PWs)   bands (ev):

   -16.7178 -16.7178 -13.0386 -13.0386  -9.6831  -9.6831  -4.2782  -4.2782
     0.8877   0.8878   7.7462   7.7464   8.3670   8.3674   8.6038   8.6042

          k =-0.5000 0.1925 0.0000 (  5302 PWs)   bands (ev):

   -16.3032 -16.3032 -14.2043 -14.2043  -8.5397  -8.5397  -4.0911  -4.0910
     0.3244   0.3244   6.4626   6.4626   8.4244   8.4245   9.3457   9.3461

          k =-0.5000-0.8660 0.0000 (  5288 PWs)   bands (ev):

   -15.9100 -15.9100 -14.8653 -14.8653  -8.0558  -8.0558  -3.9847  -3.9847
     0.0491   0.0491   5.7246   5.7246   9.4384   9.4384   9.5761   9.5761

     the Fermi energy is  -1.627242 ev

!    total energy              =     -36.88893299 Ry
     total all-electron energy =      -152.417223 Ry
     estimated scf accuracy    <          3.8E-09 Ry
     smearing contrib. (-TS)   =      -0.00003134 Ry
     internal energy E=F+TS    =     -36.88890165 Ry

     The total energy is F=E-TS. E is the sum of the following terms:
     one-electron contribution =    -156.62334354 Ry
     hartree contribution      =      79.91854518 Ry
     xc contribution           =      -8.28627353 Ry
     ewald contribution        =      61.40972547 Ry
     electric field correction =      -0.00004164 Ry
     one-center paw contrib.   =     -13.30751358 Ry

     convergence has been achieved in  28 iterations

     negative rho (up, down):  7.070E-06 0.000E+00

     Forces acting on atoms (cartesian axes, Ry/au):

     atom    1 type  1   force =     0.00000265    0.00000897    0.00000004
     atom    2 type  1   force =    -0.00000265   -0.00000897   -0.00000004

     Total force =     0.000013     Total SCF correction =     0.000140
     SCF correction compared to forces is large: reduce conv_thr to get better values

     Writing all to output data dir ./tmp/graphene.save/ :
     XML data file, charge density, pseudopotentials, collected wavefunctions

     init_run     :      7.83s CPU      8.08s WALL (       1 calls)
     electrons    :    691.71s CPU    698.77s WALL (       1 calls)
     forces       :      2.46s CPU      2.56s WALL (       1 calls)

     Called by init_run:
     wfcinit      :      6.32s CPU      6.39s WALL (       1 calls)
     potinit      :      0.52s CPU      0.56s WALL (       1 calls)
     hinit0       :      0.73s CPU      0.76s WALL (       1 calls)

     Called by electrons:
     c_bands      :    611.41s CPU    613.07s WALL (      28 calls)
     sum_band     :     66.17s CPU     69.06s WALL (      28 calls)
     v_of_rho     :      3.14s CPU      3.17s WALL (      29 calls)
     newd         :      6.81s CPU      9.36s WALL (      29 calls)
     PAW_pot      :      1.82s CPU      1.82s WALL (      29 calls)
     mix_rho      :      1.93s CPU      1.94s WALL (      28 calls)

     Called by c_bands:
     init_us_2    :      3.49s CPU      3.51s WALL (    4292 calls)
     cegterg      :    597.57s CPU    599.19s WALL (    2072 calls)

     Called by *egterg:
     cdiaghg      :      6.94s CPU      6.96s WALL (    9526 calls)
     h_psi        :    360.26s CPU    361.27s WALL (    9600 calls)
     s_psi        :     40.07s CPU     40.14s WALL (    9600 calls)
     g_psi        :      1.87s CPU      1.88s WALL (    7454 calls)

     Called by h_psi:
     h_psi:calbec :     39.64s CPU     39.67s WALL (    9600 calls)
     vloc_psi     :    278.62s CPU    279.22s WALL (    9600 calls)
     add_vuspsi   :     40.25s CPU     40.27s WALL (    9600 calls)

     General routines
     calbec       :     54.58s CPU     54.62s WALL (   11968 calls)
     fft          :      2.78s CPU      2.80s WALL (     722 calls)
     ffts         :      0.44s CPU      0.44s WALL (     228 calls)
     fftw         :    178.70s CPU    179.05s WALL (  460720 calls)
     interpolate  :      0.84s CPU      0.84s WALL (     116 calls)


     PWSCF        :  11m42.17s CPU  11m49.72s WALL


   This run was terminated on:  22:57:38   1Nov2025            

=------------------------------------------------------------------------------=
   JOB DONE.
=------------------------------------------------------------------------------=
