
     Program PWSCF v.7.4.1 starts on  6Jan2026 at  5: 1:51 

     This program is part of the open-source Quantum ESPRESSO suite
     for quantum simulation of materials; please cite
         "P. Giannozzi et al., J. Phys.:Condens. Matter 21 395502 (2009);
         "P. Giannozzi et al., J. Phys.:Condens. Matter 29 465901 (2017);
         "P. Giannozzi et al., J. Chem. Phys. 152 154105 (2020);
          URL http://www.quantum-espresso.org", 
     in publications or presentations arising from this work. More details at
     http://www.quantum-espresso.org/quote

     Parallel version (MPI), running on    20 processors

     MPI processes distributed on     1 nodes
     92295 MiB available memory on the printing compute node when the environment starts
 
     Reading input from 3-agnr_scf.in

     Current dimensions of program PWSCF are:
     Max number of different atomic species (ntypx) = 10
     Max number of k-points (npk) =  40000
     Max angular momentum in pseudopotentials (lmaxx) =  4
     file C.pbe-n-kjpaw_psl.1.0.0.UPF: wavefunction(s)  2S 2P renormalized
     file H.pbe-kjpaw_psl.1.0.0.UPF: wavefunction(s)  1S renormalized
 
     R & G space division:  proc/nbgrp/npool/nimage =      20
     Subspace diagonalization in iterative solution of the eigenvalue problem:
     a serial algorithm will be used

 
     Parallelization info
     --------------------
     sticks:   dense  smooth     PW     G-vecs:    dense   smooth      PW
     Min        1627     651    178               519357   131437   18822
     Max        1629     652    179               519361   131442   18827
     Sum       32551   13023   3575             10387185  2628781  376509
 
     Using Slab Decomposition
 


     bravais-lattice index     =            0
     lattice parameter (alat)  =       8.0993  a.u.
     unit-cell volume          =   33215.6715 (a.u.)^3
     number of atoms/cell      =           16
     number of atomic types    =            2
     number of electrons       =        52.00
     number of Kohn-Sham states=           31
     kinetic-energy cutoff     =      70.0000  Ry
     charge density cutoff     =     700.0000  Ry
     scf convergence threshold =      1.0E-08
     mixing beta               =       0.5000
     number of iterations used =            8  plain     mixing
     Exchange-correlation= SLA  PW   PBX  PBC
                           (   1   4   3   4   0   0   0)

     celldm(1)=   8.099301  celldm(2)=   0.000000  celldm(3)=   0.000000
     celldm(4)=   0.000000  celldm(5)=   0.000000  celldm(6)=   0.000000

     crystal axes: (cart. coord. in units of alat)
               a(1) = (   0.000000   0.000000   1.000000 )  
               a(2) = (   8.905357   0.000000   0.000000 )  
               a(3) = (   0.000000   7.020193   0.000000 )  

     reciprocal axes: (cart. coord. in units 2 pi/alat)
               b(1) = (  0.000000  0.000000  1.000000 )  
               b(2) = (  0.112292  0.000000  0.000000 )  
               b(3) = (  0.000000  0.142446  0.000000 )  


     PseudoPot. # 1 for C  read from file:
     ../../../PP_C/C.pbe-n-kjpaw_psl.1.0.0.UPF
     MD5 check sum: 5f16ad9a65e90284d1d834d4ab3b0f7d
     Pseudo is Projector augmented-wave + core cor, Zval =  4.0
     Generated using &quot;atomic&quot; code by A. Dal Corso  v.6.3
     Shape of augmentation charge: PSQ
     Using radial grid of 1073 points,  4 beta functions with: 
                l(1) =   0
                l(2) =   0
                l(3) =   1
                l(4) =   1
     Q(r) pseudized with 0 coefficients 


     PseudoPot. # 2 for H  read from file:
     ../../../PP_C/H.pbe-kjpaw_psl.1.0.0.UPF
     MD5 check sum: d81a744832360e4a8af0b0b5b123bc2a
     Pseudo is Projector augmented-wave, Zval =  1.0
     Generated using &quot;atomic&quot; code by A. Dal Corso  v.6.3MaX
     Shape of augmentation charge: PSQ
     Using radial grid of  929 points,  2 beta functions with: 
                l(1) =   0
                l(2) =   0
     Q(r) pseudized with 0 coefficients 


     atomic species   valence    mass     pseudopotential
     C                 4.00    12.01100     C ( 1.00)
     H                 1.00     1.00790     H ( 1.00)

     No symmetry found


                                    s                        frac. trans.

      isym =  1     identity                                     

 cryst.   s( 1) = (     1          0          0      )
                  (     0          1          0      )
                  (     0          0          1      )

 cart.    s( 1) = (  1.0000000  0.0000000  0.0000000 )
                  (  0.0000000  1.0000000  0.0000000 )
                  (  0.0000000  0.0000000  1.0000000 )


   Cartesian axes

     site n.     atom                  positions (alat units)
         1        C      tau(   1) = (   4.8713526   3.4997948   0.0000000  )
         2        C      tau(   2) = (   5.1591806   3.4997948   0.1661775  )
         3        C      tau(   3) = (   5.1591806   3.4997948   0.4985326  )
         4        C      tau(   4) = (   4.8713526   3.4997948   0.6647101  )
         5        C      tau(   5) = (   4.2956968   3.4997948   0.0000000  )
         6        C      tau(   6) = (   4.5835247   3.4997948   0.1661775  )
         7        C      tau(   7) = (   4.5835247   3.4997948   0.4985326  )
         8        C      tau(   8) = (   4.2956968   3.4997948   0.6647101  )
         9        C      tau(   9) = (   3.7200410   3.4997948   0.0000000  )
        10        C      tau(  10) = (   4.0078689   3.4997948   0.1661775  )
        11        C      tau(  11) = (   4.0078689   3.4997948   0.4985326  )
        12        C      tau(  12) = (   3.7200410   3.4997948   0.6647101  )
        13        H      tau(  13) = (   3.4997948   3.4997948   0.1271592  )
        14        H      tau(  14) = (   3.4997948   3.4997948   0.5375509  )
        15        H      tau(  15) = (   5.3794268   3.4997948   0.0390183  )
        16        H      tau(  16) = (   5.3794268   3.4997948   0.6256918  )

   Crystallographic axes

     site n.     atom                  positions (cryst. coord.)
         1        C      tau(   1) = (  0.0000000  0.5470137  0.4985326  )
         2        C      tau(   2) = (  0.1661775  0.5793345  0.4985326  )
         3        C      tau(   3) = (  0.4985326  0.5793345  0.4985326  )
         4        C      tau(   4) = (  0.6647101  0.5470137  0.4985326  )
         5        C      tau(   5) = (  0.0000000  0.4823722  0.4985326  )
         6        C      tau(   6) = (  0.1661775  0.5146930  0.4985326  )
         7        C      tau(   7) = (  0.4985326  0.5146930  0.4985326  )
         8        C      tau(   8) = (  0.6647101  0.4823722  0.4985326  )
         9        C      tau(   9) = (  0.0000000  0.4177307  0.4985326  )
        10        C      tau(  10) = (  0.1661775  0.4500514  0.4985326  )
        11        C      tau(  11) = (  0.4985326  0.4500514  0.4985326  )
        12        C      tau(  12) = (  0.6647101  0.4177307  0.4985326  )
        13        H      tau(  13) = (  0.1271592  0.3929988  0.4985326  )
        14        H      tau(  14) = (  0.5375509  0.3929988  0.4985326  )
        15        H      tau(  15) = (  0.0390183  0.6040664  0.4985326  )
        16        H      tau(  16) = (  0.6256918  0.6040664  0.4985326  )

     number of k points=     7  Gaussian smearing, width (Ry)=  0.0020
                       cart. coord. in units 2pi/alat
        k(    1) = (   0.0000000   0.0000000   0.0000000), wk =   0.1666667
        k(    2) = (   0.0000000   0.0000000   0.0833333), wk =   0.3333333
        k(    3) = (   0.0000000   0.0000000   0.1666667), wk =   0.3333333
        k(    4) = (   0.0000000   0.0000000   0.2500000), wk =   0.3333333
        k(    5) = (   0.0000000   0.0000000   0.3333333), wk =   0.3333333
        k(    6) = (   0.0000000   0.0000000   0.4166667), wk =   0.3333333
        k(    7) = (   0.0000000   0.0000000  -0.5000000), wk =   0.1666667

                       cryst. coord.
        k(    1) = (   0.0000000   0.0000000   0.0000000), wk =   0.1666667
        k(    2) = (   0.0833333   0.0000000   0.0000000), wk =   0.3333333
        k(    3) = (   0.1666667   0.0000000   0.0000000), wk =   0.3333333
        k(    4) = (   0.2500000   0.0000000   0.0000000), wk =   0.3333333
        k(    5) = (   0.3333333   0.0000000   0.0000000), wk =   0.3333333
        k(    6) = (   0.4166667   0.0000000   0.0000000), wk =   0.3333333
        k(    7) = (  -0.5000000   0.0000000   0.0000000), wk =   0.1666667

     Dense  grid: 10387185 G-vectors     FFT dimensions: (  72, 625, 480)

     Smooth grid:  2628781 G-vectors     FFT dimensions: (  45, 400, 320)

     Dynamical RAM for                 wfc:       7.77 MB

     Dynamical RAM for     wfc (w. buffer):      62.16 MB

     Dynamical RAM for           str. fact:      15.85 MB

     Dynamical RAM for           local pot:       0.00 MB

     Dynamical RAM for          nlocal pot:      26.07 MB

     Dynamical RAM for                qrad:       1.21 MB

     Dynamical RAM for          rho,v,vnew:      48.49 MB

     Dynamical RAM for               rhoin:      16.16 MB

     Dynamical RAM for            rho*nmix:     126.80 MB

     Dynamical RAM for           G-vectors:      30.72 MB

     Dynamical RAM for          h,s,v(r/c):       2.82 MB

     Dynamical RAM for          <psi|beta>:       0.05 MB

     Dynamical RAM for                 psi:      62.16 MB

     Dynamical RAM for                hpsi:      62.16 MB

     Dynamical RAM for                spsi:      62.16 MB

     Dynamical RAM for      wfcinit/wfcrot:      15.56 MB

     Dynamical RAM for           addusdens:     435.86 MB

     Dynamical RAM for          addusforce:     614.18 MB

     Dynamical RAM for         addusstress:     396.24 MB

     Estimated static dynamical RAM per process >     265.63 MB

     Estimated max dynamical RAM per process >    1006.61 MB

     Estimated total dynamical RAM >      19.66 GB

     Initial potential from superposition of free atoms

     starting charge      51.9995, renormalised to      52.0000

     negative rho (up, down):  9.341E-04 0.000E+00
     Starting wfcs are random
     Checking if some PAW data can be deallocated... 
       PAW data deallocated on    4 nodes for type:  1
       PAW data deallocated on   16 nodes for type:  2

     total cpu time spent up to now is       19.2 secs

     per-process dynamical memory:   292.4 Mb

     Self-consistent Calculation

     iteration #  1     ecut=    70.00 Ry     beta= 0.50
     Davidson diagonalization with overlap

---- Real-time Memory Report at c_bands before calling an iterative solver
           702 MiB given to the printing process from OS
           293 MiB allocation reported by mallinfo(arena+hblkhd)
         86890 MiB available memory on the node where the printing process lives
------------------
     ethr =  1.00E-02,  avg # of iterations = 12.9

     negative rho (up, down):  7.592E-04 0.000E+00

     total cpu time spent up to now is       97.0 secs

     total energy              =    -225.79156537 Ry
     estimated scf accuracy    <       1.64422815 Ry

     iteration #  2     ecut=    70.00 Ry     beta= 0.50
     Davidson diagonalization with overlap

---- Real-time Memory Report at c_bands before calling an iterative solver
           895 MiB given to the printing process from OS
           409 MiB allocation reported by mallinfo(arena+hblkhd)
         83954 MiB available memory on the node where the printing process lives
------------------
     ethr =  3.16E-03,  avg # of iterations =  2.1

     negative rho (up, down):  9.885E-04 0.000E+00

     total cpu time spent up to now is      123.2 secs

     total energy              =    -225.95198384 Ry
     estimated scf accuracy    <       0.11350653 Ry

     iteration #  3     ecut=    70.00 Ry     beta= 0.50
     Davidson diagonalization with overlap

---- Real-time Memory Report at c_bands before calling an iterative solver
           899 MiB given to the printing process from OS
           413 MiB allocation reported by mallinfo(arena+hblkhd)
         84307 MiB available memory on the node where the printing process lives
------------------
     ethr =  2.18E-04,  avg # of iterations =  4.3

     negative rho (up, down):  1.150E-03 0.000E+00

     total cpu time spent up to now is      150.9 secs

     total energy              =    -225.95983760 Ry
     estimated scf accuracy    <       0.01060790 Ry

     iteration #  4     ecut=    70.00 Ry     beta= 0.50
     Davidson diagonalization with overlap

---- Real-time Memory Report at c_bands before calling an iterative solver
           904 MiB given to the printing process from OS
           417 MiB allocation reported by mallinfo(arena+hblkhd)
         84126 MiB available memory on the node where the printing process lives
------------------
     ethr =  2.04E-05,  avg # of iterations =  5.6

     negative rho (up, down):  1.177E-03 0.000E+00

     total cpu time spent up to now is      182.8 secs

     total energy              =    -225.96157459 Ry
     estimated scf accuracy    <       0.00073075 Ry

     iteration #  5     ecut=    70.00 Ry     beta= 0.50
     Davidson diagonalization with overlap

---- Real-time Memory Report at c_bands before calling an iterative solver
           909 MiB given to the printing process from OS
           421 MiB allocation reported by mallinfo(arena+hblkhd)
         84091 MiB available memory on the node where the printing process lives
------------------
     c_bands:  1 eigenvalues not converged
     c_bands:  1 eigenvalues not converged
     c_bands:  1 eigenvalues not converged
     ethr =  1.41E-06,  avg # of iterations = 11.0

     negative rho (up, down):  1.199E-03 0.000E+00

     total cpu time spent up to now is      219.6 secs

     total energy              =    -225.96169752 Ry
     estimated scf accuracy    <       0.00031426 Ry

     iteration #  6     ecut=    70.00 Ry     beta= 0.50
     Davidson diagonalization with overlap

---- Real-time Memory Report at c_bands before calling an iterative solver
           913 MiB given to the printing process from OS
           425 MiB allocation reported by mallinfo(arena+hblkhd)
         84149 MiB available memory on the node where the printing process lives
------------------
     ethr =  6.04E-07,  avg # of iterations =  2.6

     negative rho (up, down):  1.207E-03 0.000E+00

     total cpu time spent up to now is      245.0 secs

     total energy              =    -225.96175216 Ry
     estimated scf accuracy    <       0.00004020 Ry

     iteration #  7     ecut=    70.00 Ry     beta= 0.50
     Davidson diagonalization with overlap

---- Real-time Memory Report at c_bands before calling an iterative solver
           917 MiB given to the printing process from OS
           429 MiB allocation reported by mallinfo(arena+hblkhd)
         84011 MiB available memory on the node where the printing process lives
------------------
     ethr =  7.73E-08,  avg # of iterations =  2.0

     negative rho (up, down):  1.209E-03 0.000E+00

     total cpu time spent up to now is      270.7 secs

     total energy              =    -225.96175969 Ry
     estimated scf accuracy    <       0.00000472 Ry

     iteration #  8     ecut=    70.00 Ry     beta= 0.50
     Davidson diagonalization with overlap

---- Real-time Memory Report at c_bands before calling an iterative solver
           922 MiB given to the printing process from OS
           433 MiB allocation reported by mallinfo(arena+hblkhd)
         83986 MiB available memory on the node where the printing process lives
------------------
     ethr =  9.08E-09,  avg # of iterations =  2.7

     negative rho (up, down):  1.210E-03 0.000E+00

     total cpu time spent up to now is      297.1 secs

     total energy              =    -225.96176069 Ry
     estimated scf accuracy    <       0.00000099 Ry

     iteration #  9     ecut=    70.00 Ry     beta= 0.50
     Davidson diagonalization with overlap

---- Real-time Memory Report at c_bands before calling an iterative solver
           926 MiB given to the printing process from OS
           437 MiB allocation reported by mallinfo(arena+hblkhd)
         83962 MiB available memory on the node where the printing process lives
------------------
     ethr =  1.90E-09,  avg # of iterations =  2.1

     negative rho (up, down):  1.211E-03 0.000E+00

     total cpu time spent up to now is      322.6 secs

     total energy              =    -225.96176085 Ry
     estimated scf accuracy    <       0.00000006 Ry

     iteration # 10     ecut=    70.00 Ry     beta= 0.50
     Davidson diagonalization with overlap

---- Real-time Memory Report at c_bands before calling an iterative solver
           931 MiB given to the printing process from OS
           442 MiB allocation reported by mallinfo(arena+hblkhd)
         83942 MiB available memory on the node where the printing process lives
------------------
     ethr =  1.10E-10,  avg # of iterations =  2.9

     negative rho (up, down):  1.211E-03 0.000E+00

     total cpu time spent up to now is      350.9 secs

     End of self-consistent calculation

          k = 0.0000 0.0000 0.0000 (328551 PWs)   bands (ev):

   -22.6627 -21.4694 -19.7259 -17.6267 -17.5308 -16.4634 -16.4526 -16.0889
   -14.8761 -13.7375 -13.0428 -12.8539 -12.0328 -11.0558 -10.7264 -10.6203
   -10.4533  -9.4232  -8.8572  -8.5142  -7.5002  -7.2510  -7.1133  -5.5146
    -5.2075  -4.1409  -3.1533  -2.0965  -2.0526  -0.4456  -0.4241

     occupation numbers 
     1.0000   1.0000   1.0000   1.0000   1.0000   1.0000   1.0000   1.0000
     1.0000   1.0000   1.0000   1.0000   1.0000   1.0000   1.0000   1.0000
     1.0000   1.0000   1.0000   1.0000   1.0000   1.0000   1.0000   1.0000
     1.0000   1.0000   0.0000   0.0000   0.0000   0.0000   0.0000

          k = 0.0000 0.0000 0.0833 (328501 PWs)   bands (ev):

   -22.6222 -21.4295 -19.6882 -18.0151 -17.5995 -16.9912 -15.9356 -15.6218
   -15.1258 -13.6104 -13.0532 -12.7633 -11.9837 -10.8658 -10.7868 -10.6783
   -10.3894  -9.3773  -8.7700  -8.6460  -7.4630  -7.3192  -7.2042  -5.7772
    -5.2311  -4.5627  -2.7384  -2.0826  -1.7883  -0.3916  -0.3699

     occupation numbers 
     1.0000   1.0000   1.0000   1.0000   1.0000   1.0000   1.0000   1.0000
     1.0000   1.0000   1.0000   1.0000   1.0000   1.0000   1.0000   1.0000
     1.0000   1.0000   1.0000   1.0000   1.0000   1.0000   1.0000   1.0000
     1.0000   1.0000   0.0000   0.0000   0.0000   0.0000   0.0000

          k = 0.0000 0.0000 0.1667 (328425 PWs)   bands (ev):

   -22.5007 -21.3101 -19.5757 -18.7473 -17.6830 -17.5601 -15.6082 -15.1465
   -15.0466 -13.6503 -13.0388 -12.2337 -11.8241 -11.1371 -10.5350 -10.5341
   -10.1671  -9.2398  -8.9876  -8.6342  -7.5593  -7.4574  -7.3525  -6.3779
    -5.3108  -5.2553  -2.1409  -2.0632  -1.0552  -0.2293  -0.2084

     occupation numbers 
     1.0000   1.0000   1.0000   1.0000   1.0000   1.0000   1.0000   1.0000
     1.0000   1.0000   1.0000   1.0000   1.0000   1.0000   1.0000   1.0000
     1.0000   1.0000   1.0000   1.0000   1.0000   1.0000   1.0000   1.0000
     1.0000   1.0000   0.0000   0.0000   0.0000   0.0000   0.0000

          k = 0.0000 0.0000 0.2500 (328364 PWs)   bands (ev):

   -22.2986 -21.1117 -19.4589 -19.3918 -18.3515 -17.5598 -16.0262 -14.8359
   -14.0930 -14.0833 -12.3980 -12.0476 -11.5922 -11.1380 -10.2950 -10.2664
    -9.8544  -9.4169  -9.0120  -8.6249  -8.0084  -7.8260  -7.1732  -7.0831
    -5.9613  -5.4639  -2.1591  -1.3734  -0.2213  -0.1438   0.0423

     occupation numbers 
     1.0000   1.0000   1.0000   1.0000   1.0000   1.0000   1.0000   1.0000
     1.0000   1.0000   1.0000   1.0000   1.0000   1.0000   1.0000   1.0000
     1.0000   1.0000   1.0000   1.0000   1.0000   1.0000   1.0000   1.0000
     1.0000   1.0000   0.0000   0.0000   0.0000   0.0000   0.0000

          k = 0.0000 0.0000 0.3333 (328568 PWs)   bands (ev):

   -22.0167 -20.8357 -20.1131 -19.1689 -18.9421 -17.7147 -16.1953 -14.9435
   -14.1433 -13.1423 -12.4216 -11.6171 -11.2838 -10.5946 -10.1743  -9.9627
    -9.8630  -9.4843  -8.8245  -8.6961  -8.6326  -8.2584  -7.7857  -6.9338
    -6.6333  -5.6969  -2.0774  -0.7304  -0.6543   0.4140   0.4250

     occupation numbers 
     1.0000   1.0000   1.0000   1.0000   1.0000   1.0000   1.0000   1.0000
     1.0000   1.0000   1.0000   1.0000   1.0000   1.0000   1.0000   1.0000
     1.0000   1.0000   1.0000   1.0000   1.0000   1.0000   1.0000   1.0000
     1.0000   1.0000   0.0000   0.0000   0.0000   0.0000   0.0000

          k = 0.0000 0.0000 0.4167 (328604 PWs)   bands (ev):

   -21.6563 -20.7015 -20.4815 -19.5595 -18.7967 -18.0411 -16.0746 -15.3632
   -13.8263 -12.9598 -12.1679 -10.8671 -10.8276 -10.6484 -10.1131  -9.6693
    -9.5401  -9.4696  -9.2326  -9.1945  -8.7121  -8.4417  -8.2951  -7.2571
    -6.6408  -5.9921  -1.8737  -1.1498  -0.0241   0.8817   0.8852

     occupation numbers 
     1.0000   1.0000   1.0000   1.0000   1.0000   1.0000   1.0000   1.0000
     1.0000   1.0000   1.0000   1.0000   1.0000   1.0000   1.0000   1.0000
     1.0000   1.0000   1.0000   1.0000   1.0000   1.0000   1.0000   1.0000
     1.0000   1.0000   0.0000   0.0000   0.0000   0.0000   0.0000

          k = 0.0000 0.0000-0.5000 (328638 PWs)   bands (ev):

   -21.2539 -21.1784 -20.0929 -20.0167 -18.4704 -18.3888 -15.7987 -15.7384
   -13.4454 -13.3794 -11.4126 -11.3340 -10.2692 -10.2095 -10.1693 -10.1040
    -9.4347  -9.3676  -9.1764  -9.1205  -9.0594  -9.0014  -7.8425  -7.7836
    -6.3492  -6.2884  -1.5856  -1.5247   0.6086   0.6737   1.3138

     occupation numbers 
     1.0000   1.0000   1.0000   1.0000   1.0000   1.0000   1.0000   1.0000
     1.0000   1.0000   1.0000   1.0000   1.0000   1.0000   1.0000   1.0000
     1.0000   1.0000   1.0000   1.0000   1.0000   1.0000   1.0000   1.0000
     1.0000   1.0000   0.0000   0.0000   0.0000   0.0000   0.0000

     the Fermi energy is    -3.7780 ev

!    total energy              =    -225.96176086 Ry
     total all-electron energy =      -919.130910 Ry
     estimated scf accuracy    <          5.8E-09 Ry
     smearing contrib. (-TS)   =      -0.00000000 Ry
     internal energy E=F+TS    =    -225.96176086 Ry

     The total energy is F=E-TS. E is the sum of the following terms:
     one-electron contribution =   -1932.37171265 Ry
     hartree contribution      =     973.00254930 Ry
     xc contribution           =     -58.25178227 Ry
     ewald contribution        =     865.66142304 Ry
     one-center paw contrib.   =     -74.00223829 Ry
      -> PAW hartree energy AE =       9.29753566 Ry
      -> PAW hartree energy PS =      -9.28894032 Ry
      -> PAW xc energy AE      =     -10.62795325 Ry
      -> PAW xc energy PS      =       4.45259586 Ry
      -> total E_H with PAW    =     973.01114464 Ry
      -> total E_XC with PAW   =     -64.42713967 Ry

     convergence has been achieved in  10 iterations

     negative rho (up, down):  1.211E-03 0.000E+00

     Forces acting on atoms (cartesian axes, Ry/au):

     atom    1 type  1   force =     0.01888053   -0.00000297    0.01941452
     atom    2 type  1   force =    -0.02510375   -0.00000375    0.07272683
     atom    3 type  1   force =    -0.02510447   -0.00000366   -0.07272786
     atom    4 type  1   force =     0.01887781   -0.00000283   -0.01941404
     atom    5 type  1   force =    -0.01762990   -0.00000290   -0.01847076
     atom    6 type  1   force =     0.01758969   -0.00000271   -0.00016018
     atom    7 type  1   force =     0.01759006   -0.00000288    0.00016361
     atom    8 type  1   force =    -0.01763100   -0.00000298    0.01847117
     atom    9 type  1   force =     0.02486396   -0.00000367   -0.09049252
     atom   10 type  1   force =    -0.01861710   -0.00000296   -0.03846578
     atom   11 type  1   force =    -0.01861981   -0.00000301    0.03847053
     atom   12 type  1   force =     0.02486422   -0.00000354    0.09049050
     atom   13 type  2   force =     0.00278874    0.00000945   -0.01180386
     atom   14 type  2   force =     0.00279295    0.00000947    0.01180106
     atom   15 type  2   force =    -0.00277323    0.00000946    0.01057692
     atom   16 type  2   force =    -0.00276871    0.00000949   -0.01058015
     The non-local contrib.  to forces
     atom    1 type  1   force =     0.00003151   -0.00000263   -0.00817069
     atom    2 type  1   force =    -0.03182367   -0.00000282    0.03443696
     atom    3 type  1   force =    -0.03181760   -0.00000299   -0.03443603
     atom    4 type  1   force =     0.00003092   -0.00000201    0.00817107
     atom    5 type  1   force =    -0.00022424   -0.00000299   -0.01876649
     atom    6 type  1   force =     0.00015513   -0.00000222   -0.00075433
     atom    7 type  1   force =     0.00015412   -0.00000292    0.00075636
     atom    8 type  1   force =    -0.00022602   -0.00000177    0.01876629
     atom    9 type  1   force =     0.03177255   -0.00000291   -0.05422121
     atom   10 type  1   force =    -0.00006046   -0.00000283   -0.01142488
     atom   11 type  1   force =    -0.00006346   -0.00000333    0.01143105
     atom   12 type  1   force =     0.03177904   -0.00000197    0.05422222
     atom   13 type  2   force =     0.06708831    0.00000000   -0.03782529
     atom   14 type  2   force =     0.06708842    0.00000000    0.03782541
     atom   15 type  2   force =    -0.06705847   -0.00000001    0.03781603
     atom   16 type  2   force =    -0.06705832   -0.00000001   -0.03781594
     The ionic contribution  to forces
     atom    1 type  1   force =     6.62351943   -0.00000000   -0.22626067
     atom    2 type  1   force =    12.46354318    0.00000000   -0.96896414
     atom    3 type  1   force =    12.46354318   -0.00000000    0.96896414
     atom    4 type  1   force =     6.62351943   -0.00000000    0.22626067
     atom    5 type  1   force =    -2.02126611    0.00000000   -0.09311902
     atom    6 type  1   force =     2.02123512   -0.00000000   -0.04269531
     atom    7 type  1   force =     2.02123512   -0.00000000    0.04269531
     atom    8 type  1   force =    -2.02126611    0.00000000    0.09311902
     atom    9 type  1   force =   -12.46119505   -0.00000000    0.84898679
     atom   10 type  1   force =    -6.62600223   -0.00000000    0.09161519
     atom   11 type  1   force =    -6.62600223   -0.00000000   -0.09161519
     atom   12 type  1   force =   -12.46119505   -0.00000000   -0.84898679
     atom   13 type  2   force =    -4.71697719    0.00000000    0.79929038
     atom   14 type  2   force =    -4.71697719   -0.00000000   -0.79929038
     atom   15 type  2   force =     4.71714285    0.00000000   -0.81148450
     atom   16 type  2   force =     4.71714285    0.00000000    0.81148450
     The local contribution  to forces
     atom    1 type  1   force =    -6.60461692    0.00000252    0.25337028
     atom    2 type  1   force =   -12.45617015    0.00000291    1.00713043
     atom    3 type  1   force =   -12.45617758    0.00000312   -1.00715273
     atom    4 type  1   force =    -6.60462884    0.00000218   -0.25336236
     atom    5 type  1   force =     2.00388618    0.00000306    0.09278034
     atom    6 type  1   force =    -2.00383441    0.00000264    0.04328646
     atom    7 type  1   force =    -2.00383536    0.00000318   -0.04329181
     atom    8 type  1   force =     2.00388040    0.00000141   -0.09278170
     atom    9 type  1   force =    12.45363003    0.00000340   -0.88578664
     atom   10 type  1   force =     6.60741561    0.00000356   -0.11880258
     atom   11 type  1   force =     6.60740586    0.00000452    0.11880655
     atom   12 type  1   force =    12.45362355    0.00000241    0.88576576
     atom   13 type  2   force =     4.65267028    0.00000008   -0.77326520
     atom   14 type  2   force =     4.65267899    0.00000006    0.77327030
     atom   15 type  2   force =    -4.65285418   -0.00000008    0.78424645
     atom   16 type  2   force =    -4.65284561   -0.00000004   -0.78424197
     The core correction contribution to forces
     atom    1 type  1   force =    -0.00005599   -0.00001328    0.00049545
     atom    2 type  1   force =    -0.00067169   -0.00001394    0.00012060
     atom    3 type  1   force =    -0.00067197   -0.00001391   -0.00011100
     atom    4 type  1   force =    -0.00005601   -0.00001339   -0.00048906
     atom    5 type  1   force =    -0.00003190   -0.00001297    0.00061759
     atom    6 type  1   force =     0.00003846   -0.00001301    0.00000350
     atom    7 type  1   force =     0.00003855   -0.00001294    0.00000602
     atom    8 type  1   force =    -0.00003193   -0.00001312   -0.00061088
     atom    9 type  1   force =     0.00066224   -0.00001392    0.00051046
     atom   10 type  1   force =     0.00005553   -0.00001330    0.00012292
     atom   11 type  1   force =     0.00005543   -0.00001322   -0.00011351
     atom   12 type  1   force =     0.00066208   -0.00001407   -0.00050399
     atom   13 type  2   force =     0.00000000    0.00000000    0.00000000
     atom   14 type  2   force =     0.00000000    0.00000000    0.00000000
     atom   15 type  2   force =     0.00000000    0.00000000    0.00000000
     atom   16 type  2   force =     0.00000000    0.00000000    0.00000000
     The Hubbard contrib.    to forces
     atom    1 type  1   force =     0.00000000    0.00000000    0.00000000
     atom    2 type  1   force =     0.00000000    0.00000000    0.00000000
     atom    3 type  1   force =     0.00000000    0.00000000    0.00000000
     atom    4 type  1   force =     0.00000000    0.00000000    0.00000000
     atom    5 type  1   force =     0.00000000    0.00000000    0.00000000
     atom    6 type  1   force =     0.00000000    0.00000000    0.00000000
     atom    7 type  1   force =     0.00000000    0.00000000    0.00000000
     atom    8 type  1   force =     0.00000000    0.00000000    0.00000000
     atom    9 type  1   force =     0.00000000    0.00000000    0.00000000
     atom   10 type  1   force =     0.00000000    0.00000000    0.00000000
     atom   11 type  1   force =     0.00000000    0.00000000    0.00000000
     atom   12 type  1   force =     0.00000000    0.00000000    0.00000000
     atom   13 type  2   force =     0.00000000    0.00000000    0.00000000
     atom   14 type  2   force =     0.00000000    0.00000000    0.00000000
     atom   15 type  2   force =     0.00000000    0.00000000    0.00000000
     atom   16 type  2   force =     0.00000000    0.00000000    0.00000000
     The SCF correction term to forces
     atom    1 type  1   force =     0.00000196    0.00000100   -0.00001707
     atom    2 type  1   force =     0.00001804    0.00000067    0.00000574
     atom    3 type  1   force =     0.00001895    0.00000070    0.00001053
     atom    4 type  1   force =     0.00001176    0.00000096    0.00000840
     atom    5 type  1   force =     0.00000563    0.00000056    0.00001958
     atom    6 type  1   force =    -0.00000515    0.00000045    0.00000226
     atom    7 type  1   force =    -0.00000292    0.00000037    0.00000050
     atom    8 type  1   force =     0.00001210    0.00000108   -0.00001880
     atom    9 type  1   force =    -0.00000636    0.00000033    0.00002084
     atom   10 type  1   force =    -0.00002610    0.00000019    0.00002634
     atom   11 type  1   force =    -0.00001594   -0.00000041   -0.00003560
     atom   12 type  1   force =    -0.00000594    0.00000067   -0.00000394
     atom   13 type  2   force =     0.00000679   -0.00000006   -0.00000098
     atom   14 type  2   force =     0.00000219   -0.00000002   -0.00000151
     atom   15 type  2   force =    -0.00000398    0.00000012    0.00000170
     atom   16 type  2   force =    -0.00000817    0.00000011   -0.00000397

     Total force =     0.192428     Total SCF correction =     0.000077


     Computing stress (Cartesian axis) and pressure


     negative rho (up, down):  1.211E-03 0.000E+00
          total   stress  (Ry/bohr**3)                   (kbar)     P=       -0.70
  -0.00000993   0.00000000  -0.00000000           -1.46        0.00       -0.00
   0.00000000  -0.00000016   0.00000000            0.00       -0.02        0.00
  -0.00000000   0.00000000  -0.00000414           -0.00        0.00       -0.61

     kinetic stress (kbar)    257.96      0.00     -0.00
                                0.00    294.14      0.00
                               -0.00      0.00    260.38

     local   stress (kbar)  -1309.75      0.00     -0.00
                                0.00   1266.97     -0.00
                               -0.00     -0.00  -8890.36

     nonloc. stress (kbar)     62.24      0.00      0.00
                                0.00     57.00     -0.00
                                0.00     -0.00     62.32

     hartree stress (kbar)    538.56     -0.00     -0.00
                               -0.00   -509.59      0.00
                               -0.00      0.00   4280.24

     exc-cor stress (kbar)     -8.21     -0.00      0.00
                               -0.00    -11.00      0.00
                                0.00      0.00     -8.08

     corecor stress (kbar)    -59.93     -0.00     -0.00
                               -0.00    -58.89      0.00
                               -0.00      0.00    -59.93

     ewald   stress (kbar)    517.67     -0.00      0.00
                               -0.00  -1038.67      0.00
                                0.00      0.00   4354.83

     hubbard stress (kbar)      0.00      0.00      0.00
                                0.00      0.00      0.00
                                0.00      0.00      0.00

     DFT-D   stress (kbar)      0.00      0.00      0.00
                                0.00      0.00      0.00
                                0.00      0.00      0.00

     XDM     stress (kbar)      0.00      0.00      0.00
                                0.00      0.00      0.00
                                0.00      0.00      0.00

     dft-nl  stress (kbar)      0.00      0.00      0.00
                                0.00      0.00      0.00
                                0.00      0.00      0.00

     TS-vdW  stress (kbar)      0.00      0.00      0.00
                                0.00      0.00      0.00
                                0.00      0.00      0.00

     MDB     stress (kbar)      0.00      0.00      0.00
                                0.00      0.00      0.00
                                0.00      0.00      0.00

     3D-RISM stress (kbar)      0.00      0.00      0.00
                                0.00      0.00      0.00
                                0.00      0.00      0.00


     Writing all to output data dir ../tmp/AGNR.save/ :
     XML data file, charge density, pseudopotentials, collected wavefunctions
 
     init_run     :     18.17s CPU     19.03s WALL (       1 calls)
     electrons    :    320.15s CPU    334.89s WALL (       1 calls)
     forces       :      4.59s CPU      5.15s WALL (       1 calls)
     stress       :     17.51s CPU     18.27s WALL (       1 calls)

     Called by init_run:
     wfcinit      :      7.17s CPU      7.30s WALL (       1 calls)
     wfcinit:wfcr :      6.74s CPU      6.86s WALL (       7 calls)
     potinit      :      1.48s CPU      1.77s WALL (       1 calls)
     hinit0       :      0.34s CPU      0.45s WALL (       1 calls)

     Called by electrons:
     c_bands      :    246.84s CPU    252.27s WALL (      10 calls)
     sum_band     :     47.18s CPU     49.60s WALL (      10 calls)
     v_of_rho     :     13.41s CPU     15.24s WALL (      11 calls)
     v_h          :      1.58s CPU      1.83s WALL (      11 calls)
     v_xc         :     13.99s CPU     15.86s WALL (      13 calls)
     newd         :      9.27s CPU     11.47s WALL (      11 calls)
     PAW_pot      :      0.50s CPU      0.51s WALL (      11 calls)
     mix_rho      :      3.13s CPU      3.40s WALL (      10 calls)

     Called by c_bands:
     init_us_2    :      6.13s CPU      6.21s WALL (     161 calls)
     cegterg      :    241.43s CPU    246.76s WALL (      70 calls)

     Called by sum_band:
     sum_band:wei :      0.00s CPU      0.00s WALL (      10 calls)
     sum_band:loo :     32.58s CPU     33.02s WALL (      10 calls)
     sum_band:buf :      0.50s CPU      0.51s WALL (      70 calls)
     sum_band:ini :      2.68s CPU      2.70s WALL (      70 calls)
     sum_band:cal :      1.53s CPU      1.54s WALL (      70 calls)
     sum_band:bec :      0.00s CPU      0.00s WALL (      70 calls)
     addusdens    :     13.03s CPU     14.88s WALL (      10 calls)
                                        0.00s GPU  (      10 calls)
     addusd:skk   :      0.82s CPU      1.27s WALL (      20 calls)
                                        0.00s GPU  (      20 calls)

     Called by *egterg:
     cdiaghg      :      1.36s CPU      1.40s WALL (     407 calls)
     cegterg:over :     10.22s CPU     10.30s WALL (     337 calls)
     cegterg:upda :      9.08s CPU      9.59s WALL (     337 calls)
     cegterg:last :      2.44s CPU      2.46s WALL (      77 calls)
     h_psi        :    212.77s CPU    216.52s WALL (     414 calls)
     s_psi        :      7.79s CPU      7.84s WALL (     414 calls)
     g_psi        :      0.62s CPU      0.63s WALL (     337 calls)

     Called by h_psi:
     h_psi:calbec :      6.45s CPU      6.50s WALL (     414 calls)
     vloc_psi     :    197.30s CPU    200.16s WALL (     414 calls)
     add_vuspsi   :      7.73s CPU      7.78s WALL (     414 calls)

     General routines
     calbec       :     10.55s CPU     10.63s WALL (     603 calls)
     fft          :     13.08s CPU     15.08s WALL (     166 calls)
     ffts         :      0.35s CPU      0.41s WALL (      21 calls)
     fftw         :    110.69s CPU    112.30s WALL (   16612 calls)
     interpolate  :      1.12s CPU      1.28s WALL (      11 calls)
 
     Parallel routines

     PAW routines
     PAW_pot      :      0.50s CPU      0.51s WALL (      11 calls)
 
     PWSCF        :   6m 1.75s CPU   6m35.04s WALL

 
   This run was terminated on:   5: 8:26   6Jan2026            

=------------------------------------------------------------------------------=
   JOB DONE.
=------------------------------------------------------------------------------=
