
     Program PWSCF v.7.4.1 starts on  1Oct2025 at  7: 9:21 

     This program is part of the open-source Quantum ESPRESSO suite
     for quantum simulation of materials; please cite
         "P. Giannozzi et al., J. Phys.:Condens. Matter 21 395502 (2009);
         "P. Giannozzi et al., J. Phys.:Condens. Matter 29 465901 (2017);
         "P. Giannozzi et al., J. Chem. Phys. 152 154105 (2020);
          URL http://www.quantum-espresso.org", 
     in publications or presentations arising from this work. More details at
     http://www.quantum-espresso.org/quote

     Serial version
     16795 MiB available memory on the printing compute node when the environment starts

     Reading input from graphene_scf.in

     Current dimensions of program PWSCF are:
     Max number of different atomic species (ntypx) = 10
     Max number of k-points (npk) =  40000
     Max angular momentum in pseudopotentials (lmaxx) =  4
     file C.pbe-n-kjpaw_psl.1.0.0.UPF: wavefunction(s)  2S 2P renormalized
     Message from routine setup:
     using ibrav=0 with symmetry is DISCOURAGED, use correct ibrav instead


     G-vector sticks info
     --------------------
     sticks:   dense  smooth     PW     G-vecs:    dense   smooth      PW
     Sum         745     301     91               100521    25495    4493

     Using Slab Decomposition



     bravais-lattice index     =            0
     lattice parameter (alat)  =       4.6540  a.u.
     unit-cell volume          =     531.7080 (a.u.)^3
     number of atoms/cell      =            2
     number of atomic types    =            1
     number of electrons       =         8.00
     number of Kohn-Sham states=            8
     kinetic-energy cutoff     =      50.0000  Ry
     charge density cutoff     =     500.0000  Ry
     scf convergence threshold =      1.0E-08
     mixing beta               =       0.7000
     number of iterations used =            8  plain     mixing
     Exchange-correlation= SLA  PW   PBX  PBC
                           (   1   4   3   4   0   0   0)

     celldm(1)=   4.653998  celldm(2)=   0.000000  celldm(3)=   0.000000
     celldm(4)=   0.000000  celldm(5)=   0.000000  celldm(6)=   0.000000

     crystal axes: (cart. coord. in units of alat)
               a(1) = (   1.000000   0.000000   0.000000 )  
               a(2) = (  -0.500000   0.866025   0.000000 )  
               a(3) = (   0.000000   0.000000   6.090654 )  

     reciprocal axes: (cart. coord. in units 2 pi/alat)
               b(1) = (  1.000000  0.577350 -0.000000 )  
               b(2) = (  0.000000  1.154701  0.000000 )  
               b(3) = (  0.000000 -0.000000  0.164186 )  


     PseudoPot. # 1 for C  read from file:
     ../../../../pseudos/C.pbe-n-kjpaw_psl.1.0.0.UPF
     MD5 check sum: 5d2aebdfa2cae82b50a7e79e9516da0f
     Pseudo is Projector augmented-wave + core cor, Zval =  4.0
     Generated using "atomic" code by A. Dal Corso  v.5.1
     Shape of augmentation charge: PSQ
     Using radial grid of 1073 points,  4 beta functions with: 
                l(1) =   0
                l(2) =   0
                l(3) =   1
                l(4) =   1
     Q(r) pseudized with 0 coefficients 


     atomic species   valence    mass     pseudopotential
     C                 4.00    12.01070     C ( 1.00)

     24 Sym. Ops., with inversion, found (12 have fractional translation)



   Cartesian axes

     site n.     atom                  positions (alat units)
         1        C      tau(   1) = (   0.0000000   0.0000000   0.0000000  )
         2        C      tau(   2) = (   0.0000000   0.5773503   0.0000000  )

     number of k points=    12  Gaussian smearing, width (Ry)=  0.0100
                       cart. coord. in units 2pi/alat
        k(    1) = (   0.0000000   0.0000000   0.0000000), wk =   0.0246914
        k(    2) = (   0.0000000   0.1283001   0.0000000), wk =   0.1481481
        k(    3) = (   0.0000000   0.2566001   0.0000000), wk =   0.1481481
        k(    4) = (   0.0000000   0.3849002   0.0000000), wk =   0.1481481
        k(    5) = (   0.0000000   0.5132002   0.0000000), wk =   0.1481481
        k(    6) = (   0.1111111   0.1924501   0.0000000), wk =   0.1481481
        k(    7) = (   0.1111111   0.3207501   0.0000000), wk =   0.2962963
        k(    8) = (   0.1111111   0.4490502   0.0000000), wk =   0.2962963
        k(    9) = (   0.1111111   0.5773503   0.0000000), wk =   0.1481481
        k(   10) = (   0.2222222   0.3849002   0.0000000), wk =   0.1481481
        k(   11) = (   0.2222222   0.5132002   0.0000000), wk =   0.2962963
        k(   12) = (   0.3333333   0.5773503   0.0000000), wk =   0.0493827

     Dense  grid:   100521 G-vectors     FFT dimensions: (  36,  36, 216)

     Smooth grid:    25495 G-vectors     FFT dimensions: (  24,  24, 128)

     Estimated max dynamical RAM per process >     143.46 MB

     Check: negative core charge=   -0.000001

     Initial potential from superposition of free atoms

     starting charge       7.9999, renormalised to       8.0000

     negative rho (up, down):  4.883E-05 0.000E+00
     Starting wfcs are    8 randomized atomic wfcs

     total cpu time spent up to now is        2.0 secs

     Self-consistent Calculation

     iteration #  1     ecut=    50.00 Ry     beta= 0.70
     Davidson diagonalization with overlap
     ethr =  1.00E-02,  avg # of iterations =  4.8

     negative rho (up, down):  6.090E-05 0.000E+00

     total cpu time spent up to now is        3.1 secs

     total energy              =     -36.85823626 Ry
     estimated scf accuracy    <       0.19609667 Ry

     iteration #  2     ecut=    50.00 Ry     beta= 0.70
     Davidson diagonalization with overlap
     ethr =  2.45E-03,  avg # of iterations =  3.5

     negative rho (up, down):  7.148E-05 0.000E+00

     total cpu time spent up to now is        4.0 secs

     total energy              =     -36.88589121 Ry
     estimated scf accuracy    <       0.00205341 Ry

     iteration #  3     ecut=    50.00 Ry     beta= 0.70
     Davidson diagonalization with overlap
     ethr =  2.57E-05,  avg # of iterations =  9.8

     negative rho (up, down):  7.891E-05 0.000E+00

     total cpu time spent up to now is        5.2 secs

     total energy              =     -36.88615210 Ry
     estimated scf accuracy    <       0.00015330 Ry

     iteration #  4     ecut=    50.00 Ry     beta= 0.70
     Davidson diagonalization with overlap
     ethr =  1.92E-06,  avg # of iterations =  3.5

     negative rho (up, down):  7.963E-05 0.000E+00

     total cpu time spent up to now is        6.2 secs

     total energy              =     -36.88616200 Ry
     estimated scf accuracy    <       0.00000144 Ry

     iteration #  5     ecut=    50.00 Ry     beta= 0.70
     Davidson diagonalization with overlap
     ethr =  1.80E-08,  avg # of iterations =  2.7

     negative rho (up, down):  7.960E-05 0.000E+00

     total cpu time spent up to now is        7.1 secs

     total energy              =     -36.88616276 Ry
     estimated scf accuracy    <       0.00000002 Ry

     iteration #  6     ecut=    50.00 Ry     beta= 0.70
     Davidson diagonalization with overlap
     ethr =  3.03E-10,  avg # of iterations =  2.7

     negative rho (up, down):  7.960E-05 0.000E+00

     total cpu time spent up to now is        8.4 secs

     End of self-consistent calculation

          k = 0.0000 0.0000 0.0000 (  3135 PWs)   bands (ev):

   -21.2631  -9.3511  -4.7550  -4.7549   1.4934   2.3630   2.7125   4.6389

          k = 0.0000 0.1283 0.0000 (  3187 PWs)   bands (ev):

   -20.9712  -9.0022  -5.8721  -5.3293   1.8914   2.7642   3.1165   5.0365

          k = 0.0000 0.2566 0.0000 (  3161 PWs)   bands (ev):

   -20.1013  -8.4254  -7.9734  -6.4876   3.0845   3.9602   4.3281   6.1458

          k = 0.0000 0.3849 0.0000 (  3189 PWs)   bands (ev):

   -18.6743 -11.3603  -7.5105  -6.3452   3.2234   5.0582   5.9814   6.0439

          k = 0.0000 0.5132 0.0000 (  3187 PWs)   bands (ev):

   -16.7666 -14.1090  -8.0756  -4.4978   0.5205   5.7578   7.8273   8.7327

          k = 0.1111 0.1925 0.0000 (  3161 PWs)   bands (ev):

   -20.3903  -8.3126  -7.4305  -6.4771   2.6877   3.5643   3.9249   5.8283

          k = 0.1111 0.3208 0.0000 (  3177 PWs)   bands (ev):

   -19.2417  -9.8841  -7.8638  -6.9743   4.2761   4.4774   5.1736   5.5406

          k = 0.1111 0.4491 0.0000 (  3182 PWs)   bands (ev):

   -17.5633 -12.6482  -8.7460  -5.1432   1.6292   6.6247   7.1297   7.5203

          k = 0.1111 0.5774 0.0000 (  3182 PWs)   bands (ev):

   -15.8183 -14.7947  -9.0464  -3.8042  -0.0985   6.9588   9.6499   9.8124

          k = 0.2222 0.3849 0.0000 (  3167 PWs)   bands (ev):

   -17.8391 -11.4017  -9.8815  -5.3894   2.2584   6.2490   7.0794   7.5585

          k = 0.2222 0.5132 0.0000 (  3169 PWs)   bands (ev):

   -15.9866 -13.5190 -10.8819  -3.5095   0.0147   8.9379   9.1743   9.8320

          k = 0.3333 0.5774 0.0000 (  3171 PWs)   bands (ev):

   -14.3244 -14.3244 -12.3029  -1.7016  -1.7016   8.9205  11.2008  11.2012

     the Fermi energy is    -1.7016 ev

!    total energy              =     -36.88616277 Ry
     total all-electron energy =      -152.414358 Ry
     estimated scf accuracy    <          5.5E-10 Ry
     smearing contrib. (-TS)   =      -0.00027861 Ry
     internal energy E=F+TS    =     -36.88588416 Ry

     The total energy is F=E-TS. E is the sum of the following terms:
     one-electron contribution =    -157.20007170 Ry
     hartree contribution      =      80.22421414 Ry
     xc contribution           =      -9.27949987 Ry
     ewald contribution        =      61.70343446 Ry
     one-center paw contrib.   =     -12.33396120 Ry

     convergence has been achieved in   6 iterations

     negative rho (up, down):  7.960E-05 0.000E+00

     Forces acting on atoms (cartesian axes, Ry/au):

     atom    1 type  1   force =     0.00000000    0.00000000    0.00000000
     atom    2 type  1   force =     0.00000000   -0.00000000    0.00000000

     Total force =     0.000000     Total SCF correction =     0.000000


     Computing stress (Cartesian axis) and pressure


     negative rho (up, down):  7.960E-05 0.000E+00
          total   stress  (Ry/bohr**3)                   (kbar)     P=        3.27
   0.00003429   0.00000000  -0.00000000            5.04        0.00       -0.00
   0.00000000   0.00003429   0.00000000            0.00        5.04        0.00
   0.00000000   0.00000000  -0.00000184            0.00        0.00       -0.27


     Writing all to output data dir ./tmp/graphene.save/ :
     XML data file, charge density, pseudopotentials, collected wavefunctions

     init_run     :      1.85s CPU      1.86s WALL (       1 calls)
     electrons    :      9.72s CPU      6.46s WALL (       1 calls)
     forces       :      0.31s CPU      0.39s WALL (       1 calls)
     stress       :      1.09s CPU      1.20s WALL (       1 calls)

     Called by init_run:
     wfcinit      :      0.59s CPU      0.49s WALL (       1 calls)
     potinit      :      0.48s CPU      0.50s WALL (       1 calls)
     hinit0       :      0.70s CPU      0.77s WALL (       1 calls)

     Called by electrons:
     c_bands      :      6.46s CPU      3.75s WALL (       6 calls)
     sum_band     :      1.75s CPU      1.15s WALL (       6 calls)
     v_of_rho     :      0.74s CPU      0.74s WALL (       7 calls)
     newd         :      0.34s CPU      0.45s WALL (       7 calls)
     PAW_pot      :      0.46s CPU      0.46s WALL (       7 calls)
     mix_rho      :      0.12s CPU      0.07s WALL (       6 calls)

     Called by c_bands:
     init_us_2    :      0.21s CPU      0.14s WALL (     180 calls)
     cegterg      :      6.22s CPU      3.61s WALL (      72 calls)

     Called by *egterg:
     cdiaghg      :      0.13s CPU      0.05s WALL (     395 calls)
     h_psi        :      5.90s CPU      3.66s WALL (     407 calls)
     s_psi        :      0.08s CPU      0.06s WALL (     407 calls)
     g_psi        :      0.06s CPU      0.02s WALL (     323 calls)

     Called by h_psi:
     h_psi:calbec :      0.14s CPU      0.07s WALL (     407 calls)
     vloc_psi     :      5.52s CPU      3.31s WALL (     407 calls)
     add_vuspsi   :      0.21s CPU      0.26s WALL (     407 calls)

     General routines
     calbec       :      0.19s CPU      0.13s WALL (     683 calls)
     fft          :      1.00s CPU      0.97s WALL (     114 calls)
     ffts         :      0.31s CPU      0.31s WALL (      13 calls)
     fftw         :      4.26s CPU      2.65s WALL (    4356 calls)
     interpolate  :      0.33s CPU      0.33s WALL (       7 calls)


     PWSCF        :     13.19s CPU     10.07s WALL


   This run was terminated on:   7: 9:31   1Oct2025            

=------------------------------------------------------------------------------=
   JOB DONE.
=------------------------------------------------------------------------------=
