
     Program PWSCF v.7.4.1 starts on 13Oct2025 at 18:22:41 

     This program is part of the open-source Quantum ESPRESSO suite
     for quantum simulation of materials; please cite
         "P. Giannozzi et al., J. Phys.:Condens. Matter 21 395502 (2009);
         "P. Giannozzi et al., J. Phys.:Condens. Matter 29 465901 (2017);
         "P. Giannozzi et al., J. Chem. Phys. 152 154105 (2020);
          URL http://www.quantum-espresso.org", 
     in publications or presentations arising from this work. More details at
     http://www.quantum-espresso.org/quote

     Serial version
     13092 MiB available memory on the printing compute node when the environment starts

     Reading input from grap_SOC_scf.in

     Current dimensions of program PWSCF are:
     Max number of different atomic species (ntypx) = 10
     Max number of k-points (npk) =  40000
     Max angular momentum in pseudopotentials (lmaxx) =  4
     file C.rel-pbe-n-kjpaw.UPF: wavefunction(s)  2P 2P renormalized


     G-vector sticks info
     --------------------
     sticks:   dense  smooth     PW     G-vecs:    dense   smooth      PW
     Sum        1045     421    139               166859    42343    8205

     Using Slab Decomposition



     bravais-lattice index     =            0
     lattice parameter (alat)  =       4.6624  a.u.
     unit-cell volume          =     533.6317 (a.u.)^3
     number of atoms/cell      =            2
     number of atomic types    =            1
     number of electrons       =         8.00
     number of Kohn-Sham states=           16
     kinetic-energy cutoff     =      70.0000  Ry
     charge density cutoff     =     700.0000  Ry
     scf convergence threshold =      1.0E-08
     mixing beta               =       0.1000
     number of iterations used =            8  plain     mixing
     Exchange-correlation= SLA  PW   PBX  PBC
                           (   1   4   3   4   0   0   0)
     Non magnetic calculation with spin-orbit


     celldm(1)=   4.662410  celldm(2)=   0.000000  celldm(3)=   0.000000
     celldm(4)=   0.000000  celldm(5)=   0.000000  celldm(6)=   0.000000

     crystal axes: (cart. coord. in units of alat)
               a(1) = (   1.000000   0.000000  -0.000000 )  
               a(2) = (  -0.500000   0.866025   0.000000 )  
               a(3) = (  -0.000000   0.000000   6.079666 )  

     reciprocal axes: (cart. coord. in units 2 pi/alat)
               b(1) = (  1.000000  0.577350  0.000000 )  
               b(2) = ( -0.000000  1.154701 -0.000000 )  
               b(3) = (  0.000000  0.000000  0.164483 )  


     PseudoPot. # 1 for C  read from file:
     ../../../pseudos/C.rel-pbe-n-kjpaw.UPF
     MD5 check sum: 8ca7f8d5b29b973b07b5aad864045a33
     Pseudo is Projector augmented-wave + core cor, Zval =  4.0
     Generated using "atomic" code by A. Dal Corso  (Quantum ESPRESSO distribution)
     Shape of augmentation charge: BESSEL
     Using radial grid of 1073 points,  6 beta functions with: 
                l(1) =   0
                l(2) =   0
                l(3) =   1
                l(4) =   1
                l(5) =   1
                l(6) =   1
     Q(r) pseudized with 0 coefficients 


     atomic species   valence    mass     pseudopotential
     C                 4.00    12.01100     C ( 1.00)

     No symmetry found



   Cartesian axes

     site n.     atom                  positions (alat units)
         1        C      tau(   1) = (   0.0000000   0.0000000   0.0000000  )
         2        C      tau(   2) = (   0.0000000   0.5773503   0.0000000  )

     number of k points=    74  Gaussian smearing, width (Ry)=  0.0020
                       cart. coord. in units 2pi/alat
        k(    1) = (   0.0000000   0.0000000   0.0000000), wk =   0.0069444
        k(    2) = (   0.0000000   0.0962250   0.0000000), wk =   0.0138889
        k(    3) = (   0.0000000   0.1924501   0.0000000), wk =   0.0138889
        k(    4) = (   0.0000000   0.2886751   0.0000000), wk =   0.0138889
        k(    5) = (   0.0000000   0.3849002   0.0000000), wk =   0.0138889
        k(    6) = (   0.0000000   0.4811252   0.0000000), wk =   0.0138889
        k(    7) = (   0.0000000  -0.5773503   0.0000000), wk =   0.0069444
        k(    8) = (   0.0833333   0.0481125   0.0000000), wk =   0.0138889
        k(    9) = (   0.0833333   0.1443376   0.0000000), wk =   0.0138889
        k(   10) = (   0.0833333   0.2405626   0.0000000), wk =   0.0138889
        k(   11) = (   0.0833333   0.3367877   0.0000000), wk =   0.0138889
        k(   12) = (   0.0833333   0.4330127   0.0000000), wk =   0.0138889
        k(   13) = (   0.0833333   0.5292377   0.0000000), wk =   0.0138889
        k(   14) = (   0.0833333  -0.5292377   0.0000000), wk =   0.0138889
        k(   15) = (   0.0833333  -0.4330127   0.0000000), wk =   0.0138889
        k(   16) = (   0.0833333  -0.3367877   0.0000000), wk =   0.0138889
        k(   17) = (   0.0833333  -0.2405626   0.0000000), wk =   0.0138889
        k(   18) = (   0.0833333  -0.1443376   0.0000000), wk =   0.0138889
        k(   19) = (   0.0833333  -0.0481125   0.0000000), wk =   0.0138889
        k(   20) = (   0.1666667   0.0962250   0.0000000), wk =   0.0138889
        k(   21) = (   0.1666667   0.1924501   0.0000000), wk =   0.0138889
        k(   22) = (   0.1666667   0.2886751   0.0000000), wk =   0.0138889
        k(   23) = (   0.1666667   0.3849002   0.0000000), wk =   0.0138889
        k(   24) = (   0.1666667   0.4811252   0.0000000), wk =   0.0138889
        k(   25) = (   0.1666667   0.5773503   0.0000000), wk =   0.0138889
        k(   26) = (   0.1666667  -0.4811252   0.0000000), wk =   0.0138889
        k(   27) = (   0.1666667  -0.3849002   0.0000000), wk =   0.0138889
        k(   28) = (   0.1666667  -0.2886751   0.0000000), wk =   0.0138889
        k(   29) = (   0.1666667  -0.1924501   0.0000000), wk =   0.0138889
        k(   30) = (   0.1666667  -0.0962250   0.0000000), wk =   0.0138889
        k(   31) = (   0.1666667  -0.0000000   0.0000000), wk =   0.0138889
        k(   32) = (   0.2500000   0.1443376   0.0000000), wk =   0.0138889
        k(   33) = (   0.2500000   0.2405626   0.0000000), wk =   0.0138889
        k(   34) = (   0.2500000   0.3367877   0.0000000), wk =   0.0138889
        k(   35) = (   0.2500000   0.4330127   0.0000000), wk =   0.0138889
        k(   36) = (   0.2500000   0.5292377   0.0000000), wk =   0.0138889
        k(   37) = (   0.2500000   0.6254628   0.0000000), wk =   0.0138889
        k(   38) = (   0.2500000  -0.4330127   0.0000000), wk =   0.0138889
        k(   39) = (   0.2500000  -0.3367877   0.0000000), wk =   0.0138889
        k(   40) = (   0.2500000  -0.2405626   0.0000000), wk =   0.0138889
        k(   41) = (   0.2500000  -0.1443376   0.0000000), wk =   0.0138889
        k(   42) = (   0.2500000  -0.0481125   0.0000000), wk =   0.0138889
        k(   43) = (   0.2500000   0.0481125   0.0000000), wk =   0.0138889
        k(   44) = (   0.3333333   0.1924501   0.0000000), wk =   0.0138889
        k(   45) = (   0.3333333   0.2886751   0.0000000), wk =   0.0138889
        k(   46) = (   0.3333333   0.3849002   0.0000000), wk =   0.0138889
        k(   47) = (   0.3333333   0.4811252   0.0000000), wk =   0.0138889
        k(   48) = (   0.3333333   0.5773503   0.0000000), wk =   0.0138889
        k(   49) = (   0.3333333   0.6735753   0.0000000), wk =   0.0138889
        k(   50) = (   0.3333333  -0.3849002   0.0000000), wk =   0.0138889
        k(   51) = (   0.3333333  -0.2886751   0.0000000), wk =   0.0138889
        k(   52) = (   0.3333333  -0.1924501   0.0000000), wk =   0.0138889
        k(   53) = (   0.3333333  -0.0962250   0.0000000), wk =   0.0138889
        k(   54) = (   0.3333333   0.0000000   0.0000000), wk =   0.0138889
        k(   55) = (   0.3333333   0.0962250   0.0000000), wk =   0.0138889
        k(   56) = (   0.4166667   0.2405626   0.0000000), wk =   0.0138889
        k(   57) = (   0.4166667   0.3367877   0.0000000), wk =   0.0138889
        k(   58) = (   0.4166667   0.4330127   0.0000000), wk =   0.0138889
        k(   59) = (   0.4166667   0.5292377   0.0000000), wk =   0.0138889
        k(   60) = (   0.4166667   0.6254628   0.0000000), wk =   0.0138889
        k(   61) = (   0.4166667   0.7216878   0.0000000), wk =   0.0138889
        k(   62) = (   0.4166667  -0.3367877   0.0000000), wk =   0.0138889
        k(   63) = (   0.4166667  -0.2405626   0.0000000), wk =   0.0138889
        k(   64) = (   0.4166667  -0.1443376   0.0000000), wk =   0.0138889
        k(   65) = (   0.4166667  -0.0481125   0.0000000), wk =   0.0138889
        k(   66) = (   0.4166667   0.0481125   0.0000000), wk =   0.0138889
        k(   67) = (   0.4166667   0.1443376   0.0000000), wk =   0.0138889
        k(   68) = (  -0.5000000  -0.2886751   0.0000000), wk =   0.0069444
        k(   69) = (  -0.5000000  -0.1924501   0.0000000), wk =   0.0138889
        k(   70) = (  -0.5000000  -0.0962250   0.0000000), wk =   0.0138889
        k(   71) = (  -0.5000000   0.0000000   0.0000000), wk =   0.0138889
        k(   72) = (  -0.5000000   0.0962250   0.0000000), wk =   0.0138889
        k(   73) = (  -0.5000000   0.1924501   0.0000000), wk =   0.0138889
        k(   74) = (  -0.5000000  -0.8660254   0.0000000), wk =   0.0069444

     Dense  grid:   166859 G-vectors     FFT dimensions: (  40,  40, 240)

     Smooth grid:    42343 G-vectors     FFT dimensions: (  25,  25, 160)

     Estimated max dynamical RAM per process >     798.94 MB

     Initial potential from superposition of free atoms

     starting charge       7.9999, renormalised to       8.0000

     negative rho (up, down):  2.781E-05 0.000E+00
     Starting wfcs are random

     total cpu time spent up to now is        9.1 secs

     Self-consistent Calculation

     iteration #  1     ecut=    70.00 Ry     beta= 0.10
     Davidson diagonalization with overlap
     ethr =  1.00E-02,  avg # of iterations =  8.8

     negative rho (up, down):  2.271E-05 0.000E+00

     total cpu time spent up to now is      113.1 secs

     total energy              =     -36.95393000 Ry
     estimated scf accuracy    <       0.20213640 Ry

     iteration #  2     ecut=    70.00 Ry     beta= 0.10
     Davidson diagonalization with overlap
     ethr =  2.53E-03,  avg # of iterations =  1.0

     negative rho (up, down):  1.045E-04 0.000E+00

     total cpu time spent up to now is      130.6 secs

     total energy              =     -36.85268137 Ry
     estimated scf accuracy    <       0.15622159 Ry

     iteration #  3     ecut=    70.00 Ry     beta= 0.10
     Davidson diagonalization with overlap
     ethr =  1.95E-03,  avg # of iterations =  3.9

     negative rho (up, down):  7.712E-05 0.000E+00

     total cpu time spent up to now is      149.5 secs

     total energy              =     -36.87726910 Ry
     estimated scf accuracy    <       0.00278274 Ry

     iteration #  4     ecut=    70.00 Ry     beta= 0.10
     Davidson diagonalization with overlap
     ethr =  3.48E-05,  avg # of iterations =  7.6

     negative rho (up, down):  7.842E-05 0.000E+00

     total cpu time spent up to now is      198.1 secs

     total energy              =     -36.90324483 Ry
     estimated scf accuracy    <       0.00720524 Ry

     iteration #  5     ecut=    70.00 Ry     beta= 0.10
     Davidson diagonalization with overlap
     ethr =  3.48E-05,  avg # of iterations =  5.0

     negative rho (up, down):  1.725E-04 0.000E+00

     total cpu time spent up to now is      228.5 secs

     total energy              =     -36.88809115 Ry
     estimated scf accuracy    <       0.03531064 Ry

     iteration #  6     ecut=    70.00 Ry     beta= 0.10
     Davidson diagonalization with overlap
     ethr =  3.48E-05,  avg # of iterations =  5.3

     negative rho (up, down):  4.874E-04 0.000E+00

     total cpu time spent up to now is      263.4 secs

     total energy              =     -36.88786095 Ry
     estimated scf accuracy    <       0.00394547 Ry

     iteration #  7     ecut=    70.00 Ry     beta= 0.10
     Davidson diagonalization with overlap
     ethr =  3.48E-05,  avg # of iterations =  4.4

     negative rho (up, down):  3.560E-04 0.000E+00

     total cpu time spent up to now is      287.7 secs

     total energy              =     -36.88898615 Ry
     estimated scf accuracy    <       0.00048716 Ry

     iteration #  8     ecut=    70.00 Ry     beta= 0.10
     Davidson diagonalization with overlap
     ethr =  6.09E-06,  avg # of iterations =  5.0

     negative rho (up, down):  3.288E-04 0.000E+00

     total cpu time spent up to now is      318.8 secs

     total energy              =     -36.88914661 Ry
     estimated scf accuracy    <       0.00105684 Ry

     iteration #  9     ecut=    70.00 Ry     beta= 0.10
     Davidson diagonalization with overlap
     ethr =  6.09E-06,  avg # of iterations =  1.0

     negative rho (up, down):  1.672E-04 0.000E+00

     total cpu time spent up to now is      335.7 secs

     total energy              =     -36.88889673 Ry
     estimated scf accuracy    <       0.00067134 Ry

     iteration # 10     ecut=    70.00 Ry     beta= 0.10
     Davidson diagonalization with overlap
     ethr =  6.09E-06,  avg # of iterations =  2.2

     negative rho (up, down):  1.049E-04 0.000E+00

     total cpu time spent up to now is      353.8 secs

     total energy              =     -36.88889634 Ry
     estimated scf accuracy    <       0.00020110 Ry

     iteration # 11     ecut=    70.00 Ry     beta= 0.10
     Davidson diagonalization with overlap
     ethr =  2.51E-06,  avg # of iterations =  3.7

     negative rho (up, down):  6.535E-05 0.000E+00

     total cpu time spent up to now is      374.7 secs

     total energy              =     -36.88884281 Ry
     estimated scf accuracy    <       0.00013518 Ry

     iteration # 12     ecut=    70.00 Ry     beta= 0.10
     Davidson diagonalization with overlap
     ethr =  1.69E-06,  avg # of iterations =  4.1

     negative rho (up, down):  4.207E-05 0.000E+00

     total cpu time spent up to now is      397.6 secs

     total energy              =     -36.88889498 Ry
     estimated scf accuracy    <       0.00000130 Ry

     iteration # 13     ecut=    70.00 Ry     beta= 0.10
     Davidson diagonalization with overlap
     ethr =  1.62E-08,  avg # of iterations =  5.0

     negative rho (up, down):  3.789E-05 0.000E+00

     total cpu time spent up to now is      431.8 secs

     total energy              =     -36.88891865 Ry
     estimated scf accuracy    <       0.00003507 Ry

     iteration # 14     ecut=    70.00 Ry     beta= 0.10
     Davidson diagonalization with overlap
     ethr =  1.62E-08,  avg # of iterations =  1.0

     negative rho (up, down):  3.571E-05 0.000E+00

     total cpu time spent up to now is      448.8 secs

     total energy              =     -36.88891005 Ry
     estimated scf accuracy    <       0.00003388 Ry

     iteration # 15     ecut=    70.00 Ry     beta= 0.10
     Davidson diagonalization with overlap
     ethr =  1.62E-08,  avg # of iterations =  3.4

     negative rho (up, down):  3.298E-05 0.000E+00

     total cpu time spent up to now is      470.2 secs

     total energy              =     -36.88890761 Ry
     estimated scf accuracy    <       0.00001704 Ry

     iteration # 16     ecut=    70.00 Ry     beta= 0.10
     Davidson diagonalization with overlap
     ethr =  1.62E-08,  avg # of iterations =  2.5

     negative rho (up, down):  2.664E-05 0.000E+00

     total cpu time spent up to now is      488.4 secs

     total energy              =     -36.88890419 Ry
     estimated scf accuracy    <       0.00001063 Ry

     iteration # 17     ecut=    70.00 Ry     beta= 0.10
     Davidson diagonalization with overlap
     ethr =  1.62E-08,  avg # of iterations =  3.4

     negative rho (up, down):  2.697E-05 0.000E+00

     total cpu time spent up to now is      508.4 secs

     total energy              =     -36.88890320 Ry
     estimated scf accuracy    <       0.00000329 Ry

     iteration # 18     ecut=    70.00 Ry     beta= 0.10
     Davidson diagonalization with overlap
     ethr =  1.62E-08,  avg # of iterations =  2.9

     negative rho (up, down):  2.456E-05 0.000E+00

     total cpu time spent up to now is      527.0 secs

     total energy              =     -36.88890344 Ry
     estimated scf accuracy    <       0.00000054 Ry

     iteration # 19     ecut=    70.00 Ry     beta= 0.10
     Davidson diagonalization with overlap
     ethr =  6.73E-09,  avg # of iterations =  4.4

     negative rho (up, down):  2.223E-05 0.000E+00

     total cpu time spent up to now is      551.7 secs

     total energy              =     -36.88890442 Ry
     estimated scf accuracy    <       0.00000194 Ry

     iteration # 20     ecut=    70.00 Ry     beta= 0.10
     Davidson diagonalization with overlap
     ethr =  6.73E-09,  avg # of iterations =  1.7

     negative rho (up, down):  2.026E-05 0.000E+00

     total cpu time spent up to now is      568.2 secs

     total energy              =     -36.88890388 Ry
     estimated scf accuracy    <       0.00000261 Ry

     iteration # 21     ecut=    70.00 Ry     beta= 0.10
     Davidson diagonalization with overlap
     ethr =  6.73E-09,  avg # of iterations =  1.0

     negative rho (up, down):  1.905E-05 0.000E+00

     total cpu time spent up to now is      583.9 secs

     total energy              =     -36.88890381 Ry
     estimated scf accuracy    <       0.00000103 Ry

     iteration # 22     ecut=    70.00 Ry     beta= 0.10
     Davidson diagonalization with overlap
     ethr =  6.73E-09,  avg # of iterations =  1.0

     negative rho (up, down):  1.654E-05 0.000E+00

     total cpu time spent up to now is      599.5 secs

     total energy              =     -36.88890357 Ry
     estimated scf accuracy    <       0.00000083 Ry

     iteration # 23     ecut=    70.00 Ry     beta= 0.10
     Davidson diagonalization with overlap
     ethr =  6.73E-09,  avg # of iterations =  1.0

     negative rho (up, down):  1.286E-05 0.000E+00

     total cpu time spent up to now is      615.2 secs

     total energy              =     -36.88890347 Ry
     estimated scf accuracy    <       0.00000035 Ry

     iteration # 24     ecut=    70.00 Ry     beta= 0.10
     Davidson diagonalization with overlap
     ethr =  4.43E-09,  avg # of iterations =  3.0

     negative rho (up, down):  7.065E-06 0.000E+00

     total cpu time spent up to now is      635.0 secs

     End of self-consistent calculation

          k = 0.0000 0.0000 0.0000 (  5307 PWs)   bands (ev):

   -21.2378 -21.2378  -9.3333  -9.3333  -4.7877  -4.7877  -4.7785  -4.7785
     1.5190   1.5190   2.4160   2.4160   2.8525   2.8525   4.7483   4.7483

          k = 0.0000 0.0962 0.0000 (  5285 PWs)   bands (ev):

   -21.0741 -21.0741  -9.1377  -9.1377  -5.4330  -5.4330  -5.1204  -5.1204
     1.7417   1.7417   2.6406   2.6406   3.0791   3.0791   4.9713   4.9713

          k = 0.0000 0.1925 0.0000 (  5253 PWs)   bands (ev):

   -20.5846 -20.5846  -8.5561  -8.5561  -7.0685  -7.0685  -5.9105  -5.9105
     2.4099   2.4099   3.3127   3.3127   3.7590   3.7590   5.6372   5.6372

          k = 0.0000 0.2887 0.0000 (  5269 PWs)   bands (ev):

   -19.7752 -19.7752  -9.1643  -9.1643  -7.6077  -7.6077  -6.7877  -6.7877
     3.5213   3.5214   4.4128   4.4128   4.8909   4.8910   5.5227   5.5228

          k = 0.0000 0.3849 0.0000 (  5285 PWs)   bands (ev):

   -18.6580 -18.6580 -11.3647 -11.3647  -7.5190  -7.5190  -6.3426  -6.3426
     3.1771   3.1771   5.0638   5.0638   5.9625   5.9626   6.0157   6.0157

          k = 0.0000 0.4811 0.0000 (  5290 PWs)   bands (ev):

   -17.2645 -17.2645 -13.4618 -13.4618  -7.9906  -7.9906  -4.9237  -4.9237
     1.0472   1.0472   5.7072   5.7072   7.0718   7.0718   7.9986   7.9986

          k = 0.0000-0.5774 0.0000 (  5288 PWs)   bands (ev):

   -16.0067 -16.0067 -14.9620 -14.9620  -8.1525  -8.1525  -4.0815  -4.0815
    -0.0476  -0.0476   5.6278   5.6278   9.3725   9.3726   9.5234   9.5234

          k = 0.0833 0.0481 0.0000 (  5285 PWs)   bands (ev):

   -21.0741 -21.0741  -9.1377  -9.1377  -5.4330  -5.4330  -5.1204  -5.1204
     1.7417   1.7417   2.6406   2.6406   3.0791   3.0791   4.9713   4.9713

          k = 0.0833 0.1443 0.0000 (  5269 PWs)   bands (ev):

   -20.7475 -20.7475  -8.7489  -8.7489  -6.4655  -6.4655  -5.7959  -5.7959
     2.1874   2.1874   3.0891   3.0891   3.5325   3.5325   5.4163   5.4163

          k = 0.0833 0.2406 0.0000 (  5261 PWs)   bands (ev):

   -20.0981 -20.0981  -8.1732  -8.1732  -7.9828  -7.9828  -6.7913  -6.7913
     3.0781   3.0781   3.9821   3.9821   4.4392   4.4392   6.2653   6.2655

          k = 0.0833 0.3368 0.0000 (  5275 PWs)   bands (ev):

   -19.1346 -19.1346 -10.2436 -10.2436  -7.6755  -7.6755  -6.8696  -6.8696
     4.1867   4.1867   4.4094   4.4094   5.3427   5.3427   5.7966   5.7966

          k = 0.0833 0.4330 0.0000 (  5284 PWs)   bands (ev):

   -17.8760 -17.8760 -12.3635 -12.3635  -8.3088  -8.3088  -5.4936  -5.4936
     1.9917   1.9917   6.1512   6.1512   6.5656   6.5656   7.0995   7.0995

          k = 0.0833 0.5292 0.0000 (  5302 PWs)   bands (ev):

   -16.3999 -16.3999 -14.3010 -14.3010  -8.6364  -8.6364  -4.1879  -4.1879
     0.2276   0.2276   6.3658   6.3658   8.3686   8.3686   9.2471   9.2471

          k = 0.0833-0.5292 0.0000 (  5302 PWs)   bands (ev):

   -16.3999 -16.3999 -14.3010 -14.3010  -8.6364  -8.6364  -4.1879  -4.1879
     0.2276   0.2276   6.3658   6.3658   8.3686   8.3686   9.2471   9.2471

          k = 0.0833-0.4330 0.0000 (  5284 PWs)   bands (ev):

   -17.8760 -17.8760 -12.3635 -12.3635  -8.3088  -8.3088  -5.4936  -5.4936
     1.9917   1.9917   6.1512   6.1512   6.5656   6.5656   7.0995   7.0995

          k = 0.0833-0.3368 0.0000 (  5275 PWs)   bands (ev):

   -19.1346 -19.1346 -10.2436 -10.2436  -7.6755  -7.6755  -6.8696  -6.8696
     4.1867   4.1867   4.4094   4.4094   5.3427   5.3427   5.7966   5.7966

          k = 0.0833-0.2406 0.0000 (  5261 PWs)   bands (ev):

   -20.0981 -20.0981  -8.1733  -8.1733  -7.9828  -7.9828  -6.7913  -6.7913
     3.0781   3.0781   3.9821   3.9821   4.4392   4.4392   6.2654   6.2655

          k = 0.0833-0.1443 0.0000 (  5269 PWs)   bands (ev):

   -20.7475 -20.7475  -8.7489  -8.7489  -6.4656  -6.4656  -5.7959  -5.7959
     2.1874   2.1874   3.0891   3.0891   3.5325   3.5325   5.4163   5.4163

          k = 0.0833-0.0481 0.0000 (  5285 PWs)   bands (ev):

   -21.0741 -21.0741  -9.1377  -9.1377  -5.4330  -5.4330  -5.1204  -5.1204
     1.7417   1.7417   2.6406   2.6406   3.0791   3.0791   4.9713   4.9713

          k = 0.1667 0.0962 0.0000 (  5253 PWs)   bands (ev):

   -20.5846 -20.5846  -8.5561  -8.5561  -7.0685  -7.0685  -5.9104  -5.9104
     2.4099   2.4099   3.3127   3.3127   3.7590   3.7590   5.6372   5.6372

          k = 0.1667 0.1925 0.0000 (  5261 PWs)   bands (ev):

   -20.0981 -20.0981  -8.1732  -8.1732  -7.9828  -7.9828  -6.7913  -6.7913
     3.0781   3.0781   3.9821   3.9821   4.4392   4.4392   6.2625   6.2626

          k = 0.1667 0.2887 0.0000 (  5288 PWs)   bands (ev):

   -19.2945 -19.2945  -9.5028  -9.5028  -8.1501  -8.1501  -7.0479  -7.0479
     4.1897   4.1897   4.6417   4.6417   5.0915   5.0915   5.5729   5.5729

          k = 0.1667 0.3849 0.0000 (  5285 PWs)   bands (ev):

   -18.1882 -18.1882 -11.2278 -11.2278  -9.2046  -9.2046  -5.7981  -5.7981
     2.6985   2.6985   5.7368   5.7368   6.6211   6.6211   7.1568   7.1568

          k = 0.1667 0.4811 0.0000 (  5283 PWs)   bands (ev):

   -16.8146 -16.8146 -13.1353 -13.1353  -9.7798  -9.7798  -4.3750  -4.3750
     0.7910   0.7910   7.6915   7.6915   8.2797   8.2797   8.4892   8.4892

          k = 0.1667 0.5774 0.0000 (  5264 PWs)   bands (ev):

   -15.5854 -15.5854 -14.5646 -14.5646  -9.9645  -9.9645  -3.4848  -3.4848
    -0.2743  -0.2743   8.1727   8.1727   9.8750   9.8750   9.9334   9.9334

          k = 0.1667-0.4811 0.0000 (  5283 PWs)   bands (ev):

   -16.8146 -16.8146 -13.1353 -13.1353  -9.7798  -9.7798  -4.3750  -4.3750
     0.7910   0.7910   7.6915   7.6915   8.2797   8.2797   8.4892   8.4892

          k = 0.1667-0.3849 0.0000 (  5285 PWs)   bands (ev):

   -18.1882 -18.1882 -11.2278 -11.2278  -9.2045  -9.2045  -5.7981  -5.7981
     2.6985   2.6985   5.7368   5.7368   6.6211   6.6211   7.1568   7.1568

          k = 0.1667-0.2887 0.0000 (  5288 PWs)   bands (ev):

   -19.2945 -19.2945  -9.5028  -9.5028  -8.1500  -8.1500  -7.0479  -7.0479
     4.1897   4.1897   4.6417   4.6417   5.0915   5.0915   5.5729   5.5729

          k = 0.1667-0.1925 0.0000 (  5261 PWs)   bands (ev):

   -20.0981 -20.0981  -8.1733  -8.1733  -7.9828  -7.9828  -6.7913  -6.7913
     3.0781   3.0781   3.9821   3.9821   4.4392   4.4392   6.2598   6.2599

          k = 0.1667-0.0962 0.0000 (  5253 PWs)   bands (ev):

   -20.5846 -20.5846  -8.5561  -8.5561  -7.0686  -7.0686  -5.9104  -5.9104
     2.4099   2.4099   3.3127   3.3127   3.7590   3.7590   5.6372   5.6372

          k = 0.1667-0.0000 0.0000 (  5269 PWs)   bands (ev):

   -20.7475 -20.7475  -8.7489  -8.7489  -6.4656  -6.4656  -5.7958  -5.7958
     2.1874   2.1874   3.0891   3.0891   3.5325   3.5325   5.4163   5.4163

          k = 0.2500 0.1443 0.0000 (  5269 PWs)   bands (ev):

   -19.7752 -19.7752  -9.1643  -9.1643  -7.6077  -7.6077  -6.7877  -6.7877
     3.5213   3.5213   4.4128   4.4128   4.8909   4.8910   5.5227   5.5227

          k = 0.2500 0.2406 0.0000 (  5275 PWs)   bands (ev):

   -19.1346 -19.1346 -10.2436 -10.2436  -7.6755  -7.6755  -6.8696  -6.8696
     4.1867   4.1867   4.4094   4.4094   5.3427   5.3427   5.7966   5.7966

          k = 0.2500 0.3368 0.0000 (  5285 PWs)   bands (ev):

   -18.1882 -18.1882 -11.2278 -11.2278  -9.2045  -9.2045  -5.7981  -5.7981
     2.6985   2.6985   5.7368   5.7368   6.6211   6.6211   7.1568   7.1568

          k = 0.2500 0.4330 0.0000 (  5268 PWs)   bands (ev):

   -16.9618 -16.9618 -12.2638 -12.2638 -10.6839 -10.6839  -4.4588  -4.4588
     1.0876   1.0876   7.4837   7.4837   8.1980   8.1980   8.9628   8.9628

          k = 0.2500 0.5292 0.0000 (  5282 PWs)   bands (ev):

   -15.5426 -15.5426 -13.6820 -13.6820 -11.3907 -11.3907  -3.0767  -3.0767
    -0.4289  -0.4289   9.1407   9.1407   9.5745   9.5745  10.4408  10.4408

          k = 0.2500 0.6255 0.0000 (  5282 PWs)   bands (ev):

   -15.5426 -15.5426 -13.6821 -13.6821 -11.3907 -11.3907  -3.0767  -3.0767
    -0.4289  -0.4289   9.1407   9.1407   9.5745   9.5745  10.4408  10.4408

          k = 0.2500-0.4330 0.0000 (  5268 PWs)   bands (ev):

   -16.9618 -16.9618 -12.2638 -12.2638 -10.6838 -10.6838  -4.4588  -4.4588
     1.0876   1.0876   7.4837   7.4837   8.1980   8.1980   8.9628   8.9628

          k = 0.2500-0.3368 0.0000 (  5285 PWs)   bands (ev):

   -18.1882 -18.1882 -11.2279 -11.2279  -9.2045  -9.2045  -5.7981  -5.7981
     2.6985   2.6985   5.7368   5.7368   6.6211   6.6211   7.1568   7.1568

          k = 0.2500-0.2406 0.0000 (  5275 PWs)   bands (ev):

   -19.1346 -19.1346 -10.2436 -10.2436  -7.6755  -7.6755  -6.8696  -6.8696
     4.1867   4.1867   4.4094   4.4094   5.3427   5.3427   5.7966   5.7966

          k = 0.2500-0.1443 0.0000 (  5269 PWs)   bands (ev):

   -19.7752 -19.7752  -9.1643  -9.1643  -7.6077  -7.6077  -6.7877  -6.7877
     3.5213   3.5213   4.4128   4.4128   4.8909   4.8909   5.5226   5.5227

          k = 0.2500-0.0481 0.0000 (  5261 PWs)   bands (ev):

   -20.0981 -20.0981  -8.1733  -8.1733  -7.9828  -7.9828  -6.7913  -6.7913
     3.0781   3.0781   3.9821   3.9821   4.4392   4.4392   6.2598   6.2599

          k = 0.2500 0.0481 0.0000 (  5261 PWs)   bands (ev):

   -20.0981 -20.0981  -8.1733  -8.1733  -7.9828  -7.9828  -6.7913  -6.7913
     3.0781   3.0781   3.9821   3.9821   4.4392   4.4392   6.2598   6.2599

          k = 0.3333 0.1925 0.0000 (  5285 PWs)   bands (ev):

   -18.6580 -18.6580 -11.3647 -11.3647  -7.5190  -7.5190  -6.3426  -6.3426
     3.1771   3.1771   5.0638   5.0639   5.9625   5.9625   6.0157   6.0157

          k = 0.3333 0.2887 0.0000 (  5284 PWs)   bands (ev):

   -17.8760 -17.8760 -12.3635 -12.3635  -8.3088  -8.3088  -5.4936  -5.4936
     1.9917   1.9917   6.1512   6.1512   6.5656   6.5656   7.0995   7.0995

          k = 0.3333 0.3849 0.0000 (  5283 PWs)   bands (ev):

   -16.8146 -16.8146 -13.1353 -13.1353  -9.7798  -9.7798  -4.3750  -4.3750
     0.7910   0.7910   7.6915   7.6916   8.2797   8.2797   8.4892   8.4892

          k = 0.3333 0.4811 0.0000 (  5282 PWs)   bands (ev):

   -15.5426 -15.5426 -13.6821 -13.6821 -11.3907 -11.3907  -3.0767  -3.0767
    -0.4289  -0.4289   9.1407   9.1407   9.5745   9.5745  10.4408  10.4408

          k = 0.3333 0.5774 0.0000 (  5292 PWs)   bands (ev):

   -14.3289 -14.3288 -14.3268 -14.3267 -12.2811 -12.2811  -1.7241  -1.7241
    -1.7240  -1.7240   8.8791   8.8791  11.1357  11.1358  11.1398  11.1398

          k = 0.3333 0.6736 0.0000 (  5282 PWs)   bands (ev):

   -15.5426 -15.5426 -13.6821 -13.6821 -11.3907 -11.3907  -3.0767  -3.0767
    -0.4289  -0.4289   9.1407   9.1407   9.5745   9.5745  10.4408  10.4408

          k = 0.3333-0.3849 0.0000 (  5283 PWs)   bands (ev):

   -16.8146 -16.8146 -13.1353 -13.1353  -9.7798  -9.7798  -4.3750  -4.3750
     0.7910   0.7910   7.6915   7.6916   8.2798   8.2798   8.4892   8.4892

          k = 0.3333-0.2887 0.0000 (  5284 PWs)   bands (ev):

   -17.8760 -17.8760 -12.3635 -12.3635  -8.3088  -8.3088  -5.4936  -5.4936
     1.9917   1.9917   6.1512   6.1512   6.5656   6.5656   7.0995   7.0995

          k = 0.3333-0.1925 0.0000 (  5285 PWs)   bands (ev):

   -18.6580 -18.6580 -11.3648 -11.3648  -7.5190  -7.5190  -6.3426  -6.3426
     3.1771   3.1771   5.0638   5.0638   5.9625   5.9625   6.0157   6.0157

          k = 0.3333-0.0962 0.0000 (  5275 PWs)   bands (ev):

   -19.1346 -19.1346 -10.2436 -10.2436  -7.6755  -7.6755  -6.8696  -6.8696
     4.1867   4.1867   4.4094   4.4094   5.3427   5.3427   5.7966   5.7966

          k = 0.3333 0.0000 0.0000 (  5288 PWs)   bands (ev):

   -19.2945 -19.2945  -9.5028  -9.5028  -8.1500  -8.1500  -7.0479  -7.0479
     4.1897   4.1897   4.6417   4.6417   5.0915   5.0915   5.5729   5.5729

          k = 0.3333 0.0962 0.0000 (  5275 PWs)   bands (ev):

   -19.1346 -19.1346 -10.2436 -10.2436  -7.6755  -7.6755  -6.8696  -6.8696
     4.1867   4.1867   4.4094   4.4094   5.3427   5.3427   5.7966   5.7966

          k = 0.4167 0.2406 0.0000 (  5290 PWs)   bands (ev):

   -17.2645 -17.2645 -13.4618 -13.4618  -7.9906  -7.9906  -4.9237  -4.9237
     1.0472   1.0472   5.7072   5.7072   7.0718   7.0718   7.9986   7.9986

          k = 0.4167 0.3368 0.0000 (  5302 PWs)   bands (ev):

   -16.3999 -16.3999 -14.3010 -14.3010  -8.6364  -8.6364  -4.1879  -4.1879
     0.2276   0.2276   6.3658   6.3658   8.3686   8.3686   9.2471   9.2471

          k = 0.4167 0.4330 0.0000 (  5264 PWs)   bands (ev):

   -15.5854 -15.5854 -14.5646 -14.5646  -9.9644  -9.9644  -3.4848  -3.4848
    -0.2743  -0.2743   8.1727   8.1727   9.8750   9.8751   9.9334   9.9335

          k = 0.4167 0.5292 0.0000 (  5282 PWs)   bands (ev):

   -15.5426 -15.5426 -13.6821 -13.6821 -11.3907 -11.3907  -3.0767  -3.0767
    -0.4289  -0.4289   9.1407   9.1407   9.5745   9.5745  10.4408  10.4408

          k = 0.4167 0.6255 0.0000 (  5282 PWs)   bands (ev):

   -15.5426 -15.5426 -13.6821 -13.6821 -11.3907 -11.3907  -3.0767  -3.0767
    -0.4289  -0.4289   9.1407   9.1407   9.5745   9.5745  10.4408  10.4408

          k = 0.4167 0.7217 0.0000 (  5264 PWs)   bands (ev):

   -15.5854 -15.5854 -14.5647 -14.5647  -9.9644  -9.9644  -3.4848  -3.4848
    -0.2743  -0.2743   8.1727   8.1727   9.8750   9.8750   9.9334   9.9335

          k = 0.4167-0.3368 0.0000 (  5302 PWs)   bands (ev):

   -16.3999 -16.3999 -14.3011 -14.3011  -8.6364  -8.6364  -4.1878  -4.1878
     0.2276   0.2276   6.3658   6.3658   8.3686   8.3686   9.2471   9.2471

          k = 0.4167-0.2406 0.0000 (  5290 PWs)   bands (ev):

   -17.2645 -17.2645 -13.4618 -13.4618  -7.9906  -7.9906  -4.9237  -4.9237
     1.0472   1.0472   5.7073   5.7073   7.0718   7.0718   7.9986   7.9986

          k = 0.4167-0.1443 0.0000 (  5284 PWs)   bands (ev):

   -17.8760 -17.8760 -12.3635 -12.3635  -8.3088  -8.3088  -5.4936  -5.4936
     1.9917   1.9917   6.1512   6.1512   6.5656   6.5656   7.0995   7.0995

          k = 0.4167-0.0481 0.0000 (  5285 PWs)   bands (ev):

   -18.1882 -18.1882 -11.2279 -11.2279  -9.2045  -9.2045  -5.7981  -5.7981
     2.6985   2.6985   5.7368   5.7368   6.6211   6.6211   7.1568   7.1568

          k = 0.4167 0.0481 0.0000 (  5285 PWs)   bands (ev):

   -18.1882 -18.1882 -11.2278 -11.2278  -9.2045  -9.2045  -5.7981  -5.7981
     2.6985   2.6985   5.7368   5.7368   6.6211   6.6211   7.1568   7.1568

          k = 0.4167 0.1443 0.0000 (  5284 PWs)   bands (ev):

   -17.8760 -17.8760 -12.3635 -12.3635  -8.3088  -8.3088  -5.4936  -5.4936
     1.9917   1.9917   6.1512   6.1512   6.5656   6.5656   7.0995   7.0995

          k =-0.5000-0.2887 0.0000 (  5288 PWs)   bands (ev):

   -16.0067 -16.0067 -14.9620 -14.9620  -8.1525  -8.1525  -4.0815  -4.0815
    -0.0476  -0.0476   5.6278   5.6278   9.3725   9.3726   9.5234   9.5234

          k =-0.5000-0.1925 0.0000 (  5302 PWs)   bands (ev):

   -16.3999 -16.3999 -14.3010 -14.3010  -8.6364  -8.6364  -4.1879  -4.1879
     0.2276   0.2276   6.3658   6.3658   8.3686   8.3686   9.2471   9.2471

          k =-0.5000-0.0962 0.0000 (  5283 PWs)   bands (ev):

   -16.8146 -16.8146 -13.1353 -13.1353  -9.7798  -9.7798  -4.3750  -4.3750
     0.7910   0.7910   7.6915   7.6915   8.2797   8.2797   8.4892   8.4892

          k =-0.5000 0.0000 0.0000 (  5268 PWs)   bands (ev):

   -16.9618 -16.9618 -12.2638 -12.2638 -10.6838 -10.6838  -4.4588  -4.4588
     1.0876   1.0876   7.4837   7.4837   8.1980   8.1980   8.9628   8.9628

          k =-0.5000 0.0962 0.0000 (  5283 PWs)   bands (ev):

   -16.8146 -16.8146 -13.1354 -13.1354  -9.7798  -9.7798  -4.3750  -4.3750
     0.7910   0.7910   7.6915   7.6915   8.2798   8.2798   8.4892   8.4892

          k =-0.5000 0.1925 0.0000 (  5302 PWs)   bands (ev):

   -16.3999 -16.3999 -14.3011 -14.3011  -8.6364  -8.6364  -4.1878  -4.1878
     0.2276   0.2276   6.3658   6.3658   8.3686   8.3686   9.2471   9.2471

          k =-0.5000-0.8660 0.0000 (  5288 PWs)   bands (ev):

   -16.0067 -16.0067 -14.9621 -14.9621  -8.1525  -8.1525  -4.0815  -4.0815
    -0.0476  -0.0476   5.6278   5.6278   9.3726   9.3726   9.5234   9.5234

     the Fermi energy is    -1.7240 ev

!    total energy              =     -36.88890361 Ry
     total all-electron energy =      -152.417195 Ry
     estimated scf accuracy    <          3.3E-09 Ry
     smearing contrib. (-TS)   =      -0.00003134 Ry
     internal energy E=F+TS    =     -36.88887227 Ry

     The total energy is F=E-TS. E is the sum of the following terms:
     one-electron contribution =    -156.62365693 Ry
     hartree contribution      =      79.91888568 Ry
     xc contribution           =      -8.28631318 Ry
     ewald contribution        =      61.40972547 Ry
     one-center paw contrib.   =     -13.30751331 Ry

     convergence has been achieved in  24 iterations

     negative rho (up, down):  7.065E-06 0.000E+00

     Forces acting on atoms (cartesian axes, Ry/au):

     atom    1 type  1   force =     0.00000115   -0.00000184    0.00000101
     atom    2 type  1   force =    -0.00000115    0.00000184   -0.00000101

     Total force =     0.000003     Total SCF correction =     0.000033
     SCF correction compared to forces is large: reduce conv_thr to get better values


     Computing stress (Cartesian axis) and pressure


     negative rho (up, down):  7.065E-06 0.000E+00
          total   stress  (Ry/bohr**3)                   (kbar)     P=       -0.83
  -0.00000827   0.00000002  -0.00000000           -1.22        0.00       -0.00
   0.00000002  -0.00000823  -0.00000000            0.00       -1.21       -0.00
  -0.00000000  -0.00000000  -0.00000034           -0.00       -0.00       -0.05


     Writing all to output data dir ./tmp/graphene.save/ :
     XML data file, charge density, pseudopotentials, collected wavefunctions

     init_run     :      8.60s CPU      8.84s WALL (       1 calls)
     electrons    :    619.75s CPU    625.94s WALL (       1 calls)
     forces       :      2.45s CPU      2.54s WALL (       1 calls)
     stress       :      8.99s CPU      9.24s WALL (       1 calls)

     Called by init_run:
     wfcinit      :      6.95s CPU      7.02s WALL (       1 calls)
     potinit      :      0.57s CPU      0.62s WALL (       1 calls)
     hinit0       :      0.75s CPU      0.78s WALL (       1 calls)

     Called by electrons:
     c_bands      :    551.01s CPU    552.91s WALL (      24 calls)
     sum_band     :     58.35s CPU     60.63s WALL (      24 calls)
     v_of_rho     :      2.25s CPU      2.31s WALL (      25 calls)
     newd         :      5.28s CPU      7.28s WALL (      25 calls)
     PAW_pot      :      1.40s CPU      1.40s WALL (      25 calls)
     mix_rho      :      1.24s CPU      1.25s WALL (      24 calls)

     Called by c_bands:
     init_us_2    :      3.16s CPU      3.18s WALL (    3774 calls)
     cegterg      :    538.72s CPU    540.60s WALL (    1776 calls)

     Called by *egterg:
     cdiaghg      :      6.34s CPU      6.37s WALL (    7872 calls)
     h_psi        :    323.73s CPU    324.83s WALL (    7946 calls)
     s_psi        :     35.71s CPU     35.80s WALL (    7946 calls)
     g_psi        :      1.66s CPU      1.66s WALL (    6096 calls)

     Called by h_psi:
     h_psi:calbec :     35.22s CPU     35.25s WALL (    7946 calls)
     vloc_psi     :    251.38s CPU    252.00s WALL (    7946 calls)
     add_vuspsi   :     35.81s CPU     35.83s WALL (    7946 calls)

     General routines
     calbec       :     54.47s CPU     54.50s WALL (   10980 calls)
     fft          :      2.36s CPU      2.38s WALL (     639 calls)
     ffts         :      0.43s CPU      0.43s WALL (     196 calls)
     fftw         :    157.29s CPU    157.62s WALL (  389968 calls)
     interpolate  :      0.74s CPU      0.74s WALL (     100 calls)


     PWSCF        :  10m40.04s CPU  10m46.95s WALL


   This run was terminated on:  18:33:28  13Oct2025            

=------------------------------------------------------------------------------=
   JOB DONE.
=------------------------------------------------------------------------------=
