
     Program PWSCF v.7.4.1 starts on  5Jan2026 at 19:22:47 

     This program is part of the open-source Quantum ESPRESSO suite
     for quantum simulation of materials; please cite
         "P. Giannozzi et al., J. Phys.:Condens. Matter 21 395502 (2009);
         "P. Giannozzi et al., J. Phys.:Condens. Matter 29 465901 (2017);
         "P. Giannozzi et al., J. Chem. Phys. 152 154105 (2020);
          URL http://www.quantum-espresso.org", 
     in publications or presentations arising from this work. More details at
     http://www.quantum-espresso.org/quote

     Parallel version (MPI), running on    20 processors

     MPI processes distributed on     1 nodes
     51653 MiB available memory on the printing compute node when the environment starts
 
     Reading input from 3-zgnr_scf.in

     Current dimensions of program PWSCF are:
     Max number of different atomic species (ntypx) = 10
     Max number of k-points (npk) =  40000
     Max angular momentum in pseudopotentials (lmaxx) =  4
     file C.pbe-n-kjpaw_psl.1.0.0.UPF: wavefunction(s)  2S 2P renormalized
     file H.pbe-kjpaw_psl.1.0.0.UPF: wavefunction(s)  1S renormalized
 
     R & G space division:  proc/nbgrp/npool/nimage =      20
     Subspace diagonalization in iterative solution of the eigenvalue problem:
     a serial algorithm will be used

 
     Parallelization info
     --------------------
     sticks:   dense  smooth     PW     G-vecs:    dense   smooth      PW
     Min         917     367    106               292923    74137   11680
     Max         918     368    107               292930    74152   11693
     Sum       18347    7359   2131              5858505  1482933  233725
 
     Using Slab Decomposition
 


     bravais-lattice index     =            0
     lattice parameter (alat)  =       4.6761  a.u.
     unit-cell volume          =   18728.3793 (a.u.)^3
     number of atoms/cell      =            8
     number of atomic types    =            2
     number of electrons       =        26.00
     number of Kohn-Sham states=           17
     kinetic-energy cutoff     =      70.0000  Ry
     charge density cutoff     =     700.0000  Ry
     scf convergence threshold =      1.0E-06
     mixing beta               =       0.5000
     number of iterations used =            8  plain     mixing
     Exchange-correlation= SLA  PW   PBX  PBC
                           (   1   4   3   4   0   0   0)

     celldm(1)=   4.676134  celldm(2)=   0.000000  celldm(3)=   0.000000
     celldm(4)=   0.000000  celldm(5)=   0.000000  celldm(6)=   0.000000

     crystal axes: (cart. coord. in units of alat)
               a(1) = (   0.000000   0.000000   1.000000 )  
               a(2) = (  15.063634   0.000000   0.000000 )  
               a(3) = (   0.000000  12.159330   0.000000 )  

     reciprocal axes: (cart. coord. in units 2 pi/alat)
               b(1) = (  0.000000  0.000000  1.000000 )  
               b(2) = (  0.066385  0.000000  0.000000 )  
               b(3) = (  0.000000  0.082241  0.000000 )  


     PseudoPot. # 1 for C  read from file:
     ../../../PP_C/C.pbe-n-kjpaw_psl.1.0.0.UPF
     MD5 check sum: 5f16ad9a65e90284d1d834d4ab3b0f7d
     Pseudo is Projector augmented-wave + core cor, Zval =  4.0
     Generated using &quot;atomic&quot; code by A. Dal Corso  v.6.3
     Shape of augmentation charge: PSQ
     Using radial grid of 1073 points,  4 beta functions with: 
                l(1) =   0
                l(2) =   0
                l(3) =   1
                l(4) =   1
     Q(r) pseudized with 0 coefficients 


     PseudoPot. # 2 for H  read from file:
     ../../../PP_C/H.pbe-kjpaw_psl.1.0.0.UPF
     MD5 check sum: d81a744832360e4a8af0b0b5b123bc2a
     Pseudo is Projector augmented-wave, Zval =  1.0
     Generated using &quot;atomic&quot; code by A. Dal Corso  v.6.3MaX
     Shape of augmentation charge: PSQ
     Using radial grid of  929 points,  2 beta functions with: 
                l(1) =   0
                l(2) =   0
     Q(r) pseudized with 0 coefficients 


     atomic species   valence    mass     pseudopotential
     C                 4.00    12.01100     C ( 1.00)
     H                 1.00     1.00790     H ( 1.00)

     No symmetry found


                                    s                        frac. trans.

      isym =  1     identity                                     

 cryst.   s( 1) = (     1          0          0      )
                  (     0          1          0      )
                  (     0          0          1      )

 cart.    s( 1) = (  1.0000000  0.0000000  0.0000000 )
                  (  0.0000000  1.0000000  0.0000000 )
                  (  0.0000000  0.0000000  1.0000000 )


   Cartesian axes

     site n.     atom                  positions (alat units)
         1        C      tau(   1) = (   6.5023148   6.0618223   0.0000000  )
         2        C      tau(   2) = (   6.7901427   6.0618223   0.4985326  )
         3        C      tau(   3) = (   7.3657985   6.0618223   0.4985326  )
         4        C      tau(   4) = (   7.6536264   6.0618223   0.0000000  )
         5        C      tau(   5) = (   8.2292823   6.0618223   0.0000000  )
         6        C      tau(   6) = (   8.5171102   6.0618223   0.4985326  )
         7        H      tau(   7) = (   6.0618223   6.0618223   0.0000000  )
         8        H      tau(   8) = (   8.9576026   6.0618223   0.4985326  )

   Crystallographic axes

     site n.     atom                  positions (cryst. coord.)
         1        C      tau(   1) = (  0.0000000  0.4316564  0.4985326  )
         2        C      tau(   2) = (  0.4985326  0.4507639  0.4985326  )
         3        C      tau(   3) = (  0.4985326  0.4889788  0.4985326  )
         4        C      tau(   4) = (  0.0000000  0.5080863  0.4985326  )
         5        C      tau(   5) = (  0.0000000  0.5463012  0.4985326  )
         6        C      tau(   6) = (  0.4985326  0.5654087  0.4985326  )
         7        H      tau(   7) = (  0.0000000  0.4024143  0.4985326  )
         8        H      tau(   8) = (  0.4985326  0.5946508  0.4985326  )

     number of k points=     7  Gaussian smearing, width (Ry)=  0.0020
                       cart. coord. in units 2pi/alat
        k(    1) = (   0.0000000   0.0000000   0.0000000), wk =   0.1666667
        k(    2) = (   0.0000000   0.0000000   0.0833333), wk =   0.3333333
        k(    3) = (   0.0000000   0.0000000   0.1666667), wk =   0.3333333
        k(    4) = (   0.0000000   0.0000000   0.2500000), wk =   0.3333333
        k(    5) = (   0.0000000   0.0000000   0.3333333), wk =   0.3333333
        k(    6) = (   0.0000000   0.0000000   0.4166667), wk =   0.3333333
        k(    7) = (   0.0000000   0.0000000  -0.5000000), wk =   0.1666667

                       cryst. coord.
        k(    1) = (   0.0000000   0.0000000   0.0000000), wk =   0.1666667
        k(    2) = (   0.0833333   0.0000000   0.0000000), wk =   0.3333333
        k(    3) = (   0.1666667   0.0000000   0.0000000), wk =   0.3333333
        k(    4) = (   0.2500000   0.0000000   0.0000000), wk =   0.3333333
        k(    5) = (   0.3333333   0.0000000   0.0000000), wk =   0.3333333
        k(    6) = (   0.4166667   0.0000000   0.0000000), wk =   0.3333333
        k(    7) = (  -0.5000000   0.0000000   0.0000000), wk =   0.1666667

     Dense  grid:  5858505 G-vectors     FFT dimensions: (  40, 600, 480)

     Smooth grid:  1482933 G-vectors     FFT dimensions: (  25, 375, 320)

     Dynamical RAM for                 wfc:       2.40 MB

     Dynamical RAM for     wfc (w. buffer):      19.22 MB

     Dynamical RAM for           str. fact:       8.94 MB

     Dynamical RAM for           local pot:       0.00 MB

     Dynamical RAM for          nlocal pot:       7.35 MB

     Dynamical RAM for                qrad:       1.21 MB

     Dynamical RAM for          rho,v,vnew:      26.59 MB

     Dynamical RAM for               rhoin:       8.86 MB

     Dynamical RAM for            rho*nmix:      71.52 MB

     Dynamical RAM for           G-vectors:      17.33 MB

     Dynamical RAM for          h,s,v(r/c):       0.85 MB

     Dynamical RAM for          <psi|beta>:       0.01 MB

     Dynamical RAM for                 psi:      19.22 MB

     Dynamical RAM for                hpsi:      19.22 MB

     Dynamical RAM for                spsi:      19.22 MB

     Dynamical RAM for      wfcinit/wfcrot:       4.81 MB

     Dynamical RAM for           addusdens:     219.02 MB

     Dynamical RAM for          addusforce:     265.96 MB

     Dynamical RAM for         addusstress:     223.49 MB

     Estimated static dynamical RAM per process >     124.89 MB

     Estimated max dynamical RAM per process >     462.36 MB

     Estimated total dynamical RAM >       9.03 GB

     Initial potential from superposition of free atoms

     starting charge      25.9997, renormalised to      26.0000

     negative rho (up, down):  5.043E-04 0.000E+00
     Starting wfcs are random
     Checking if some PAW data can be deallocated... 
       PAW data deallocated on    4 nodes for type:  1
       PAW data deallocated on   16 nodes for type:  2

     total cpu time spent up to now is        7.8 secs

     per-process dynamical memory:   177.1 Mb

     Self-consistent Calculation

     iteration #  1     ecut=    70.00 Ry     beta= 0.50
     Davidson diagonalization with overlap

---- Real-time Memory Report at c_bands before calling an iterative solver
           422 MiB given to the printing process from OS
           172 MiB allocation reported by mallinfo(arena+hblkhd)
         47546 MiB available memory on the node where the printing process lives
------------------
     ethr =  1.00E-02,  avg # of iterations = 12.0

     negative rho (up, down):  4.072E-04 0.000E+00

     total cpu time spent up to now is       28.5 secs

     total energy              =    -112.87528514 Ry
     estimated scf accuracy    <       0.82977446 Ry

     iteration #  2     ecut=    70.00 Ry     beta= 0.50
     Davidson diagonalization with overlap

---- Real-time Memory Report at c_bands before calling an iterative solver
           526 MiB given to the printing process from OS
           265 MiB allocation reported by mallinfo(arena+hblkhd)
         46524 MiB available memory on the node where the printing process lives
------------------
     ethr =  3.19E-03,  avg # of iterations =  2.0

     negative rho (up, down):  5.156E-04 0.000E+00

     total cpu time spent up to now is       36.0 secs

     total energy              =    -112.92252248 Ry
     estimated scf accuracy    <       0.10709047 Ry

     iteration #  3     ecut=    70.00 Ry     beta= 0.50
     Davidson diagonalization with overlap

---- Real-time Memory Report at c_bands before calling an iterative solver
           531 MiB given to the printing process from OS
           270 MiB allocation reported by mallinfo(arena+hblkhd)
         46276 MiB available memory on the node where the printing process lives
------------------
     ethr =  4.12E-04,  avg # of iterations =  8.1

     negative rho (up, down):  5.516E-04 0.000E+00

     total cpu time spent up to now is       45.6 secs

     total energy              =    -112.93917328 Ry
     estimated scf accuracy    <       0.52710257 Ry

     iteration #  4     ecut=    70.00 Ry     beta= 0.50
     Davidson diagonalization with overlap

---- Real-time Memory Report at c_bands before calling an iterative solver
           533 MiB given to the printing process from OS
           270 MiB allocation reported by mallinfo(arena+hblkhd)
         46282 MiB available memory on the node where the printing process lives
------------------
     ethr =  4.12E-04,  avg # of iterations =  5.0

     negative rho (up, down):  6.079E-04 0.000E+00

     total cpu time spent up to now is       53.8 secs

     total energy              =    -112.93663686 Ry
     estimated scf accuracy    <       0.09198483 Ry

     iteration #  5     ecut=    70.00 Ry     beta= 0.50
     Davidson diagonalization with overlap

---- Real-time Memory Report at c_bands before calling an iterative solver
           541 MiB given to the printing process from OS
           274 MiB allocation reported by mallinfo(arena+hblkhd)
         46037 MiB available memory on the node where the printing process lives
------------------
     ethr =  3.54E-04,  avg # of iterations =  4.1

     negative rho (up, down):  6.294E-04 0.000E+00

     total cpu time spent up to now is       61.6 secs

     total energy              =    -112.96667284 Ry
     estimated scf accuracy    <       0.18536613 Ry

     iteration #  6     ecut=    70.00 Ry     beta= 0.50
     Davidson diagonalization with overlap

---- Real-time Memory Report at c_bands before calling an iterative solver
           542 MiB given to the printing process from OS
           274 MiB allocation reported by mallinfo(arena+hblkhd)
         46019 MiB available memory on the node where the printing process lives
------------------
     ethr =  3.54E-04,  avg # of iterations =  1.0

     negative rho (up, down):  6.403E-04 0.000E+00

     total cpu time spent up to now is       68.4 secs

     total energy              =    -112.95536661 Ry
     estimated scf accuracy    <       0.09564077 Ry

     iteration #  7     ecut=    70.00 Ry     beta= 0.50
     Davidson diagonalization with overlap

---- Real-time Memory Report at c_bands before calling an iterative solver
           548 MiB given to the printing process from OS
           279 MiB allocation reported by mallinfo(arena+hblkhd)
         45989 MiB available memory on the node where the printing process lives
------------------
     ethr =  3.54E-04,  avg # of iterations =  1.4

     negative rho (up, down):  6.430E-04 0.000E+00

     total cpu time spent up to now is       75.2 secs

     total energy              =    -112.96048783 Ry
     estimated scf accuracy    <       0.03776738 Ry

     iteration #  8     ecut=    70.00 Ry     beta= 0.50
     Davidson diagonalization with overlap

---- Real-time Memory Report at c_bands before calling an iterative solver
           549 MiB given to the printing process from OS
           279 MiB allocation reported by mallinfo(arena+hblkhd)
         45907 MiB available memory on the node where the printing process lives
------------------
     ethr =  1.45E-04,  avg # of iterations =  1.6

     negative rho (up, down):  6.483E-04 0.000E+00

     total cpu time spent up to now is       82.2 secs

     total energy              =    -112.96184466 Ry
     estimated scf accuracy    <       0.01569539 Ry

     iteration #  9     ecut=    70.00 Ry     beta= 0.50
     Davidson diagonalization with overlap

---- Real-time Memory Report at c_bands before calling an iterative solver
           554 MiB given to the printing process from OS
           283 MiB allocation reported by mallinfo(arena+hblkhd)
         45787 MiB available memory on the node where the printing process lives
------------------
     ethr =  6.04E-05,  avg # of iterations =  3.3

     negative rho (up, down):  6.523E-04 0.000E+00

     total cpu time spent up to now is       89.5 secs

     total energy              =    -112.96205158 Ry
     estimated scf accuracy    <       0.00012963 Ry

     iteration # 10     ecut=    70.00 Ry     beta= 0.50
     Davidson diagonalization with overlap

---- Real-time Memory Report at c_bands before calling an iterative solver
           554 MiB given to the printing process from OS
           283 MiB allocation reported by mallinfo(arena+hblkhd)
         45889 MiB available memory on the node where the printing process lives
------------------
     c_bands:  1 eigenvalues not converged
     c_bands:  1 eigenvalues not converged
     ethr =  4.99E-07,  avg # of iterations = 12.3

     negative rho (up, down):  6.542E-04 0.000E+00

     total cpu time spent up to now is       99.7 secs

     total energy              =    -112.96206671 Ry
     estimated scf accuracy    <       0.00623894 Ry

     iteration # 11     ecut=    70.00 Ry     beta= 0.50
     Davidson diagonalization with overlap

---- Real-time Memory Report at c_bands before calling an iterative solver
           555 MiB given to the printing process from OS
           283 MiB allocation reported by mallinfo(arena+hblkhd)
         45997 MiB available memory on the node where the printing process lives
------------------
     ethr =  4.99E-07,  avg # of iterations =  1.4

     negative rho (up, down):  6.549E-04 0.000E+00

     total cpu time spent up to now is      106.6 secs

     total energy              =    -112.96195690 Ry
     estimated scf accuracy    <       0.00297232 Ry

     iteration # 12     ecut=    70.00 Ry     beta= 0.50
     Davidson diagonalization with overlap

---- Real-time Memory Report at c_bands before calling an iterative solver
           556 MiB given to the printing process from OS
           283 MiB allocation reported by mallinfo(arena+hblkhd)
         45980 MiB available memory on the node where the printing process lives
------------------
     ethr =  4.99E-07,  avg # of iterations =  1.0

     negative rho (up, down):  6.546E-04 0.000E+00

     total cpu time spent up to now is      113.5 secs

     total energy              =    -112.96206023 Ry
     estimated scf accuracy    <       0.00137268 Ry

     iteration # 13     ecut=    70.00 Ry     beta= 0.50
     Davidson diagonalization with overlap

---- Real-time Memory Report at c_bands before calling an iterative solver
           557 MiB given to the printing process from OS
           283 MiB allocation reported by mallinfo(arena+hblkhd)
         46003 MiB available memory on the node where the printing process lives
------------------
     ethr =  4.99E-07,  avg # of iterations =  1.0

     negative rho (up, down):  6.547E-04 0.000E+00

     total cpu time spent up to now is      120.3 secs

     total energy              =    -112.96198690 Ry
     estimated scf accuracy    <       0.00177888 Ry

     iteration # 14     ecut=    70.00 Ry     beta= 0.50
     Davidson diagonalization with overlap

---- Real-time Memory Report at c_bands before calling an iterative solver
           557 MiB given to the printing process from OS
           283 MiB allocation reported by mallinfo(arena+hblkhd)
         45983 MiB available memory on the node where the printing process lives
------------------
     ethr =  4.99E-07,  avg # of iterations =  1.0

     negative rho (up, down):  6.550E-04 0.000E+00

     total cpu time spent up to now is      127.1 secs

     total energy              =    -112.96201995 Ry
     estimated scf accuracy    <       0.00097697 Ry

     iteration # 15     ecut=    70.00 Ry     beta= 0.50
     Davidson diagonalization with overlap

---- Real-time Memory Report at c_bands before calling an iterative solver
           557 MiB given to the printing process from OS
           283 MiB allocation reported by mallinfo(arena+hblkhd)
         45970 MiB available memory on the node where the printing process lives
------------------
     ethr =  4.99E-07,  avg # of iterations =  1.0

     negative rho (up, down):  6.551E-04 0.000E+00

     total cpu time spent up to now is      133.9 secs

     total energy              =    -112.96203801 Ry
     estimated scf accuracy    <       0.00010169 Ry

     iteration # 16     ecut=    70.00 Ry     beta= 0.50
     Davidson diagonalization with overlap

---- Real-time Memory Report at c_bands before calling an iterative solver
           558 MiB given to the printing process from OS
           283 MiB allocation reported by mallinfo(arena+hblkhd)
         45900 MiB available memory on the node where the printing process lives
------------------
     ethr =  3.91E-07,  avg # of iterations =  1.0

     negative rho (up, down):  6.551E-04 0.000E+00

     total cpu time spent up to now is      140.8 secs

     total energy              =    -112.96203896 Ry
     estimated scf accuracy    <       0.00000110 Ry

     iteration # 17     ecut=    70.00 Ry     beta= 0.50
     Davidson diagonalization with overlap

---- Real-time Memory Report at c_bands before calling an iterative solver
           558 MiB given to the printing process from OS
           283 MiB allocation reported by mallinfo(arena+hblkhd)
         45878 MiB available memory on the node where the printing process lives
------------------
     ethr =  4.21E-09,  avg # of iterations =  1.0

     negative rho (up, down):  6.551E-04 0.000E+00

     total cpu time spent up to now is      147.4 secs

     End of self-consistent calculation

          k = 0.0000 0.0000 0.0000 (185277 PWs)   bands (ev):

   -22.5964 -21.1426 -19.0682 -15.5928 -12.6275 -10.6523  -9.7023  -9.5794
    -9.1030  -8.3520  -7.5625  -7.1379  -7.0853  -0.9961  -0.3964  -0.3252
     0.0675

     occupation numbers 
     1.0000   1.0000   1.0000   1.0000   1.0000   1.0000   1.0000   1.0000
     1.0000   1.0000   1.0000   1.0000   1.0000   0.0000   0.0000   0.0000
     0.0000

          k = 0.0000 0.0000 0.0833 (185263 PWs)   bands (ev):

   -22.4749 -21.0235 -18.9551 -15.4957 -12.5595 -10.5075 -10.1463  -9.6474
    -8.9600  -8.8912  -7.6560  -7.6222  -6.9396  -1.0074  -0.2478  -0.1716
     0.2310

     occupation numbers 
     1.0000   1.0000   1.0000   1.0000   1.0000   1.0000   1.0000   1.0000
     1.0000   1.0000   1.0000   1.0000   1.0000   0.0000   0.0000   0.0000
     0.0000

          k = 0.0000 0.0000 0.1667 (185103 PWs)   bands (ev):

   -22.1115 -20.6673 -18.6168 -15.2261 -12.4015 -11.4081 -10.1315 -10.0765
    -9.7159  -8.7439  -8.5355  -8.0167  -6.5063  -1.1342   0.1844   0.2775
     0.7074

     occupation numbers 
     1.0000   1.0000   1.0000   1.0000   1.0000   1.0000   1.0000   1.0000
     1.0000   1.0000   1.0000   1.0000   1.0000   0.0000   0.0000   0.0000
     0.0000

          k = 0.0000 0.0000 0.2500 (185016 PWs)   bands (ev):

   -21.5096 -20.0783 -18.0564 -14.9354 -12.8278 -12.5897 -11.1966 -10.6351
    -9.3708  -9.3492  -8.6704  -7.8476  -5.7993  -1.6023   0.8627   0.9186
     0.9833

     occupation numbers 
     1.0000   1.0000   1.0000   1.0000   1.0000   1.0000   1.0000   1.0000
     1.0000   1.0000   1.0000   1.0000   1.0000   0.0000   0.0000   0.0000
     0.0000

          k = 0.0000 0.0000 0.3333 (185178 PWs)   bands (ev):

   -20.6765 -19.2678 -17.2818 -15.4624 -13.8910 -13.2958 -12.1567 -11.0839
    -9.5658  -9.4854  -8.4159  -6.9480  -4.8602  -2.5266  -0.1824   1.7612
     1.7943

     occupation numbers 
     1.0000   1.0000   1.0000   1.0000   1.0000   1.0000   1.0000   1.0000
     1.0000   1.0000   1.0000   1.0000   1.0000   0.0000   0.0000   0.0000
     0.0000

          k = 0.0000 0.0000 0.4167 (185414 PWs)   bands (ev):

   -19.6283 -18.2928 -16.7940 -16.3404 -15.3673 -13.7037 -12.5967 -10.6364
   -10.5720  -9.7230  -7.2731  -6.0533  -3.8814  -3.6026  -1.3891   0.1091
     2.6435

     occupation numbers 
     1.0000   1.0000   1.0000   1.0000   1.0000   1.0000   1.0000   1.0000
     1.0000   1.0000   1.0000   1.0000   1.0000   0.0000   0.0000   0.0000
     0.0000

          k = 0.0000 0.0000-0.5000 (185496 PWs)   bands (ev):

   -18.4471 -18.4072 -16.8652 -16.8257 -15.0684 -15.0137 -11.6639 -11.6439
   -10.1203 -10.1091  -6.1771  -6.1458  -3.7847  -3.7704  -1.3211  -1.2787
     3.4150

     occupation numbers 
     1.0000   1.0000   1.0000   1.0000   1.0000   1.0000   1.0000   1.0000
     1.0000   1.0000   1.0000   1.0000   0.6450   0.3550   0.0000   0.0000
     0.0000

     the Fermi energy is    -3.7775 ev

!    total energy              =    -112.96203894 Ry
     total all-electron energy =      -459.546614 Ry
     estimated scf accuracy    <       0.00000004 Ry
     smearing contrib. (-TS)   =      -0.00017551 Ry
     internal energy E=F+TS    =    -112.96186343 Ry

     The total energy is F=E-TS. E is the sum of the following terms:
     one-electron contribution =    -896.76028602 Ry
     hartree contribution      =     451.77598563 Ry
     xc contribution           =     -29.10720296 Ry
     ewald contribution        =     398.13146638 Ry
     one-center paw contrib.   =     -37.00182647 Ry
      -> PAW hartree energy AE =       9.00622500 Ry
      -> PAW hartree energy PS =      -8.99766396 Ry
      -> PAW xc energy AE      =     -10.55843024 Ry
      -> PAW xc energy PS      =       4.38277080 Ry
      -> total E_H with PAW    =     451.78454668 Ry
      -> total E_XC with PAW   =     -35.28286240 Ry

     convergence has been achieved in  17 iterations

     negative rho (up, down):  6.551E-04 0.000E+00

     Forces acting on atoms (cartesian axes, Ry/au):

     atom    1 type  1   force =     0.04610357   -0.00000320   -0.00299823
     atom    2 type  1   force =    -0.07553125   -0.00000417    0.00294782
     atom    3 type  1   force =     0.03772832   -0.00000252    0.00520167
     atom    4 type  1   force =    -0.03770330   -0.00000252   -0.00520184
     atom    5 type  1   force =     0.07548022   -0.00000403   -0.00294850
     atom    6 type  1   force =    -0.04609358   -0.00000255    0.00299990
     atom    7 type  2   force =    -0.00011848    0.00000946   -0.00001703
     atom    8 type  2   force =     0.00013449    0.00000952    0.00001621
     The non-local contrib.  to forces
     atom    1 type  1   force =     0.04946482   -0.00000317   -0.00634843
     atom    2 type  1   force =    -0.01598030   -0.00000312    0.00668929
     atom    3 type  1   force =     0.01285744   -0.00000143    0.00704316
     atom    4 type  1   force =    -0.01282225   -0.00000292   -0.00704303
     atom    5 type  1   force =     0.01598033   -0.00000301   -0.00668815
     atom    6 type  1   force =    -0.04944572   -0.00000284    0.00635009
     atom    7 type  2   force =     0.07694933   -0.00000001   -0.00000509
     atom    8 type  2   force =    -0.07695416   -0.00000000    0.00000507
     The ionic contribution  to forces
     atom    1 type  1   force =   -11.58438864    0.00000000   -0.03207874
     atom    2 type  1   force =    -7.34789027    0.00000000    0.03257920
     atom    3 type  1   force =    -1.31753783    0.00000000    0.03286521
     atom    4 type  1   force =     1.31753783    0.00000000   -0.03286521
     atom    5 type  1   force =     7.34789027    0.00000000   -0.03257920
     atom    6 type  1   force =    11.58438864    0.00000000    0.03207874
     atom    7 type  2   force =    -4.77134983    0.00000000   -0.00049446
     atom    8 type  2   force =     4.77134983    0.00000000    0.00049446
     The local contribution  to forces
     atom    1 type  1   force =    11.58042817    0.00000371    0.03518721
     atom    2 type  1   force =     7.28780976    0.00000375   -0.03607125
     atom    3 type  1   force =     1.34243940    0.00000187   -0.03446647
     atom    4 type  1   force =    -1.34276489    0.00000358    0.03446584
     atom    5 type  1   force =    -7.28824049    0.00000362    0.03607016
     atom    6 type  1   force =   -11.58047193    0.00000359   -0.03518788
     atom    7 type  2   force =     4.69431762   -0.00000004    0.00048234
     atom    8 type  2   force =    -4.69423028   -0.00000000   -0.00048245
     The core correction contribution to forces
     atom    1 type  1   force =     0.00058468   -0.00001328    0.00023503
     atom    2 type  1   force =     0.00032640   -0.00001440   -0.00024186
     atom    3 type  1   force =    -0.00019630   -0.00001298   -0.00023825
     atom    4 type  1   force =     0.00020394   -0.00001321    0.00023902
     atom    5 type  1   force =    -0.00033794   -0.00001452    0.00024245
     atom    6 type  1   force =    -0.00059068   -0.00001308   -0.00023427
     atom    7 type  2   force =     0.00000000    0.00000000    0.00000000
     atom    8 type  2   force =     0.00000000    0.00000000    0.00000000
     The Hubbard contrib.    to forces
     atom    1 type  1   force =     0.00000000    0.00000000    0.00000000
     atom    2 type  1   force =     0.00000000    0.00000000    0.00000000
     atom    3 type  1   force =     0.00000000    0.00000000    0.00000000
     atom    4 type  1   force =     0.00000000    0.00000000    0.00000000
     atom    5 type  1   force =     0.00000000    0.00000000    0.00000000
     atom    6 type  1   force =     0.00000000    0.00000000    0.00000000
     atom    7 type  2   force =     0.00000000    0.00000000    0.00000000
     atom    8 type  2   force =     0.00000000    0.00000000    0.00000000
     The SCF correction term to forces
     atom    1 type  1   force =     0.00001678    0.00000005    0.00000708
     atom    2 type  1   force =     0.00020538    0.00000011   -0.00000719
     atom    3 type  1   force =     0.00016785    0.00000054   -0.00000161
     atom    4 type  1   force =     0.00014429    0.00000054    0.00000192
     atom    5 type  1   force =     0.00019029    0.00000039    0.00000660
     atom    6 type  1   force =     0.00002834    0.00000029   -0.00000641
     atom    7 type  2   force =    -0.00003337    0.00000002    0.00000056
     atom    8 type  2   force =    -0.00002866    0.00000003   -0.00000051

     Total force =     0.136334     Total SCF correction =     0.000361


     Computing stress (Cartesian axis) and pressure


     negative rho (up, down):  6.551E-04 0.000E+00
          total   stress  (Ry/bohr**3)                   (kbar)     P=       -0.58
   0.00000113   0.00000000   0.00000009            0.17        0.00        0.01
   0.00000000  -0.00000014   0.00000000            0.00       -0.02        0.00
   0.00000009   0.00000000  -0.00001291            0.01        0.00       -1.90

     kinetic stress (kbar)    228.82     -0.00     -0.03
                               -0.00    260.68      0.00
                               -0.03      0.00    230.65

     local   stress (kbar)   -977.02      0.00     -0.38
                                0.00    949.14     -0.00
                               -0.38     -0.00  -7348.38

     nonloc. stress (kbar)     55.19      0.00      0.01
                                0.00     50.63     -0.00
                                0.01     -0.00     55.41

     hartree stress (kbar)    392.34      0.00      0.06
                                0.00   -370.01     -0.00
                                0.06     -0.00   3526.22

     exc-cor stress (kbar)     -7.24     -0.00      0.00
                               -0.00     -9.69      0.00
                                0.00      0.00     -7.14

     corecor stress (kbar)    -53.13      0.00     -0.00
                                0.00    -52.23      0.00
                               -0.00      0.00    -53.16

     ewald   stress (kbar)    361.21     -0.00      0.36
                               -0.00   -828.53      0.00
                                0.36      0.00   3594.51

     hubbard stress (kbar)      0.00      0.00      0.00
                                0.00      0.00      0.00
                                0.00      0.00      0.00

     DFT-D   stress (kbar)      0.00      0.00      0.00
                                0.00      0.00      0.00
                                0.00      0.00      0.00

     XDM     stress (kbar)      0.00      0.00      0.00
                                0.00      0.00      0.00
                                0.00      0.00      0.00

     dft-nl  stress (kbar)      0.00      0.00      0.00
                                0.00      0.00      0.00
                                0.00      0.00      0.00

     TS-vdW  stress (kbar)      0.00      0.00      0.00
                                0.00      0.00      0.00
                                0.00      0.00      0.00

     MDB     stress (kbar)      0.00      0.00      0.00
                                0.00      0.00      0.00
                                0.00      0.00      0.00

     3D-RISM stress (kbar)      0.00      0.00      0.00
                                0.00      0.00      0.00
                                0.00      0.00      0.00


     Writing all to output data dir ../tmp/ZGNR.save/ :
     XML data file, charge density, pseudopotentials, collected wavefunctions
 
     init_run     :      7.24s CPU      7.64s WALL (       1 calls)
     electrons    :    134.25s CPU    141.40s WALL (       1 calls)
     forces       :      1.87s CPU      2.04s WALL (       1 calls)
     stress       :      6.03s CPU      6.35s WALL (       1 calls)

     Called by init_run:
     wfcinit      :      1.80s CPU      1.86s WALL (       1 calls)
     wfcinit:wfcr :      1.68s CPU      1.73s WALL (       7 calls)
     potinit      :      0.82s CPU      0.95s WALL (       1 calls)
     hinit0       :      0.18s CPU      0.22s WALL (       1 calls)

     Called by electrons:
     c_bands      :     84.82s CPU     86.26s WALL (      17 calls)
     sum_band     :     25.26s CPU     26.87s WALL (      17 calls)
     v_of_rho     :     12.30s CPU     13.25s WALL (      18 calls)
     v_h          :      1.51s CPU      1.62s WALL (      18 calls)
     v_xc         :     12.00s CPU     12.91s WALL (      20 calls)
     newd         :      7.84s CPU      9.26s WALL (      18 calls)
     PAW_pot      :      0.41s CPU      0.42s WALL (      18 calls)
     mix_rho      :      3.13s CPU      3.33s WALL (      17 calls)

     Called by c_bands:
     init_us_2    :      2.84s CPU      2.88s WALL (     259 calls)
     cegterg      :     82.18s CPU     83.55s WALL (     119 calls)

     Called by sum_band:
     sum_band:wei :      0.00s CPU      0.00s WALL (      17 calls)
     sum_band:loo :     12.58s CPU     12.74s WALL (      17 calls)
     sum_band:buf :      0.25s CPU      0.26s WALL (     119 calls)
     sum_band:ini :      1.30s CPU      1.32s WALL (     119 calls)
     sum_band:cal :      0.54s CPU      0.54s WALL (     119 calls)
     sum_band:bec :      0.00s CPU      0.00s WALL (     119 calls)
     addusdens    :     10.90s CPU     12.25s WALL (      17 calls)
                                        0.00s GPU  (      17 calls)
     addusd:skk   :      0.45s CPU      0.56s WALL (      34 calls)
                                        0.00s GPU  (      34 calls)

     Called by *egterg:
     cdiaghg      :      0.52s CPU      0.53s WALL (     527 calls)
     cegterg:over :      2.73s CPU      2.75s WALL (     408 calls)
     cegterg:upda :      2.40s CPU      2.46s WALL (     408 calls)
     cegterg:last :      0.71s CPU      0.71s WALL (     126 calls)
     h_psi        :     73.71s CPU     74.76s WALL (     534 calls)
     s_psi        :      2.22s CPU      2.23s WALL (     534 calls)
     g_psi        :      0.16s CPU      0.16s WALL (     408 calls)

     Called by h_psi:
     h_psi:calbec :      1.98s CPU      2.00s WALL (     534 calls)
     vloc_psi     :     68.86s CPU     69.74s WALL (     534 calls)
     add_vuspsi   :      2.30s CPU      2.31s WALL (     534 calls)

     General routines
     calbec       :      3.03s CPU      3.06s WALL (     772 calls)
     fft          :     11.57s CPU     13.07s WALL (     257 calls)
     ffts         :      0.30s CPU      0.32s WALL (      35 calls)
     fftw         :     38.34s CPU     38.79s WALL (   12895 calls)
     interpolate  :      0.99s CPU      1.11s WALL (      18 calls)
 
     Parallel routines

     PAW routines
     PAW_pot      :      0.41s CPU      0.42s WALL (      18 calls)
 
     PWSCF        :   2m29.89s CPU   2m43.26s WALL

 
   This run was terminated on:  19:25:30   5Jan2026            

=------------------------------------------------------------------------------=
   JOB DONE.
=------------------------------------------------------------------------------=
