
     Program PWSCF v.7.4.1 starts on  1Oct2025 at 21: 5:54 

     This program is part of the open-source Quantum ESPRESSO suite
     for quantum simulation of materials; please cite
         "P. Giannozzi et al., J. Phys.:Condens. Matter 21 395502 (2009);
         "P. Giannozzi et al., J. Phys.:Condens. Matter 29 465901 (2017);
         "P. Giannozzi et al., J. Chem. Phys. 152 154105 (2020);
          URL http://www.quantum-espresso.org", 
     in publications or presentations arising from this work. More details at
     http://www.quantum-espresso.org/quote

     Serial version
     13271 MiB available memory on the printing compute node when the environment starts

     Reading input from graphene_scf.in

     Current dimensions of program PWSCF are:
     Max number of different atomic species (ntypx) = 10
     Max number of k-points (npk) =  40000
     Max angular momentum in pseudopotentials (lmaxx) =  4
     file C.pbe-n-kjpaw_psl.1.0.0.UPF: wavefunction(s)  2S 2P renormalized
     Message from routine set_cutoff:
     ecutrho < 4*ecutwfc, are you sure?
     Message from routine setup:
     using ibrav=0 with symmetry is DISCOURAGED, use correct ibrav instead


     G-vector sticks info
     --------------------
     sticks:   dense  smooth     PW     G-vecs:    dense   smooth      PW
     Sum         211     211    121                14861    14861    7091

     Using Slab Decomposition



     bravais-lattice index     =            0
     lattice parameter (alat)  =       4.6540  a.u.
     unit-cell volume          =     531.7080 (a.u.)^3
     number of atoms/cell      =            2
     number of atomic types    =            1
     number of electrons       =         8.00
     number of Kohn-Sham states=            8
     kinetic-energy cutoff     =      70.0000  Ry
     charge density cutoff     =     140.0000  Ry
     scf convergence threshold =      1.0E-08
     mixing beta               =       0.7000
     number of iterations used =            8  plain     mixing
     Exchange-correlation= SLA  PW   PBX  PBC
                           (   1   4   3   4   0   0   0)

     celldm(1)=   4.653998  celldm(2)=   0.000000  celldm(3)=   0.000000
     celldm(4)=   0.000000  celldm(5)=   0.000000  celldm(6)=   0.000000

     crystal axes: (cart. coord. in units of alat)
               a(1) = (   1.000000   0.000000   0.000000 )  
               a(2) = (  -0.500000   0.866025   0.000000 )  
               a(3) = (   0.000000   0.000000   6.090654 )  

     reciprocal axes: (cart. coord. in units 2 pi/alat)
               b(1) = (  1.000000  0.577350 -0.000000 )  
               b(2) = (  0.000000  1.154701  0.000000 )  
               b(3) = (  0.000000 -0.000000  0.164186 )  


     PseudoPot. # 1 for C  read from file:
     ../../../../pseudos/C.pbe-n-kjpaw_psl.1.0.0.UPF
     MD5 check sum: 5d2aebdfa2cae82b50a7e79e9516da0f
     Pseudo is Projector augmented-wave + core cor, Zval =  4.0
     Generated using "atomic" code by A. Dal Corso  v.5.1
     Shape of augmentation charge: PSQ
     Using radial grid of 1073 points,  4 beta functions with: 
                l(1) =   0
                l(2) =   0
                l(3) =   1
                l(4) =   1
     Q(r) pseudized with 0 coefficients 


     atomic species   valence    mass     pseudopotential
     C                 4.00    12.01070     C ( 1.00)

     24 Sym. Ops., with inversion, found (12 have fractional translation)



   Cartesian axes

     site n.     atom                  positions (alat units)
         1        C      tau(   1) = (   0.0000000   0.0000000   0.0000000  )
         2        C      tau(   2) = (   0.0000000   0.5773503   0.0000000  )

     number of k points=    19  Gaussian smearing, width (Ry)=  0.0100
                       cart. coord. in units 2pi/alat
        k(    1) = (   0.0000000   0.0000000   0.0000000), wk =   0.0138889
        k(    2) = (   0.0000000   0.0962250   0.0000000), wk =   0.0833333
        k(    3) = (   0.0000000   0.1924501   0.0000000), wk =   0.0833333
        k(    4) = (   0.0000000   0.2886751   0.0000000), wk =   0.0833333
        k(    5) = (   0.0000000   0.3849002   0.0000000), wk =   0.0833333
        k(    6) = (   0.0000000   0.4811252   0.0000000), wk =   0.0833333
        k(    7) = (   0.0000000  -0.5773503   0.0000000), wk =   0.0416667
        k(    8) = (   0.0833333   0.1443376   0.0000000), wk =   0.0833333
        k(    9) = (   0.0833333   0.2405626   0.0000000), wk =   0.1666667
        k(   10) = (   0.0833333   0.3367877   0.0000000), wk =   0.1666667
        k(   11) = (   0.0833333   0.4330127   0.0000000), wk =   0.1666667
        k(   12) = (   0.0833333   0.5292377   0.0000000), wk =   0.1666667
        k(   13) = (   0.1666667   0.2886751   0.0000000), wk =   0.0833333
        k(   14) = (   0.1666667   0.3849002   0.0000000), wk =   0.1666667
        k(   15) = (   0.1666667   0.4811252   0.0000000), wk =   0.1666667
        k(   16) = (   0.1666667   0.5773503   0.0000000), wk =   0.0833333
        k(   17) = (   0.2500000   0.4330127   0.0000000), wk =   0.0833333
        k(   18) = (   0.2500000   0.5292377   0.0000000), wk =   0.1666667
        k(   19) = (   0.3333333   0.5773503   0.0000000), wk =   0.0277778

     Dense  grid:    14861 G-vectors     FFT dimensions: (  18,  18, 108)

     Estimated max dynamical RAM per process >      34.31 MB

     Check: negative core charge=   -0.000072

     Initial potential from superposition of free atoms

     starting charge       7.9999, renormalised to       8.0000

     negative rho (up, down):  1.376E-03 0.000E+00
     Starting wfcs are    8 randomized atomic wfcs

     total cpu time spent up to now is        1.1 secs

     Self-consistent Calculation

     iteration #  1     ecut=    70.00 Ry     beta= 0.70
     Davidson diagonalization with overlap
     ethr =  1.00E-02,  avg # of iterations =  6.5

     negative rho (up, down):  3.256E-03 0.000E+00

     total cpu time spent up to now is        2.4 secs

     total energy              =     -36.86205446 Ry
     estimated scf accuracy    <       0.19377936 Ry

     iteration #  2     ecut=    70.00 Ry     beta= 0.70
     Davidson diagonalization with overlap
     ethr =  2.42E-03,  avg # of iterations =  4.1

     negative rho (up, down):  3.770E-03 0.000E+00

     total cpu time spent up to now is        3.4 secs

     total energy              =     -36.88874888 Ry
     estimated scf accuracy    <       0.00197720 Ry

     iteration #  3     ecut=    70.00 Ry     beta= 0.70
     Davidson diagonalization with overlap
     c_bands:  1 eigenvalues not converged
     c_bands:  1 eigenvalues not converged
     ethr =  2.47E-05,  avg # of iterations = 11.3

     negative rho (up, down):  3.938E-03 0.000E+00

     total cpu time spent up to now is        5.5 secs

     total energy              =     -36.88905315 Ry
     estimated scf accuracy    <       0.00015419 Ry

     iteration #  4     ecut=    70.00 Ry     beta= 0.70
     Davidson diagonalization with overlap
     ethr =  1.93E-06,  avg # of iterations =  3.7

     negative rho (up, down):  3.951E-03 0.000E+00

     total cpu time spent up to now is        6.6 secs

     total energy              =     -36.88906711 Ry
     estimated scf accuracy    <       0.00000224 Ry

     iteration #  5     ecut=    70.00 Ry     beta= 0.70
     Davidson diagonalization with overlap
     ethr =  2.80E-08,  avg # of iterations =  2.9

     negative rho (up, down):  3.951E-03 0.000E+00

     total cpu time spent up to now is        7.6 secs

     total energy              =     -36.88906829 Ry
     estimated scf accuracy    <       0.00000006 Ry

     iteration #  6     ecut=    70.00 Ry     beta= 0.70
     Davidson diagonalization with overlap
     ethr =  7.01E-10,  avg # of iterations =  2.9

     negative rho (up, down):  3.951E-03 0.000E+00

     total cpu time spent up to now is        8.5 secs

     End of self-consistent calculation

          k = 0.0000 0.0000 0.0000 (  5283 PWs)   bands (ev):

   -21.2781  -9.3639  -4.7692  -4.7692   0.8802   1.5767   1.8594   3.8849

          k = 0.0000 0.0962 0.0000 (  5251 PWs)   bands (ev):

   -21.1138  -9.1672  -5.4212  -5.1091   1.1073   1.8040   2.0851   4.1085

          k = 0.0000 0.1925 0.0000 (  5237 PWs)   bands (ev):

   -20.6227  -8.5826  -7.0628  -5.9050   1.7882   2.4850   2.7625   4.7771

          k = 0.0000 0.2887 0.0000 (  5251 PWs)   bands (ev):

   -19.8106  -9.1665  -7.6291  -6.7884   2.9220   3.6131   3.8904   5.5082

          k = 0.0000 0.3849 0.0000 (  5255 PWs)   bands (ev):

   -18.6895 -11.3753  -7.5248  -6.3570   3.2093   4.5048   5.2245   5.4578

          k = 0.0000 0.4811 0.0000 (  5270 PWs)   bands (ev):

   -17.2904 -13.4810  -7.9996  -4.9296   1.0693   5.7856   6.5455   7.2464

          k = 0.0000-0.5774 0.0000 (  5280 PWs)   bands (ev):

   -16.0211 -14.9936  -8.1626  -4.0818  -0.0327   5.7084   8.9550   9.0358

          k = 0.0833 0.1443 0.0000 (  5251 PWs)   bands (ev):

   -20.7862  -8.7765  -6.4572  -5.7894   1.5613   2.2582   2.5368   4.5551

          k = 0.0833 0.2406 0.0000 (  5240 PWs)   bands (ev):

   -20.1346  -8.1711  -8.0062  -6.7915   2.4689   3.1647   3.4401   5.4397

          k = 0.0833 0.3368 0.0000 (  5253 PWs)   bands (ev):

   -19.1678 -10.2495  -7.6810  -6.8869   3.8281   4.1986   4.5719   4.7927

          k = 0.0833 0.4330 0.0000 (  5260 PWs)   bands (ev):

   -17.9046 -12.3777  -8.3181  -5.5031   2.0203   5.6322   6.3365   6.5243

          k = 0.0833 0.5292 0.0000 (  5282 PWs)   bands (ev):

   -16.4208 -14.3249  -8.6477  -4.1891   0.2453   6.4479   7.8832   8.5636

          k = 0.1667 0.2887 0.0000 (  5262 PWs)   bands (ev):

   -19.3283  -9.5038  -8.1587  -7.0663   3.6023   4.2940   4.5688   4.6885

          k = 0.1667 0.3849 0.0000 (  5263 PWs)   bands (ev):

   -18.2181 -11.2355  -9.2182  -5.8094   2.7340   5.1843   5.8648   6.1447

          k = 0.1667 0.4811 0.0000 (  5264 PWs)   bands (ev):

   -16.8389 -13.1517  -9.7954  -4.3780   0.8148   7.2037   7.8406   8.1406

          k = 0.1667 0.5774 0.0000 (  5256 PWs)   bands (ev):

   -15.5993 -14.5926  -9.9807  -3.4819  -0.2575   8.2590   9.5732   9.6847

          k = 0.2500 0.4330 0.0000 (  5254 PWs)   bands (ev):

   -16.9871 -12.2717 -10.7072  -4.4625   1.1150   6.9806   7.5803   7.9365

          k = 0.2500 0.5292 0.0000 (  5270 PWs)   bands (ev):

   -15.5608 -13.6976 -11.4163  -3.0720  -0.4102   9.0187   9.1766  10.1294

          k = 0.3333 0.5774 0.0000 (  5268 PWs)   bands (ev):

   -14.3397 -14.3397 -12.3177  -1.7117  -1.7117   8.8548  11.0455  11.0456

     the Fermi energy is    -1.7117 ev

!    total energy              =     -36.88906831 Ry
     total all-electron energy =      -152.417264 Ry
     estimated scf accuracy    <          4.5E-10 Ry
     smearing contrib. (-TS)   =      -0.00015672 Ry
     internal energy E=F+TS    =     -36.88891159 Ry

     The total energy is F=E-TS. E is the sum of the following terms:
     one-electron contribution =    -157.19222957 Ry
     hartree contribution      =      80.21475446 Ry
     xc contribution           =      -9.28057302 Ry
     ewald contribution        =      61.70343445 Ry
     one-center paw contrib.   =     -12.33429791 Ry

     convergence has been achieved in   6 iterations

     negative rho (up, down):  3.951E-03 0.000E+00

     Forces acting on atoms (cartesian axes, Ry/au):

     atom    1 type  1   force =     0.00000000   -0.00000000    0.00000000
     atom    2 type  1   force =     0.00000000    0.00000000    0.00000000

     Total force =     0.000000     Total SCF correction =     0.000000


     Computing stress (Cartesian axis) and pressure


     negative rho (up, down):  3.951E-03 0.000E+00
          total   stress  (Ry/bohr**3)                   (kbar)     P=        8.30
   0.00007070   0.00000000   0.00000000           10.40        0.00        0.00
   0.00000000   0.00007070   0.00000000            0.00       10.40        0.00
   0.00000000   0.00000000   0.00002783            0.00        0.00        4.09


     Writing all to output data dir ./tmp/graphene.save/ :
     XML data file, charge density, pseudopotentials, collected wavefunctions

     init_run     :      1.10s CPU      0.92s WALL (       1 calls)
     electrons    :     12.31s CPU      7.46s WALL (       1 calls)
     forces       :      0.12s CPU      0.10s WALL (       1 calls)
     stress       :      0.47s CPU      0.40s WALL (       1 calls)

     Called by init_run:
     wfcinit      :      0.63s CPU      0.43s WALL (       1 calls)
     potinit      :      0.11s CPU      0.12s WALL (       1 calls)
     hinit0       :      0.34s CPU      0.35s WALL (       1 calls)

     Called by electrons:
     c_bands      :      9.87s CPU      5.95s WALL (       6 calls)
     sum_band     :      1.22s CPU      0.71s WALL (       6 calls)
     v_of_rho     :      0.23s CPU      0.14s WALL (       7 calls)
     newd         :      0.07s CPU      0.07s WALL (       7 calls)
     PAW_pot      :      0.99s CPU      0.69s WALL (       7 calls)
     mix_rho      :      0.02s CPU      0.01s WALL (       6 calls)

     Called by c_bands:
     init_us_2    :      0.53s CPU      0.32s WALL (     285 calls)
     cegterg      :      9.19s CPU      5.57s WALL (     114 calls)

     Called by *egterg:
     cdiaghg      :      0.23s CPU      0.11s WALL (     709 calls)
     h_psi        :      6.97s CPU      4.22s WALL (     728 calls)
     s_psi        :      0.28s CPU      0.21s WALL (     728 calls)
     g_psi        :      0.15s CPU      0.06s WALL (     595 calls)

     Called by h_psi:
     h_psi:calbec :      0.36s CPU      0.25s WALL (     728 calls)
     vloc_psi     :      5.98s CPU      3.45s WALL (     728 calls)
     add_vuspsi   :      0.54s CPU      0.48s WALL (     728 calls)

     General routines
     calbec       :      0.51s CPU      0.37s WALL (    1165 calls)
     fft          :      0.34s CPU      0.31s WALL (     102 calls)
     ffts         :      0.01s CPU      0.00s WALL (       6 calls)
     fftw         :      5.91s CPU      3.45s WALL (    7202 calls)


     PWSCF        :     14.21s CPU      9.09s WALL


   This run was terminated on:  21: 6: 4   1Oct2025            

=------------------------------------------------------------------------------=
   JOB DONE.
=------------------------------------------------------------------------------=
