
     Program PWSCF v.7.4.1 starts on  1Oct2025 at  7:34:49 

     This program is part of the open-source Quantum ESPRESSO suite
     for quantum simulation of materials; please cite
         "P. Giannozzi et al., J. Phys.:Condens. Matter 21 395502 (2009);
         "P. Giannozzi et al., J. Phys.:Condens. Matter 29 465901 (2017);
         "P. Giannozzi et al., J. Chem. Phys. 152 154105 (2020);
          URL http://www.quantum-espresso.org", 
     in publications or presentations arising from this work. More details at
     http://www.quantum-espresso.org/quote

     Serial version
     17759 MiB available memory on the printing compute node when the environment starts

     Reading input from graphene_scf.in

     Current dimensions of program PWSCF are:
     Max number of different atomic species (ntypx) = 10
     Max number of k-points (npk) =  40000
     Max angular momentum in pseudopotentials (lmaxx) =  4
     file C.pbe-n-kjpaw_psl.1.0.0.UPF: wavefunction(s)  2S 2P renormalized
     Message from routine setup:
     using ibrav=0 with symmetry is DISCOURAGED, use correct ibrav instead


     G-vector sticks info
     --------------------
     sticks:   dense  smooth     PW     G-vecs:    dense   smooth      PW
     Sum        1039     421    121               166325    42211    6947

     Using Slab Decomposition



     bravais-lattice index     =            0
     lattice parameter (alat)  =       4.6540  a.u.
     unit-cell volume          =     531.7080 (a.u.)^3
     number of atoms/cell      =            2
     number of atomic types    =            1
     number of electrons       =         8.00
     number of Kohn-Sham states=            8
     kinetic-energy cutoff     =      70.0000  Ry
     charge density cutoff     =     700.0000  Ry
     scf convergence threshold =      1.0E-08
     mixing beta               =       0.7000
     number of iterations used =            8  plain     mixing
     Exchange-correlation= SLA  PW   PBX  PBC
                           (   1   4   3   4   0   0   0)

     celldm(1)=   4.653998  celldm(2)=   0.000000  celldm(3)=   0.000000
     celldm(4)=   0.000000  celldm(5)=   0.000000  celldm(6)=   0.000000

     crystal axes: (cart. coord. in units of alat)
               a(1) = (   1.000000   0.000000   0.000000 )  
               a(2) = (  -0.500000   0.866025   0.000000 )  
               a(3) = (   0.000000   0.000000   6.090654 )  

     reciprocal axes: (cart. coord. in units 2 pi/alat)
               b(1) = (  1.000000  0.577350 -0.000000 )  
               b(2) = (  0.000000  1.154701  0.000000 )  
               b(3) = (  0.000000 -0.000000  0.164186 )  


     PseudoPot. # 1 for C  read from file:
     ../../../../pseudos/C.pbe-n-kjpaw_psl.1.0.0.UPF
     MD5 check sum: 5d2aebdfa2cae82b50a7e79e9516da0f
     Pseudo is Projector augmented-wave + core cor, Zval =  4.0
     Generated using "atomic" code by A. Dal Corso  v.5.1
     Shape of augmentation charge: PSQ
     Using radial grid of 1073 points,  4 beta functions with: 
                l(1) =   0
                l(2) =   0
                l(3) =   1
                l(4) =   1
     Q(r) pseudized with 0 coefficients 


     atomic species   valence    mass     pseudopotential
     C                 4.00    12.01070     C ( 1.00)

     24 Sym. Ops., with inversion, found (12 have fractional translation)



   Cartesian axes

     site n.     atom                  positions (alat units)
         1        C      tau(   1) = (   0.0000000   0.0000000   0.0000000  )
         2        C      tau(   2) = (   0.0000000   0.5773503   0.0000000  )

     number of k points=     5  Gaussian smearing, width (Ry)=  0.0100
                       cart. coord. in units 2pi/alat
        k(    1) = (   0.0000000   0.0000000   0.0000000), wk =   0.0800000
        k(    2) = (   0.0000000   0.2309401   0.0000000), wk =   0.4800000
        k(    3) = (   0.0000000   0.4618802   0.0000000), wk =   0.4800000
        k(    4) = (   0.2000000   0.3464102   0.0000000), wk =   0.4800000
        k(    5) = (   0.2000000   0.5773503   0.0000000), wk =   0.4800000

     Dense  grid:   166325 G-vectors     FFT dimensions: (  45,  45, 240)

     Smooth grid:    42211 G-vectors     FFT dimensions: (  27,  27, 160)

     Estimated max dynamical RAM per process >     234.22 MB

     Initial potential from superposition of free atoms

     starting charge       7.9999, renormalised to       8.0000

     negative rho (up, down):  2.230E-05 0.000E+00
     Starting wfcs are    8 randomized atomic wfcs

     total cpu time spent up to now is        2.9 secs

     Self-consistent Calculation

     iteration #  1     ecut=    70.00 Ry     beta= 0.70
     Davidson diagonalization with overlap
     ethr =  1.00E-02,  avg # of iterations =  5.8

     negative rho (up, down):  2.311E-05 0.000E+00

     total cpu time spent up to now is        4.5 secs

     total energy              =     -36.85883220 Ry
     estimated scf accuracy    <       0.19524489 Ry

     iteration #  2     ecut=    70.00 Ry     beta= 0.70
     Davidson diagonalization with overlap
     ethr =  2.44E-03,  avg # of iterations =  2.2

     negative rho (up, down):  3.032E-05 0.000E+00

     total cpu time spent up to now is        5.5 secs

     total energy              =     -36.88571866 Ry
     estimated scf accuracy    <       0.00194849 Ry

     iteration #  3     ecut=    70.00 Ry     beta= 0.70
     Davidson diagonalization with overlap
     c_bands:  1 eigenvalues not converged
     ethr =  2.44E-05,  avg # of iterations = 11.2

     negative rho (up, down):  3.505E-05 0.000E+00

     total cpu time spent up to now is        7.1 secs

     total energy              =     -36.88602351 Ry
     estimated scf accuracy    <       0.00015622 Ry

     iteration #  4     ecut=    70.00 Ry     beta= 0.70
     Davidson diagonalization with overlap
     ethr =  1.95E-06,  avg # of iterations =  6.2

     negative rho (up, down):  3.554E-05 0.000E+00

     total cpu time spent up to now is        8.3 secs

     total energy              =     -36.88603594 Ry
     estimated scf accuracy    <       0.00000232 Ry

     iteration #  5     ecut=    70.00 Ry     beta= 0.70
     Davidson diagonalization with overlap
     ethr =  2.90E-08,  avg # of iterations =  2.8

     negative rho (up, down):  3.555E-05 0.000E+00

     total cpu time spent up to now is        9.6 secs

     total energy              =     -36.88603712 Ry
     estimated scf accuracy    <       0.00000010 Ry

     iteration #  6     ecut=    70.00 Ry     beta= 0.70
     Davidson diagonalization with overlap
     ethr =  1.23E-09,  avg # of iterations =  2.0

     negative rho (up, down):  3.555E-05 0.000E+00

     total cpu time spent up to now is       11.0 secs

     End of self-consistent calculation

          k = 0.0000 0.0000 0.0000 (  5283 PWs)   bands (ev):

   -21.2507  -9.3420  -4.7406  -4.7406   1.5232   2.4170   2.8464   4.7447

          k = 0.0000 0.2309 0.0000 (  5233 PWs)   bands (ev):

   -20.3085  -8.2219  -7.8453  -6.2364   2.8106   3.7113   4.1563   6.0212

          k = 0.0000 0.4619 0.0000 (  5276 PWs)   bands (ev):

   -17.5613 -13.0491  -7.9009  -5.1877   1.4808   5.8419   6.6731   7.5904

          k = 0.2000 0.3464 0.0000 (  5266 PWs)   bands (ev):

   -18.4612 -10.6524  -9.1838  -6.0867   3.2261   5.3772   6.2600   6.7767

          k = 0.2000 0.5774 0.0000 (  5254 PWs)   bands (ev):

   -15.3858 -14.4074 -10.5645  -3.1988  -0.3882   9.1767   9.6441  10.2081

     the Fermi energy is    -1.2488 ev

!    total energy              =     -36.88603715 Ry
     total all-electron energy =      -152.414233 Ry
     estimated scf accuracy    <          6.1E-10 Ry
     smearing contrib. (-TS)   =      -0.00000000 Ry
     internal energy E=F+TS    =     -36.88603715 Ry

     The total energy is F=E-TS. E is the sum of the following terms:
     one-electron contribution =    -157.20587677 Ry
     hartree contribution      =      80.23190288 Ry
     xc contribution           =      -9.28147538 Ry
     ewald contribution        =      61.70343446 Ry
     one-center paw contrib.   =     -12.33402234 Ry

     convergence has been achieved in   6 iterations

     negative rho (up, down):  3.555E-05 0.000E+00

     Forces acting on atoms (cartesian axes, Ry/au):

     atom    1 type  1   force =     0.00000000   -0.00000000    0.00000000
     atom    2 type  1   force =     0.00000000    0.00000000    0.00000000

     Total force =     0.000000     Total SCF correction =     0.000000


     Computing stress (Cartesian axis) and pressure


     negative rho (up, down):  3.555E-05 0.000E+00
          total   stress  (Ry/bohr**3)                   (kbar)     P=        3.65
   0.00003809   0.00000000   0.00000000            5.60        0.00        0.00
   0.00000000   0.00003809   0.00000000            0.00        5.60        0.00
   0.00000000   0.00000000  -0.00000174            0.00        0.00       -0.26


     Writing all to output data dir ./tmp/graphene.save/ :
     XML data file, charge density, pseudopotentials, collected wavefunctions

     init_run     :      2.40s CPU      2.72s WALL (       1 calls)
     electrons    :     10.59s CPU      8.05s WALL (       1 calls)
     forces       :      0.47s CPU      0.55s WALL (       1 calls)
     stress       :      1.49s CPU      1.74s WALL (       1 calls)

     Called by init_run:
     wfcinit      :      0.57s CPU      0.70s WALL (       1 calls)
     potinit      :      0.79s CPU      0.90s WALL (       1 calls)
     hinit0       :      0.90s CPU      0.93s WALL (       1 calls)

     Called by electrons:
     c_bands      :      6.22s CPU      4.10s WALL (       6 calls)
     sum_band     :      2.26s CPU      1.42s WALL (       6 calls)
     v_of_rho     :      1.18s CPU      1.36s WALL (       7 calls)
     newd         :      0.62s CPU      0.89s WALL (       7 calls)
     PAW_pot      :      0.51s CPU      0.53s WALL (       7 calls)
     mix_rho      :      0.11s CPU      0.11s WALL (       6 calls)

     Called by c_bands:
     init_us_2    :      0.11s CPU      0.08s WALL (      75 calls)
     cegterg      :      6.07s CPU      4.01s WALL (      30 calls)

     Called by *egterg:
     cdiaghg      :      0.06s CPU      0.03s WALL (     181 calls)
     h_psi        :      5.90s CPU      4.24s WALL (     186 calls)
     s_psi        :      0.12s CPU      0.12s WALL (     186 calls)
     g_psi        :      0.04s CPU      0.01s WALL (     151 calls)

     Called by h_psi:
     h_psi:calbec :      0.09s CPU      0.06s WALL (     186 calls)
     vloc_psi     :      5.49s CPU      3.57s WALL (     186 calls)
     add_vuspsi   :      0.29s CPU      0.60s WALL (     186 calls)

     General routines
     calbec       :      0.13s CPU      0.09s WALL (     301 calls)
     fft          :      1.53s CPU      1.51s WALL (     114 calls)
     ffts         :      0.41s CPU      0.46s WALL (      13 calls)
     fftw         :      4.28s CPU      2.89s WALL (    1854 calls)
     interpolate  :      0.45s CPU      0.51s WALL (       7 calls)


     PWSCF        :     15.13s CPU     13.31s WALL


   This run was terminated on:   7:35: 2   1Oct2025            

=------------------------------------------------------------------------------=
   JOB DONE.
=------------------------------------------------------------------------------=
