
     Program PWSCF v.7.4.1 starts on  5Jan2026 at 19:33:24 

     This program is part of the open-source Quantum ESPRESSO suite
     for quantum simulation of materials; please cite
         "P. Giannozzi et al., J. Phys.:Condens. Matter 21 395502 (2009);
         "P. Giannozzi et al., J. Phys.:Condens. Matter 29 465901 (2017);
         "P. Giannozzi et al., J. Chem. Phys. 152 154105 (2020);
          URL http://www.quantum-espresso.org", 
     in publications or presentations arising from this work. More details at
     http://www.quantum-espresso.org/quote

     Parallel version (MPI), running on    20 processors

     MPI processes distributed on     1 nodes
     38722 MiB available memory on the printing compute node when the environment starts
 
     Reading input from 4-zgnr_nscf.in

     Current dimensions of program PWSCF are:
     Max number of different atomic species (ntypx) = 10
     Max number of k-points (npk) =  40000
     Max angular momentum in pseudopotentials (lmaxx) =  4
     Message from routine input:
     WARNING: "startingwfc" set to random may spoil restart
     file C.pbe-n-kjpaw_psl.1.0.0.UPF: wavefunction(s)  2S 2P renormalized
     file H.pbe-kjpaw_psl.1.0.0.UPF: wavefunction(s)  1S renormalized
 
     R & G space division:  proc/nbgrp/npool/nimage =      20
     Subspace diagonalization in iterative solution of the eigenvalue problem:
     a serial algorithm will be used

 
     Parallelization info
     --------------------
     sticks:   dense  smooth     PW     G-vecs:    dense   smooth      PW
     Min         970     389    112               309751    78409   12350
     Max         972     390    113               309757    78417   12363
     Sum       19405    7789   2255              6195059  1568223  247137
 
     Using Slab Decomposition
 


     bravais-lattice index     =            0
     lattice parameter (alat)  =       4.6761  a.u.
     unit-cell volume          =   19805.0950 (a.u.)^3
     number of atoms/cell      =           10
     number of atomic types    =            2
     number of electrons       =        34.00
     number of Kohn-Sham states=           21
     kinetic-energy cutoff     =      70.0000  Ry
     charge density cutoff     =     700.0000  Ry
     Exchange-correlation= SLA  PW   PBX  PBC
                           (   1   4   3   4   0   0   0)

     celldm(1)=   4.676134  celldm(2)=   0.000000  celldm(3)=   0.000000
     celldm(4)=   0.000000  celldm(5)=   0.000000  celldm(6)=   0.000000

     crystal axes: (cart. coord. in units of alat)
               a(1) = (   0.000000   0.000000   1.000000 )  
               a(2) = (  15.929660   0.000000   0.000000 )  
               a(3) = (   0.000000  12.159330   0.000000 )  

     reciprocal axes: (cart. coord. in units 2 pi/alat)
               b(1) = (  0.000000  0.000000  1.000000 )  
               b(2) = (  0.062776  0.000000  0.000000 )  
               b(3) = (  0.000000  0.082241  0.000000 )  


     PseudoPot. # 1 for C  read from file:
     ../../../PP_C/C.pbe-n-kjpaw_psl.1.0.0.UPF
     MD5 check sum: 5f16ad9a65e90284d1d834d4ab3b0f7d
     Pseudo is Projector augmented-wave + core cor, Zval =  4.0
     Generated using &quot;atomic&quot; code by A. Dal Corso  v.6.3
     Shape of augmentation charge: PSQ
     Using radial grid of 1073 points,  4 beta functions with: 
                l(1) =   0
                l(2) =   0
                l(3) =   1
                l(4) =   1
     Q(r) pseudized with 0 coefficients 


     PseudoPot. # 2 for H  read from file:
     ../../../PP_C/H.pbe-kjpaw_psl.1.0.0.UPF
     MD5 check sum: d81a744832360e4a8af0b0b5b123bc2a
     Pseudo is Projector augmented-wave, Zval =  1.0
     Generated using &quot;atomic&quot; code by A. Dal Corso  v.6.3MaX
     Shape of augmentation charge: PSQ
     Using radial grid of  929 points,  2 beta functions with: 
                l(1) =   0
                l(2) =   0
     Q(r) pseudized with 0 coefficients 


     atomic species   valence    mass     pseudopotential
     C                 4.00    12.01100     C ( 1.00)
     H                 1.00     1.00790     H ( 1.00)

     No symmetry found


                                    s                        frac. trans.

      isym =  1     identity                                     

 cryst.   s( 1) = (     1          0          0      )
                  (     0          1          0      )
                  (     0          0          1      )

 cart.    s( 1) = (  1.0000000  0.0000000  0.0000000 )
                  (  0.0000000  1.0000000  0.0000000 )
                  (  0.0000000  0.0000000  1.0000000 )


   Cartesian axes

     site n.     atom                  positions (alat units)
         1        C      tau(   1) = (   6.5023148   6.0618223   0.0000000  )
         2        C      tau(   2) = (   6.7901427   6.0618223   0.4985326  )
         3        C      tau(   3) = (   7.3657985   6.0618223   0.4985326  )
         4        C      tau(   4) = (   7.6536264   6.0618223   0.0000000  )
         5        C      tau(   5) = (   8.2292823   6.0618223   0.0000000  )
         6        C      tau(   6) = (   8.5171102   6.0618223   0.4985326  )
         7        C      tau(   7) = (   9.0927660   6.0618223   0.4985326  )
         8        C      tau(   8) = (   9.3805939   6.0618223   0.0000000  )
         9        H      tau(   9) = (   6.0618223   6.0618223   0.0000000  )
        10        H      tau(  10) = (   9.8210864   6.0618223   0.0000000  )

   Crystallographic axes

     site n.     atom                  positions (cryst. coord.)
         1        C      tau(   1) = (  0.0000000  0.4081892  0.4985326  )
         2        C      tau(   2) = (  0.4985326  0.4262579  0.4985326  )
         3        C      tau(   3) = (  0.4985326  0.4623952  0.4985326  )
         4        C      tau(   4) = (  0.0000000  0.4804639  0.4985326  )
         5        C      tau(   5) = (  0.0000000  0.5166013  0.4985326  )
         6        C      tau(   6) = (  0.4985326  0.5346699  0.4985326  )
         7        C      tau(   7) = (  0.4985326  0.5708073  0.4985326  )
         8        C      tau(   8) = (  0.0000000  0.5888760  0.4985326  )
         9        H      tau(   9) = (  0.0000000  0.3805368  0.4985326  )
        10        H      tau(  10) = (  0.0000000  0.6165283  0.4985326  )

     number of k points=    76  Gaussian smearing, width (Ry)=  0.0020
                       cart. coord. in units 2pi/alat
        k(    1) = (   0.0000000   0.0000000   0.0000000), wk =   0.0133333
        k(    2) = (   0.0000000   0.0000000   0.0066667), wk =   0.0266667
        k(    3) = (   0.0000000   0.0000000   0.0133333), wk =   0.0266667
        k(    4) = (   0.0000000   0.0000000   0.0200000), wk =   0.0266667
        k(    5) = (   0.0000000   0.0000000   0.0266667), wk =   0.0266667
        k(    6) = (   0.0000000   0.0000000   0.0333333), wk =   0.0266667
        k(    7) = (   0.0000000   0.0000000   0.0400000), wk =   0.0266667
        k(    8) = (   0.0000000   0.0000000   0.0466667), wk =   0.0266667
        k(    9) = (   0.0000000   0.0000000   0.0533333), wk =   0.0266667
        k(   10) = (   0.0000000   0.0000000   0.0600000), wk =   0.0266667
        k(   11) = (   0.0000000   0.0000000   0.0666667), wk =   0.0266667
        k(   12) = (   0.0000000   0.0000000   0.0733333), wk =   0.0266667
        k(   13) = (   0.0000000   0.0000000   0.0800000), wk =   0.0266667
        k(   14) = (   0.0000000   0.0000000   0.0866667), wk =   0.0266667
        k(   15) = (   0.0000000   0.0000000   0.0933333), wk =   0.0266667
        k(   16) = (   0.0000000   0.0000000   0.1000000), wk =   0.0266667
        k(   17) = (   0.0000000   0.0000000   0.1066667), wk =   0.0266667
        k(   18) = (   0.0000000   0.0000000   0.1133333), wk =   0.0266667
        k(   19) = (   0.0000000   0.0000000   0.1200000), wk =   0.0266667
        k(   20) = (   0.0000000   0.0000000   0.1266667), wk =   0.0266667
        k(   21) = (   0.0000000   0.0000000   0.1333333), wk =   0.0266667
        k(   22) = (   0.0000000   0.0000000   0.1400000), wk =   0.0266667
        k(   23) = (   0.0000000   0.0000000   0.1466667), wk =   0.0266667
        k(   24) = (   0.0000000   0.0000000   0.1533333), wk =   0.0266667
        k(   25) = (   0.0000000   0.0000000   0.1600000), wk =   0.0266667
        k(   26) = (   0.0000000   0.0000000   0.1666667), wk =   0.0266667
        k(   27) = (   0.0000000   0.0000000   0.1733333), wk =   0.0266667
        k(   28) = (   0.0000000   0.0000000   0.1800000), wk =   0.0266667
        k(   29) = (   0.0000000   0.0000000   0.1866667), wk =   0.0266667
        k(   30) = (   0.0000000   0.0000000   0.1933333), wk =   0.0266667
        k(   31) = (   0.0000000   0.0000000   0.2000000), wk =   0.0266667
        k(   32) = (   0.0000000   0.0000000   0.2066667), wk =   0.0266667
        k(   33) = (   0.0000000   0.0000000   0.2133333), wk =   0.0266667
        k(   34) = (   0.0000000   0.0000000   0.2200000), wk =   0.0266667
        k(   35) = (   0.0000000   0.0000000   0.2266667), wk =   0.0266667
        k(   36) = (   0.0000000   0.0000000   0.2333333), wk =   0.0266667
        k(   37) = (   0.0000000   0.0000000   0.2400000), wk =   0.0266667
        k(   38) = (   0.0000000   0.0000000   0.2466667), wk =   0.0266667
        k(   39) = (   0.0000000   0.0000000   0.2533333), wk =   0.0266667
        k(   40) = (   0.0000000   0.0000000   0.2600000), wk =   0.0266667
        k(   41) = (   0.0000000   0.0000000   0.2666667), wk =   0.0266667
        k(   42) = (   0.0000000   0.0000000   0.2733333), wk =   0.0266667
        k(   43) = (   0.0000000   0.0000000   0.2800000), wk =   0.0266667
        k(   44) = (   0.0000000   0.0000000   0.2866667), wk =   0.0266667
        k(   45) = (   0.0000000   0.0000000   0.2933333), wk =   0.0266667
        k(   46) = (   0.0000000   0.0000000   0.3000000), wk =   0.0266667
        k(   47) = (   0.0000000   0.0000000   0.3066667), wk =   0.0266667
        k(   48) = (   0.0000000   0.0000000   0.3133333), wk =   0.0266667
        k(   49) = (   0.0000000   0.0000000   0.3200000), wk =   0.0266667
        k(   50) = (   0.0000000   0.0000000   0.3266667), wk =   0.0266667
        k(   51) = (   0.0000000   0.0000000   0.3333333), wk =   0.0266667
        k(   52) = (   0.0000000   0.0000000   0.3400000), wk =   0.0266667
        k(   53) = (   0.0000000   0.0000000   0.3466667), wk =   0.0266667
        k(   54) = (   0.0000000   0.0000000   0.3533333), wk =   0.0266667
        k(   55) = (   0.0000000   0.0000000   0.3600000), wk =   0.0266667
        k(   56) = (   0.0000000   0.0000000   0.3666667), wk =   0.0266667
        k(   57) = (   0.0000000   0.0000000   0.3733333), wk =   0.0266667
        k(   58) = (   0.0000000   0.0000000   0.3800000), wk =   0.0266667
        k(   59) = (   0.0000000   0.0000000   0.3866667), wk =   0.0266667
        k(   60) = (   0.0000000   0.0000000   0.3933333), wk =   0.0266667
        k(   61) = (   0.0000000   0.0000000   0.4000000), wk =   0.0266667
        k(   62) = (   0.0000000   0.0000000   0.4066667), wk =   0.0266667
        k(   63) = (   0.0000000   0.0000000   0.4133333), wk =   0.0266667
        k(   64) = (   0.0000000   0.0000000   0.4200000), wk =   0.0266667
        k(   65) = (   0.0000000   0.0000000   0.4266667), wk =   0.0266667
        k(   66) = (   0.0000000   0.0000000   0.4333333), wk =   0.0266667
        k(   67) = (   0.0000000   0.0000000   0.4400000), wk =   0.0266667
        k(   68) = (   0.0000000   0.0000000   0.4466667), wk =   0.0266667
        k(   69) = (   0.0000000   0.0000000   0.4533333), wk =   0.0266667
        k(   70) = (   0.0000000   0.0000000   0.4600000), wk =   0.0266667
        k(   71) = (   0.0000000   0.0000000   0.4666667), wk =   0.0266667
        k(   72) = (   0.0000000   0.0000000   0.4733333), wk =   0.0266667
        k(   73) = (   0.0000000   0.0000000   0.4800000), wk =   0.0266667
        k(   74) = (   0.0000000   0.0000000   0.4866667), wk =   0.0266667
        k(   75) = (   0.0000000   0.0000000   0.4933333), wk =   0.0266667
        k(   76) = (   0.0000000   0.0000000  -0.5000000), wk =   0.0133333

                       cryst. coord.
        k(    1) = (   0.0000000   0.0000000   0.0000000), wk =   0.0133333
        k(    2) = (   0.0066667   0.0000000   0.0000000), wk =   0.0266667
        k(    3) = (   0.0133333   0.0000000   0.0000000), wk =   0.0266667
        k(    4) = (   0.0200000   0.0000000   0.0000000), wk =   0.0266667
        k(    5) = (   0.0266667   0.0000000   0.0000000), wk =   0.0266667
        k(    6) = (   0.0333333   0.0000000   0.0000000), wk =   0.0266667
        k(    7) = (   0.0400000   0.0000000   0.0000000), wk =   0.0266667
        k(    8) = (   0.0466667   0.0000000   0.0000000), wk =   0.0266667
        k(    9) = (   0.0533333   0.0000000   0.0000000), wk =   0.0266667
        k(   10) = (   0.0600000   0.0000000   0.0000000), wk =   0.0266667
        k(   11) = (   0.0666667   0.0000000   0.0000000), wk =   0.0266667
        k(   12) = (   0.0733333   0.0000000   0.0000000), wk =   0.0266667
        k(   13) = (   0.0800000   0.0000000   0.0000000), wk =   0.0266667
        k(   14) = (   0.0866667   0.0000000   0.0000000), wk =   0.0266667
        k(   15) = (   0.0933333   0.0000000   0.0000000), wk =   0.0266667
        k(   16) = (   0.1000000   0.0000000   0.0000000), wk =   0.0266667
        k(   17) = (   0.1066667   0.0000000   0.0000000), wk =   0.0266667
        k(   18) = (   0.1133333   0.0000000   0.0000000), wk =   0.0266667
        k(   19) = (   0.1200000   0.0000000   0.0000000), wk =   0.0266667
        k(   20) = (   0.1266667   0.0000000   0.0000000), wk =   0.0266667
        k(   21) = (   0.1333333   0.0000000   0.0000000), wk =   0.0266667
        k(   22) = (   0.1400000   0.0000000   0.0000000), wk =   0.0266667
        k(   23) = (   0.1466667   0.0000000   0.0000000), wk =   0.0266667
        k(   24) = (   0.1533333   0.0000000   0.0000000), wk =   0.0266667
        k(   25) = (   0.1600000   0.0000000   0.0000000), wk =   0.0266667
        k(   26) = (   0.1666667   0.0000000   0.0000000), wk =   0.0266667
        k(   27) = (   0.1733333   0.0000000   0.0000000), wk =   0.0266667
        k(   28) = (   0.1800000   0.0000000   0.0000000), wk =   0.0266667
        k(   29) = (   0.1866667   0.0000000   0.0000000), wk =   0.0266667
        k(   30) = (   0.1933333   0.0000000   0.0000000), wk =   0.0266667
        k(   31) = (   0.2000000   0.0000000   0.0000000), wk =   0.0266667
        k(   32) = (   0.2066667   0.0000000   0.0000000), wk =   0.0266667
        k(   33) = (   0.2133333   0.0000000   0.0000000), wk =   0.0266667
        k(   34) = (   0.2200000   0.0000000   0.0000000), wk =   0.0266667
        k(   35) = (   0.2266667   0.0000000   0.0000000), wk =   0.0266667
        k(   36) = (   0.2333333   0.0000000   0.0000000), wk =   0.0266667
        k(   37) = (   0.2400000   0.0000000   0.0000000), wk =   0.0266667
        k(   38) = (   0.2466667   0.0000000   0.0000000), wk =   0.0266667
        k(   39) = (   0.2533333   0.0000000   0.0000000), wk =   0.0266667
        k(   40) = (   0.2600000   0.0000000   0.0000000), wk =   0.0266667
        k(   41) = (   0.2666667   0.0000000   0.0000000), wk =   0.0266667
        k(   42) = (   0.2733333   0.0000000   0.0000000), wk =   0.0266667
        k(   43) = (   0.2800000   0.0000000   0.0000000), wk =   0.0266667
        k(   44) = (   0.2866667   0.0000000   0.0000000), wk =   0.0266667
        k(   45) = (   0.2933333   0.0000000   0.0000000), wk =   0.0266667
        k(   46) = (   0.3000000   0.0000000   0.0000000), wk =   0.0266667
        k(   47) = (   0.3066667   0.0000000   0.0000000), wk =   0.0266667
        k(   48) = (   0.3133333   0.0000000   0.0000000), wk =   0.0266667
        k(   49) = (   0.3200000   0.0000000   0.0000000), wk =   0.0266667
        k(   50) = (   0.3266667   0.0000000   0.0000000), wk =   0.0266667
        k(   51) = (   0.3333333   0.0000000   0.0000000), wk =   0.0266667
        k(   52) = (   0.3400000   0.0000000   0.0000000), wk =   0.0266667
        k(   53) = (   0.3466667   0.0000000   0.0000000), wk =   0.0266667
        k(   54) = (   0.3533333   0.0000000   0.0000000), wk =   0.0266667
        k(   55) = (   0.3600000   0.0000000   0.0000000), wk =   0.0266667
        k(   56) = (   0.3666667   0.0000000   0.0000000), wk =   0.0266667
        k(   57) = (   0.3733333   0.0000000   0.0000000), wk =   0.0266667
        k(   58) = (   0.3800000   0.0000000   0.0000000), wk =   0.0266667
        k(   59) = (   0.3866667   0.0000000   0.0000000), wk =   0.0266667
        k(   60) = (   0.3933333   0.0000000   0.0000000), wk =   0.0266667
        k(   61) = (   0.4000000   0.0000000   0.0000000), wk =   0.0266667
        k(   62) = (   0.4066667   0.0000000   0.0000000), wk =   0.0266667
        k(   63) = (   0.4133333   0.0000000   0.0000000), wk =   0.0266667
        k(   64) = (   0.4200000   0.0000000   0.0000000), wk =   0.0266667
        k(   65) = (   0.4266667   0.0000000   0.0000000), wk =   0.0266667
        k(   66) = (   0.4333333   0.0000000   0.0000000), wk =   0.0266667
        k(   67) = (   0.4400000   0.0000000   0.0000000), wk =   0.0266667
        k(   68) = (   0.4466667   0.0000000   0.0000000), wk =   0.0266667
        k(   69) = (   0.4533333   0.0000000   0.0000000), wk =   0.0266667
        k(   70) = (   0.4600000   0.0000000   0.0000000), wk =   0.0266667
        k(   71) = (   0.4666667   0.0000000   0.0000000), wk =   0.0266667
        k(   72) = (   0.4733333   0.0000000   0.0000000), wk =   0.0266667
        k(   73) = (   0.4800000   0.0000000   0.0000000), wk =   0.0266667
        k(   74) = (   0.4866667   0.0000000   0.0000000), wk =   0.0266667
        k(   75) = (   0.4933333   0.0000000   0.0000000), wk =   0.0266667
        k(   76) = (  -0.5000000   0.0000000   0.0000000), wk =   0.0133333

     Dense  grid:  6195059 G-vectors     FFT dimensions: (  40, 640, 480)

     Smooth grid:  1568223 G-vectors     FFT dimensions: (  25, 400, 320)

     Dynamical RAM for                 wfc:       3.14 MB

     Dynamical RAM for     wfc (w. buffer):       3.14 MB

     Dynamical RAM for           str. fact:       9.45 MB

     Dynamical RAM for           local pot:       0.00 MB

     Dynamical RAM for          nlocal pot:      10.16 MB

     Dynamical RAM for                qrad:       1.21 MB

     Dynamical RAM for          rho,v,vnew:      28.24 MB

     Dynamical RAM for           G-vectors:      18.32 MB

     Dynamical RAM for          h,s,v(r/c):       1.29 MB

     Dynamical RAM for          <psi|beta>:       0.02 MB

     Dynamical RAM for                 psi:      25.10 MB

     Dynamical RAM for                hpsi:      25.10 MB

     Dynamical RAM for                spsi:      25.10 MB

     Dynamical RAM for      wfcinit/wfcrot:       6.29 MB

     Dynamical RAM for           addusdens:     241.05 MB

     Estimated static dynamical RAM per process >     108.15 MB

     Estimated max dynamical RAM per process >     349.20 MB

     Estimated total dynamical RAM >       6.82 GB

     Atomic positions and unit cell read from directory:
     ../tmp/ZGNR.save/
 

     The potential is recalculated from file :
     ../tmp/ZGNR.save/charge-density


     negative rho (up, down):  7.598E-04 0.000E+00
     Starting wfcs are random
     Checking if some PAW data can be deallocated... 
       PAW data deallocated on    4 nodes for type:  1
       PAW data deallocated on   16 nodes for type:  2

     Band Structure Calculation
     Davidson diagonalization with overlap

     Computing kpt #:     1  of    76
     total cpu time spent up to now is       17.3 secs

     Computing kpt #:     2  of    76
     total cpu time spent up to now is       28.1 secs

     Computing kpt #:     3  of    76
     total cpu time spent up to now is       38.6 secs

     Computing kpt #:     4  of    76
     total cpu time spent up to now is       49.4 secs

     Computing kpt #:     5  of    76
     total cpu time spent up to now is       60.4 secs

     Computing kpt #:     6  of    76
     total cpu time spent up to now is       71.8 secs

     Computing kpt #:     7  of    76
     total cpu time spent up to now is       82.6 secs

     Computing kpt #:     8  of    76
     total cpu time spent up to now is       93.3 secs

     Computing kpt #:     9  of    76
     total cpu time spent up to now is      104.1 secs

     Computing kpt #:    10  of    76
     total cpu time spent up to now is      114.8 secs

     Computing kpt #:    11  of    76
     total cpu time spent up to now is      125.5 secs

     Computing kpt #:    12  of    76
     total cpu time spent up to now is      136.5 secs

     Computing kpt #:    13  of    76
     total cpu time spent up to now is      147.2 secs

     Computing kpt #:    14  of    76
     total cpu time spent up to now is      157.9 secs

     Computing kpt #:    15  of    76
     total cpu time spent up to now is      168.9 secs

     Computing kpt #:    16  of    76
     total cpu time spent up to now is      180.7 secs

     Computing kpt #:    17  of    76
     total cpu time spent up to now is      191.2 secs

     Computing kpt #:    18  of    76
     total cpu time spent up to now is      201.7 secs

     Computing kpt #:    19  of    76
     total cpu time spent up to now is      212.4 secs

     Computing kpt #:    20  of    76
     total cpu time spent up to now is      223.1 secs

     Computing kpt #:    21  of    76
     total cpu time spent up to now is      233.5 secs

     Computing kpt #:    22  of    76
     total cpu time spent up to now is      244.2 secs

     Computing kpt #:    23  of    76
     total cpu time spent up to now is      255.3 secs

     Computing kpt #:    24  of    76
     total cpu time spent up to now is      266.6 secs

     Computing kpt #:    25  of    76
     total cpu time spent up to now is      277.3 secs

     Computing kpt #:    26  of    76
     total cpu time spent up to now is      287.8 secs

     Computing kpt #:    27  of    76
     total cpu time spent up to now is      298.0 secs

     Computing kpt #:    28  of    76
     total cpu time spent up to now is      308.3 secs

     Computing kpt #:    29  of    76
     total cpu time spent up to now is      317.6 secs

     Computing kpt #:    30  of    76
     total cpu time spent up to now is      327.0 secs

     Computing kpt #:    31  of    76
     total cpu time spent up to now is      336.3 secs

     Computing kpt #:    32  of    76
     total cpu time spent up to now is      345.6 secs

     Computing kpt #:    33  of    76
     total cpu time spent up to now is      354.8 secs

     Computing kpt #:    34  of    76
     total cpu time spent up to now is      363.9 secs

     Computing kpt #:    35  of    76
     total cpu time spent up to now is      372.9 secs

     Computing kpt #:    36  of    76
     total cpu time spent up to now is      381.9 secs

     Computing kpt #:    37  of    76
     total cpu time spent up to now is      390.8 secs

     Computing kpt #:    38  of    76
     total cpu time spent up to now is      399.6 secs

     Computing kpt #:    39  of    76
     total cpu time spent up to now is      410.4 secs

     Computing kpt #:    40  of    76
     total cpu time spent up to now is      419.2 secs

     Computing kpt #:    41  of    76
     total cpu time spent up to now is      428.0 secs

     Computing kpt #:    42  of    76
     total cpu time spent up to now is      437.0 secs

     Computing kpt #:    43  of    76
     total cpu time spent up to now is      445.8 secs

     Computing kpt #:    44  of    76
     total cpu time spent up to now is      454.9 secs

     Computing kpt #:    45  of    76
     total cpu time spent up to now is      465.4 secs

     Computing kpt #:    46  of    76
     total cpu time spent up to now is      475.5 secs

     Computing kpt #:    47  of    76
     total cpu time spent up to now is      487.3 secs

     Computing kpt #:    48  of    76
     total cpu time spent up to now is      497.2 secs

     Computing kpt #:    49  of    76
     total cpu time spent up to now is      507.1 secs

     Computing kpt #:    50  of    76
     total cpu time spent up to now is      516.8 secs

     Computing kpt #:    51  of    76
     total cpu time spent up to now is      526.2 secs

     Computing kpt #:    52  of    76
     total cpu time spent up to now is      536.1 secs

     Computing kpt #:    53  of    76
     total cpu time spent up to now is      545.8 secs

     Computing kpt #:    54  of    76
     total cpu time spent up to now is      554.1 secs

     Computing kpt #:    55  of    76
     total cpu time spent up to now is      564.0 secs

     Computing kpt #:    56  of    76
     total cpu time spent up to now is      571.8 secs

     Computing kpt #:    57  of    76
     total cpu time spent up to now is      579.7 secs

     Computing kpt #:    58  of    76
     total cpu time spent up to now is      587.3 secs

     Computing kpt #:    59  of    76
     total cpu time spent up to now is      595.0 secs

     Computing kpt #:    60  of    76
     total cpu time spent up to now is      602.7 secs

     Computing kpt #:    61  of    76
     total cpu time spent up to now is      609.5 secs

     Computing kpt #:    62  of    76
     total cpu time spent up to now is      616.5 secs

     Computing kpt #:    63  of    76
     total cpu time spent up to now is      623.4 secs

     Computing kpt #:    64  of    76
     total cpu time spent up to now is      630.3 secs

     Computing kpt #:    65  of    76
     total cpu time spent up to now is      637.2 secs

     Computing kpt #:    66  of    76
     total cpu time spent up to now is      644.0 secs

     Computing kpt #:    67  of    76
     total cpu time spent up to now is      651.5 secs

     Computing kpt #:    68  of    76
     total cpu time spent up to now is      658.3 secs

     Computing kpt #:    69  of    76
     total cpu time spent up to now is      665.1 secs

     Computing kpt #:    70  of    76
     total cpu time spent up to now is      671.8 secs

     Computing kpt #:    71  of    76
     total cpu time spent up to now is      678.6 secs

     Computing kpt #:    72  of    76
     total cpu time spent up to now is      685.2 secs

     Computing kpt #:    73  of    76
     total cpu time spent up to now is      691.9 secs

     Computing kpt #:    74  of    76
     total cpu time spent up to now is      698.7 secs

     Computing kpt #:    75  of    76
     total cpu time spent up to now is      705.4 secs

     Computing kpt #:    76  of    76
     total cpu time spent up to now is      712.0 secs

     ethr =  2.94E-09,  avg # of iterations = 38.1

     total cpu time spent up to now is      712.0 secs

     End of band structure calculation

          k = 0.0000 0.0000 0.0000 (195953 PWs)   bands (ev):

   -22.8120 -21.8922 -20.4916 -18.7937 -15.8800 -13.5705 -11.0835 -10.8792
    -9.8672  -9.7835  -8.9530  -8.8653  -8.3859  -7.8695  -7.3128  -7.0054
    -6.7804  -1.2231  -0.3782  -0.2977  -0.0139

     occupation numbers 
     1.0000   1.0000   1.0000   1.0000   1.0000   1.0000   1.0000   1.0000
     1.0000   1.0000   1.0000   1.0000   1.0000   1.0000   1.0000   1.0000
     1.0000   0.0000   0.0000   0.0000   0.0000

          k = 0.0000 0.0000 0.0067 (195933 PWs)   bands (ev):

   -22.8112 -21.8915 -20.4908 -18.7930 -15.8794 -13.5700 -11.0833 -10.8782
    -9.8663  -9.7869  -8.9589  -8.8631  -8.3850  -7.8733  -7.3134  -7.0087
    -6.7795  -1.2232  -0.3772  -0.2968  -0.0129

     occupation numbers 
     1.0000   1.0000   1.0000   1.0000   1.0000   1.0000   1.0000   1.0000
     1.0000   1.0000   1.0000   1.0000   1.0000   1.0000   1.0000   1.0000
     1.0000   0.0000   0.0000   0.0000   0.0000

          k = 0.0000 0.0000 0.0133 (195923 PWs)   bands (ev):

   -22.8088 -21.8891 -20.4885 -18.7909 -15.8775 -13.5686 -11.0827 -10.8754
    -9.8635  -9.7973  -8.9751  -8.8580  -8.3823  -7.8847  -7.3152  -7.0185
    -6.7767  -1.2236  -0.3742  -0.2938  -0.0100

     occupation numbers 
     1.0000   1.0000   1.0000   1.0000   1.0000   1.0000   1.0000   1.0000
     1.0000   1.0000   1.0000   1.0000   1.0000   1.0000   1.0000   1.0000
     1.0000   0.0000   0.0000   0.0000   0.0000

          k = 0.0000 0.0000 0.0200 (195953 PWs)   bands (ev):

   -22.8049 -21.8853 -20.4848 -18.7873 -15.8743 -13.5661 -11.0818 -10.8708
    -9.8589  -9.8146  -8.9993  -8.8521  -8.3777  -7.9036  -7.3183  -7.0347
    -6.7720  -1.2241  -0.3693  -0.2890  -0.0050

     occupation numbers 
     1.0000   1.0000   1.0000   1.0000   1.0000   1.0000   1.0000   1.0000
     1.0000   1.0000   1.0000   1.0000   1.0000   1.0000   1.0000   1.0000
     1.0000   0.0000   0.0000   0.0000   0.0000

          k = 0.0000 0.0000 0.0267 (195937 PWs)   bands (ev):

   -22.7995 -21.8799 -20.4795 -18.7823 -15.8699 -13.5626 -11.0805 -10.8643
    -9.8525  -9.8386  -9.0303  -8.8468  -8.3714  -7.9298  -7.3228  -7.0574
    -6.7655  -1.2249  -0.3624  -0.2822   0.0019

     occupation numbers 
     1.0000   1.0000   1.0000   1.0000   1.0000   1.0000   1.0000   1.0000
     1.0000   1.0000   1.0000   1.0000   1.0000   1.0000   1.0000   1.0000
     1.0000   0.0000   0.0000   0.0000   0.0000

          k = 0.0000 0.0000 0.0333 (195939 PWs)   bands (ev):

   -22.7925 -21.8729 -20.4727 -18.7759 -15.8642 -13.5581 -11.0790 -10.8559
    -9.8693  -9.8443  -9.0672  -8.8426  -8.3632  -7.9631  -7.3289  -7.0863
    -6.7571  -1.2261  -0.3535  -0.2735   0.0108

     occupation numbers 
     1.0000   1.0000   1.0000   1.0000   1.0000   1.0000   1.0000   1.0000
     1.0000   1.0000   1.0000   1.0000   1.0000   1.0000   1.0000   1.0000
     1.0000   0.0000   0.0000   0.0000   0.0000

          k = 0.0000 0.0000 0.0400 (195929 PWs)   bands (ev):

   -22.7839 -21.8645 -20.4644 -18.7680 -15.8572 -13.5527 -11.0771 -10.8457
    -9.9065  -9.8342  -9.1100  -8.8396  -8.3532  -8.0030  -7.3367  -7.1213
    -6.7469  -1.2275  -0.3427  -0.2628   0.0216

     occupation numbers 
     1.0000   1.0000   1.0000   1.0000   1.0000   1.0000   1.0000   1.0000
     1.0000   1.0000   1.0000   1.0000   1.0000   1.0000   1.0000   1.0000
     1.0000   0.0000   0.0000   0.0000   0.0000

          k = 0.0000 0.0000 0.0467 (195913 PWs)   bands (ev):

   -22.7738 -21.8544 -20.4547 -18.7587 -15.8491 -13.5463 -11.0751 -10.8336
    -9.9499  -9.8222  -9.1583  -8.8380  -8.3413  -8.0493  -7.3463  -7.1623
    -6.7348  -1.2292  -0.3299  -0.2502   0.0345

     occupation numbers 
     1.0000   1.0000   1.0000   1.0000   1.0000   1.0000   1.0000   1.0000
     1.0000   1.0000   1.0000   1.0000   1.0000   1.0000   1.0000   1.0000
     1.0000   0.0000   0.0000   0.0000   0.0000

          k = 0.0000 0.0000 0.0533 (195859 PWs)   bands (ev):

   -22.7621 -21.8429 -20.4434 -18.7480 -15.8397 -13.5390 -11.0729 -10.8197
    -9.9993  -9.8085  -9.2122  -8.8375  -8.3277  -8.1017  -7.3579  -7.2090
    -6.7208  -1.2314  -0.3152  -0.2358   0.0493

     occupation numbers 
     1.0000   1.0000   1.0000   1.0000   1.0000   1.0000   1.0000   1.0000
     1.0000   1.0000   1.0000   1.0000   1.0000   1.0000   1.0000   1.0000
     1.0000   0.0000   0.0000   0.0000   0.0000

          k = 0.0000 0.0000 0.0600 (195875 PWs)   bands (ev):

   -22.7488 -21.8298 -20.4306 -18.7359 -15.8290 -13.5308 -11.0707 -10.8039
   -10.0544  -9.7929  -9.2714  -8.8382  -8.3122  -8.1598  -7.3715  -7.2612
    -6.7050  -1.2340  -0.2985  -0.2194   0.0660

     occupation numbers 
     1.0000   1.0000   1.0000   1.0000   1.0000   1.0000   1.0000   1.0000
     1.0000   1.0000   1.0000   1.0000   1.0000   1.0000   1.0000   1.0000
     1.0000   0.0000   0.0000   0.0000   0.0000

          k = 0.0000 0.0000 0.0667 (195925 PWs)   bands (ev):

   -22.7340 -21.8151 -20.4163 -18.7223 -15.8172 -13.5216 -11.0685 -10.7862
   -10.1150  -9.7755  -9.3358  -8.8400  -8.2950  -8.2234  -7.3872  -7.3186
    -6.6873  -1.2371  -0.2799  -0.2011   0.0847

     occupation numbers 
     1.0000   1.0000   1.0000   1.0000   1.0000   1.0000   1.0000   1.0000
     1.0000   1.0000   1.0000   1.0000   1.0000   1.0000   1.0000   1.0000
     1.0000   0.0000   0.0000   0.0000   0.0000

          k = 0.0000 0.0000 0.0733 (195893 PWs)   bands (ev):

   -22.7177 -21.7989 -20.4005 -18.7073 -15.8041 -13.5116 -11.0666 -10.7668
   -10.1806  -9.7563  -9.4053  -8.8429  -8.2920  -8.2759  -7.4052  -7.3809
    -6.6678  -1.2408  -0.2594  -0.1809   0.1054

     occupation numbers 
     1.0000   1.0000   1.0000   1.0000   1.0000   1.0000   1.0000   1.0000
     1.0000   1.0000   1.0000   1.0000   1.0000   1.0000   1.0000   1.0000
     1.0000   0.0000   0.0000   0.0000   0.0000

          k = 0.0000 0.0000 0.0800 (195879 PWs)   bands (ev):

   -22.6998 -21.7812 -20.3832 -18.6909 -15.7899 -13.5007 -11.0652 -10.7454
   -10.2508  -9.7352  -9.4795  -8.8470  -8.3653  -8.2551  -7.4480  -7.4253
    -6.6465  -1.2451  -0.2369  -0.1589   0.1281

     occupation numbers 
     1.0000   1.0000   1.0000   1.0000   1.0000   1.0000   1.0000   1.0000
     1.0000   1.0000   1.0000   1.0000   1.0000   1.0000   1.0000   1.0000
     1.0000   0.0000   0.0000   0.0000   0.0000

          k = 0.0000 0.0000 0.0867 (195873 PWs)   bands (ev):

   -22.6803 -21.7620 -20.3644 -18.6730 -15.7745 -13.4890 -11.0646 -10.7223
   -10.3251  -9.7123  -9.5584  -8.8522  -8.4431  -8.2324  -7.5193  -7.4477
    -6.6233  -1.2501  -0.2126  -0.1349   0.1527

     occupation numbers 
     1.0000   1.0000   1.0000   1.0000   1.0000   1.0000   1.0000   1.0000
     1.0000   1.0000   1.0000   1.0000   1.0000   1.0000   1.0000   1.0000
     1.0000   0.0000   0.0000   0.0000   0.0000

          k = 0.0000 0.0000 0.0933 (195883 PWs)   bands (ev):

   -22.6593 -21.7412 -20.3441 -18.6538 -15.7579 -13.4765 -11.0653 -10.6973
   -10.4027  -9.6877  -9.6417  -8.8587  -8.5250  -8.2080  -7.5945  -7.4724
    -6.5982  -1.2560  -0.1863  -0.1092   0.1792

     occupation numbers 
     1.0000   1.0000   1.0000   1.0000   1.0000   1.0000   1.0000   1.0000
     1.0000   1.0000   1.0000   1.0000   1.0000   1.0000   1.0000   1.0000
     1.0000   0.0000   0.0000   0.0000   0.0000

          k = 0.0000 0.0000 0.1000 (195861 PWs)   bands (ev):

   -22.6367 -21.7189 -20.3223 -18.6331 -15.7402 -13.4633 -11.0681 -10.6704
   -10.4827  -9.7290  -9.6612  -8.8666  -8.6105  -8.1818  -7.6733  -7.4994
    -6.5714  -1.2628  -0.1582  -0.0816   0.2077

     occupation numbers 
     1.0000   1.0000   1.0000   1.0000   1.0000   1.0000   1.0000   1.0000
     1.0000   1.0000   1.0000   1.0000   1.0000   1.0000   1.0000   1.0000
     1.0000   0.0000   0.0000   0.0000   0.0000

          k = 0.0000 0.0000 0.1067 (195893 PWs)   bands (ev):

   -22.6126 -21.6950 -20.2990 -18.6109 -15.7214 -13.4494 -11.0741 -10.6417
   -10.5638  -9.8201  -9.6329  -8.8760  -8.6994  -8.1538  -7.7552  -7.5286
    -6.5427  -1.2705  -0.1282  -0.0522   0.2382

     occupation numbers 
     1.0000   1.0000   1.0000   1.0000   1.0000   1.0000   1.0000   1.0000
     1.0000   1.0000   1.0000   1.0000   1.0000   1.0000   1.0000   1.0000
     1.0000   0.0000   0.0000   0.0000   0.0000

          k = 0.0000 0.0000 0.1133 (195871 PWs)   bands (ev):

   -22.5869 -21.6696 -20.2742 -18.5874 -15.7016 -13.4349 -11.0854 -10.6437
   -10.6112  -9.9147  -9.6029  -8.8873  -8.7912  -8.1241  -7.8397  -7.5600
    -6.5121  -1.2793  -0.0964  -0.0209   0.2707

     occupation numbers 
     1.0000   1.0000   1.0000   1.0000   1.0000   1.0000   1.0000   1.0000
     1.0000   1.0000   1.0000   1.0000   1.0000   1.0000   1.0000   1.0000
     1.0000   0.0000   0.0000   0.0000   0.0000

          k = 0.0000 0.0000 0.1200 (195807 PWs)   bands (ev):

   -22.5597 -21.6427 -20.2480 -18.5625 -15.6807 -13.4198 -11.1050 -10.7192
   -10.5789 -10.0125  -9.5710  -8.9007  -8.8856  -8.0926  -7.9261  -7.5938
    -6.4798  -1.2894  -0.0627   0.0121   0.3051

     occupation numbers 
     1.0000   1.0000   1.0000   1.0000   1.0000   1.0000   1.0000   1.0000
     1.0000   1.0000   1.0000   1.0000   1.0000   1.0000   1.0000   1.0000
     1.0000   0.0000   0.0000   0.0000   0.0000

          k = 0.0000 0.0000 0.1267 (195845 PWs)   bands (ev):

   -22.5309 -21.6143 -20.2202 -18.5361 -15.6589 -13.4043 -11.1376 -10.7858
   -10.5448 -10.1131  -9.5374  -8.9821  -8.9168  -8.0593  -8.0139  -7.6297
    -6.4457  -1.3008  -0.0272   0.0468   0.3415

     occupation numbers 
     1.0000   1.0000   1.0000   1.0000   1.0000   1.0000   1.0000   1.0000
     1.0000   1.0000   1.0000   1.0000   1.0000   1.0000   1.0000   1.0000
     1.0000   0.0000   0.0000   0.0000   0.0000

          k = 0.0000 0.0000 0.1333 (195845 PWs)   bands (ev):

   -22.5006 -21.5843 -20.1910 -18.5083 -15.6360 -13.3884 -11.1874 -10.8390
   -10.5088 -10.2163  -9.5020  -9.0803  -8.9361  -8.1022  -8.0243  -7.6679
    -6.4097  -1.3136   0.0101   0.0834   0.3799

     occupation numbers 
     1.0000   1.0000   1.0000   1.0000   1.0000   1.0000   1.0000   1.0000
     1.0000   1.0000   1.0000   1.0000   1.0000   1.0000   1.0000   1.0000
     1.0000   0.0000   0.0000   0.0000   0.0000

          k = 0.0000 0.0000 0.1400 (195817 PWs)   bands (ev):

   -22.4688 -21.5528 -20.1602 -18.4791 -15.6123 -13.3723 -11.2557 -10.8776
   -10.4710 -10.3217  -9.4648  -9.1795  -8.9595  -8.1899  -7.9876  -7.7082
    -6.3720  -1.3279   0.0491   0.1216   0.4202

     occupation numbers 
     1.0000   1.0000   1.0000   1.0000   1.0000   1.0000   1.0000   1.0000
     1.0000   1.0000   1.0000   1.0000   1.0000   1.0000   1.0000   1.0000
     1.0000   0.0000   0.0000   0.0000   0.0000

          k = 0.0000 0.0000 0.1467 (195789 PWs)   bands (ev):

   -22.4354 -21.5198 -20.1280 -18.4485 -15.5878 -13.3560 -11.3396 -10.9047
   -10.4315 -10.4290  -9.4259  -9.2793  -8.9880  -8.2757  -7.9492  -7.7507
    -6.3324  -1.3439   0.0900   0.1616   0.4626

     occupation numbers 
     1.0000   1.0000   1.0000   1.0000   1.0000   1.0000   1.0000   1.0000
     1.0000   1.0000   1.0000   1.0000   1.0000   1.0000   1.0000   1.0000
     1.0000   0.0000   0.0000   0.0000   0.0000

          k = 0.0000 0.0000 0.1533 (195757 PWs)   bands (ev):

   -22.4004 -21.4852 -20.0943 -18.4165 -15.5624 -13.3398 -11.4345 -10.9248
   -10.5376 -10.3901  -9.3852  -9.3790  -9.0230  -8.3582  -7.9091  -7.7954
    -6.2911  -1.3617   0.1325   0.2032   0.4950

     occupation numbers 
     1.0000   1.0000   1.0000   1.0000   1.0000   1.0000   1.0000   1.0000
     1.0000   1.0000   1.0000   1.0000   1.0000   1.0000   1.0000   1.0000
     1.0000   0.0000   0.0000   0.0000   0.0000

          k = 0.0000 0.0000 0.1600 (195773 PWs)   bands (ev):

   -22.3640 -21.4492 -20.0592 -18.3831 -15.5364 -13.3239 -11.5370 -10.9420
   -10.6474 -10.3470  -9.4776  -9.3428  -9.0660  -8.4356  -7.8672  -7.8422
    -6.2480  -1.3814   0.1768   0.2465   0.4973

     occupation numbers 
     1.0000   1.0000   1.0000   1.0000   1.0000   1.0000   1.0000   1.0000
     1.0000   1.0000   1.0000   1.0000   1.0000   1.0000   1.0000   1.0000
     1.0000   0.0000   0.0000   0.0000   0.0000

          k = 0.0000 0.0000 0.1667 (195761 PWs)   bands (ev):

   -22.3260 -21.4116 -20.0225 -18.3482 -15.5098 -13.3084 -11.6445 -10.9590
   -10.7578 -10.3020  -9.5745  -9.2987  -9.1184  -8.5064  -7.8911  -7.8238
    -6.2032  -1.4031   0.2227   0.2914   0.4954

     occupation numbers 
     1.0000   1.0000   1.0000   1.0000   1.0000   1.0000   1.0000   1.0000
     1.0000   1.0000   1.0000   1.0000   1.0000   1.0000   1.0000   1.0000
     1.0000   0.0000   0.0000   0.0000   0.0000

          k = 0.0000 0.0000 0.1733 (195709 PWs)   bands (ev):

   -22.2865 -21.3725 -19.9844 -18.3120 -15.4827 -13.2938 -11.7557 -10.9780
   -10.8683 -10.2553  -9.6683  -9.2528  -9.1812  -8.5693  -7.9420  -7.7786
    -6.1566  -1.4269   0.2703   0.3379   0.4888

     occupation numbers 
     1.0000   1.0000   1.0000   1.0000   1.0000   1.0000   1.0000   1.0000
     1.0000   1.0000   1.0000   1.0000   1.0000   1.0000   1.0000   1.0000
     1.0000   0.0000   0.0000   0.0000   0.0000

          k = 0.0000 0.0000 0.1800 (195731 PWs)   bands (ev):

   -22.2454 -21.3319 -19.9449 -18.2744 -15.4552 -13.2803 -11.8692 -11.0008
   -10.9785 -10.2069  -9.7581  -9.2546  -9.2052  -8.6242  -7.9950  -7.7318
    -6.1083  -1.4530   0.3196   0.3860   0.4775

     occupation numbers 
     1.0000   1.0000   1.0000   1.0000   1.0000   1.0000   1.0000   1.0000
     1.0000   1.0000   1.0000   1.0000   1.0000   1.0000   1.0000   1.0000
     1.0000   0.0000   0.0000   0.0000   0.0000

          k = 0.0000 0.0000 0.1867 (195707 PWs)   bands (ev):

   -22.2028 -21.2898 -19.9038 -18.2353 -15.4275 -13.2683 -11.9845 -11.0877
   -11.0291 -10.1566  -9.8423  -9.3379  -9.1560  -8.6714  -8.0499  -7.6834
    -6.0582  -1.4815   0.3705   0.4356   0.4611

     occupation numbers 
     1.0000   1.0000   1.0000   1.0000   1.0000   1.0000   1.0000   1.0000
     1.0000   1.0000   1.0000   1.0000   1.0000   1.0000   1.0000   1.0000
     1.0000   0.0000   0.0000   0.0000   0.0000

          k = 0.0000 0.0000 0.1933 (195645 PWs)   bands (ev):

   -22.1587 -21.2462 -19.8613 -18.1949 -15.3997 -13.2585 -12.1008 -11.1953
   -11.0645 -10.1047  -9.9197  -9.4299  -9.1050  -8.7121  -8.1068  -7.6334
    -6.0065  -1.5124   0.4229   0.4397   0.4866

     occupation numbers 
     1.0000   1.0000   1.0000   1.0000   1.0000   1.0000   1.0000   1.0000
     1.0000   1.0000   1.0000   1.0000   1.0000   1.0000   1.0000   1.0000
     1.0000   0.0000   0.0000   0.0000   0.0000

          k = 0.0000 0.0000 0.2000 (195697 PWs)   bands (ev):

   -22.1131 -21.2011 -19.8174 -18.1531 -15.3721 -13.2513 -12.2175 -11.3004
   -11.1082 -10.0509  -9.9889  -9.5290  -9.0524  -8.7477  -8.1656  -7.5818
    -5.9531  -1.5460   0.4131   0.4769   0.5392

     occupation numbers 
     1.0000   1.0000   1.0000   1.0000   1.0000   1.0000   1.0000   1.0000
     1.0000   1.0000   1.0000   1.0000   1.0000   1.0000   1.0000   1.0000
     1.0000   0.0000   0.0000   0.0000   0.0000

          k = 0.0000 0.0000 0.2067 (195625 PWs)   bands (ev):

   -22.0659 -21.1545 -19.7720 -18.1099 -15.3449 -13.2477 -12.3342 -11.4021
   -11.1614 -10.0489  -9.9955  -9.6339  -8.9982  -8.7794  -8.2263  -7.5287
    -5.8979  -1.5821   0.3814   0.5325   0.5931

     occupation numbers 
     1.0000   1.0000   1.0000   1.0000   1.0000   1.0000   1.0000   1.0000
     1.0000   1.0000   1.0000   1.0000   1.0000   1.0000   1.0000   1.0000
     1.0000   0.0000   0.0000   0.0000   0.0000

          k = 0.0000 0.0000 0.2133 (195575 PWs)   bands (ev):

   -22.0172 -21.1065 -19.7252 -18.0653 -15.3184 -13.2485 -12.4502 -11.4995
   -11.2246 -10.0992  -9.9383  -9.7433  -8.9423  -8.8085  -8.2888  -7.4740
    -5.8412  -1.6211   0.3446   0.5895   0.6484

     occupation numbers 
     1.0000   1.0000   1.0000   1.0000   1.0000   1.0000   1.0000   1.0000
     1.0000   1.0000   1.0000   1.0000   1.0000   1.0000   1.0000   1.0000
     1.0000   0.0000   0.0000   0.0000   0.0000

          k = 0.0000 0.0000 0.2200 (195545 PWs)   bands (ev):

   -21.9671 -21.0569 -19.6769 -18.0193 -15.2930 -13.2548 -12.5652 -11.5914
   -11.2976 -10.1399  -9.8795  -9.8562  -8.8848  -8.8357  -8.3530  -7.4178
    -5.7828  -1.6628   0.3029   0.6481   0.7050

     occupation numbers 
     1.0000   1.0000   1.0000   1.0000   1.0000   1.0000   1.0000   1.0000
     1.0000   1.0000   1.0000   1.0000   1.0000   1.0000   1.0000   1.0000
     1.0000   0.0000   0.0000   0.0000   0.0000

          k = 0.0000 0.0000 0.2267 (195563 PWs)   bands (ev):

   -21.9154 -21.0058 -19.6272 -17.9720 -15.2690 -13.2677 -12.6783 -11.6764
   -11.3799 -10.1714  -9.9720  -9.8189  -8.8618  -8.8257  -8.4190  -7.3602
    -5.7228  -1.7073   0.2563   0.7081   0.7628

     occupation numbers 
     1.0000   1.0000   1.0000   1.0000   1.0000   1.0000   1.0000   1.0000
     1.0000   1.0000   1.0000   1.0000   1.0000   1.0000   1.0000   1.0000
     1.0000   0.0000   0.0000   0.0000   0.0000

          k = 0.0000 0.0000 0.2333 (195614 PWs)   bands (ev):

   -21.8622 -20.9533 -19.5761 -17.9233 -15.2470 -13.2884 -12.7891 -11.7533
   -11.4705 -10.1946 -10.0899  -9.7567  -8.8872  -8.7651  -8.4867  -7.3012
    -5.6612  -1.7548   0.2049   0.7695   0.8219

     occupation numbers 
     1.0000   1.0000   1.0000   1.0000   1.0000   1.0000   1.0000   1.0000
     1.0000   1.0000   1.0000   1.0000   1.0000   1.0000   1.0000   1.0000
     1.0000   0.0000   0.0000   0.0000   0.0000

          k = 0.0000 0.0000 0.2400 (195634 PWs)   bands (ev):

   -21.8075 -20.8993 -19.5236 -17.8732 -15.2276 -13.3180 -12.8968 -11.8210
   -11.5682 -10.2115 -10.2088  -9.6928  -8.9123  -8.7028  -8.5560  -7.2408
    -5.5980  -1.8052   0.1490   0.8324   0.8820

     occupation numbers 
     1.0000   1.0000   1.0000   1.0000   1.0000   1.0000   1.0000   1.0000
     1.0000   1.0000   1.0000   1.0000   1.0000   1.0000   1.0000   1.0000
     1.0000   0.0000   0.0000   0.0000   0.0000

          k = 0.0000 0.0000 0.2467 (195660 PWs)   bands (ev):

   -21.7513 -20.8438 -19.4697 -17.8218 -15.2115 -13.3575 -13.0004 -11.8783
   -11.6719 -10.3304 -10.2209  -9.6272  -8.9374  -8.6391  -8.6268  -7.1790
    -5.5334  -1.8585   0.0888   0.8966   0.9433

     occupation numbers 
     1.0000   1.0000   1.0000   1.0000   1.0000   1.0000   1.0000   1.0000
     1.0000   1.0000   1.0000   1.0000   1.0000   1.0000   1.0000   1.0000
     1.0000   0.0000   0.0000   0.0000   0.0000

          k = 0.0000 0.0000 0.2533 (195648 PWs)   bands (ev):

   -21.6936 -20.7869 -19.4144 -17.7690 -15.1996 -13.4074 -13.0991 -11.9248
   -11.7805 -10.4522 -10.2261  -9.5600  -8.9627  -8.6992  -8.5739  -7.1160
    -5.4672  -1.9147   0.0244   0.9623   1.0056

     occupation numbers 
     1.0000   1.0000   1.0000   1.0000   1.0000   1.0000   1.0000   1.0000
     1.0000   1.0000   1.0000   1.0000   1.0000   1.0000   1.0000   1.0000
     1.0000   0.0000   0.0000   0.0000   0.0000

          k = 0.0000 0.0000 0.2600 (195684 PWs)   bands (ev):

   -21.6345 -20.7285 -19.3577 -17.7149 -15.1928 -13.4677 -13.1919 -11.9602
   -11.8930 -10.5747 -10.2271  -9.4911  -8.9885  -8.7730  -8.5071  -7.0517
    -5.3997  -1.9738  -0.0439   1.0292   1.0688

     occupation numbers 
     1.0000   1.0000   1.0000   1.0000   1.0000   1.0000   1.0000   1.0000
     1.0000   1.0000   1.0000   1.0000   1.0000   1.0000   1.0000   1.0000
     1.0000   0.0000   0.0000   0.0000   0.0000

          k = 0.0000 0.0000 0.2667 (195680 PWs)   bands (ev):

   -21.5738 -20.6686 -19.2996 -17.6594 -15.1922 -13.5380 -13.2776 -12.0085
   -11.9851 -10.6976 -10.2248  -9.4207  -9.0148  -8.8482  -8.4390  -6.9862
    -5.3307  -2.0358  -0.1159   1.0975   1.1330

     occupation numbers 
     1.0000   1.0000   1.0000   1.0000   1.0000   1.0000   1.0000   1.0000
     1.0000   1.0000   1.0000   1.0000   1.0000   1.0000   1.0000   1.0000
     1.0000   0.0000   0.0000   0.0000   0.0000

          k = 0.0000 0.0000 0.2733 (195708 PWs)   bands (ev):

   -21.5117 -20.6073 -19.2402 -17.6026 -15.1989 -13.6176 -13.3550 -12.1264
   -12.0002 -10.8206 -10.2199  -9.3486  -9.0418  -8.9247  -8.3694  -6.9197
    -5.2603  -2.1005  -0.1913   1.1670   1.1979

     occupation numbers 
     1.0000   1.0000   1.0000   1.0000   1.0000   1.0000   1.0000   1.0000
     1.0000   1.0000   1.0000   1.0000   1.0000   1.0000   1.0000   1.0000
     1.0000   0.0000   0.0000   0.0000   0.0000

          k = 0.0000 0.0000 0.2800 (195724 PWs)   bands (ev):

   -21.4481 -20.5446 -19.1794 -17.5445 -15.2140 -13.7054 -13.4231 -12.2459
   -12.0067 -10.9434 -10.2127  -9.2750  -9.0696  -9.0025  -8.2985  -6.8521
    -5.1887  -2.1679  -0.2699   1.2378   1.2637

     occupation numbers 
     1.0000   1.0000   1.0000   1.0000   1.0000   1.0000   1.0000   1.0000
     1.0000   1.0000   1.0000   1.0000   1.0000   1.0000   1.0000   1.0000
     1.0000   0.0000   0.0000   0.0000   0.0000

          k = 0.0000 0.0000 0.2867 (195760 PWs)   bands (ev):

   -21.3831 -20.4804 -19.1173 -17.4851 -15.2384 -13.8001 -13.4810 -12.3667
   -12.0059 -11.0657 -10.2037  -9.1999  -9.0985  -9.0812  -8.2262  -6.7836
    -5.1159  -2.2378  -0.3513   1.3098   1.3301

     occupation numbers 
     1.0000   1.0000   1.0000   1.0000   1.0000   1.0000   1.0000   1.0000
     1.0000   1.0000   1.0000   1.0000   1.0000   1.0000   1.0000   1.0000
     1.0000   0.0000   0.0000   0.0000   0.0000

          k = 0.0000 0.0000 0.2933 (195790 PWs)   bands (ev):

   -21.3166 -20.4149 -19.0539 -17.4244 -15.2728 -13.9008 -13.5281 -12.4880
   -11.9993 -11.1868 -10.1933  -9.1619  -9.1274  -9.1232  -8.1526  -6.7142
    -5.0419  -2.3102  -0.4354   1.3830   1.3973

     occupation numbers 
     1.0000   1.0000   1.0000   1.0000   1.0000   1.0000   1.0000   1.0000
     1.0000   1.0000   1.0000   1.0000   1.0000   1.0000   1.0000   1.0000
     1.0000   0.0000   0.0000   0.0000   0.0000

          k = 0.0000 0.0000 0.3000 (195796 PWs)   bands (ev):

   -21.2486 -20.3479 -18.9893 -17.3624 -15.3175 -14.0062 -13.5642 -12.6093
   -11.9886 -11.3060 -10.1817  -9.2430  -9.1579  -9.0450  -8.0778  -6.6442
    -4.9669  -2.3848  -0.5217   1.2940   1.4570

     occupation numbers 
     1.0000   1.0000   1.0000   1.0000   1.0000   1.0000   1.0000   1.0000
     1.0000   1.0000   1.0000   1.0000   1.0000   1.0000   1.0000   1.0000
     1.0000   0.0000   0.0000   0.0000   0.0000

          k = 0.0000 0.0000 0.3067 (195782 PWs)   bands (ev):

   -21.1792 -20.2795 -18.9234 -17.2992 -15.3724 -14.1156 -13.5899 -12.7300
   -11.9762 -11.4217 -10.1692  -9.3252  -9.1894  -8.9653  -8.0018  -6.5735
    -4.8909  -2.4615  -0.6099   1.1807   1.5301

     occupation numbers 
     1.0000   1.0000   1.0000   1.0000   1.0000   1.0000   1.0000   1.0000
     1.0000   1.0000   1.0000   1.0000   1.0000   1.0000   1.0000   1.0000
     1.0000   0.0000   0.0000   0.0000   0.0000

          k = 0.0000 0.0000 0.3133 (195806 PWs)   bands (ev):

   -21.1083 -20.2098 -18.8562 -17.2347 -15.4368 -14.2280 -13.6063 -12.8491
   -11.9662 -11.5304 -10.1561  -9.4083  -9.2218  -8.8842  -7.9246  -6.5025
    -4.8141  -2.5401  -0.6997   1.0645   1.6000

     occupation numbers 
     1.0000   1.0000   1.0000   1.0000   1.0000   1.0000   1.0000   1.0000
     1.0000   1.0000   1.0000   1.0000   1.0000   1.0000   1.0000   1.0000
     1.0000   0.0000   0.0000   0.0000   0.0000

          k = 0.0000 0.0000 0.3200 (195804 PWs)   bands (ev):

   -21.0360 -20.1386 -18.7880 -17.1691 -15.5100 -14.3427 -13.6155 -12.9651
   -11.9669 -11.6244 -10.1424  -9.4923  -9.2553  -8.8016  -7.8464  -6.4312
    -4.7366  -2.6204  -0.7907   0.9462   1.6691

     occupation numbers 
     1.0000   1.0000   1.0000   1.0000   1.0000   1.0000   1.0000   1.0000
     1.0000   1.0000   1.0000   1.0000   1.0000   1.0000   1.0000   1.0000
     1.0000   0.0000   0.0000   0.0000   0.0000

          k = 0.0000 0.0000 0.3267 (195854 PWs)   bands (ev):

   -20.9623 -20.0661 -18.7186 -17.1023 -15.5908 -14.4593 -13.6210 -13.0754
   -11.9933 -11.6891 -10.1283  -9.5771  -9.2898  -8.7176  -7.7672  -6.3598
    -4.6585  -2.7020  -0.8825   0.8263   1.7384

     occupation numbers 
     1.0000   1.0000   1.0000   1.0000   1.0000   1.0000   1.0000   1.0000
     1.0000   1.0000   1.0000   1.0000   1.0000   1.0000   1.0000   1.0000
     1.0000   0.0000   0.0000   0.0000   0.0000

          k = 0.0000 0.0000 0.3333 (195864 PWs)   bands (ev):

   -20.8872 -19.9923 -18.6481 -17.0344 -15.6782 -14.5771 -13.6286 -13.1749
   -12.0573 -11.7130 -10.1141  -9.6625  -9.3254  -8.6323  -7.6871  -6.2887
    -4.5802  -2.7846  -0.9747   0.7051   1.8080

     occupation numbers 
     1.0000   1.0000   1.0000   1.0000   1.0000   1.0000   1.0000   1.0000
     1.0000   1.0000   1.0000   1.0000   1.0000   1.0000   1.0000   1.0000
     1.0000   0.0000   0.0000   0.0000   0.0000

          k = 0.0000 0.0000 0.3400 (195890 PWs)   bands (ev):

   -20.8107 -19.9171 -18.5767 -16.9655 -15.7710 -14.6957 -13.6486 -13.2545
   -12.1497 -11.7056 -10.0999  -9.7485  -9.3621  -8.5456  -7.6061  -6.2180
    -4.5017  -2.8680  -1.0668   0.5832   1.8778

     occupation numbers 
     1.0000   1.0000   1.0000   1.0000   1.0000   1.0000   1.0000   1.0000
     1.0000   1.0000   1.0000   1.0000   1.0000   1.0000   1.0000   1.0000
     1.0000   0.0000   0.0000   0.0000   0.0000

          k = 0.0000 0.0000 0.3467 (195872 PWs)   bands (ev):

   -20.7328 -19.8407 -18.5043 -16.8956 -15.8681 -14.8147 -13.6934 -13.3024
   -12.2562 -11.6815 -10.0860  -9.8347  -9.3998  -8.4576  -7.5244  -6.1481
    -4.4234  -2.9517  -1.1583   0.4607   1.8158

     occupation numbers 
     1.0000   1.0000   1.0000   1.0000   1.0000   1.0000   1.0000   1.0000
     1.0000   1.0000   1.0000   1.0000   1.0000   1.0000   1.0000   1.0000
     1.0000   0.0000   0.0000   0.0000   0.0000

          k = 0.0000 0.0000 0.3533 (195926 PWs)   bands (ev):

   -20.6535 -19.7629 -18.4313 -16.8249 -15.9686 -14.9336 -13.7670 -13.3154
   -12.3688 -11.6487 -10.0732  -9.9204  -9.4385  -8.3683  -7.4420  -6.0795
    -4.3457  -3.0353  -1.2486   0.3381   1.6752

     occupation numbers 
     1.0000   1.0000   1.0000   1.0000   1.0000   1.0000   1.0000   1.0000
     1.0000   1.0000   1.0000   1.0000   1.0000   1.0000   1.0000   1.0000
     1.0000   0.0000   0.0000   0.0000   0.0000

          k = 0.0000 0.0000 0.3600 (195982 PWs)   bands (ev):

   -20.5728 -19.6840 -18.3576 -16.7536 -16.0715 -15.0522 -13.8617 -13.3019
   -12.4844 -11.6107 -10.0669 -10.0003  -9.4783  -8.2779  -7.3591  -6.0125
    -4.2689  -3.1182  -1.3370   0.2155   1.5347

     occupation numbers 
     1.0000   1.0000   1.0000   1.0000   1.0000   1.0000   1.0000   1.0000
     1.0000   1.0000   1.0000   1.0000   1.0000   1.0000   1.0000   1.0000
     1.0000   0.0000   0.0000   0.0000   0.0000

          k = 0.0000 0.0000 0.3667 (195972 PWs)   bands (ev):

   -20.4908 -19.6037 -18.2836 -16.6819 -16.1760 -15.1698 -13.9680 -13.2718
   -12.6013 -11.5693 -10.1114 -10.0300  -9.5192  -8.1862  -7.2759  -5.9478
    -4.1935  -3.1999  -1.4229   0.0933   1.3943

     occupation numbers 
     1.0000   1.0000   1.0000   1.0000   1.0000   1.0000   1.0000   1.0000
     1.0000   1.0000   1.0000   1.0000   1.0000   1.0000   1.0000   1.0000
     1.0000   0.0000   0.0000   0.0000   0.0000

          k = 0.0000 0.0000 0.3733 (195998 PWs)   bands (ev):

   -20.4074 -19.5223 -18.2095 -16.6102 -16.2812 -15.2859 -14.0805 -13.2312
   -12.7186 -11.5255 -10.1947 -10.0215  -9.5611  -8.0934  -7.1924  -5.8859
    -4.1202  -3.2798  -1.5053  -0.0282   1.2542

     occupation numbers 
     1.0000   1.0000   1.0000   1.0000   1.0000   1.0000   1.0000   1.0000
     1.0000   1.0000   1.0000   1.0000   1.0000   1.0000   1.0000   1.0000
     1.0000   0.0000   0.0000   0.0000   0.0000

          k = 0.0000 0.0000 0.3800 (195996 PWs)   bands (ev):

   -20.3227 -19.4398 -18.1357 -16.5394 -16.3863 -15.3996 -14.1960 -13.1833
   -12.8359 -11.4796 -10.2824 -10.0093  -9.6039  -7.9996  -7.1089  -5.8277
    -4.0495  -3.3569  -1.5833  -0.1488   1.1146

     occupation numbers 
     1.0000   1.0000   1.0000   1.0000   1.0000   1.0000   1.0000   1.0000
     1.0000   1.0000   1.0000   1.0000   1.0000   1.0000   1.0000   1.0000
     1.0000   0.0000   0.0000   0.0000   0.0000

          k = 0.0000 0.0000 0.3867 (195974 PWs)   bands (ev):

   -20.2366 -19.3561 -18.0630 -16.4905 -16.4702 -15.5096 -14.3130 -13.1302
   -12.9530 -11.4322 -10.3712  -9.9967  -9.6477  -7.9047  -7.0255  -5.7741
    -3.9824  -3.4305  -1.6558  -0.2681   0.9755

     occupation numbers 
     1.0000   1.0000   1.0000   1.0000   1.0000   1.0000   1.0000   1.0000
     1.0000   1.0000   1.0000   1.0000   1.0000   1.0000   1.0000   1.0000
     1.0000   0.0000   0.0000   0.0000   0.0000

          k = 0.0000 0.0000 0.3933 (196000 PWs)   bands (ev):

   -20.1493 -19.2714 -17.9921 -16.5920 -16.4055 -15.6135 -14.4307 -13.0729
   -13.0696 -11.3836 -10.4605  -9.9842  -9.6925  -7.8089  -6.9426  -5.7261
    -3.9199  -3.4996  -1.7215  -0.3858   0.8371

     occupation numbers 
     1.0000   1.0000   1.0000   1.0000   1.0000   1.0000   1.0000   1.0000
     1.0000   1.0000   1.0000   1.0000   1.0000   1.0000   1.0000   1.0000
     1.0000   0.0000   0.0000   0.0000   0.0000

          k = 0.0000 0.0000 0.4000 (196056 PWs)   bands (ev):

   -20.0607 -19.1857 -17.9246 -16.6896 -16.3492 -15.7068 -14.5484 -13.1856
   -13.0121 -11.3338 -10.5500  -9.9721  -9.7381  -7.7122  -6.8602  -5.6848
    -3.8630  -3.5632  -1.7790  -0.5017   0.6995

     occupation numbers 
     1.0000   1.0000   1.0000   1.0000   1.0000   1.0000   1.0000   1.0000
     1.0000   1.0000   1.0000   1.0000   1.0000   1.0000   1.0000   1.0000
     1.0000   0.0000   0.0000   0.0000   0.0000

          k = 0.0000 0.0000 0.4067 (196042 PWs)   bands (ev):

   -19.9708 -19.0992 -17.8625 -16.7809 -16.3098 -15.7809 -14.6659 -13.3009
   -12.9484 -11.2831 -10.6397  -9.9605  -9.7846  -7.6146  -6.7788  -5.6514
    -3.8129  -3.6200  -1.8268  -0.6152   0.5628

     occupation numbers 
     1.0000   1.0000   1.0000   1.0000   1.0000   1.0000   1.0000   1.0000
     1.0000   1.0000   1.0000   1.0000   1.0000   1.0000   1.0000   1.0000
     0.9999   0.0000   0.0000   0.0000   0.0000

          k = 0.0000 0.0000 0.4133 (196012 PWs)   bands (ev):

   -19.8797 -19.0119 -17.8094 -16.8623 -16.3006 -15.8224 -14.7827 -13.4154
   -12.8822 -11.2316 -10.7295  -9.9495  -9.8319  -7.5164  -6.6987  -5.6273
    -3.7707  -3.6690  -1.8634  -0.7260   0.4272

     occupation numbers 
     1.0000   1.0000   1.0000   1.0000   1.0000   1.0000   1.0000   1.0000
     1.0000   1.0000   1.0000   1.0000   1.0000   1.0000   1.0000   1.0000
     0.9434   0.0001   0.0000   0.0000   0.0000

          k = 0.0000 0.0000 0.4200 (196076 PWs)   bands (ev):

   -19.7874 -18.9239 -17.7700 -16.9286 -16.3312 -15.8217 -14.8987 -13.5290
   -12.8138 -11.1795 -10.8193  -9.9391  -9.8799  -7.4175  -6.6203  -5.6135
    -3.7378  -3.7090  -1.8874  -0.8336   0.2928

     occupation numbers 
     1.0000   1.0000   1.0000   1.0000   1.0000   1.0000   1.0000   1.0000
     1.0000   1.0000   1.0000   1.0000   1.0000   1.0000   1.0000   1.0000
     0.4491   0.0526   0.0000   0.0000   0.0000

          k = 0.0000 0.0000 0.4267 (196078 PWs)   bands (ev):

   -19.6940 -18.8355 -17.7510 -16.9735 -16.3950 -15.7849 -15.0138 -13.6416
   -12.7433 -11.1268 -10.9089  -9.9318  -9.9263  -7.3181  -6.5441  -5.6110
    -3.7412  -3.7129  -1.8978  -0.9374   0.1597

     occupation numbers 
     1.0000   1.0000   1.0000   1.0000   1.0000   1.0000   1.0000   1.0000
     1.0000   1.0000   1.0000   1.0000   1.0000   1.0000   1.0000   1.0000
     0.5205   0.0779   0.0000   0.0000   0.0000

          k = 0.0000 0.0000 0.4333 (196056 PWs)   bands (ev):

   -19.5993 -18.7469 -17.7577 -16.9912 -16.4780 -15.7259 -15.1276 -13.7533
   -12.6711 -11.0737 -10.9984  -9.9784  -9.9201  -7.2183  -6.4706  -5.6203
    -3.7625  -3.6991  -1.8940  -1.0369   0.0282

     occupation numbers 
     1.0000   1.0000   1.0000   1.0000   1.0000   1.0000   1.0000   1.0000
     1.0000   1.0000   1.0000   1.0000   1.0000   1.0000   1.0000   1.0000
     0.8764   0.0163   0.0000   0.0000   0.0000

          k = 0.0000 0.0000 0.4400 (196082 PWs)   bands (ev):

   -19.5036 -18.6585 -17.7915 -16.9806 -16.5700 -15.6545 -15.2401 -13.8639
   -12.5972 -11.0877 -11.0203 -10.0284  -9.9118  -7.1182  -6.4003  -5.6416
    -3.7748  -3.6942  -1.8758  -1.1314  -0.1017

     occupation numbers 
     1.0000   1.0000   1.0000   1.0000   1.0000   1.0000   1.0000   1.0000
     1.0000   1.0000   1.0000   1.0000   1.0000   1.0000   1.0000   1.0000
     0.9639   0.0084   0.0000   0.0000   0.0000

          k = 0.0000 0.0000 0.4467 (196088 PWs)   bands (ev):

   -19.4068 -18.5705 -17.8484 -16.9457 -16.6656 -15.5759 -15.3510 -13.9732
   -12.5218 -11.1768 -10.9667 -10.0788  -9.9044  -7.0180  -6.3340  -5.6745
    -3.7788  -3.6973  -1.8440  -1.2201  -0.2295

     occupation numbers 
     1.0000   1.0000   1.0000   1.0000   1.0000   1.0000   1.0000   1.0000
     1.0000   1.0000   1.0000   1.0000   1.0000   1.0000   1.0000   1.0000
     0.9776   0.0129   0.0000   0.0000   0.0000

          k = 0.0000 0.0000 0.4533 (196132 PWs)   bands (ev):

   -19.3090 -18.4838 -17.9221 -16.8929 -16.7615 -15.4926 -15.4599 -14.0813
   -12.4450 -11.2655 -10.9131 -10.1296  -9.8977  -6.9178  -6.2725  -5.7184
    -3.7759  -3.7068  -1.7996  -1.3020  -0.3551

     occupation numbers 
     1.0000   1.0000   1.0000   1.0000   1.0000   1.0000   1.0000   1.0000
     1.0000   1.0000   1.0000   1.0000   1.0000   1.0000   1.0000   1.0000
     0.9680   0.0414   0.0000   0.0000   0.0000

          k = 0.0000 0.0000 0.4600 (196094 PWs)   bands (ev):

   -19.2102 -18.3992 -18.0070 -16.8557 -16.8279 -15.5664 -15.4061 -14.1880
   -12.3669 -11.3538 -10.8596 -10.1806  -9.8918  -6.8179  -6.2165  -5.7720
    -3.7677  -3.7208  -1.7440  -1.3764  -0.4781

     occupation numbers 
     1.0000   1.0000   1.0000   1.0000   1.0000   1.0000   1.0000   1.0000
     1.0000   1.0000   1.0000   1.0000   1.0000   1.0000   1.0000   1.0000
     0.9234   0.1562   0.0000   0.0000   0.0000

          k = 0.0000 0.0000 0.4667 (196074 PWs)   bands (ev):

   -19.1106 -18.3181 -18.0990 -16.9452 -16.7561 -15.6697 -15.3176 -14.2930
   -12.2877 -11.4416 -10.8066 -10.2316  -9.8869  -6.7185  -6.1670  -5.8344
    -3.7567  -3.7367  -1.6790  -1.4419  -0.5978

     occupation numbers 
     1.0000   1.0000   1.0000   1.0000   1.0000   1.0000   1.0000   1.0000
     1.0000   1.0000   1.0000   1.0000   1.0000   1.0000   1.0000   1.0000
     0.8036   0.4268   0.0000   0.0000   0.0000

          k = 0.0000 0.0000 0.4733 (196118 PWs)   bands (ev):

   -19.0102 -18.2424 -18.1954 -17.0283 -16.6806 -15.7687 -15.2279 -14.3958
   -12.2075 -11.5288 -10.7544 -10.2820  -9.8828  -6.6198  -6.1248  -5.9042
    -3.7559  -3.7413  -1.6067  -1.4976  -0.7133

     occupation numbers 
     1.0000   1.0000   1.0000   1.0000   1.0000   1.0000   1.0000   1.0000
     1.0000   1.0000   1.0000   1.0000   1.0000   1.0000   1.0000   1.0000
     0.7923   0.5218   0.0000   0.0000   0.0000

          k = 0.0000 0.0000 0.4800 (196098 PWs)   bands (ev):

   -18.9092 -18.2946 -18.1752 -17.1015 -16.6053 -15.8610 -15.1381 -14.4955
   -12.1265 -11.6153 -10.7041 -10.3309  -9.8796  -6.5222  -6.0909  -5.9802
    -3.7702  -3.7298  -1.5427  -1.5295  -0.8228

     occupation numbers 
     1.0000   1.0000   1.0000   1.0000   1.0000   1.0000   1.0000   1.0000
     1.0000   1.0000   1.0000   1.0000   1.0000   1.0000   1.0000   1.0000
     0.9404   0.2939   0.0000   0.0000   0.0000

          k = 0.0000 0.0000 0.4867 (196102 PWs)   bands (ev):

   -18.8079 -18.3952 -18.1208 -17.1603 -16.5360 -15.9420 -15.0509 -14.5897
   -12.0449 -11.7007 -10.6576 -10.3765  -9.8773  -6.4262  -6.0669  -6.0605
    -3.7822  -3.7197  -1.5753  -1.4527  -0.9225

     occupation numbers 
     1.0000   1.0000   1.0000   1.0000   1.0000   1.0000   1.0000   1.0000
     1.0000   1.0000   1.0000   1.0000   1.0000   1.0000   1.0000   1.0000
     0.9854   0.1435   0.0000   0.0000   0.0000

          k = 0.0000 0.0000 0.4933 (196166 PWs)   bands (ev):

   -18.7073 -18.4955 -18.0847 -17.1991 -16.4827 -16.0020 -14.9743 -14.6705
   -11.9643 -11.7837 -10.6201 -10.4133  -9.8759  -6.3328  -6.1462  -6.0507
    -3.7899  -3.7131  -1.5954  -1.3866  -1.0019

     occupation numbers 
     1.0000   1.0000   1.0000   1.0000   1.0000   1.0000   1.0000   1.0000
     1.0000   1.0000   1.0000   1.0000   1.0000   1.0000   1.0000   1.0000
     0.9951   0.0794   0.0000   0.0000   0.0000

          k = 0.0000 0.0000-0.5000 (196164 PWs)   bands (ev):

   -18.6280 -18.5748 -18.0719 -17.2128 -16.4616 -16.0253 -14.9372 -14.7090
   -11.9058 -11.8429 -10.6042 -10.4291  -9.8754  -6.2591  -6.2170  -6.0456
    -3.7926  -3.7108  -1.6022  -1.3572  -1.0358

     occupation numbers 
     1.0000   1.0000   1.0000   1.0000   1.0000   1.0000   1.0000   1.0000
     1.0000   1.0000   1.0000   1.0000   1.0000   1.0000   1.0000   1.0000
     0.9967   0.0631   0.0000   0.0000   0.0000

     the Fermi energy is    -3.7402 ev
     (compare with:    -3.7301 eV, computed in scf)

     Writing all to output data dir ../tmp/ZGNR.save/ :
     XML data file, pseudopotentials, collected wavefunctions
 
     init_run     :      5.95s CPU      6.37s WALL (       1 calls)
     electrons    :    686.76s CPU    705.60s WALL (       1 calls)

     Called by init_run:
     wfcinit      :      0.00s CPU      0.00s WALL (       1 calls)
     wfcinit:wfcr :     27.29s CPU     27.64s WALL (      76 calls)
     potinit      :      1.01s CPU      1.18s WALL (       1 calls)
     hinit0       :      0.22s CPU      0.26s WALL (       1 calls)

     Called by electrons:
     c_bands      :    686.75s CPU    705.58s WALL (       1 calls)
     v_of_rho     :      0.76s CPU      0.87s WALL (       1 calls)
     v_h          :      0.10s CPU      0.11s WALL (       1 calls)
     v_xc         :      0.67s CPU      0.76s WALL (       1 calls)
     newd         :      0.51s CPU      0.63s WALL (       1 calls)
     PAW_pot      :      0.03s CPU      0.03s WALL (       1 calls)

     Called by c_bands:
     init_us_2    :      1.42s CPU      1.45s WALL (      76 calls)
     cegterg      :    656.25s CPU    666.91s WALL (     173 calls)

     Called by sum_band:

     Called by *egterg:
     cdiaghg      :      8.05s CPU      8.12s WALL (    2971 calls)
     cegterg:over :     38.42s CPU     38.68s WALL (    2895 calls)
     cegterg:upda :     38.95s CPU     39.22s WALL (    2895 calls)
     cegterg:last :      9.56s CPU      9.62s WALL (     316 calls)
     h_psi        :    556.51s CPU    565.11s WALL (    3144 calls)
     s_psi        :     22.83s CPU     23.01s WALL (    3144 calls)
     g_psi        :      1.53s CPU      1.55s WALL (    2895 calls)

     Called by h_psi:
     h_psi:calbec :     19.41s CPU     19.56s WALL (    3144 calls)
     vloc_psi     :    510.21s CPU    517.14s WALL (    3144 calls)
     add_vuspsi   :     23.21s CPU     23.37s WALL (    3144 calls)

     General routines
     calbec       :     19.39s CPU     19.54s WALL (    3144 calls)
     fft          :      0.73s CPU      0.84s WALL (      13 calls)
     ffts         :      0.01s CPU      0.01s WALL (       1 calls)
     fftw         :    225.92s CPU    228.63s WALL (   67084 calls)
     interpolate  :      0.06s CPU      0.07s WALL (       1 calls)
     davcio       :      0.03s CPU      7.67s WALL (     152 calls)
 
     Parallel routines

     PAW routines
     PAW_pot      :      0.03s CPU      0.03s WALL (       1 calls)
 
     PWSCF        :  11m35.97s CPU  43m12.39s WALL

 
   This run was terminated on:  20:16:36   5Jan2026            

=------------------------------------------------------------------------------=
   JOB DONE.
=------------------------------------------------------------------------------=
