
     Program PWSCF v.7.4.1 starts on  1Oct2025 at  7:35:10 

     This program is part of the open-source Quantum ESPRESSO suite
     for quantum simulation of materials; please cite
         "P. Giannozzi et al., J. Phys.:Condens. Matter 21 395502 (2009);
         "P. Giannozzi et al., J. Phys.:Condens. Matter 29 465901 (2017);
         "P. Giannozzi et al., J. Chem. Phys. 152 154105 (2020);
          URL http://www.quantum-espresso.org", 
     in publications or presentations arising from this work. More details at
     http://www.quantum-espresso.org/quote

     Serial version
     17262 MiB available memory on the printing compute node when the environment starts

     Reading input from graphene_scf.in

     Current dimensions of program PWSCF are:
     Max number of different atomic species (ntypx) = 10
     Max number of k-points (npk) =  40000
     Max angular momentum in pseudopotentials (lmaxx) =  4
     file C.pbe-n-kjpaw_psl.1.0.0.UPF: wavefunction(s)  2S 2P renormalized
     Message from routine setup:
     using ibrav=0 with symmetry is DISCOURAGED, use correct ibrav instead


     G-vector sticks info
     --------------------
     sticks:   dense  smooth     PW     G-vecs:    dense   smooth      PW
     Sum        1039     421    109               166325    42211    5283

     Using Slab Decomposition



     bravais-lattice index     =            0
     lattice parameter (alat)  =       4.6540  a.u.
     unit-cell volume          =     531.7080 (a.u.)^3
     number of atoms/cell      =            2
     number of atomic types    =            1
     number of electrons       =         8.00
     number of Kohn-Sham states=            8
     kinetic-energy cutoff     =      70.0000  Ry
     charge density cutoff     =     700.0000  Ry
     scf convergence threshold =      1.0E-08
     mixing beta               =       0.7000
     number of iterations used =            8  plain     mixing
     Exchange-correlation= SLA  PW   PBX  PBC
                           (   1   4   3   4   0   0   0)

     celldm(1)=   4.653998  celldm(2)=   0.000000  celldm(3)=   0.000000
     celldm(4)=   0.000000  celldm(5)=   0.000000  celldm(6)=   0.000000

     crystal axes: (cart. coord. in units of alat)
               a(1) = (   1.000000   0.000000   0.000000 )  
               a(2) = (  -0.500000   0.866025   0.000000 )  
               a(3) = (   0.000000   0.000000   6.090654 )  

     reciprocal axes: (cart. coord. in units 2 pi/alat)
               b(1) = (  1.000000  0.577350 -0.000000 )  
               b(2) = (  0.000000  1.154701  0.000000 )  
               b(3) = (  0.000000 -0.000000  0.164186 )  


     PseudoPot. # 1 for C  read from file:
     ../../../../pseudos/C.pbe-n-kjpaw_psl.1.0.0.UPF
     MD5 check sum: 5d2aebdfa2cae82b50a7e79e9516da0f
     Pseudo is Projector augmented-wave + core cor, Zval =  4.0
     Generated using "atomic" code by A. Dal Corso  v.5.1
     Shape of augmentation charge: PSQ
     Using radial grid of 1073 points,  4 beta functions with: 
                l(1) =   0
                l(2) =   0
                l(3) =   1
                l(4) =   1
     Q(r) pseudized with 0 coefficients 


     atomic species   valence    mass     pseudopotential
     C                 4.00    12.01070     C ( 1.00)

     24 Sym. Ops., with inversion, found (12 have fractional translation)



   Cartesian axes

     site n.     atom                  positions (alat units)
         1        C      tau(   1) = (   0.0000000   0.0000000   0.0000000  )
         2        C      tau(   2) = (   0.0000000   0.5773503   0.0000000  )

     number of k points=     1  Gaussian smearing, width (Ry)=  0.0100
                       cart. coord. in units 2pi/alat
        k(    1) = (   0.0000000   0.0000000   0.0000000), wk =   2.0000000

     Dense  grid:   166325 G-vectors     FFT dimensions: (  45,  45, 240)

     Smooth grid:    42211 G-vectors     FFT dimensions: (  27,  27, 160)

     Estimated max dynamical RAM per process >     231.01 MB

     Initial potential from superposition of free atoms

     starting charge       7.9999, renormalised to       8.0000

     negative rho (up, down):  2.230E-05 0.000E+00
     Starting wfcs are    8 randomized atomic wfcs

     total cpu time spent up to now is        3.3 secs

     Self-consistent Calculation

     iteration #  1     ecut=    70.00 Ry     beta= 0.70
     Davidson diagonalization with overlap
     ethr =  1.00E-02,  avg # of iterations =  5.0

     negative rho (up, down):  1.998E-05 0.000E+00

     total cpu time spent up to now is        4.2 secs

     total energy              =     -36.33871383 Ry
     estimated scf accuracy    <       0.37097019 Ry

     iteration #  2     ecut=    70.00 Ry     beta= 0.70
     Davidson diagonalization with overlap
     ethr =  4.64E-03,  avg # of iterations =  2.0

     negative rho (up, down):  2.292E-05 0.000E+00

     total cpu time spent up to now is        4.9 secs

     total energy              =     -36.38450492 Ry
     estimated scf accuracy    <       0.01063532 Ry

     iteration #  3     ecut=    70.00 Ry     beta= 0.70
     Davidson diagonalization with overlap
     ethr =  1.33E-04,  avg # of iterations =  7.0

     negative rho (up, down):  3.055E-05 0.000E+00

     total cpu time spent up to now is        5.8 secs

     total energy              =     -36.38513058 Ry
     estimated scf accuracy    <       0.00066412 Ry

     iteration #  4     ecut=    70.00 Ry     beta= 0.70
     Davidson diagonalization with overlap
     ethr =  8.30E-06,  avg # of iterations =  3.0

     negative rho (up, down):  3.156E-05 0.000E+00

     total cpu time spent up to now is        6.6 secs

     total energy              =     -36.38516575 Ry
     estimated scf accuracy    <       0.00000396 Ry

     iteration #  5     ecut=    70.00 Ry     beta= 0.70
     Davidson diagonalization with overlap
     ethr =  4.95E-08,  avg # of iterations =  2.0

     negative rho (up, down):  3.179E-05 0.000E+00

     total cpu time spent up to now is        7.3 secs

     total energy              =     -36.38516727 Ry
     estimated scf accuracy    <       0.00000017 Ry

     iteration #  6     ecut=    70.00 Ry     beta= 0.70
     Davidson diagonalization with overlap
     ethr =  2.11E-09,  avg # of iterations =  2.0

     negative rho (up, down):  3.176E-05 0.000E+00

     total cpu time spent up to now is        8.0 secs

     End of self-consistent calculation

          k = 0.0000 0.0000 0.0000 (  5283 PWs)   bands (ev):

   -21.1195  -9.4294  -4.3443  -4.3443   1.3864   2.3835   2.8853   4.7640

     the Fermi energy is    -1.0265 ev

!    total energy              =     -36.38516731 Ry
     total all-electron energy =      -151.913363 Ry
     estimated scf accuracy    <          2.5E-09 Ry
     smearing contrib. (-TS)   =      -0.00000000 Ry
     internal energy E=F+TS    =     -36.38516731 Ry

     The total energy is F=E-TS. E is the sum of the following terms:
     one-electron contribution =    -156.76033241 Ry
     hartree contribution      =      80.36767016 Ry
     xc contribution           =      -9.43082092 Ry
     ewald contribution        =      61.70343446 Ry
     one-center paw contrib.   =     -12.26511860 Ry

     convergence has been achieved in   6 iterations

     negative rho (up, down):  3.176E-05 0.000E+00

     Forces acting on atoms (cartesian axes, Ry/au):

     atom    1 type  1   force =     0.00000000   -0.00000000    0.00000000
     atom    2 type  1   force =     0.00000000    0.00000000    0.00000000

     Total force =     0.000000     Total SCF correction =     0.000000


     Computing stress (Cartesian axis) and pressure


     negative rho (up, down):  3.176E-05 0.000E+00
          total   stress  (Ry/bohr**3)                   (kbar)     P=       56.82
   0.00058012   0.00000000  -0.00000000           85.34        0.00       -0.00
   0.00000000   0.00058012  -0.00000000            0.00       85.34       -0.00
  -0.00000000  -0.00000000  -0.00000141           -0.00       -0.00       -0.21


     Writing all to output data dir ./tmp/graphene.save/ :
     XML data file, charge density, pseudopotentials, collected wavefunctions

     init_run     :      2.29s CPU      3.04s WALL (       1 calls)
     electrons    :      5.48s CPU      4.75s WALL (       1 calls)
     forces       :      0.37s CPU      0.40s WALL (       1 calls)
     stress       :      1.56s CPU      1.42s WALL (       1 calls)

     Called by init_run:
     wfcinit      :      0.27s CPU      0.27s WALL (       1 calls)
     potinit      :      0.79s CPU      0.91s WALL (       1 calls)
     hinit0       :      1.01s CPU      1.50s WALL (       1 calls)

     Called by electrons:
     c_bands      :      1.10s CPU      0.69s WALL (       6 calls)
     sum_band     :      1.94s CPU      1.28s WALL (       6 calls)
     v_of_rho     :      1.33s CPU      1.50s WALL (       7 calls)
     newd         :      0.73s CPU      1.00s WALL (       7 calls)
     PAW_pot      :      0.59s CPU      0.61s WALL (       7 calls)
     mix_rho      :      0.11s CPU      0.11s WALL (       6 calls)

     Called by c_bands:
     init_us_2    :      0.02s CPU      0.02s WALL (      14 calls)
     cegterg      :      1.08s CPU      0.68s WALL (       6 calls)

     Called by *egterg:
     cdiaghg      :      0.01s CPU      0.00s WALL (      27 calls)
     h_psi        :      1.24s CPU      0.88s WALL (      28 calls)
     s_psi        :      0.01s CPU      0.01s WALL (      28 calls)
     g_psi        :      0.01s CPU      0.00s WALL (      21 calls)

     Called by h_psi:
     h_psi:calbec :      0.01s CPU      0.01s WALL (      28 calls)
     vloc_psi     :      1.18s CPU      0.83s WALL (      28 calls)
     add_vuspsi   :      0.03s CPU      0.04s WALL (      28 calls)

     General routines
     calbec       :      0.02s CPU      0.01s WALL (      51 calls)
     fft          :      1.46s CPU      1.63s WALL (     114 calls)
     ffts         :      0.44s CPU      0.46s WALL (      13 calls)
     fftw         :      0.98s CPU      0.72s WALL (     342 calls)
     interpolate  :      0.49s CPU      0.53s WALL (       7 calls)


     PWSCF        :      9.91s CPU      9.85s WALL


   This run was terminated on:   7:35:20   1Oct2025            

=------------------------------------------------------------------------------=
   JOB DONE.
=------------------------------------------------------------------------------=
