&CONTROL
  calculation = 'vc-relax',
  prefix      = 'graphene',
  outdir      = './tmp/',
  pseudo_dir  = '../../pseudos/',
  etot_conv_thr = 1e-6,
  forc_conv_thr = 1e-5,
  tstress = .true.,
  tprnfor = .true.,
/

&SYSTEM
  ibrav     = 4,
  celldm(1) = 4.654,
  celldm(3) = 6.0,
  nat  = 2,
  ntyp = 1,
  ecutwfc = 45.0,
  ecutrho = 450.0,
!  occupations = 'smearing',
!  smearing = 'gaussian',
!  degauss = 0.01,
/

&ELECTRONS
  conv_thr = 1.0d-8
/

&IONS
/

&CELL
  cell_dofree='ibrav'
/

ATOMIC_SPECIES
  C  12.0107 C.pbe-n-kjpaw_psl.1.0.0.UPF

ATOMIC_POSITIONS alat
  C    0.000000    0.0000000   0.000000
  C    0.000000    0.5773503   0.000000

K_POINTS automatic
  9 9 1   0 0 0
