Converted from QE input
1.0
    2.4627909168    0.0000000000    0.0000000000
   -1.2313954584    2.1328394982    0.0000000000
    0.0000000000    0.0000000000   14.7767455011
C
2
Direct
    0.0000000000    0.0000000000    0.0000000000
    0.3333333511    0.6666667022    0.0000000000
