Converted from QE input
1.0
    2.4661856206    0.0000000000    0.0000000000
   -1.2330928103    2.1357793979    0.0000000000
    0.0000000000    0.0000000000   14.7735222095
C
2
Direct
    0.0000000000    0.0000000000    0.0000000000
    0.3339358437    0.6678716873    0.0000000000
