
     Program PWSCF v.7.4.1 starts on  1Oct2025 at  7: 4:42 

     This program is part of the open-source Quantum ESPRESSO suite
     for quantum simulation of materials; please cite
         "P. Giannozzi et al., J. Phys.:Condens. Matter 21 395502 (2009);
         "P. Giannozzi et al., J. Phys.:Condens. Matter 29 465901 (2017);
         "P. Giannozzi et al., J. Chem. Phys. 152 154105 (2020);
          URL http://www.quantum-espresso.org", 
     in publications or presentations arising from this work. More details at
     http://www.quantum-espresso.org/quote

     Serial version
     16889 MiB available memory on the printing compute node when the environment starts

     Reading input from graphene_scf.in

     Current dimensions of program PWSCF are:
     Max number of different atomic species (ntypx) = 10
     Max number of k-points (npk) =  40000
     Max angular momentum in pseudopotentials (lmaxx) =  4
     file C.pbe-n-kjpaw_psl.1.0.0.UPF: wavefunction(s)  2S 2P renormalized
     Message from routine setup:
     using ibrav=0 with symmetry is DISCOURAGED, use correct ibrav instead


     G-vector sticks info
     --------------------
     sticks:   dense  smooth     PW     G-vecs:    dense   smooth      PW
     Sum         367     151     55                35513     9061    1907

     Using Slab Decomposition



     bravais-lattice index     =            0
     lattice parameter (alat)  =       4.6540  a.u.
     unit-cell volume          =     531.7080 (a.u.)^3
     number of atoms/cell      =            2
     number of atomic types    =            1
     number of electrons       =         8.00
     number of Kohn-Sham states=            8
     kinetic-energy cutoff     =      25.0000  Ry
     charge density cutoff     =     250.0000  Ry
     scf convergence threshold =      1.0E-08
     mixing beta               =       0.7000
     number of iterations used =            8  plain     mixing
     Exchange-correlation= SLA  PW   PBX  PBC
                           (   1   4   3   4   0   0   0)

     celldm(1)=   4.653998  celldm(2)=   0.000000  celldm(3)=   0.000000
     celldm(4)=   0.000000  celldm(5)=   0.000000  celldm(6)=   0.000000

     crystal axes: (cart. coord. in units of alat)
               a(1) = (   1.000000   0.000000   0.000000 )  
               a(2) = (  -0.500000   0.866025   0.000000 )  
               a(3) = (   0.000000   0.000000   6.090654 )  

     reciprocal axes: (cart. coord. in units 2 pi/alat)
               b(1) = (  1.000000  0.577350 -0.000000 )  
               b(2) = (  0.000000  1.154701  0.000000 )  
               b(3) = (  0.000000 -0.000000  0.164186 )  


     PseudoPot. # 1 for C  read from file:
     ../../../../pseudos/C.pbe-n-kjpaw_psl.1.0.0.UPF
     MD5 check sum: 5d2aebdfa2cae82b50a7e79e9516da0f
     Pseudo is Projector augmented-wave + core cor, Zval =  4.0
     Generated using "atomic" code by A. Dal Corso  v.5.1
     Shape of augmentation charge: PSQ
     Using radial grid of 1073 points,  4 beta functions with: 
                l(1) =   0
                l(2) =   0
                l(3) =   1
                l(4) =   1
     Q(r) pseudized with 0 coefficients 


     atomic species   valence    mass     pseudopotential
     C                 4.00    12.01070     C ( 1.00)

     24 Sym. Ops., with inversion, found (12 have fractional translation)



   Cartesian axes

     site n.     atom                  positions (alat units)
         1        C      tau(   1) = (   0.0000000   0.0000000   0.0000000  )
         2        C      tau(   2) = (   0.0000000   0.5773503   0.0000000  )

     number of k points=    12  Gaussian smearing, width (Ry)=  0.0100
                       cart. coord. in units 2pi/alat
        k(    1) = (   0.0000000   0.0000000   0.0000000), wk =   0.0246914
        k(    2) = (   0.0000000   0.1283001   0.0000000), wk =   0.1481481
        k(    3) = (   0.0000000   0.2566001   0.0000000), wk =   0.1481481
        k(    4) = (   0.0000000   0.3849002   0.0000000), wk =   0.1481481
        k(    5) = (   0.0000000   0.5132002   0.0000000), wk =   0.1481481
        k(    6) = (   0.1111111   0.1924501   0.0000000), wk =   0.1481481
        k(    7) = (   0.1111111   0.3207501   0.0000000), wk =   0.2962963
        k(    8) = (   0.1111111   0.4490502   0.0000000), wk =   0.2962963
        k(    9) = (   0.1111111   0.5773503   0.0000000), wk =   0.1481481
        k(   10) = (   0.2222222   0.3849002   0.0000000), wk =   0.1481481
        k(   11) = (   0.2222222   0.5132002   0.0000000), wk =   0.2962963
        k(   12) = (   0.3333333   0.5773503   0.0000000), wk =   0.0493827

     Dense  grid:    35513 G-vectors     FFT dimensions: (  24,  24, 144)

     Smooth grid:     9061 G-vectors     FFT dimensions: (  15,  15,  96)

     Estimated max dynamical RAM per process >      49.77 MB

     Check: negative core charge=   -0.000010

     Initial potential from superposition of free atoms

     starting charge       7.9999, renormalised to       8.0000

     negative rho (up, down):  2.650E-04 0.000E+00
     Starting wfcs are    8 randomized atomic wfcs

     total cpu time spent up to now is        1.1 secs

     Self-consistent Calculation

     iteration #  1     ecut=    25.00 Ry     beta= 0.70
     Davidson diagonalization with overlap
     ethr =  1.00E-02,  avg # of iterations =  5.8

     negative rho (up, down):  4.084E-04 0.000E+00

     total cpu time spent up to now is        1.5 secs

     total energy              =     -36.81309154 Ry
     estimated scf accuracy    <       0.18922044 Ry

     iteration #  2     ecut=    25.00 Ry     beta= 0.70
     Davidson diagonalization with overlap
     ethr =  2.37E-03,  avg # of iterations =  2.9

     negative rho (up, down):  4.597E-04 0.000E+00

     total cpu time spent up to now is        1.8 secs

     total energy              =     -36.84086999 Ry
     estimated scf accuracy    <       0.00235668 Ry

     iteration #  3     ecut=    25.00 Ry     beta= 0.70
     Davidson diagonalization with overlap
     ethr =  2.95E-05,  avg # of iterations =  8.6

     negative rho (up, down):  5.008E-04 0.000E+00

     total cpu time spent up to now is        2.2 secs

     total energy              =     -36.84105789 Ry
     estimated scf accuracy    <       0.00016332 Ry

     iteration #  4     ecut=    25.00 Ry     beta= 0.70
     Davidson diagonalization with overlap
     ethr =  2.04E-06,  avg # of iterations =  4.3

     negative rho (up, down):  4.915E-04 0.000E+00

     total cpu time spent up to now is        2.5 secs

     total energy              =     -36.84106544 Ry
     estimated scf accuracy    <       0.00000060 Ry

     iteration #  5     ecut=    25.00 Ry     beta= 0.70
     Davidson diagonalization with overlap
     ethr =  7.46E-09,  avg # of iterations =  3.1

     negative rho (up, down):  4.908E-04 0.000E+00

     total cpu time spent up to now is        2.8 secs

     total energy              =     -36.84106599 Ry
     estimated scf accuracy    <       0.00000002 Ry

     iteration #  6     ecut=    25.00 Ry     beta= 0.70
     Davidson diagonalization with overlap
     ethr =  2.95E-10,  avg # of iterations =  2.1

     negative rho (up, down):  4.909E-04 0.000E+00

     total cpu time spent up to now is        3.0 secs

     End of self-consistent calculation

          k = 0.0000 0.0000 0.0000 (  1125 PWs)   bands (ev):

   -21.3566  -9.3350  -4.7383  -4.7383   1.3597   2.1657   2.3995   4.3993

          k = 0.0000 0.1283 0.0000 (  1129 PWs)   bands (ev):

   -21.0632  -8.9906  -5.8657  -5.3137   1.7599   2.5678   2.8025   4.7959

          k = 0.0000 0.2566 0.0000 (  1124 PWs)   bands (ev):

   -20.1875  -8.4388  -7.9603  -6.4817   2.9596   3.7693   4.0114   5.9493

          k = 0.0000 0.3849 0.0000 (  1114 PWs)   bands (ev):

   -18.7515 -11.3895  -7.4993  -6.3267   3.2849   4.9478   5.7973   5.9469

          k = 0.0000 0.5132 0.0000 (  1126 PWs)   bands (ev):

   -16.8391 -14.1555  -8.0695  -4.4686   0.5580   5.7039   7.7279   8.5679

          k = 0.1111 0.1925 0.0000 (  1131 PWs)   bands (ev):

   -20.4787  -8.3031  -7.4402  -6.4714   2.5603   3.3707   3.6089   5.5864

          k = 0.1111 0.3208 0.0000 (  1118 PWs)   bands (ev):

   -19.3228  -9.9060  -7.8652  -6.9580   4.1575   4.5457   4.9942   5.2206

          k = 0.1111 0.4491 0.0000 (  1120 PWs)   bands (ev):

   -17.6355 -12.6872  -8.7465  -5.1221   1.6813   6.5279   7.0872   7.3517

          k = 0.1111 0.5774 0.0000 (  1136 PWs)   bands (ev):

   -15.8949 -14.8362  -9.0544  -3.7784  -0.0606   6.9216   9.5807   9.7217

          k = 0.2222 0.3849 0.0000 (  1116 PWs)   bands (ev):

   -17.9121 -11.4358  -9.8903  -5.3652   2.3154   6.1426   6.9159   7.2326

          k = 0.2222 0.5132 0.0000 (  1121 PWs)   bands (ev):

   -16.0515 -13.5636 -10.8948  -3.4775   0.0592   8.8597   9.1183   9.8261

          k = 0.3333 0.5774 0.0000 (  1098 PWs)   bands (ev):

   -14.3754 -14.3754 -12.3098  -1.6611  -1.6611   8.8920  11.2257  11.2257

     the Fermi energy is    -1.6611 ev

!    total energy              =     -36.84106600 Ry
     total all-electron energy =      -152.369262 Ry
     estimated scf accuracy    <          1.1E-09 Ry
     smearing contrib. (-TS)   =      -0.00027861 Ry
     internal energy E=F+TS    =     -36.84078739 Ry

     The total energy is F=E-TS. E is the sum of the following terms:
     one-electron contribution =    -157.10319268 Ry
     hartree contribution      =      80.16452224 Ry
     xc contribution           =      -9.26851304 Ry
     ewald contribution        =      61.70343446 Ry
     one-center paw contrib.   =     -12.33703837 Ry

     convergence has been achieved in   6 iterations

     negative rho (up, down):  4.909E-04 0.000E+00

     Forces acting on atoms (cartesian axes, Ry/au):

     atom    1 type  1   force =     0.00000000   -0.00000000    0.00000000
     atom    2 type  1   force =     0.00000000    0.00000000    0.00000000

     Total force =     0.000000     Total SCF correction =     0.000000


     Computing stress (Cartesian axis) and pressure


     negative rho (up, down):  4.909E-04 0.000E+00
          total   stress  (Ry/bohr**3)                   (kbar)     P=      -37.26
  -0.00020404  -0.00000000  -0.00000000          -30.02       -0.00       -0.00
  -0.00000000  -0.00020404  -0.00000000           -0.00      -30.02       -0.00
  -0.00000000  -0.00000000  -0.00035185           -0.00       -0.00      -51.76


     Writing all to output data dir ./tmp/graphene.save/ :
     XML data file, charge density, pseudopotentials, collected wavefunctions

     init_run     :      1.07s CPU      1.04s WALL (       1 calls)
     electrons    :      3.40s CPU      1.91s WALL (       1 calls)
     forces       :      0.07s CPU      0.06s WALL (       1 calls)
     stress       :      0.39s CPU      0.26s WALL (       1 calls)

     Called by init_run:
     wfcinit      :      0.24s CPU      0.18s WALL (       1 calls)
     potinit      :      0.31s CPU      0.33s WALL (       1 calls)
     hinit0       :      0.48s CPU      0.49s WALL (       1 calls)

     Called by electrons:
     c_bands      :      1.55s CPU      0.83s WALL (       6 calls)
     sum_band     :      0.55s CPU      0.25s WALL (       6 calls)
     v_of_rho     :      0.47s CPU      0.26s WALL (       7 calls)
     newd         :      0.10s CPU      0.10s WALL (       7 calls)
     PAW_pot      :      0.76s CPU      0.54s WALL (       7 calls)
     mix_rho      :      0.04s CPU      0.02s WALL (       6 calls)

     Called by c_bands:
     init_us_2    :      0.07s CPU      0.04s WALL (     180 calls)
     cegterg      :      1.46s CPU      0.78s WALL (      72 calls)

     Called by *egterg:
     cdiaghg      :      0.09s CPU      0.05s WALL (     394 calls)
     h_psi        :      1.34s CPU      0.78s WALL (     406 calls)
     s_psi        :      0.03s CPU      0.02s WALL (     406 calls)
     g_psi        :      0.02s CPU      0.01s WALL (     322 calls)

     Called by h_psi:
     h_psi:calbec :      0.04s CPU      0.03s WALL (     406 calls)
     vloc_psi     :      1.23s CPU      0.70s WALL (     406 calls)
     add_vuspsi   :      0.05s CPU      0.04s WALL (     406 calls)

     General routines
     calbec       :      0.06s CPU      0.04s WALL (     682 calls)
     fft          :      0.56s CPU      0.50s WALL (     114 calls)
     ffts         :      0.23s CPU      0.23s WALL (      13 calls)
     fftw         :      0.98s CPU      0.58s WALL (    4258 calls)
     interpolate  :      0.24s CPU      0.24s WALL (       7 calls)


     PWSCF        :      5.13s CPU      3.37s WALL


   This run was terminated on:   7: 4:46   1Oct2025            

=------------------------------------------------------------------------------=
   JOB DONE.
=------------------------------------------------------------------------------=
