
     Program PWSCF v.7.4.1 starts on  1Oct2025 at  7: 9:32 

     This program is part of the open-source Quantum ESPRESSO suite
     for quantum simulation of materials; please cite
         "P. Giannozzi et al., J. Phys.:Condens. Matter 21 395502 (2009);
         "P. Giannozzi et al., J. Phys.:Condens. Matter 29 465901 (2017);
         "P. Giannozzi et al., J. Chem. Phys. 152 154105 (2020);
          URL http://www.quantum-espresso.org", 
     in publications or presentations arising from this work. More details at
     http://www.quantum-espresso.org/quote

     Serial version
     16650 MiB available memory on the printing compute node when the environment starts

     Reading input from graphene_scf.in

     Current dimensions of program PWSCF are:
     Max number of different atomic species (ntypx) = 10
     Max number of k-points (npk) =  40000
     Max angular momentum in pseudopotentials (lmaxx) =  4
     file C.pbe-n-kjpaw_psl.1.0.0.UPF: wavefunction(s)  2S 2P renormalized
     Message from routine setup:
     using ibrav=0 with symmetry is DISCOURAGED, use correct ibrav instead


     G-vector sticks info
     --------------------
     sticks:   dense  smooth     PW     G-vecs:    dense   smooth      PW
     Sum         889     361    109               131789    33523    5791

     Using Slab Decomposition



     bravais-lattice index     =            0
     lattice parameter (alat)  =       4.6540  a.u.
     unit-cell volume          =     531.7080 (a.u.)^3
     number of atoms/cell      =            2
     number of atomic types    =            1
     number of electrons       =         8.00
     number of Kohn-Sham states=            8
     kinetic-energy cutoff     =      60.0000  Ry
     charge density cutoff     =     600.0000  Ry
     scf convergence threshold =      1.0E-08
     mixing beta               =       0.7000
     number of iterations used =            8  plain     mixing
     Exchange-correlation= SLA  PW   PBX  PBC
                           (   1   4   3   4   0   0   0)

     celldm(1)=   4.653998  celldm(2)=   0.000000  celldm(3)=   0.000000
     celldm(4)=   0.000000  celldm(5)=   0.000000  celldm(6)=   0.000000

     crystal axes: (cart. coord. in units of alat)
               a(1) = (   1.000000   0.000000   0.000000 )  
               a(2) = (  -0.500000   0.866025   0.000000 )  
               a(3) = (   0.000000   0.000000   6.090654 )  

     reciprocal axes: (cart. coord. in units 2 pi/alat)
               b(1) = (  1.000000  0.577350 -0.000000 )  
               b(2) = (  0.000000  1.154701  0.000000 )  
               b(3) = (  0.000000 -0.000000  0.164186 )  


     PseudoPot. # 1 for C  read from file:
     ../../../../pseudos/C.pbe-n-kjpaw_psl.1.0.0.UPF
     MD5 check sum: 5d2aebdfa2cae82b50a7e79e9516da0f
     Pseudo is Projector augmented-wave + core cor, Zval =  4.0
     Generated using "atomic" code by A. Dal Corso  v.5.1
     Shape of augmentation charge: PSQ
     Using radial grid of 1073 points,  4 beta functions with: 
                l(1) =   0
                l(2) =   0
                l(3) =   1
                l(4) =   1
     Q(r) pseudized with 0 coefficients 


     atomic species   valence    mass     pseudopotential
     C                 4.00    12.01070     C ( 1.00)

     24 Sym. Ops., with inversion, found (12 have fractional translation)



   Cartesian axes

     site n.     atom                  positions (alat units)
         1        C      tau(   1) = (   0.0000000   0.0000000   0.0000000  )
         2        C      tau(   2) = (   0.0000000   0.5773503   0.0000000  )

     number of k points=    12  Gaussian smearing, width (Ry)=  0.0100
                       cart. coord. in units 2pi/alat
        k(    1) = (   0.0000000   0.0000000   0.0000000), wk =   0.0246914
        k(    2) = (   0.0000000   0.1283001   0.0000000), wk =   0.1481481
        k(    3) = (   0.0000000   0.2566001   0.0000000), wk =   0.1481481
        k(    4) = (   0.0000000   0.3849002   0.0000000), wk =   0.1481481
        k(    5) = (   0.0000000   0.5132002   0.0000000), wk =   0.1481481
        k(    6) = (   0.1111111   0.1924501   0.0000000), wk =   0.1481481
        k(    7) = (   0.1111111   0.3207501   0.0000000), wk =   0.2962963
        k(    8) = (   0.1111111   0.4490502   0.0000000), wk =   0.2962963
        k(    9) = (   0.1111111   0.5773503   0.0000000), wk =   0.1481481
        k(   10) = (   0.2222222   0.3849002   0.0000000), wk =   0.1481481
        k(   11) = (   0.2222222   0.5132002   0.0000000), wk =   0.2962963
        k(   12) = (   0.3333333   0.5773503   0.0000000), wk =   0.0493827

     Dense  grid:   131789 G-vectors     FFT dimensions: (  45,  45, 225)

     Smooth grid:    33523 G-vectors     FFT dimensions: (  24,  24, 144)

     Estimated max dynamical RAM per process >     194.08 MB

     Initial potential from superposition of free atoms

     starting charge       7.9999, renormalised to       8.0000

     negative rho (up, down):  4.640E-06 0.000E+00
     Starting wfcs are    8 randomized atomic wfcs

     total cpu time spent up to now is        2.6 secs

     Self-consistent Calculation

     iteration #  1     ecut=    60.00 Ry     beta= 0.70
     Davidson diagonalization with overlap
     ethr =  1.00E-02,  avg # of iterations =  5.9

     negative rho (up, down):  1.819E-06 0.000E+00

     total cpu time spent up to now is        5.0 secs

     total energy              =     -36.85928131 Ry
     estimated scf accuracy    <       0.19460406 Ry

     iteration #  2     ecut=    60.00 Ry     beta= 0.70
     Davidson diagonalization with overlap
     ethr =  2.43E-03,  avg # of iterations =  4.2

     negative rho (up, down):  3.695E-06 0.000E+00

     total cpu time spent up to now is        6.3 secs

     total energy              =     -36.88625253 Ry
     estimated scf accuracy    <       0.00199508 Ry

     iteration #  3     ecut=    60.00 Ry     beta= 0.70
     Davidson diagonalization with overlap
     c_bands:  1 eigenvalues not converged
     ethr =  2.49E-05,  avg # of iterations = 10.4

     negative rho (up, down):  7.067E-06 0.000E+00

     total cpu time spent up to now is        8.5 secs

     total energy              =     -36.88653549 Ry
     estimated scf accuracy    <       0.00015286 Ry

     iteration #  4     ecut=    60.00 Ry     beta= 0.70
     Davidson diagonalization with overlap
     ethr =  1.91E-06,  avg # of iterations =  4.0

     negative rho (up, down):  6.873E-06 0.000E+00

     total cpu time spent up to now is       10.9 secs

     total energy              =     -36.88654811 Ry
     estimated scf accuracy    <       0.00000163 Ry

     iteration #  5     ecut=    60.00 Ry     beta= 0.70
     Davidson diagonalization with overlap
     ethr =  2.03E-08,  avg # of iterations =  3.1

     negative rho (up, down):  6.829E-06 0.000E+00

     total cpu time spent up to now is       13.0 secs

     total energy              =     -36.88654902 Ry
     estimated scf accuracy    <       0.00000004 Ry

     iteration #  6     ecut=    60.00 Ry     beta= 0.70
     Davidson diagonalization with overlap
     ethr =  5.47E-10,  avg # of iterations =  2.4

     negative rho (up, down):  6.819E-06 0.000E+00

     total cpu time spent up to now is       15.0 secs

     End of self-consistent calculation

          k = 0.0000 0.0000 0.0000 (  4149 PWs)   bands (ev):

   -21.2635  -9.3519  -4.7552  -4.7552   1.4911   2.3594   2.7062   4.6335

          k = 0.0000 0.1283 0.0000 (  4184 PWs)   bands (ev):

   -20.9717  -9.0029  -5.8724  -5.3296   1.8892   2.7606   3.1102   5.0310

          k = 0.0000 0.2566 0.0000 (  4186 PWs)   bands (ev):

   -20.1018  -8.4260  -7.9741  -6.4880   3.0823   3.9567   4.3218   6.1413

          k = 0.0000 0.3849 0.0000 (  4174 PWs)   bands (ev):

   -18.6749 -11.3611  -7.5110  -6.3458   3.2231   5.0562   5.9781   6.0428

          k = 0.0000 0.5132 0.0000 (  4184 PWs)   bands (ev):

   -16.7672 -14.1098  -8.0761  -4.4983   0.5201   5.7573   7.8255   8.7297

          k = 0.1111 0.1925 0.0000 (  4171 PWs)   bands (ev):

   -20.3908  -8.3133  -7.4310  -6.4775   2.6855   3.5608   3.9185   5.8228

          k = 0.1111 0.3208 0.0000 (  4175 PWs)   bands (ev):

   -19.2423  -9.8848  -7.8643  -6.9750   4.2740   4.4771   5.1702   5.5341

          k = 0.1111 0.4491 0.0000 (  4180 PWs)   bands (ev):

   -17.5640 -12.6490  -8.7466  -5.1438   1.6289   6.6229   7.1291   7.5171

          k = 0.1111 0.5774 0.0000 (  4178 PWs)   bands (ev):

   -15.8188 -14.7956  -9.0470  -3.8047  -0.0990   6.9583   9.6488   9.8104

          k = 0.2222 0.3849 0.0000 (  4164 PWs)   bands (ev):

   -17.8398 -11.4023  -9.8821  -5.3900   2.2581   6.2471   7.0763   7.5519

          k = 0.2222 0.5132 0.0000 (  4154 PWs)   bands (ev):

   -15.9872 -13.5197 -10.8826  -3.5099   0.0143   8.9364   9.1729   9.8315

          k = 0.3333 0.5774 0.0000 (  4152 PWs)   bands (ev):

   -14.3250 -14.3250 -12.3039  -1.7020  -1.7020   8.9196  11.2004  11.2004

     the Fermi energy is    -1.7020 ev

!    total energy              =     -36.88654904 Ry
     total all-electron energy =      -152.414745 Ry
     estimated scf accuracy    <          4.2E-10 Ry
     smearing contrib. (-TS)   =      -0.00027861 Ry
     internal energy E=F+TS    =     -36.88627042 Ry

     The total energy is F=E-TS. E is the sum of the following terms:
     one-electron contribution =    -157.19985679 Ry
     hartree contribution      =      80.22425673 Ry
     xc contribution           =      -9.27993092 Ry
     ewald contribution        =      61.70343446 Ry
     one-center paw contrib.   =     -12.33417390 Ry

     convergence has been achieved in   6 iterations

     negative rho (up, down):  6.819E-06 0.000E+00

     Forces acting on atoms (cartesian axes, Ry/au):

     atom    1 type  1   force =     0.00000000    0.00000000    0.00000000
     atom    2 type  1   force =     0.00000000   -0.00000000    0.00000000

     Total force =     0.000000     Total SCF correction =     0.000000


     Computing stress (Cartesian axis) and pressure


     negative rho (up, down):  6.819E-06 0.000E+00
          total   stress  (Ry/bohr**3)                   (kbar)     P=        3.15
   0.00003354   0.00000000  -0.00000000            4.93        0.00       -0.00
   0.00000000   0.00003354  -0.00000000            0.00        4.93       -0.00
   0.00000000   0.00000000  -0.00000282            0.00        0.00       -0.41


     Writing all to output data dir ./tmp/graphene.save/ :
     XML data file, charge density, pseudopotentials, collected wavefunctions

     init_run     :      2.30s CPU      2.43s WALL (       1 calls)
     electrons    :     14.78s CPU     12.33s WALL (       1 calls)
     forces       :      0.54s CPU      0.72s WALL (       1 calls)
     stress       :      1.81s CPU      3.07s WALL (       1 calls)

     Called by init_run:
     wfcinit      :      0.70s CPU      0.60s WALL (       1 calls)
     potinit      :      0.82s CPU      0.89s WALL (       1 calls)
     hinit0       :      0.64s CPU      0.69s WALL (       1 calls)

     Called by electrons:
     c_bands      :      9.89s CPU      7.68s WALL (       6 calls)
     sum_band     :      2.26s CPU      1.64s WALL (       6 calls)
     v_of_rho     :      1.50s CPU      1.69s WALL (       7 calls)
     newd         :      0.59s CPU      0.86s WALL (       7 calls)
     PAW_pot      :      0.67s CPU      0.68s WALL (       7 calls)
     mix_rho      :      0.13s CPU      0.13s WALL (       6 calls)

     Called by c_bands:
     init_us_2    :      0.24s CPU      0.18s WALL (     180 calls)
     cegterg      :      9.58s CPU      7.47s WALL (      72 calls)

     Called by *egterg:
     cdiaghg      :      0.13s CPU      0.06s WALL (     432 calls)
     h_psi        :      8.92s CPU      7.05s WALL (     444 calls)
     s_psi        :      0.15s CPU      0.16s WALL (     444 calls)
     g_psi        :      0.07s CPU      0.03s WALL (     360 calls)

     Called by h_psi:
     h_psi:calbec :      0.23s CPU      0.22s WALL (     444 calls)
     vloc_psi     :      8.05s CPU      5.68s WALL (     444 calls)
     add_vuspsi   :      0.60s CPU      1.13s WALL (     444 calls)

     General routines
     calbec       :      0.32s CPU      0.30s WALL (     720 calls)
     fft          :      1.55s CPU      1.67s WALL (     114 calls)
     ffts         :      0.48s CPU      0.49s WALL (      13 calls)
     fftw         :      5.42s CPU      3.92s WALL (    4422 calls)
     interpolate  :      0.56s CPU      0.57s WALL (       7 calls)


     PWSCF        :     19.59s CPU     18.89s WALL


   This run was terminated on:   7: 9:51   1Oct2025            

=------------------------------------------------------------------------------=
   JOB DONE.
=------------------------------------------------------------------------------=
