
     Program PWSCF v.7.4.1 starts on  1Oct2025 at  7: 4:29 

     This program is part of the open-source Quantum ESPRESSO suite
     for quantum simulation of materials; please cite
         "P. Giannozzi et al., J. Phys.:Condens. Matter 21 395502 (2009);
         "P. Giannozzi et al., J. Phys.:Condens. Matter 29 465901 (2017);
         "P. Giannozzi et al., J. Chem. Phys. 152 154105 (2020);
          URL http://www.quantum-espresso.org", 
     in publications or presentations arising from this work. More details at
     http://www.quantum-espresso.org/quote

     Serial version
     16894 MiB available memory on the printing compute node when the environment starts

     Reading input from graphene_scf.in

     Current dimensions of program PWSCF are:
     Max number of different atomic species (ntypx) = 10
     Max number of k-points (npk) =  40000
     Max angular momentum in pseudopotentials (lmaxx) =  4
     file C.pbe-n-kjpaw_psl.1.0.0.UPF: wavefunction(s)  2S 2P renormalized
     Message from routine setup:
     using ibrav=0 with symmetry is DISCOURAGED, use correct ibrav instead


     G-vector sticks info
     --------------------
     sticks:   dense  smooth     PW     G-vecs:    dense   smooth      PW
     Sum         223      85     37                16389     4149    1003

     Using Slab Decomposition



     bravais-lattice index     =            0
     lattice parameter (alat)  =       4.6540  a.u.
     unit-cell volume          =     531.7080 (a.u.)^3
     number of atoms/cell      =            2
     number of atomic types    =            1
     number of electrons       =         8.00
     number of Kohn-Sham states=            8
     kinetic-energy cutoff     =      15.0000  Ry
     charge density cutoff     =     150.0000  Ry
     scf convergence threshold =      1.0E-08
     mixing beta               =       0.7000
     number of iterations used =            8  plain     mixing
     Exchange-correlation= SLA  PW   PBX  PBC
                           (   1   4   3   4   0   0   0)

     celldm(1)=   4.653998  celldm(2)=   0.000000  celldm(3)=   0.000000
     celldm(4)=   0.000000  celldm(5)=   0.000000  celldm(6)=   0.000000

     crystal axes: (cart. coord. in units of alat)
               a(1) = (   1.000000   0.000000   0.000000 )  
               a(2) = (  -0.500000   0.866025   0.000000 )  
               a(3) = (   0.000000   0.000000   6.090654 )  

     reciprocal axes: (cart. coord. in units 2 pi/alat)
               b(1) = (  1.000000  0.577350 -0.000000 )  
               b(2) = (  0.000000  1.154701  0.000000 )  
               b(3) = (  0.000000 -0.000000  0.164186 )  


     PseudoPot. # 1 for C  read from file:
     ../../../../pseudos/C.pbe-n-kjpaw_psl.1.0.0.UPF
     MD5 check sum: 5d2aebdfa2cae82b50a7e79e9516da0f
     Pseudo is Projector augmented-wave + core cor, Zval =  4.0
     Generated using "atomic" code by A. Dal Corso  v.5.1
     Shape of augmentation charge: PSQ
     Using radial grid of 1073 points,  4 beta functions with: 
                l(1) =   0
                l(2) =   0
                l(3) =   1
                l(4) =   1
     Q(r) pseudized with 0 coefficients 


     atomic species   valence    mass     pseudopotential
     C                 4.00    12.01070     C ( 1.00)

     24 Sym. Ops., with inversion, found (12 have fractional translation)



   Cartesian axes

     site n.     atom                  positions (alat units)
         1        C      tau(   1) = (   0.0000000   0.0000000   0.0000000  )
         2        C      tau(   2) = (   0.0000000   0.5773503   0.0000000  )

     number of k points=    12  Gaussian smearing, width (Ry)=  0.0100
                       cart. coord. in units 2pi/alat
        k(    1) = (   0.0000000   0.0000000   0.0000000), wk =   0.0246914
        k(    2) = (   0.0000000   0.1283001   0.0000000), wk =   0.1481481
        k(    3) = (   0.0000000   0.2566001   0.0000000), wk =   0.1481481
        k(    4) = (   0.0000000   0.3849002   0.0000000), wk =   0.1481481
        k(    5) = (   0.0000000   0.5132002   0.0000000), wk =   0.1481481
        k(    6) = (   0.1111111   0.1924501   0.0000000), wk =   0.1481481
        k(    7) = (   0.1111111   0.3207501   0.0000000), wk =   0.2962963
        k(    8) = (   0.1111111   0.4490502   0.0000000), wk =   0.2962963
        k(    9) = (   0.1111111   0.5773503   0.0000000), wk =   0.1481481
        k(   10) = (   0.2222222   0.3849002   0.0000000), wk =   0.1481481
        k(   11) = (   0.2222222   0.5132002   0.0000000), wk =   0.2962963
        k(   12) = (   0.3333333   0.5773503   0.0000000), wk =   0.0493827

     Dense  grid:    16389 G-vectors     FFT dimensions: (  24,  24, 120)

     Smooth grid:     4149 G-vectors     FFT dimensions: (  12,  12,  72)

     Estimated max dynamical RAM per process >      25.21 MB

     Check: negative core charge=   -0.000034

     Initial potential from superposition of free atoms

     starting charge       7.9999, renormalised to       8.0000

     negative rho (up, down):  1.228E-03 0.000E+00
     Starting wfcs are    8 randomized atomic wfcs

     total cpu time spent up to now is        1.0 secs

     Self-consistent Calculation

     iteration #  1     ecut=    15.00 Ry     beta= 0.70
     Davidson diagonalization with overlap
     ethr =  1.00E-02,  avg # of iterations =  6.6

     negative rho (up, down):  2.291E-03 0.000E+00

     total cpu time spent up to now is        1.2 secs

     total energy              =     -36.43190155 Ry
     estimated scf accuracy    <       0.13940344 Ry

     iteration #  2     ecut=    15.00 Ry     beta= 0.70
     Davidson diagonalization with overlap
     ethr =  1.74E-03,  avg # of iterations =  3.3

     negative rho (up, down):  2.611E-03 0.000E+00

     total cpu time spent up to now is        1.4 secs

     total energy              =     -36.44536722 Ry
     estimated scf accuracy    <       0.00387680 Ry

     iteration #  3     ecut=    15.00 Ry     beta= 0.70
     Davidson diagonalization with overlap
     ethr =  4.85E-05,  avg # of iterations =  6.8

     negative rho (up, down):  2.723E-03 0.000E+00

     total cpu time spent up to now is        1.7 secs

     total energy              =     -36.44546312 Ry
     estimated scf accuracy    <       0.00020319 Ry

     iteration #  4     ecut=    15.00 Ry     beta= 0.70
     Davidson diagonalization with overlap
     ethr =  2.54E-06,  avg # of iterations =  4.6

     negative rho (up, down):  2.747E-03 0.000E+00

     total cpu time spent up to now is        1.9 secs

     total energy              =     -36.44547287 Ry
     estimated scf accuracy    <       0.00000032 Ry

     iteration #  5     ecut=    15.00 Ry     beta= 0.70
     Davidson diagonalization with overlap
     ethr =  3.94E-09,  avg # of iterations =  3.2

     negative rho (up, down):  2.757E-03 0.000E+00

     total cpu time spent up to now is        2.1 secs

     End of self-consistent calculation

          k = 0.0000 0.0000 0.0000 (   497 PWs)   bands (ev):

   -22.0310  -9.3128  -3.9826  -3.9826   1.2569   2.0844   2.2952   4.3459

          k = 0.0000 0.1283 0.0000 (   499 PWs)   bands (ev):

   -21.7289  -8.9781  -5.2799  -4.5488   1.6587   2.4862   2.6992   4.7414

          k = 0.0000 0.2566 0.0000 (   517 PWs)   bands (ev):

   -20.8300  -8.3408  -7.9414  -5.7844   2.8624   3.6905   3.9105   5.9138

          k = 0.0000 0.3849 0.0000 (   531 PWs)   bands (ev):

   -19.3611 -11.5813  -7.0025  -6.2845   3.6469   4.8608   5.6331   5.7282

          k = 0.0000 0.5132 0.0000 (   535 PWs)   bands (ev):

   -17.4105 -14.4726  -7.6317  -4.3572   0.7660   5.2481   7.6465   8.5075

          k = 0.1111 0.1925 0.0000 (   507 PWs)   bands (ev):

   -21.1286  -8.2751  -7.1551  -5.8014   2.4616   3.2912   3.5070   5.5341

          k = 0.1111 0.3208 0.0000 (   520 PWs)   bands (ev):

   -19.9449  -9.9839  -7.3462  -6.9079   4.0638   4.8324   5.0760   5.1214

          k = 0.1111 0.4491 0.0000 (   529 PWs)   bands (ev):

   -18.2112 -12.9727  -8.3482  -5.0133   1.9707   6.4535   6.8521   7.2894

          k = 0.1111 0.5774 0.0000 (   522 PWs)   bands (ev):

   -16.4931 -15.0489  -8.6835  -3.6437   0.1502   6.6624   9.5296   9.6720

          k = 0.2222 0.3849 0.0000 (   527 PWs)   bands (ev):

   -18.4909 -11.7142  -9.6411  -5.2581   2.7163   6.0575   6.8516   7.1365

          k = 0.2222 0.5132 0.0000 (   528 PWs)   bands (ev):

   -16.5731 -13.8951 -10.7483  -3.3216   0.3361   8.8076   9.0529   9.9032

          k = 0.3333 0.5774 0.0000 (   507 PWs)   bands (ev):

   -14.8274 -14.8274 -12.0646  -1.3866  -1.3866   8.7237  11.4176  11.4176

     the Fermi energy is    -1.3866 ev

!    total energy              =     -36.44547342 Ry
     total all-electron energy =      -151.973669 Ry
     estimated scf accuracy    <          1.0E-08 Ry
     smearing contrib. (-TS)   =      -0.00027861 Ry
     internal energy E=F+TS    =     -36.44519480 Ry

     The total energy is F=E-TS. E is the sum of the following terms:
     one-electron contribution =    -156.37575772 Ry
     hartree contribution      =      79.75070965 Ry
     xc contribution           =      -9.17824260 Ry
     ewald contribution        =      61.70343442 Ry
     one-center paw contrib.   =     -12.34533855 Ry

     convergence has been achieved in   5 iterations

     negative rho (up, down):  2.757E-03 0.000E+00

     Forces acting on atoms (cartesian axes, Ry/au):

     atom    1 type  1   force =     0.00000000    0.00000000    0.00000000
     atom    2 type  1   force =     0.00000000   -0.00000000    0.00000000

     Total force =     0.000000     Total SCF correction =     0.000000


     Computing stress (Cartesian axis) and pressure


     negative rho (up, down):  2.757E-03 0.000E+00
          total   stress  (Ry/bohr**3)                   (kbar)     P=     -177.04
  -0.00112238  -0.00000000   0.00000000         -165.11       -0.00        0.00
  -0.00000000  -0.00112238  -0.00000000           -0.00     -165.11       -0.00
   0.00000000   0.00000000  -0.00136572            0.00        0.00     -200.90


     Writing all to output data dir ./tmp/graphene.save/ :
     XML data file, charge density, pseudopotentials, collected wavefunctions

     init_run     :      0.93s CPU      0.90s WALL (       1 calls)
     electrons    :      2.06s CPU      1.14s WALL (       1 calls)
     forces       :      0.04s CPU      0.04s WALL (       1 calls)
     stress       :      0.23s CPU      0.15s WALL (       1 calls)

     Called by init_run:
     wfcinit      :      0.17s CPU      0.14s WALL (       1 calls)
     potinit      :      0.28s CPU      0.29s WALL (       1 calls)
     hinit0       :      0.45s CPU      0.45s WALL (       1 calls)

     Called by electrons:
     c_bands      :      0.78s CPU      0.41s WALL (       5 calls)
     sum_band     :      0.21s CPU      0.10s WALL (       5 calls)
     v_of_rho     :      0.29s CPU      0.17s WALL (       6 calls)
     newd         :      0.04s CPU      0.04s WALL (       6 calls)
     PAW_pot      :      0.79s CPU      0.49s WALL (       6 calls)
     mix_rho      :      0.02s CPU      0.01s WALL (       5 calls)

     Called by c_bands:
     init_us_2    :      0.03s CPU      0.02s WALL (     156 calls)
     cegterg      :      0.73s CPU      0.39s WALL (      60 calls)

     Called by *egterg:
     cdiaghg      :      0.07s CPU      0.04s WALL (     355 calls)
     h_psi        :      0.71s CPU      0.41s WALL (     367 calls)
     s_psi        :      0.02s CPU      0.01s WALL (     367 calls)
     g_psi        :      0.01s CPU      0.00s WALL (     295 calls)

     Called by h_psi:
     h_psi:calbec :      0.02s CPU      0.01s WALL (     367 calls)
     vloc_psi     :      0.66s CPU      0.38s WALL (     367 calls)
     add_vuspsi   :      0.02s CPU      0.01s WALL (     367 calls)

     General routines
     calbec       :      0.02s CPU      0.02s WALL (     631 calls)
     fft          :      0.48s CPU      0.45s WALL (     101 calls)
     ffts         :      0.20s CPU      0.20s WALL (      11 calls)
     fftw         :      0.50s CPU      0.31s WALL (    3626 calls)
     interpolate  :      0.20s CPU      0.21s WALL (       6 calls)


     PWSCF        :      3.43s CPU      2.33s WALL


   This run was terminated on:   7: 4:32   1Oct2025            

=------------------------------------------------------------------------------=
   JOB DONE.
=------------------------------------------------------------------------------=
