Converted from QE input
1.0
    2.4416226780    0.0000000000    0.0000000000
   -1.2208113390    2.1145072656    0.0000000000
    0.0000000000    0.0000000000   14.6497360680
C
2
Direct
    0.0000000000    0.0000000000    0.0000000000
    0.3333333511    0.6666667022    0.0000000000
