
     Program PWSCF v.7.4.1 starts on 21Jan2026 at  4:39: 1 

     This program is part of the open-source Quantum ESPRESSO suite
     for quantum simulation of materials; please cite
         "P. Giannozzi et al., J. Phys.:Condens. Matter 21 395502 (2009);
         "P. Giannozzi et al., J. Phys.:Condens. Matter 29 465901 (2017);
         "P. Giannozzi et al., J. Chem. Phys. 152 154105 (2020);
          URL http://www.quantum-espresso.org", 
     in publications or presentations arising from this work. More details at
     http://www.quantum-espresso.org/quote

     Parallel version (MPI), running on    20 processors

     MPI processes distributed on     1 nodes
     123379 MiB available memory on the printing compute node when the environment starts
 
     Reading input from grap_SOC_scf.in

     Current dimensions of program PWSCF are:
     Max number of different atomic species (ntypx) = 10
     Max number of k-points (npk) =  40000
     Max angular momentum in pseudopotentials (lmaxx) =  4
     file C.rel-pz-n-kjpaw_psl.0.1.UPF: wavefunction(s)  2P 2P renormalized
 
     R & G space division:  proc/nbgrp/npool/nimage =      20
     Subspace diagonalization in iterative solution of the eigenvalue problem:
     a serial algorithm will be used

 
     Parallelization info
     --------------------
     sticks:   dense  smooth     PW     G-vecs:    dense   smooth      PW
     Min          51      21      6                 8167     2071     390
     Max          52      22      7                 8192     2088     421
     Sum        1039     421    139               163611    41503    8097
 
     Using Slab Decomposition
 


     bravais-lattice index     =            0
     lattice parameter (alat)  =       4.6223  a.u.
     unit-cell volume          =     522.6524 (a.u.)^3
     number of atoms/cell      =            2
     number of atomic types    =            1
     number of electrons       =         8.00
     number of Kohn-Sham states=           16
     kinetic-energy cutoff     =      70.0000  Ry
     charge density cutoff     =     700.0000  Ry
     scf convergence threshold =      1.0E-08
     mixing beta               =       0.1000
     number of iterations used =            8  plain     mixing
     Exchange-correlation= SLA  PZ   NOGX NOGC
                           (   1   1   0   0   0   0   0)
     Non magnetic calculation with spin-orbit


     celldm(1)=   4.622345  celldm(2)=   0.000000  celldm(3)=   0.000000
     celldm(4)=   0.000000  celldm(5)=   0.000000  celldm(6)=   0.000000

     crystal axes: (cart. coord. in units of alat)
               a(1) = (   1.000000   0.000000   0.000000 )  
               a(2) = (  -0.500000   0.866025   0.000000 )  
               a(3) = (   0.000000   0.000000   6.110762 )  

     reciprocal axes: (cart. coord. in units 2 pi/alat)
               b(1) = (  1.000000  0.577350  0.000000 )  
               b(2) = (  0.000000  1.154701  0.000000 )  
               b(3) = (  0.000000  0.000000  0.163646 )  


     PseudoPot. # 1 for C  read from file:
     ../../../PP_C/C.rel-pz-n-kjpaw_psl.0.1.UPF
     MD5 check sum: 9b227004301b41f0f491a5e582f66be3
     Pseudo is Projector augmented-wave + core cor, Zval =  4.0
     Generated using "atomic" code by A. Dal Corso  v.5.0.2 svn rev. 9415
     Shape of augmentation charge: BESSEL
     Using radial grid of 1073 points,  6 beta functions with: 
                l(1) =   0
                l(2) =   0
                l(3) =   1
                l(4) =   1
                l(5) =   1
                l(6) =   1
     Q(r) pseudized with 0 coefficients 


     atomic species   valence    mass     pseudopotential
     C                 4.00    12.01100     C ( 1.00)

     No symmetry found



   Cartesian axes

     site n.     atom                  positions (alat units)
         1        C      tau(   1) = (   0.0000000   0.0000000   0.0000000  )
         2        C      tau(   2) = (   0.0000000   0.5773503   0.0000000  )

     number of k points=    74  Gaussian smearing, width (Ry)=  0.0020
                       cart. coord. in units 2pi/alat
        k(    1) = (   0.0000000   0.0000000   0.0000000), wk =   0.0069444
        k(    2) = (   0.0000000   0.0962250   0.0000000), wk =   0.0138889
        k(    3) = (   0.0000000   0.1924501   0.0000000), wk =   0.0138889
        k(    4) = (   0.0000000   0.2886751   0.0000000), wk =   0.0138889
        k(    5) = (   0.0000000   0.3849002   0.0000000), wk =   0.0138889
        k(    6) = (   0.0000000   0.4811252   0.0000000), wk =   0.0138889
        k(    7) = (   0.0000000  -0.5773503   0.0000000), wk =   0.0069444
        k(    8) = (   0.0833333   0.0481125   0.0000000), wk =   0.0138889
        k(    9) = (   0.0833333   0.1443376   0.0000000), wk =   0.0138889
        k(   10) = (   0.0833333   0.2405626   0.0000000), wk =   0.0138889
        k(   11) = (   0.0833333   0.3367877   0.0000000), wk =   0.0138889
        k(   12) = (   0.0833333   0.4330127   0.0000000), wk =   0.0138889
        k(   13) = (   0.0833333   0.5292377   0.0000000), wk =   0.0138889
        k(   14) = (   0.0833333  -0.5292377   0.0000000), wk =   0.0138889
        k(   15) = (   0.0833333  -0.4330127   0.0000000), wk =   0.0138889
        k(   16) = (   0.0833333  -0.3367877   0.0000000), wk =   0.0138889
        k(   17) = (   0.0833333  -0.2405626   0.0000000), wk =   0.0138889
        k(   18) = (   0.0833333  -0.1443376   0.0000000), wk =   0.0138889
        k(   19) = (   0.0833333  -0.0481125   0.0000000), wk =   0.0138889
        k(   20) = (   0.1666667   0.0962250   0.0000000), wk =   0.0138889
        k(   21) = (   0.1666667   0.1924501   0.0000000), wk =   0.0138889
        k(   22) = (   0.1666667   0.2886751   0.0000000), wk =   0.0138889
        k(   23) = (   0.1666667   0.3849002   0.0000000), wk =   0.0138889
        k(   24) = (   0.1666667   0.4811252   0.0000000), wk =   0.0138889
        k(   25) = (   0.1666667   0.5773503   0.0000000), wk =   0.0138889
        k(   26) = (   0.1666667  -0.4811252   0.0000000), wk =   0.0138889
        k(   27) = (   0.1666667  -0.3849002   0.0000000), wk =   0.0138889
        k(   28) = (   0.1666667  -0.2886751   0.0000000), wk =   0.0138889
        k(   29) = (   0.1666667  -0.1924501   0.0000000), wk =   0.0138889
        k(   30) = (   0.1666667  -0.0962250   0.0000000), wk =   0.0138889
        k(   31) = (   0.1666667  -0.0000000   0.0000000), wk =   0.0138889
        k(   32) = (   0.2500000   0.1443376   0.0000000), wk =   0.0138889
        k(   33) = (   0.2500000   0.2405626   0.0000000), wk =   0.0138889
        k(   34) = (   0.2500000   0.3367877   0.0000000), wk =   0.0138889
        k(   35) = (   0.2500000   0.4330127   0.0000000), wk =   0.0138889
        k(   36) = (   0.2500000   0.5292377   0.0000000), wk =   0.0138889
        k(   37) = (   0.2500000   0.6254628   0.0000000), wk =   0.0138889
        k(   38) = (   0.2500000  -0.4330127   0.0000000), wk =   0.0138889
        k(   39) = (   0.2500000  -0.3367877   0.0000000), wk =   0.0138889
        k(   40) = (   0.2500000  -0.2405626   0.0000000), wk =   0.0138889
        k(   41) = (   0.2500000  -0.1443376   0.0000000), wk =   0.0138889
        k(   42) = (   0.2500000  -0.0481125   0.0000000), wk =   0.0138889
        k(   43) = (   0.2500000   0.0481125   0.0000000), wk =   0.0138889
        k(   44) = (   0.3333333   0.1924501   0.0000000), wk =   0.0138889
        k(   45) = (   0.3333333   0.2886751   0.0000000), wk =   0.0138889
        k(   46) = (   0.3333333   0.3849002   0.0000000), wk =   0.0138889
        k(   47) = (   0.3333333   0.4811252   0.0000000), wk =   0.0138889
        k(   48) = (   0.3333333   0.5773503   0.0000000), wk =   0.0138889
        k(   49) = (   0.3333333   0.6735753   0.0000000), wk =   0.0138889
        k(   50) = (   0.3333333  -0.3849002   0.0000000), wk =   0.0138889
        k(   51) = (   0.3333333  -0.2886751   0.0000000), wk =   0.0138889
        k(   52) = (   0.3333333  -0.1924501   0.0000000), wk =   0.0138889
        k(   53) = (   0.3333333  -0.0962250   0.0000000), wk =   0.0138889
        k(   54) = (   0.3333333  -0.0000000   0.0000000), wk =   0.0138889
        k(   55) = (   0.3333333   0.0962250   0.0000000), wk =   0.0138889
        k(   56) = (   0.4166667   0.2405626   0.0000000), wk =   0.0138889
        k(   57) = (   0.4166667   0.3367877   0.0000000), wk =   0.0138889
        k(   58) = (   0.4166667   0.4330127   0.0000000), wk =   0.0138889
        k(   59) = (   0.4166667   0.5292377   0.0000000), wk =   0.0138889
        k(   60) = (   0.4166667   0.6254628   0.0000000), wk =   0.0138889
        k(   61) = (   0.4166667   0.7216878   0.0000000), wk =   0.0138889
        k(   62) = (   0.4166667  -0.3367877   0.0000000), wk =   0.0138889
        k(   63) = (   0.4166667  -0.2405626   0.0000000), wk =   0.0138889
        k(   64) = (   0.4166667  -0.1443376   0.0000000), wk =   0.0138889
        k(   65) = (   0.4166667  -0.0481125   0.0000000), wk =   0.0138889
        k(   66) = (   0.4166667   0.0481125   0.0000000), wk =   0.0138889
        k(   67) = (   0.4166667   0.1443376   0.0000000), wk =   0.0138889
        k(   68) = (  -0.5000000  -0.2886751   0.0000000), wk =   0.0069444
        k(   69) = (  -0.5000000  -0.1924501   0.0000000), wk =   0.0138889
        k(   70) = (  -0.5000000  -0.0962250   0.0000000), wk =   0.0138889
        k(   71) = (  -0.5000000   0.0000000   0.0000000), wk =   0.0138889
        k(   72) = (  -0.5000000   0.0962250   0.0000000), wk =   0.0138889
        k(   73) = (  -0.5000000   0.1924501   0.0000000), wk =   0.0138889
        k(   74) = (  -0.5000000  -0.8660254   0.0000000), wk =   0.0069444

     Dense  grid:   163611 G-vectors     FFT dimensions: (  40,  40, 240)

     Smooth grid:    41503 G-vectors     FFT dimensions: (  25,  25, 160)

     Estimated max dynamical RAM per process >      40.43 MB

     Estimated total dynamical RAM >     808.50 MB

     Initial potential from superposition of free atoms

     starting charge       7.9999, renormalised to       8.0000

     negative rho (up, down):  2.416E-05 0.000E+00
     Starting wfcs are random
     Checking if some PAW data can be deallocated... 

     total cpu time spent up to now is        0.8 secs

     per-process dynamical memory:    54.6 Mb

     Self-consistent Calculation

     iteration #  1     ecut=    70.00 Ry     beta= 0.10
     Davidson diagonalization with overlap
     ethr =  1.00E-02,  avg # of iterations =  8.9

     negative rho (up, down):  1.907E-05 0.000E+00

     total cpu time spent up to now is        8.6 secs

     total energy              =     -35.71384519 Ry
     estimated scf accuracy    <       0.22931990 Ry

     iteration #  2     ecut=    70.00 Ry     beta= 0.10
     Davidson diagonalization with overlap
     ethr =  2.87E-03,  avg # of iterations =  1.0

     negative rho (up, down):  1.003E-04 0.000E+00

     total cpu time spent up to now is       10.3 secs

     total energy              =     -35.59831468 Ry
     estimated scf accuracy    <       0.17271734 Ry

     iteration #  3     ecut=    70.00 Ry     beta= 0.10
     Davidson diagonalization with overlap
     ethr =  2.16E-03,  avg # of iterations =  3.7

     negative rho (up, down):  7.773E-05 0.000E+00

     total cpu time spent up to now is       12.7 secs

     total energy              =     -35.63520257 Ry
     estimated scf accuracy    <       0.00591417 Ry

     iteration #  4     ecut=    70.00 Ry     beta= 0.10
     Davidson diagonalization with overlap
     ethr =  7.39E-05,  avg # of iterations =  6.2

     negative rho (up, down):  6.795E-05 0.000E+00

     total cpu time spent up to now is       16.0 secs

     total energy              =     -35.63606463 Ry
     estimated scf accuracy    <       0.00261479 Ry

     iteration #  5     ecut=    70.00 Ry     beta= 0.10
     Davidson diagonalization with overlap
     ethr =  3.27E-05,  avg # of iterations =  3.5

     negative rho (up, down):  1.022E-04 0.000E+00

     total cpu time spent up to now is       18.6 secs

     total energy              =     -35.63570037 Ry
     estimated scf accuracy    <       0.00289995 Ry

     iteration #  6     ecut=    70.00 Ry     beta= 0.10
     Davidson diagonalization with overlap
     ethr =  3.27E-05,  avg # of iterations =  1.2

     negative rho (up, down):  8.963E-05 0.000E+00

     total cpu time spent up to now is       20.3 secs

     total energy              =     -35.63597519 Ry
     estimated scf accuracy    <       0.00001243 Ry

     iteration #  7     ecut=    70.00 Ry     beta= 0.10
     Davidson diagonalization with overlap
     ethr =  1.55E-07,  avg # of iterations =  4.7

     negative rho (up, down):  7.926E-05 0.000E+00

     total cpu time spent up to now is       23.8 secs

     total energy              =     -35.63607339 Ry
     estimated scf accuracy    <       0.00000248 Ry

     iteration #  8     ecut=    70.00 Ry     beta= 0.10
     Davidson diagonalization with overlap
     ethr =  3.10E-08,  avg # of iterations =  1.0

     negative rho (up, down):  7.045E-05 0.000E+00

     total cpu time spent up to now is       25.5 secs

     total energy              =     -35.63607333 Ry
     estimated scf accuracy    <       0.00000195 Ry

     iteration #  9     ecut=    70.00 Ry     beta= 0.10
     Davidson diagonalization with overlap
     ethr =  2.43E-08,  avg # of iterations =  1.0

     negative rho (up, down):  6.241E-05 0.000E+00

     total cpu time spent up to now is       27.1 secs

     total energy              =     -35.63607314 Ry
     estimated scf accuracy    <       0.00000149 Ry

     iteration # 10     ecut=    70.00 Ry     beta= 0.10
     Davidson diagonalization with overlap
     ethr =  1.86E-08,  avg # of iterations =  1.0

     negative rho (up, down):  5.550E-05 0.000E+00

     total cpu time spent up to now is       28.8 secs

     total energy              =     -35.63607321 Ry
     estimated scf accuracy    <       0.00000022 Ry

     iteration # 11     ecut=    70.00 Ry     beta= 0.10
     Davidson diagonalization with overlap
     ethr =  2.74E-09,  avg # of iterations =  3.1

     negative rho (up, down):  4.942E-05 0.000E+00

     total cpu time spent up to now is       31.0 secs

     total energy              =     -35.63607330 Ry
     estimated scf accuracy    <       0.00000004 Ry

     iteration # 12     ecut=    70.00 Ry     beta= 0.10
     Davidson diagonalization with overlap
     ethr =  5.00E-10,  avg # of iterations =  2.6

     negative rho (up, down):  4.401E-05 0.000E+00

     total cpu time spent up to now is       33.0 secs

     total energy              =     -35.63607332 Ry
     estimated scf accuracy    <       0.00000003 Ry

     iteration # 13     ecut=    70.00 Ry     beta= 0.10
     Davidson diagonalization with overlap
     ethr =  3.46E-10,  avg # of iterations =  1.0

     negative rho (up, down):  3.928E-05 0.000E+00

     total cpu time spent up to now is       34.6 secs

     total energy              =     -35.63607334 Ry
     estimated scf accuracy    <       0.00000002 Ry

     iteration # 14     ecut=    70.00 Ry     beta= 0.10
     Davidson diagonalization with overlap
     ethr =  2.18E-10,  avg # of iterations =  1.9

     negative rho (up, down):  3.505E-05 0.000E+00

     total cpu time spent up to now is       36.4 secs

     total energy              =     -35.63607337 Ry
     estimated scf accuracy    <       0.00000004 Ry

     iteration # 15     ecut=    70.00 Ry     beta= 0.10
     Davidson diagonalization with overlap
     ethr =  2.18E-10,  avg # of iterations =  2.7

     negative rho (up, down):  3.144E-05 0.000E+00

     total cpu time spent up to now is       38.5 secs

     total energy              =     -35.63607338 Ry
     estimated scf accuracy    <       0.00000006 Ry

     iteration # 16     ecut=    70.00 Ry     beta= 0.10
     Davidson diagonalization with overlap
     ethr =  2.18E-10,  avg # of iterations =  1.0

     negative rho (up, down):  2.834E-05 0.000E+00

     total cpu time spent up to now is       40.1 secs

     total energy              =     -35.63607339 Ry
     estimated scf accuracy    <       0.00000005 Ry

     iteration # 17     ecut=    70.00 Ry     beta= 0.10
     Davidson diagonalization with overlap
     ethr =  2.18E-10,  avg # of iterations =  1.0

     negative rho (up, down):  2.554E-05 0.000E+00

     total cpu time spent up to now is       41.8 secs

     total energy              =     -35.63607340 Ry
     estimated scf accuracy    <       0.00000003 Ry

     iteration # 18     ecut=    70.00 Ry     beta= 0.10
     Davidson diagonalization with overlap
     ethr =  2.18E-10,  avg # of iterations =  1.0

     negative rho (up, down):  2.336E-05 0.000E+00

     total cpu time spent up to now is       43.5 secs

     total energy              =     -35.63607339 Ry
     estimated scf accuracy    <       0.00000005 Ry

     iteration # 19     ecut=    70.00 Ry     beta= 0.10
     Davidson diagonalization with overlap
     ethr =  2.18E-10,  avg # of iterations =  2.3

     negative rho (up, down):  1.323E-05 0.000E+00

     total cpu time spent up to now is       45.4 secs

     End of self-consistent calculation

          k = 0.0000 0.0000 0.0000 (  5163 PWs)   bands (ev):

   -21.4112 -21.4112  -9.7215  -9.7215  -4.9444  -4.9444  -4.9349  -4.9349
     1.4016   1.4016   2.4451   2.4451   2.8287   2.8287   4.7230   4.7230

          k = 0.0000 0.0962 0.0000 (  5149 PWs)   bands (ev):

   -21.2459 -21.2459  -9.5213  -9.5213  -5.5811  -5.5811  -5.2863  -5.2863
     1.6265   1.6265   2.6729   2.6729   3.0593   3.0593   4.9492   4.9492

          k = 0.0000 0.1925 0.0000 (  5145 PWs)   bands (ev):

   -20.7520 -20.7520  -8.9259  -8.9259  -7.2048  -7.2048  -6.0965  -6.0965
     2.3012   2.3012   3.3543   3.3543   3.7513   3.7513   5.6241   5.6241

          k = 0.0000 0.2887 0.0000 (  5157 PWs)   bands (ev):

   -19.9349 -19.9349  -9.2983  -9.2983  -7.9542  -7.9542  -6.9943  -6.9943
     3.4235   3.4235   4.4619   4.4619   4.9035   4.9035   5.4601   5.4601

          k = 0.0000 0.3849 0.0000 (  5172 PWs)   bands (ev):

   -18.8057 -18.8057 -11.5069 -11.5069  -7.7417  -7.7417  -6.6560  -6.6560
     3.0475   3.0475   4.9805   4.9805   6.0690   6.0691   6.0952   6.0952

          k = 0.0000 0.4811 0.0000 (  5182 PWs)   bands (ev):

   -17.3894 -17.3894 -13.6257 -13.6257  -8.2233  -8.2233  -5.1940  -5.1940
     0.8567   0.8567   5.8356   5.8356   7.0115   7.0115   8.0953   8.0953

          k = 0.0000-0.5774 0.0000 (  5192 PWs)   bands (ev):

   -16.0339 -16.0339 -15.2235 -15.2235  -8.3886  -8.3886  -4.3181  -4.3181
    -0.2785  -0.2785   5.7684   5.7684   9.3497   9.3497   9.4415   9.4415

          k = 0.0833 0.0481 0.0000 (  5149 PWs)   bands (ev):

   -21.2459 -21.2459  -9.5213  -9.5213  -5.5811  -5.5811  -5.2863  -5.2863
     1.6265   1.6265   2.6729   2.6729   3.0593   3.0593   4.9492   4.9492

          k = 0.0833 0.1443 0.0000 (  5148 PWs)   bands (ev):

   -20.9164 -20.9164  -9.1234  -9.1234  -6.5999  -6.5999  -5.9798  -5.9798
     2.0766   2.0766   3.1277   3.1277   3.5207   3.5208   5.4005   5.4005

          k = 0.0833 0.2406 0.0000 (  5152 PWs)   bands (ev):

   -20.2609 -20.2609  -8.3387  -8.3387  -8.2985  -8.2985  -6.9964  -6.9964
     2.9763   2.9763   4.0321   4.0321   4.4437   4.4437   6.2410   6.2414

          k = 0.0833 0.3368 0.0000 (  5168 PWs)   bands (ev):

   -19.2878 -19.2878 -10.3742 -10.3742  -7.8944  -7.8944  -7.1974  -7.1974
     4.0907   4.0907   4.3205   4.3205   5.4113   5.4113   5.8258   5.8258

          k = 0.0833 0.4330 0.0000 (  5176 PWs)   bands (ev):

   -18.0135 -18.0135 -12.5096 -12.5096  -8.5372  -8.5372  -5.7834  -5.7834
     1.8382   1.8382   6.0833   6.0833   6.6732   6.6732   7.1841   7.1841

          k = 0.0833 0.5292 0.0000 (  5180 PWs)   bands (ev):

   -16.4951 -16.4951 -14.4898 -14.4898  -8.8698  -8.8698  -4.4330  -4.4330
     0.0175   0.0175   6.4949   6.4949   8.3127   8.3127   9.3213   9.3213

          k = 0.0833-0.5292 0.0000 (  5180 PWs)   bands (ev):

   -16.4951 -16.4951 -14.4898 -14.4898  -8.8698  -8.8698  -4.4330  -4.4330
     0.0175   0.0175   6.4949   6.4949   8.3127   8.3127   9.3213   9.3213

          k = 0.0833-0.4330 0.0000 (  5176 PWs)   bands (ev):

   -18.0135 -18.0135 -12.5096 -12.5096  -8.5372  -8.5372  -5.7834  -5.7834
     1.8382   1.8382   6.0833   6.0834   6.6732   6.6732   7.1841   7.1841

          k = 0.0833-0.3368 0.0000 (  5168 PWs)   bands (ev):

   -19.2878 -19.2878 -10.3742 -10.3742  -7.8944  -7.8944  -7.1974  -7.1974
     4.0907   4.0907   4.3205   4.3205   5.4113   5.4113   5.8258   5.8258

          k = 0.0833-0.2406 0.0000 (  5152 PWs)   bands (ev):

   -20.2609 -20.2609  -8.3387  -8.3387  -8.2985  -8.2985  -6.9964  -6.9964
     2.9763   2.9763   4.0321   4.0321   4.4437   4.4437   6.2366   6.2409

          k = 0.0833-0.1443 0.0000 (  5148 PWs)   bands (ev):

   -20.9164 -20.9164  -9.1234  -9.1234  -6.5999  -6.5999  -5.9798  -5.9798
     2.0766   2.0766   3.1277   3.1277   3.5207   3.5208   5.4005   5.4005

          k = 0.0833-0.0481 0.0000 (  5149 PWs)   bands (ev):

   -21.2459 -21.2459  -9.5213  -9.5213  -5.5811  -5.5811  -5.2863  -5.2863
     1.6265   1.6265   2.6729   2.6729   3.0593   3.0593   4.9492   4.9492

          k = 0.1667 0.0962 0.0000 (  5145 PWs)   bands (ev):

   -20.7520 -20.7520  -8.9259  -8.9259  -7.2048  -7.2048  -6.0965  -6.0965
     2.3012   2.3012   3.3543   3.3543   3.7513   3.7513   5.6241   5.6241

          k = 0.1667 0.1925 0.0000 (  5152 PWs)   bands (ev):

   -20.2609 -20.2609  -8.3387  -8.3387  -8.2985  -8.2985  -6.9964  -6.9964
     2.9763   2.9763   4.0321   4.0321   4.4437   4.4437   6.2345   6.2410

          k = 0.1667 0.2887 0.0000 (  5152 PWs)   bands (ev):

   -19.4495 -19.4495  -9.6043  -9.6043  -8.3902  -8.3902  -7.3805  -7.3805
     4.0992   4.0992   4.5661   4.5661   5.1537   5.1537   5.5978   5.5978

          k = 0.1667 0.3849 0.0000 (  5165 PWs)   bands (ev):

   -18.3308 -18.3308 -11.3386 -11.3386  -9.4525  -9.4525  -6.0980  -6.0980
     2.5825   2.5825   5.6604   5.6604   6.6908   6.6909   7.2109   7.2109

          k = 0.1667 0.4811 0.0000 (  5170 PWs)   bands (ev):

   -16.9346 -16.9346 -13.2779 -13.2779 -10.0228 -10.0228  -4.6335  -4.6335
     0.6248   0.6248   7.6320   7.6320   8.3771   8.3771   8.5180   8.5180

          k = 0.1667 0.5774 0.0000 (  5200 PWs)   bands (ev):

   -15.6180 -15.6180 -14.7976 -14.7976 -10.2059 -10.2059  -3.7104  -3.7104
    -0.4773  -0.4773   8.2849   8.2849   9.6584   9.6584   9.9012   9.9014

          k = 0.1667-0.4811 0.0000 (  5170 PWs)   bands (ev):

   -16.9346 -16.9346 -13.2779 -13.2779 -10.0228 -10.0228  -4.6335  -4.6335
     0.6248   0.6248   7.6320   7.6320   8.3771   8.3771   8.5180   8.5180

          k = 0.1667-0.3849 0.0000 (  5165 PWs)   bands (ev):

   -18.3308 -18.3308 -11.3386 -11.3386  -9.4525  -9.4525  -6.0980  -6.0980
     2.5825   2.5825   5.6604   5.6604   6.6908   6.6909   7.2109   7.2109

          k = 0.1667-0.2887 0.0000 (  5152 PWs)   bands (ev):

   -19.4495 -19.4495  -9.6043  -9.6043  -8.3902  -8.3902  -7.3805  -7.3805
     4.0992   4.0992   4.5661   4.5661   5.1537   5.1537   5.5978   5.5978

          k = 0.1667-0.1925 0.0000 (  5152 PWs)   bands (ev):

   -20.2609 -20.2609  -8.3387  -8.3387  -8.2985  -8.2985  -6.9964  -6.9964
     2.9763   2.9763   4.0321   4.0321   4.4437   4.4437   6.2408   6.2411

          k = 0.1667-0.0962 0.0000 (  5145 PWs)   bands (ev):

   -20.7520 -20.7520  -8.9259  -8.9259  -7.2048  -7.2048  -6.0965  -6.0965
     2.3012   2.3012   3.3543   3.3543   3.7513   3.7513   5.6241   5.6241

          k = 0.1667-0.0000 0.0000 (  5148 PWs)   bands (ev):

   -20.9164 -20.9164  -9.1234  -9.1234  -6.5999  -6.5999  -5.9798  -5.9798
     2.0766   2.0766   3.1277   3.1277   3.5208   3.5208   5.4005   5.4005

          k = 0.2500 0.1443 0.0000 (  5157 PWs)   bands (ev):

   -19.9349 -19.9349  -9.2983  -9.2983  -7.9542  -7.9542  -6.9943  -6.9943
     3.4235   3.4235   4.4619   4.4619   4.9035   4.9035   5.4601   5.4601

          k = 0.2500 0.2406 0.0000 (  5168 PWs)   bands (ev):

   -19.2878 -19.2878 -10.3742 -10.3742  -7.8944  -7.8944  -7.1974  -7.1974
     4.0907   4.0907   4.3205   4.3205   5.4113   5.4113   5.8258   5.8258

          k = 0.2500 0.3368 0.0000 (  5165 PWs)   bands (ev):

   -18.3308 -18.3308 -11.3386 -11.3386  -9.4525  -9.4525  -6.0980  -6.0980
     2.5825   2.5825   5.6604   5.6604   6.6908   6.6909   7.2109   7.2109

          k = 0.2500 0.4330 0.0000 (  5174 PWs)   bands (ev):

   -17.0875 -17.0875 -12.3360 -12.3360 -10.9867 -10.9867  -4.7227  -4.7227
     0.9465   0.9465   7.4194   7.4194   8.1924   8.1925   9.0511   9.0511

          k = 0.2500 0.5292 0.0000 (  5188 PWs)   bands (ev):

   -15.6302 -15.6302 -13.7972 -13.7972 -11.6889 -11.6889  -3.3001  -3.3001
    -0.6042  -0.6042   8.8295   8.8295   9.5174   9.5174  10.5033  10.5033

          k = 0.2500 0.6255 0.0000 (  5188 PWs)   bands (ev):

   -15.6302 -15.6302 -13.7972 -13.7972 -11.6889 -11.6889  -3.3001  -3.3001
    -0.6042  -0.6042   8.8295   8.8295   9.5174   9.5174  10.5033  10.5033

          k = 0.2500-0.4330 0.0000 (  5174 PWs)   bands (ev):

   -17.0875 -17.0875 -12.3360 -12.3360 -10.9868 -10.9868  -4.7227  -4.7227
     0.9465   0.9465   7.4194   7.4194   8.1924   8.1925   9.0511   9.0511

          k = 0.2500-0.3368 0.0000 (  5165 PWs)   bands (ev):

   -18.3308 -18.3308 -11.3386 -11.3386  -9.4525  -9.4525  -6.0980  -6.0980
     2.5825   2.5825   5.6604   5.6604   6.6908   6.6909   7.2109   7.2109

          k = 0.2500-0.2406 0.0000 (  5168 PWs)   bands (ev):

   -19.2878 -19.2878 -10.3742 -10.3742  -7.8944  -7.8944  -7.1974  -7.1974
     4.0907   4.0907   4.3205   4.3205   5.4113   5.4113   5.8258   5.8258

          k = 0.2500-0.1443 0.0000 (  5157 PWs)   bands (ev):

   -19.9349 -19.9349  -9.2983  -9.2983  -7.9542  -7.9542  -6.9943  -6.9943
     3.4235   3.4235   4.4619   4.4619   4.9035   4.9035   5.4601   5.4601

          k = 0.2500-0.0481 0.0000 (  5152 PWs)   bands (ev):

   -20.2609 -20.2609  -8.3387  -8.3387  -8.2985  -8.2985  -6.9964  -6.9964
     2.9763   2.9763   4.0321   4.0321   4.4437   4.4437   6.2410   6.2411

          k = 0.2500 0.0481 0.0000 (  5152 PWs)   bands (ev):

   -20.2609 -20.2609  -8.3387  -8.3387  -8.2985  -8.2985  -6.9964  -6.9964
     2.9763   2.9763   4.0321   4.0321   4.4437   4.4437   6.2409   6.2411

          k = 0.3333 0.1925 0.0000 (  5172 PWs)   bands (ev):

   -18.8057 -18.8057 -11.5069 -11.5069  -7.7417  -7.7417  -6.6560  -6.6560
     3.0475   3.0475   4.9805   4.9805   6.0689   6.0690   6.0952   6.0952

          k = 0.3333 0.2887 0.0000 (  5176 PWs)   bands (ev):

   -18.0135 -18.0135 -12.5096 -12.5096  -8.5372  -8.5372  -5.7834  -5.7834
     1.8382   1.8382   6.0833   6.0833   6.6732   6.6732   7.1841   7.1841

          k = 0.3333 0.3849 0.0000 (  5170 PWs)   bands (ev):

   -16.9346 -16.9346 -13.2779 -13.2779 -10.0228 -10.0228  -4.6335  -4.6335
     0.6248   0.6248   7.6320   7.6320   8.3771   8.3771   8.5180   8.5180

          k = 0.3333 0.4811 0.0000 (  5188 PWs)   bands (ev):

   -15.6302 -15.6302 -13.7972 -13.7972 -11.6889 -11.6889  -3.3001  -3.3001
    -0.6042  -0.6042   8.8295   8.8295   9.5174   9.5174  10.5033  10.5033

          k = 0.3333 0.5774 0.0000 (  5220 PWs)   bands (ev):

   -14.3773 -14.3772 -14.3750 -14.3750 -12.6839 -12.6839  -1.9171  -1.9171
    -1.9171  -1.9171   8.4933   8.4933  11.1098  11.1098  11.1138  11.1138

          k = 0.3333 0.6736 0.0000 (  5188 PWs)   bands (ev):

   -15.6302 -15.6302 -13.7972 -13.7972 -11.6889 -11.6889  -3.3001  -3.3001
    -0.6042  -0.6042   8.8295   8.8295   9.5174   9.5174  10.5033  10.5033

          k = 0.3333-0.3849 0.0000 (  5170 PWs)   bands (ev):

   -16.9346 -16.9346 -13.2779 -13.2779 -10.0228 -10.0228  -4.6335  -4.6335
     0.6248   0.6248   7.6319   7.6320   8.3771   8.3771   8.5180   8.5180

          k = 0.3333-0.2887 0.0000 (  5176 PWs)   bands (ev):

   -18.0135 -18.0135 -12.5096 -12.5096  -8.5372  -8.5372  -5.7834  -5.7834
     1.8382   1.8382   6.0833   6.0834   6.6732   6.6732   7.1841   7.1841

          k = 0.3333-0.1925 0.0000 (  5172 PWs)   bands (ev):

   -18.8057 -18.8057 -11.5069 -11.5069  -7.7417  -7.7417  -6.6560  -6.6560
     3.0475   3.0475   4.9805   4.9805   6.0689   6.0690   6.0952   6.0952

          k = 0.3333-0.0962 0.0000 (  5168 PWs)   bands (ev):

   -19.2878 -19.2878 -10.3742 -10.3742  -7.8944  -7.8944  -7.1974  -7.1974
     4.0907   4.0907   4.3205   4.3205   5.4113   5.4113   5.8258   5.8258

          k = 0.3333-0.0000 0.0000 (  5152 PWs)   bands (ev):

   -19.4495 -19.4495  -9.6043  -9.6043  -8.3902  -8.3902  -7.3805  -7.3805
     4.0992   4.0992   4.5661   4.5661   5.1537   5.1537   5.5978   5.5978

          k = 0.3333 0.0962 0.0000 (  5168 PWs)   bands (ev):

   -19.2878 -19.2878 -10.3742 -10.3742  -7.8944  -7.8944  -7.1974  -7.1974
     4.0907   4.0907   4.3205   4.3205   5.4113   5.4113   5.8258   5.8258

          k = 0.4167 0.2406 0.0000 (  5182 PWs)   bands (ev):

   -17.3894 -17.3894 -13.6257 -13.6257  -8.2233  -8.2233  -5.1940  -5.1940
     0.8567   0.8567   5.8356   5.8356   7.0115   7.0115   8.0953   8.0954

          k = 0.4167 0.3368 0.0000 (  5180 PWs)   bands (ev):

   -16.4951 -16.4951 -14.4898 -14.4898  -8.8698  -8.8698  -4.4330  -4.4330
     0.0175   0.0175   6.4949   6.4949   8.3127   8.3127   9.3213   9.3213

          k = 0.4167 0.4330 0.0000 (  5200 PWs)   bands (ev):

   -15.6181 -15.6181 -14.7976 -14.7976 -10.2059 -10.2059  -3.7104  -3.7104
    -0.4773  -0.4773   8.2849   8.2849   9.6584   9.6584   9.9012   9.9014

          k = 0.4167 0.5292 0.0000 (  5188 PWs)   bands (ev):

   -15.6302 -15.6302 -13.7972 -13.7972 -11.6889 -11.6889  -3.3001  -3.3001
    -0.6042  -0.6042   8.8295   8.8295   9.5174   9.5174  10.5033  10.5033

          k = 0.4167 0.6255 0.0000 (  5188 PWs)   bands (ev):

   -15.6302 -15.6302 -13.7972 -13.7972 -11.6889 -11.6889  -3.3001  -3.3001
    -0.6042  -0.6042   8.8295   8.8295   9.5174   9.5174  10.5033  10.5033

          k = 0.4167 0.7217 0.0000 (  5200 PWs)   bands (ev):

   -15.6181 -15.6181 -14.7976 -14.7976 -10.2059 -10.2059  -3.7104  -3.7104
    -0.4773  -0.4773   8.2849   8.2849   9.6584   9.6584   9.9012   9.9014

          k = 0.4167-0.3368 0.0000 (  5180 PWs)   bands (ev):

   -16.4951 -16.4951 -14.4897 -14.4897  -8.8698  -8.8698  -4.4330  -4.4330
     0.0175   0.0175   6.4949   6.4949   8.3127   8.3128   9.3213   9.3213

          k = 0.4167-0.2406 0.0000 (  5182 PWs)   bands (ev):

   -17.3894 -17.3894 -13.6257 -13.6257  -8.2233  -8.2233  -5.1940  -5.1940
     0.8567   0.8567   5.8356   5.8356   7.0115   7.0115   8.0953   8.0954

          k = 0.4167-0.1443 0.0000 (  5176 PWs)   bands (ev):

   -18.0135 -18.0135 -12.5096 -12.5096  -8.5372  -8.5372  -5.7834  -5.7834
     1.8382   1.8382   6.0833   6.0833   6.6732   6.6732   7.1841   7.1841

          k = 0.4167-0.0481 0.0000 (  5165 PWs)   bands (ev):

   -18.3308 -18.3308 -11.3386 -11.3386  -9.4525  -9.4525  -6.0980  -6.0980
     2.5825   2.5825   5.6604   5.6604   6.6908   6.6909   7.2109   7.2109

          k = 0.4167 0.0481 0.0000 (  5165 PWs)   bands (ev):

   -18.3308 -18.3308 -11.3386 -11.3386  -9.4525  -9.4525  -6.0980  -6.0980
     2.5825   2.5825   5.6604   5.6604   6.6908   6.6909   7.2109   7.2109

          k = 0.4167 0.1443 0.0000 (  5176 PWs)   bands (ev):

   -18.0135 -18.0135 -12.5096 -12.5096  -8.5372  -8.5372  -5.7834  -5.7834
     1.8382   1.8382   6.0833   6.0834   6.6732   6.6732   7.1841   7.1841

          k =-0.5000-0.2887 0.0000 (  5192 PWs)   bands (ev):

   -16.0339 -16.0339 -15.2234 -15.2234  -8.3886  -8.3886  -4.3181  -4.3181
    -0.2785  -0.2785   5.7684   5.7684   9.3497   9.3497   9.4415   9.4415

          k =-0.5000-0.1925 0.0000 (  5180 PWs)   bands (ev):

   -16.4951 -16.4951 -14.4897 -14.4897  -8.8698  -8.8698  -4.4330  -4.4330
     0.0175   0.0175   6.4949   6.4949   8.3127   8.3127   9.3213   9.3213

          k =-0.5000-0.0962 0.0000 (  5170 PWs)   bands (ev):

   -16.9346 -16.9346 -13.2779 -13.2779 -10.0228 -10.0228  -4.6335  -4.6335
     0.6248   0.6248   7.6320   7.6320   8.3771   8.3771   8.5180   8.5180

          k =-0.5000 0.0000 0.0000 (  5174 PWs)   bands (ev):

   -17.0875 -17.0875 -12.3360 -12.3360 -10.9868 -10.9868  -4.7227  -4.7227
     0.9465   0.9465   7.4194   7.4194   8.1924   8.1925   9.0511   9.0511

          k =-0.5000 0.0962 0.0000 (  5170 PWs)   bands (ev):

   -16.9346 -16.9346 -13.2779 -13.2779 -10.0228 -10.0228  -4.6335  -4.6335
     0.6248   0.6248   7.6320   7.6320   8.3771   8.3771   8.5180   8.5180

          k =-0.5000 0.1925 0.0000 (  5180 PWs)   bands (ev):

   -16.4951 -16.4951 -14.4897 -14.4897  -8.8698  -8.8698  -4.4330  -4.4330
     0.0175   0.0175   6.4949   6.4949   8.3127   8.3128   9.3213   9.3213

          k =-0.5000-0.8660 0.0000 (  5192 PWs)   bands (ev):

   -16.0339 -16.0339 -15.2234 -15.2234  -8.3886  -8.3886  -4.3181  -4.3181
    -0.2785  -0.2785   5.7684   5.7684   9.3497   9.3497   9.4415   9.4415

     the Fermi energy is    -1.91711792 ev

!    total energy              =     -35.63607344 Ry
     total all-electron energy =      -151.245364 Ry
     estimated scf accuracy    <          7.3E-10 Ry
     smearing contrib. (-TS)   =      -0.00003134 Ry
     internal energy E=F+TS    =     -35.63604210 Ry

     The total energy is F=E-TS. E is the sum of the following terms:
     one-electron contribution =    -158.66112764 Ry
     hartree contribution      =      80.93853435 Ry
     xc contribution           =      -8.28324302 Ry
     ewald contribution        =      62.46262411 Ry
     one-center paw contrib.   =     -12.09282989 Ry

     convergence has been achieved in  19 iterations

     negative rho (up, down):  1.323E-05 0.000E+00

     Forces acting on atoms (cartesian axes, Ry/au):

     atom    1 type  1   force =     0.00000103   -0.00000896    0.00000212
     atom    2 type  1   force =    -0.00000103    0.00000896   -0.00000212

     Total force =     0.000013     Total SCF correction =     0.000067
     SCF correction compared to forces is large: reduce conv_thr to get better values


     Computing stress (Cartesian axis) and pressure


     negative rho (up, down):  1.323E-05 0.000E+00
          total   stress  (Ry/bohr**3)                   (kbar)     P=        0.06
   0.00000102  -0.00000000   0.00000000            0.15       -0.00        0.00
  -0.00000000   0.00000104  -0.00000000           -0.00        0.15       -0.00
   0.00000000  -0.00000000  -0.00000093            0.00       -0.00       -0.14


     Writing all to output data dir ../tmp/graphene.save/ :
     XML data file, charge density, pseudopotentials, collected wavefunctions
 
     init_run     :      0.69s CPU      0.75s WALL (       1 calls)
     electrons    :     42.82s CPU     44.66s WALL (       1 calls)
     forces       :      0.10s CPU      0.10s WALL (       1 calls)
     stress       :      0.40s CPU      0.41s WALL (       1 calls)

     Called by init_run:
     wfcinit      :      0.61s CPU      0.65s WALL (       1 calls)
     potinit      :      0.01s CPU      0.02s WALL (       1 calls)
     hinit0       :      0.02s CPU      0.02s WALL (       1 calls)

     Called by electrons:
     c_bands      :     36.44s CPU     37.88s WALL (      19 calls)
     sum_band     :      5.77s CPU      6.04s WALL (      19 calls)
     v_of_rho     :      0.03s CPU      0.04s WALL (      20 calls)
     newd         :      0.32s CPU      0.33s WALL (      20 calls)
     PAW_pot      :      0.10s CPU      0.10s WALL (      20 calls)
     mix_rho      :      0.10s CPU      0.10s WALL (      19 calls)

     Called by c_bands:
     init_us_2    :      0.23s CPU      0.25s WALL (    3034 calls)
     cegterg      :     35.41s CPU     36.78s WALL (    1406 calls)

     Called by *egterg:
     cdiaghg      :      4.51s CPU      4.59s WALL (    5022 calls)
     h_psi        :     27.40s CPU     28.61s WALL (    5096 calls)
     s_psi        :      0.57s CPU      0.60s WALL (    5096 calls)
     g_psi        :      0.09s CPU      0.09s WALL (    3616 calls)

     Called by h_psi:
     h_psi:calbec :      0.68s CPU      0.72s WALL (    5096 calls)
     vloc_psi     :     25.98s CPU     27.12s WALL (    5096 calls)
     add_vuspsi   :      0.57s CPU      0.60s WALL (    5096 calls)

     General routines
     calbec       :      1.02s CPU      1.06s WALL (    7760 calls)
     fft          :      0.16s CPU      0.16s WALL (     357 calls)
     ffts         :      0.02s CPU      0.02s WALL (     156 calls)
     fftw         :     23.27s CPU     24.30s WALL (  290900 calls)
     interpolate  :      0.04s CPU      0.04s WALL (      80 calls)
 
     Parallel routines
 
     PWSCF        :     44.31s CPU     48.53s WALL

 
   This run was terminated on:   4:39:49  21Jan2026            

=------------------------------------------------------------------------------=
   JOB DONE.
=------------------------------------------------------------------------------=
