
     Program PWSCF v.7.4.1 starts on 27Oct2025 at  9:38:16 

     This program is part of the open-source Quantum ESPRESSO suite
     for quantum simulation of materials; please cite
         "P. Giannozzi et al., J. Phys.:Condens. Matter 21 395502 (2009);
         "P. Giannozzi et al., J. Phys.:Condens. Matter 29 465901 (2017);
         "P. Giannozzi et al., J. Chem. Phys. 152 154105 (2020);
          URL http://www.quantum-espresso.org", 
     in publications or presentations arising from this work. More details at
     http://www.quantum-espresso.org/quote

     Serial version
     10922 MiB available memory on the printing compute node when the environment starts

     Reading input from grap_SOC_scf.in

     Current dimensions of program PWSCF are:
     Max number of different atomic species (ntypx) = 10
     Max number of k-points (npk) =  40000
     Max angular momentum in pseudopotentials (lmaxx) =  4
     file C.rel-pbe-n-kjpaw_psl.1.0.0.UPF: wavefunction(s)  2S 2P 2P renormalized


     G-vector sticks info
     --------------------
     sticks:   dense  smooth     PW     G-vecs:    dense   smooth      PW
     Sum        1045     421    139               166859    42343    8205

     Using Slab Decomposition



     bravais-lattice index     =            0
     lattice parameter (alat)  =       4.6624  a.u.
     unit-cell volume          =     533.6317 (a.u.)^3
     number of atoms/cell      =            2
     number of atomic types    =            1
     number of electrons       =         8.00
     number of Kohn-Sham states=           16
     kinetic-energy cutoff     =      70.0000  Ry
     charge density cutoff     =     700.0000  Ry
     scf convergence threshold =      1.0E-08
     mixing beta               =       0.1000
     number of iterations used =            8  plain     mixing
     Exchange-correlation= SLA  PW   PBX  PBC
                           (   1   4   3   4   0   0   0)
     Non magnetic calculation with spin-orbit


     celldm(1)=   4.662410  celldm(2)=   0.000000  celldm(3)=   0.000000
     celldm(4)=   0.000000  celldm(5)=   0.000000  celldm(6)=   0.000000

     crystal axes: (cart. coord. in units of alat)
               a(1) = (   1.000000   0.000000  -0.000000 )  
               a(2) = (  -0.500000   0.866025   0.000000 )  
               a(3) = (  -0.000000   0.000000   6.079666 )  

     reciprocal axes: (cart. coord. in units 2 pi/alat)
               b(1) = (  1.000000  0.577350  0.000000 )  
               b(2) = ( -0.000000  1.154701 -0.000000 )  
               b(3) = (  0.000000  0.000000  0.164483 )  


     PseudoPot. # 1 for C  read from file:
     ../../../pseudos/C.rel-pbe-n-kjpaw_psl.1.0.0.UPF
     MD5 check sum: dd2b8f743de1f3a10095e4114fb28074
     Pseudo is Projector augmented-wave + core cor, Zval =  4.0
     Generated using &quot;atomic&quot; code by A. Dal Corso  v.6.3
     Shape of augmentation charge: PSQ
     Using radial grid of 1073 points,  6 beta functions with: 
                l(1) =   0
                l(2) =   0
                l(3) =   1
                l(4) =   1
                l(5) =   1
                l(6) =   1
     Q(r) pseudized with 0 coefficients 


     atomic species   valence    mass     pseudopotential
     C                 4.00    12.01100     C ( 1.00)

     No symmetry found



   Cartesian axes

     site n.     atom                  positions (alat units)
         1        C      tau(   1) = (   0.0000000   0.0000000   0.0000000  )
         2        C      tau(   2) = (   0.0000000   0.5773503   0.0000000  )

     number of k points=    74  Gaussian smearing, width (Ry)=  0.0020
                       cart. coord. in units 2pi/alat
        k(    1) = (   0.0000000   0.0000000   0.0000000), wk =   0.0069444
        k(    2) = (   0.0000000   0.0962250   0.0000000), wk =   0.0138889
        k(    3) = (   0.0000000   0.1924501   0.0000000), wk =   0.0138889
        k(    4) = (   0.0000000   0.2886751   0.0000000), wk =   0.0138889
        k(    5) = (   0.0000000   0.3849002   0.0000000), wk =   0.0138889
        k(    6) = (   0.0000000   0.4811252   0.0000000), wk =   0.0138889
        k(    7) = (   0.0000000  -0.5773503   0.0000000), wk =   0.0069444
        k(    8) = (   0.0833333   0.0481125   0.0000000), wk =   0.0138889
        k(    9) = (   0.0833333   0.1443376   0.0000000), wk =   0.0138889
        k(   10) = (   0.0833333   0.2405626   0.0000000), wk =   0.0138889
        k(   11) = (   0.0833333   0.3367877   0.0000000), wk =   0.0138889
        k(   12) = (   0.0833333   0.4330127   0.0000000), wk =   0.0138889
        k(   13) = (   0.0833333   0.5292377   0.0000000), wk =   0.0138889
        k(   14) = (   0.0833333  -0.5292377   0.0000000), wk =   0.0138889
        k(   15) = (   0.0833333  -0.4330127   0.0000000), wk =   0.0138889
        k(   16) = (   0.0833333  -0.3367877   0.0000000), wk =   0.0138889
        k(   17) = (   0.0833333  -0.2405626   0.0000000), wk =   0.0138889
        k(   18) = (   0.0833333  -0.1443376   0.0000000), wk =   0.0138889
        k(   19) = (   0.0833333  -0.0481125   0.0000000), wk =   0.0138889
        k(   20) = (   0.1666667   0.0962250   0.0000000), wk =   0.0138889
        k(   21) = (   0.1666667   0.1924501   0.0000000), wk =   0.0138889
        k(   22) = (   0.1666667   0.2886751   0.0000000), wk =   0.0138889
        k(   23) = (   0.1666667   0.3849002   0.0000000), wk =   0.0138889
        k(   24) = (   0.1666667   0.4811252   0.0000000), wk =   0.0138889
        k(   25) = (   0.1666667   0.5773503   0.0000000), wk =   0.0138889
        k(   26) = (   0.1666667  -0.4811252   0.0000000), wk =   0.0138889
        k(   27) = (   0.1666667  -0.3849002   0.0000000), wk =   0.0138889
        k(   28) = (   0.1666667  -0.2886751   0.0000000), wk =   0.0138889
        k(   29) = (   0.1666667  -0.1924501   0.0000000), wk =   0.0138889
        k(   30) = (   0.1666667  -0.0962250   0.0000000), wk =   0.0138889
        k(   31) = (   0.1666667  -0.0000000   0.0000000), wk =   0.0138889
        k(   32) = (   0.2500000   0.1443376   0.0000000), wk =   0.0138889
        k(   33) = (   0.2500000   0.2405626   0.0000000), wk =   0.0138889
        k(   34) = (   0.2500000   0.3367877   0.0000000), wk =   0.0138889
        k(   35) = (   0.2500000   0.4330127   0.0000000), wk =   0.0138889
        k(   36) = (   0.2500000   0.5292377   0.0000000), wk =   0.0138889
        k(   37) = (   0.2500000   0.6254628   0.0000000), wk =   0.0138889
        k(   38) = (   0.2500000  -0.4330127   0.0000000), wk =   0.0138889
        k(   39) = (   0.2500000  -0.3367877   0.0000000), wk =   0.0138889
        k(   40) = (   0.2500000  -0.2405626   0.0000000), wk =   0.0138889
        k(   41) = (   0.2500000  -0.1443376   0.0000000), wk =   0.0138889
        k(   42) = (   0.2500000  -0.0481125   0.0000000), wk =   0.0138889
        k(   43) = (   0.2500000   0.0481125   0.0000000), wk =   0.0138889
        k(   44) = (   0.3333333   0.1924501   0.0000000), wk =   0.0138889
        k(   45) = (   0.3333333   0.2886751   0.0000000), wk =   0.0138889
        k(   46) = (   0.3333333   0.3849002   0.0000000), wk =   0.0138889
        k(   47) = (   0.3333333   0.4811252   0.0000000), wk =   0.0138889
        k(   48) = (   0.3333333   0.5773503   0.0000000), wk =   0.0138889
        k(   49) = (   0.3333333   0.6735753   0.0000000), wk =   0.0138889
        k(   50) = (   0.3333333  -0.3849002   0.0000000), wk =   0.0138889
        k(   51) = (   0.3333333  -0.2886751   0.0000000), wk =   0.0138889
        k(   52) = (   0.3333333  -0.1924501   0.0000000), wk =   0.0138889
        k(   53) = (   0.3333333  -0.0962250   0.0000000), wk =   0.0138889
        k(   54) = (   0.3333333   0.0000000   0.0000000), wk =   0.0138889
        k(   55) = (   0.3333333   0.0962250   0.0000000), wk =   0.0138889
        k(   56) = (   0.4166667   0.2405626   0.0000000), wk =   0.0138889
        k(   57) = (   0.4166667   0.3367877   0.0000000), wk =   0.0138889
        k(   58) = (   0.4166667   0.4330127   0.0000000), wk =   0.0138889
        k(   59) = (   0.4166667   0.5292377   0.0000000), wk =   0.0138889
        k(   60) = (   0.4166667   0.6254628   0.0000000), wk =   0.0138889
        k(   61) = (   0.4166667   0.7216878   0.0000000), wk =   0.0138889
        k(   62) = (   0.4166667  -0.3367877   0.0000000), wk =   0.0138889
        k(   63) = (   0.4166667  -0.2405626   0.0000000), wk =   0.0138889
        k(   64) = (   0.4166667  -0.1443376   0.0000000), wk =   0.0138889
        k(   65) = (   0.4166667  -0.0481125   0.0000000), wk =   0.0138889
        k(   66) = (   0.4166667   0.0481125   0.0000000), wk =   0.0138889
        k(   67) = (   0.4166667   0.1443376   0.0000000), wk =   0.0138889
        k(   68) = (  -0.5000000  -0.2886751   0.0000000), wk =   0.0069444
        k(   69) = (  -0.5000000  -0.1924501   0.0000000), wk =   0.0138889
        k(   70) = (  -0.5000000  -0.0962250   0.0000000), wk =   0.0138889
        k(   71) = (  -0.5000000   0.0000000   0.0000000), wk =   0.0138889
        k(   72) = (  -0.5000000   0.0962250   0.0000000), wk =   0.0138889
        k(   73) = (  -0.5000000   0.1924501   0.0000000), wk =   0.0138889
        k(   74) = (  -0.5000000  -0.8660254   0.0000000), wk =   0.0069444

     Dense  grid:   166859 G-vectors     FFT dimensions: (  40,  40, 240)

     Smooth grid:    42343 G-vectors     FFT dimensions: (  25,  25, 160)

     Estimated max dynamical RAM per process >     798.94 MB

     Initial potential from superposition of free atoms

     starting charge       7.9999, renormalised to       8.0000

     negative rho (up, down):  2.223E-05 0.000E+00
     Starting wfcs are random

     total cpu time spent up to now is        8.3 secs

     Self-consistent Calculation

     iteration #  1     ecut=    70.00 Ry     beta= 0.10
     Davidson diagonalization with overlap
     ethr =  1.00E-02,  avg # of iterations =  8.5

     negative rho (up, down):  2.182E-05 0.000E+00

     total cpu time spent up to now is       85.2 secs

     total energy              =     -36.95134411 Ry
     estimated scf accuracy    <       0.20284154 Ry

     iteration #  2     ecut=    70.00 Ry     beta= 0.10
     Davidson diagonalization with overlap
     ethr =  2.54E-03,  avg # of iterations =  1.0

     negative rho (up, down):  2.716E-05 0.000E+00

     total cpu time spent up to now is      101.2 secs

     total energy              =     -36.86223742 Ry
     estimated scf accuracy    <       0.14948426 Ry

     iteration #  3     ecut=    70.00 Ry     beta= 0.10
     Davidson diagonalization with overlap
     ethr =  1.87E-03,  avg # of iterations =  2.4

     negative rho (up, down):  2.707E-05 0.000E+00

     total cpu time spent up to now is      123.3 secs

     total energy              =     -36.88689722 Ry
     estimated scf accuracy    <       0.00230303 Ry

     iteration #  4     ecut=    70.00 Ry     beta= 0.10
     Davidson diagonalization with overlap
     ethr =  2.88E-05,  avg # of iterations =  6.4

     negative rho (up, down):  3.057E-05 0.000E+00

     total cpu time spent up to now is      157.9 secs

     total energy              =     -36.88727558 Ry
     estimated scf accuracy    <       0.00143937 Ry

     iteration #  5     ecut=    70.00 Ry     beta= 0.10
     Davidson diagonalization with overlap
     ethr =  1.80E-05,  avg # of iterations =  1.0

     negative rho (up, down):  3.432E-05 0.000E+00

     total cpu time spent up to now is      174.3 secs

     total energy              =     -36.88731709 Ry
     estimated scf accuracy    <       0.00014132 Ry

     iteration #  6     ecut=    70.00 Ry     beta= 0.10
     Davidson diagonalization with overlap
     ethr =  1.77E-06,  avg # of iterations =  3.3

     negative rho (up, down):  3.309E-05 0.000E+00

     total cpu time spent up to now is      198.9 secs

     total energy              =     -36.88725862 Ry
     estimated scf accuracy    <       0.00021809 Ry

     iteration #  7     ecut=    70.00 Ry     beta= 0.10
     Davidson diagonalization with overlap
     ethr =  1.77E-06,  avg # of iterations =  2.7

     negative rho (up, down):  3.328E-05 0.000E+00

     total cpu time spent up to now is      220.3 secs

     total energy              =     -36.88728829 Ry
     estimated scf accuracy    <       0.00000196 Ry

     iteration #  8     ecut=    70.00 Ry     beta= 0.10
     Davidson diagonalization with overlap
     ethr =  2.44E-08,  avg # of iterations =  1.6

     negative rho (up, down):  3.378E-05 0.000E+00

     total cpu time spent up to now is      237.2 secs

     total energy              =     -36.88728853 Ry
     estimated scf accuracy    <       0.00000136 Ry

     iteration #  9     ecut=    70.00 Ry     beta= 0.10
     Davidson diagonalization with overlap
     ethr =  1.70E-08,  avg # of iterations =  2.0

     negative rho (up, down):  3.395E-05 0.000E+00

     total cpu time spent up to now is      254.7 secs

     total energy              =     -36.88728864 Ry
     estimated scf accuracy    <       0.00000014 Ry

     iteration # 10     ecut=    70.00 Ry     beta= 0.10
     Davidson diagonalization with overlap
     ethr =  1.70E-09,  avg # of iterations =  1.6

     negative rho (up, down):  3.405E-05 0.000E+00

     total cpu time spent up to now is      271.9 secs

     total energy              =     -36.88728867 Ry
     estimated scf accuracy    <       0.00000001 Ry

     iteration # 11     ecut=    70.00 Ry     beta= 0.10
     Davidson diagonalization with overlap
     ethr =  1.38E-10,  avg # of iterations =  1.8

     negative rho (up, down):  3.550E-05 0.000E+00

     total cpu time spent up to now is      289.2 secs

     End of self-consistent calculation

          k = 0.0000 0.0000 0.0000 (  5307 PWs)   bands (ev):

   -21.2393 -21.2393  -9.3358  -9.3358  -4.7820  -4.7820  -4.7728  -4.7728
     1.5163   1.5163   2.4090   2.4090   2.8338   2.8338   4.7339   4.7339

          k = 0.0000 0.0962 0.0000 (  5285 PWs)   bands (ev):

   -21.0755 -21.0755  -9.1401  -9.1401  -5.4281  -5.4281  -5.1153  -5.1153
     1.7392   1.7392   2.6336   2.6336   3.0604   3.0604   4.9569   4.9569

          k = 0.0000 0.1925 0.0000 (  5253 PWs)   bands (ev):

   -20.5860 -20.5860  -8.5582  -8.5582  -7.0655  -7.0655  -5.9069  -5.9069
     2.4075   2.4075   3.3059   3.3059   3.7402   3.7402   5.6228   5.6228

          k = 0.0000 0.2887 0.0000 (  5269 PWs)   bands (ev):

   -19.7765 -19.7765  -9.1631  -9.1631  -7.6092  -7.6092  -6.7859  -6.7859
     3.5192   3.5192   4.4065   4.4065   4.8721   4.8721   5.5252   5.5252

          k = 0.0000 0.3849 0.0000 (  5285 PWs)   bands (ev):

   -18.6593 -18.6593 -11.3649 -11.3649  -7.5188  -7.5188  -6.3436  -6.3436
     3.1811   3.1811   5.0625   5.0625   5.9814   5.9814   6.0093   6.0093

          k = 0.0000 0.4811 0.0000 (  5290 PWs)   bands (ev):

   -17.2655 -17.2655 -13.4630 -13.4630  -7.9913  -7.9913  -4.9241  -4.9241
     1.0513   1.0513   5.7271   5.7271   7.0704   7.0704   7.9927   7.9927

          k = 0.0000-0.5774 0.0000 (  5288 PWs)   bands (ev):

   -16.0068 -16.0068 -14.9643 -14.9643  -8.1535  -8.1535  -4.0818  -4.0818
    -0.0434  -0.0434   5.6476   5.6476   9.3733   9.3733   9.5218   9.5218

          k = 0.0833 0.0481 0.0000 (  5285 PWs)   bands (ev):

   -21.0755 -21.0755  -9.1401  -9.1401  -5.4281  -5.4281  -5.1153  -5.1153
     1.7392   1.7392   2.6336   2.6336   3.0604   3.0604   4.9569   4.9569

          k = 0.0833 0.1443 0.0000 (  5269 PWs)   bands (ev):

   -20.7489 -20.7489  -8.7512  -8.7512  -6.4619  -6.4619  -5.7920  -5.7920
     2.1849   2.1849   3.0822   3.0822   3.5137   3.5137   5.4019   5.4019

          k = 0.0833 0.2406 0.0000 (  5261 PWs)   bands (ev):

   -20.0994 -20.0994  -8.1714  -8.1714  -7.9846  -7.9846  -6.7890  -6.7890
     3.0758   3.0758   3.9754   3.9754   4.4204   4.4204   6.2500   6.2500

          k = 0.0833 0.3368 0.0000 (  5275 PWs)   bands (ev):

   -19.1359 -19.1359 -10.2432 -10.2432  -7.6748  -7.6748  -6.8708  -6.8708
     4.1902   4.1902   4.4075   4.4075   5.3363   5.3363   5.7778   5.7778

          k = 0.0833 0.4330 0.0000 (  5284 PWs)   bands (ev):

   -17.8772 -17.8772 -12.3642 -12.3642  -8.3092  -8.3092  -5.4941  -5.4941
     1.9956   1.9956   6.1517   6.1517   6.5836   6.5836   7.0935   7.0935

          k = 0.0833 0.5292 0.0000 (  5302 PWs)   bands (ev):

   -16.4007 -16.4007 -14.3026 -14.3026  -8.6374  -8.6374  -4.1880  -4.1880
     0.2315   0.2315   6.3857   6.3857   8.3678   8.3678   9.2422   9.2422

          k = 0.0833-0.5292 0.0000 (  5302 PWs)   bands (ev):

   -16.4007 -16.4007 -14.3026 -14.3026  -8.6374  -8.6374  -4.1880  -4.1880
     0.2315   0.2315   6.3857   6.3857   8.3678   8.3678   9.2422   9.2422

          k = 0.0833-0.4330 0.0000 (  5284 PWs)   bands (ev):

   -17.8772 -17.8772 -12.3642 -12.3642  -8.3092  -8.3092  -5.4941  -5.4941
     1.9956   1.9956   6.1517   6.1517   6.5836   6.5837   7.0935   7.0935

          k = 0.0833-0.3368 0.0000 (  5275 PWs)   bands (ev):

   -19.1359 -19.1359 -10.2432 -10.2432  -7.6748  -7.6748  -6.8708  -6.8708
     4.1902   4.1902   4.4075   4.4075   5.3363   5.3363   5.7778   5.7778

          k = 0.0833-0.2406 0.0000 (  5261 PWs)   bands (ev):

   -20.0994 -20.0994  -8.1714  -8.1714  -7.9846  -7.9846  -6.7890  -6.7890
     3.0758   3.0758   3.9754   3.9754   4.4204   4.4204   6.2500   6.2500

          k = 0.0833-0.1443 0.0000 (  5269 PWs)   bands (ev):

   -20.7489 -20.7489  -8.7512  -8.7512  -6.4619  -6.4619  -5.7919  -5.7919
     2.1849   2.1849   3.0822   3.0822   3.5137   3.5137   5.4019   5.4019

          k = 0.0833-0.0481 0.0000 (  5285 PWs)   bands (ev):

   -21.0755 -21.0755  -9.1401  -9.1401  -5.4281  -5.4281  -5.1153  -5.1153
     1.7392   1.7392   2.6336   2.6336   3.0604   3.0604   4.9569   4.9569

          k = 0.1667 0.0962 0.0000 (  5253 PWs)   bands (ev):

   -20.5860 -20.5860  -8.5582  -8.5582  -7.0655  -7.0655  -5.9069  -5.9069
     2.4075   2.4075   3.3059   3.3059   3.7402   3.7402   5.6228   5.6228

          k = 0.1667 0.1925 0.0000 (  5261 PWs)   bands (ev):

   -20.0994 -20.0994  -8.1713  -8.1713  -7.9846  -7.9846  -6.7891  -6.7891
     3.0758   3.0758   3.9754   3.9754   4.4204   4.4204   6.2500   6.2500

          k = 0.1667 0.2887 0.0000 (  5288 PWs)   bands (ev):

   -19.2958 -19.2958  -9.5020  -9.5020  -8.1493  -8.1493  -7.0492  -7.0492
     4.1876   4.1876   4.6450   4.6450   5.0851   5.0851   5.5540   5.5540

          k = 0.1667 0.3849 0.0000 (  5285 PWs)   bands (ev):

   -18.1894 -18.1894 -11.2281 -11.2281  -9.2050  -9.2050  -5.7987  -5.7987
     2.7019   2.7019   5.7352   5.7352   6.6153   6.6153   7.1378   7.1378

          k = 0.1667 0.4811 0.0000 (  5283 PWs)   bands (ev):

   -16.8156 -16.8156 -13.1364 -13.1364  -9.7810  -9.7810  -4.3750  -4.3750
     0.7943   0.7943   7.6913   7.6913   8.2988   8.2988   8.4853   8.4853

          k = 0.1667 0.5774 0.0000 (  5264 PWs)   bands (ev):

   -15.5857 -15.5857 -14.5667 -14.5667  -9.9658  -9.9658  -3.4846  -3.4846
    -0.2710  -0.2710   8.1923   8.1923   9.8789   9.8789   9.9352   9.9353

          k = 0.1667-0.4811 0.0000 (  5283 PWs)   bands (ev):

   -16.8156 -16.8156 -13.1364 -13.1364  -9.7810  -9.7810  -4.3750  -4.3750
     0.7943   0.7943   7.6913   7.6913   8.2988   8.2988   8.4853   8.4853

          k = 0.1667-0.3849 0.0000 (  5285 PWs)   bands (ev):

   -18.1894 -18.1894 -11.2281 -11.2281  -9.2050  -9.2050  -5.7987  -5.7987
     2.7019   2.7019   5.7352   5.7352   6.6153   6.6153   7.1378   7.1378

          k = 0.1667-0.2887 0.0000 (  5288 PWs)   bands (ev):

   -19.2958 -19.2958  -9.5020  -9.5020  -8.1493  -8.1493  -7.0492  -7.0492
     4.1876   4.1876   4.6449   4.6449   5.0851   5.0851   5.5540   5.5540

          k = 0.1667-0.1925 0.0000 (  5261 PWs)   bands (ev):

   -20.0994 -20.0994  -8.1714  -8.1714  -7.9846  -7.9846  -6.7890  -6.7890
     3.0758   3.0758   3.9754   3.9754   4.4204   4.4204   6.2500   6.2500

          k = 0.1667-0.0962 0.0000 (  5253 PWs)   bands (ev):

   -20.5860 -20.5860  -8.5582  -8.5582  -7.0655  -7.0655  -5.9069  -5.9069
     2.4075   2.4075   3.3059   3.3059   3.7402   3.7402   5.6228   5.6228

          k = 0.1667-0.0000 0.0000 (  5269 PWs)   bands (ev):

   -20.7489 -20.7489  -8.7512  -8.7512  -6.4619  -6.4619  -5.7920  -5.7920
     2.1849   2.1849   3.0822   3.0822   3.5137   3.5137   5.4019   5.4019

          k = 0.2500 0.1443 0.0000 (  5269 PWs)   bands (ev):

   -19.7765 -19.7765  -9.1631  -9.1631  -7.6092  -7.6092  -6.7859  -6.7859
     3.5192   3.5192   4.4065   4.4065   4.8721   4.8721   5.5252   5.5252

          k = 0.2500 0.2406 0.0000 (  5275 PWs)   bands (ev):

   -19.1359 -19.1359 -10.2432 -10.2432  -7.6748  -7.6748  -6.8708  -6.8708
     4.1902   4.1902   4.4075   4.4075   5.3363   5.3363   5.7778   5.7778

          k = 0.2500 0.3368 0.0000 (  5285 PWs)   bands (ev):

   -18.1894 -18.1894 -11.2281 -11.2281  -9.2050  -9.2050  -5.7987  -5.7987
     2.7019   2.7019   5.7352   5.7352   6.6153   6.6153   7.1378   7.1378

          k = 0.2500 0.4330 0.0000 (  5268 PWs)   bands (ev):

   -16.9629 -16.9629 -12.2643 -12.2643 -10.6855 -10.6855  -4.4587  -4.4587
     1.0905   1.0905   7.4827   7.4827   8.1950   8.1950   8.9437   8.9437

          k = 0.2500 0.5292 0.0000 (  5282 PWs)   bands (ev):

   -15.5434 -15.5434 -13.6831 -13.6831 -11.3928 -11.3928  -3.0760  -3.0760
    -0.4265  -0.4265   9.1487   9.1487   9.5753   9.5753  10.4574  10.4574

          k = 0.2500 0.6255 0.0000 (  5282 PWs)   bands (ev):

   -15.5434 -15.5434 -13.6831 -13.6831 -11.3928 -11.3928  -3.0760  -3.0760
    -0.4265  -0.4265   9.1487   9.1487   9.5753   9.5753  10.4574  10.4574

          k = 0.2500-0.4330 0.0000 (  5268 PWs)   bands (ev):

   -16.9629 -16.9629 -12.2643 -12.2643 -10.6854 -10.6854  -4.4587  -4.4587
     1.0905   1.0905   7.4827   7.4827   8.1950   8.1950   8.9437   8.9437

          k = 0.2500-0.3368 0.0000 (  5285 PWs)   bands (ev):

   -18.1894 -18.1894 -11.2281 -11.2281  -9.2050  -9.2050  -5.7987  -5.7987
     2.7019   2.7019   5.7352   5.7352   6.6153   6.6153   7.1378   7.1378

          k = 0.2500-0.2406 0.0000 (  5275 PWs)   bands (ev):

   -19.1359 -19.1359 -10.2432 -10.2432  -7.6748  -7.6748  -6.8708  -6.8708
     4.1902   4.1902   4.4075   4.4075   5.3363   5.3363   5.7778   5.7778

          k = 0.2500-0.1443 0.0000 (  5269 PWs)   bands (ev):

   -19.7765 -19.7765  -9.1631  -9.1631  -7.6092  -7.6092  -6.7859  -6.7859
     3.5192   3.5192   4.4065   4.4065   4.8721   4.8721   5.5252   5.5252

          k = 0.2500-0.0481 0.0000 (  5261 PWs)   bands (ev):

   -20.0994 -20.0994  -8.1714  -8.1714  -7.9846  -7.9846  -6.7890  -6.7890
     3.0758   3.0758   3.9754   3.9754   4.4204   4.4204   6.2500   6.2500

          k = 0.2500 0.0481 0.0000 (  5261 PWs)   bands (ev):

   -20.0994 -20.0994  -8.1713  -8.1713  -7.9846  -7.9846  -6.7891  -6.7891
     3.0758   3.0758   3.9754   3.9754   4.4204   4.4204   6.2500   6.2500

          k = 0.3333 0.1925 0.0000 (  5285 PWs)   bands (ev):

   -18.6593 -18.6593 -11.3649 -11.3649  -7.5188  -7.5188  -6.3436  -6.3436
     3.1811   3.1811   5.0625   5.0625   5.9814   5.9814   6.0093   6.0093

          k = 0.3333 0.2887 0.0000 (  5284 PWs)   bands (ev):

   -17.8772 -17.8772 -12.3642 -12.3642  -8.3092  -8.3092  -5.4941  -5.4941
     1.9956   1.9956   6.1517   6.1517   6.5836   6.5837   7.0935   7.0935

          k = 0.3333 0.3849 0.0000 (  5283 PWs)   bands (ev):

   -16.8156 -16.8156 -13.1364 -13.1364  -9.7810  -9.7810  -4.3750  -4.3750
     0.7943   0.7943   7.6913   7.6913   8.2988   8.2988   8.4853   8.4853

          k = 0.3333 0.4811 0.0000 (  5282 PWs)   bands (ev):

   -15.5434 -15.5434 -13.6831 -13.6831 -11.3928 -11.3928  -3.0760  -3.0760
    -0.4265  -0.4265   9.1487   9.1487   9.5753   9.5753  10.4574  10.4574

          k = 0.3333 0.5774 0.0000 (  5292 PWs)   bands (ev):

   -14.3294 -14.3294 -14.3273 -14.3273 -12.2841 -12.2841  -1.7226  -1.7226
    -1.7226  -1.7226   8.8907   8.8907  11.1432  11.1433  11.1472  11.1473

          k = 0.3333 0.6736 0.0000 (  5282 PWs)   bands (ev):

   -15.5434 -15.5434 -13.6831 -13.6831 -11.3928 -11.3928  -3.0760  -3.0760
    -0.4265  -0.4265   9.1487   9.1487   9.5753   9.5753  10.4574  10.4574

          k = 0.3333-0.3849 0.0000 (  5283 PWs)   bands (ev):

   -16.8156 -16.8156 -13.1364 -13.1364  -9.7810  -9.7810  -4.3750  -4.3750
     0.7943   0.7943   7.6913   7.6913   8.2988   8.2988   8.4853   8.4853

          k = 0.3333-0.2887 0.0000 (  5284 PWs)   bands (ev):

   -17.8772 -17.8772 -12.3642 -12.3642  -8.3092  -8.3092  -5.4941  -5.4941
     1.9956   1.9956   6.1517   6.1517   6.5836   6.5837   7.0935   7.0935

          k = 0.3333-0.1925 0.0000 (  5285 PWs)   bands (ev):

   -18.6593 -18.6593 -11.3649 -11.3649  -7.5188  -7.5188  -6.3436  -6.3436
     3.1811   3.1811   5.0625   5.0625   5.9814   5.9814   6.0093   6.0093

          k = 0.3333-0.0962 0.0000 (  5275 PWs)   bands (ev):

   -19.1359 -19.1359 -10.2432 -10.2432  -7.6748  -7.6748  -6.8708  -6.8708
     4.1902   4.1902   4.4075   4.4075   5.3363   5.3363   5.7778   5.7778

          k = 0.3333 0.0000 0.0000 (  5288 PWs)   bands (ev):

   -19.2958 -19.2958  -9.5020  -9.5020  -8.1493  -8.1493  -7.0492  -7.0492
     4.1876   4.1876   4.6449   4.6450   5.0851   5.0851   5.5540   5.5540

          k = 0.3333 0.0962 0.0000 (  5275 PWs)   bands (ev):

   -19.1359 -19.1359 -10.2432 -10.2432  -7.6748  -7.6748  -6.8708  -6.8708
     4.1902   4.1902   4.4075   4.4075   5.3363   5.3363   5.7778   5.7778

          k = 0.4167 0.2406 0.0000 (  5290 PWs)   bands (ev):

   -17.2655 -17.2655 -13.4629 -13.4629  -7.9913  -7.9913  -4.9241  -4.9241
     1.0513   1.0513   5.7271   5.7271   7.0704   7.0704   7.9927   7.9927

          k = 0.4167 0.3368 0.0000 (  5302 PWs)   bands (ev):

   -16.4007 -16.4007 -14.3026 -14.3026  -8.6374  -8.6374  -4.1880  -4.1880
     0.2315   0.2315   6.3857   6.3857   8.3678   8.3678   9.2422   9.2422

          k = 0.4167 0.4330 0.0000 (  5264 PWs)   bands (ev):

   -15.5857 -15.5857 -14.5667 -14.5667  -9.9658  -9.9658  -3.4846  -3.4846
    -0.2710  -0.2710   8.1923   8.1923   9.8789   9.8789   9.9352   9.9352

          k = 0.4167 0.5292 0.0000 (  5282 PWs)   bands (ev):

   -15.5434 -15.5434 -13.6831 -13.6831 -11.3928 -11.3928  -3.0760  -3.0760
    -0.4265  -0.4265   9.1487   9.1487   9.5753   9.5753  10.4574  10.4574

          k = 0.4167 0.6255 0.0000 (  5282 PWs)   bands (ev):

   -15.5434 -15.5434 -13.6831 -13.6831 -11.3928 -11.3928  -3.0760  -3.0760
    -0.4265  -0.4265   9.1487   9.1487   9.5753   9.5753  10.4574  10.4574

          k = 0.4167 0.7217 0.0000 (  5264 PWs)   bands (ev):

   -15.5857 -15.5857 -14.5667 -14.5667  -9.9658  -9.9658  -3.4846  -3.4846
    -0.2710  -0.2710   8.1923   8.1923   9.8789   9.8789   9.9352   9.9352

          k = 0.4167-0.3368 0.0000 (  5302 PWs)   bands (ev):

   -16.4007 -16.4007 -14.3026 -14.3026  -8.6374  -8.6374  -4.1880  -4.1880
     0.2315   0.2315   6.3857   6.3857   8.3678   8.3678   9.2422   9.2422

          k = 0.4167-0.2406 0.0000 (  5290 PWs)   bands (ev):

   -17.2655 -17.2655 -13.4630 -13.4630  -7.9913  -7.9913  -4.9241  -4.9241
     1.0513   1.0513   5.7271   5.7271   7.0704   7.0704   7.9927   7.9927

          k = 0.4167-0.1443 0.0000 (  5284 PWs)   bands (ev):

   -17.8772 -17.8772 -12.3642 -12.3642  -8.3092  -8.3092  -5.4941  -5.4941
     1.9956   1.9956   6.1517   6.1517   6.5836   6.5837   7.0935   7.0935

          k = 0.4167-0.0481 0.0000 (  5285 PWs)   bands (ev):

   -18.1894 -18.1894 -11.2281 -11.2281  -9.2050  -9.2050  -5.7987  -5.7987
     2.7019   2.7019   5.7352   5.7352   6.6153   6.6153   7.1378   7.1378

          k = 0.4167 0.0481 0.0000 (  5285 PWs)   bands (ev):

   -18.1894 -18.1894 -11.2281 -11.2281  -9.2050  -9.2050  -5.7987  -5.7987
     2.7019   2.7019   5.7352   5.7352   6.6153   6.6153   7.1378   7.1378

          k = 0.4167 0.1443 0.0000 (  5284 PWs)   bands (ev):

   -17.8772 -17.8772 -12.3642 -12.3642  -8.3092  -8.3092  -5.4941  -5.4941
     1.9956   1.9956   6.1517   6.1517   6.5836   6.5836   7.0935   7.0935

          k =-0.5000-0.2887 0.0000 (  5288 PWs)   bands (ev):

   -16.0068 -16.0068 -14.9643 -14.9643  -8.1535  -8.1535  -4.0818  -4.0818
    -0.0434  -0.0434   5.6476   5.6476   9.3733   9.3733   9.5218   9.5218

          k =-0.5000-0.1925 0.0000 (  5302 PWs)   bands (ev):

   -16.4007 -16.4007 -14.3026 -14.3026  -8.6374  -8.6374  -4.1880  -4.1880
     0.2315   0.2315   6.3857   6.3857   8.3678   8.3678   9.2422   9.2422

          k =-0.5000-0.0962 0.0000 (  5283 PWs)   bands (ev):

   -16.8156 -16.8156 -13.1364 -13.1364  -9.7810  -9.7810  -4.3750  -4.3750
     0.7943   0.7943   7.6913   7.6913   8.2988   8.2988   8.4853   8.4853

          k =-0.5000 0.0000 0.0000 (  5268 PWs)   bands (ev):

   -16.9629 -16.9629 -12.2643 -12.2643 -10.6855 -10.6855  -4.4587  -4.4587
     1.0905   1.0905   7.4827   7.4827   8.1950   8.1950   8.9437   8.9437

          k =-0.5000 0.0962 0.0000 (  5283 PWs)   bands (ev):

   -16.8156 -16.8156 -13.1364 -13.1364  -9.7810  -9.7810  -4.3750  -4.3750
     0.7943   0.7943   7.6913   7.6913   8.2988   8.2988   8.4853   8.4853

          k =-0.5000 0.1925 0.0000 (  5302 PWs)   bands (ev):

   -16.4007 -16.4007 -14.3026 -14.3026  -8.6374  -8.6374  -4.1880  -4.1880
     0.2315   0.2315   6.3857   6.3857   8.3678   8.3678   9.2422   9.2422

          k =-0.5000-0.8660 0.0000 (  5288 PWs)   bands (ev):

   -16.0068 -16.0068 -14.9643 -14.9643  -8.1535  -8.1535  -4.0818  -4.0818
    -0.0434  -0.0434   5.6476   5.6476   9.3733   9.3733   9.5218   9.5218

     the Fermi energy is    -1.7226 ev

!    total energy              =     -36.88728869 Ry
     total all-electron energy =      -152.415561 Ry
     estimated scf accuracy    <          8.3E-09 Ry
     smearing contrib. (-TS)   =      -0.00003134 Ry
     internal energy E=F+TS    =     -36.88725735 Ry

     The total energy is F=E-TS. E is the sum of the following terms:
     one-electron contribution =    -156.61862335 Ry
     hartree contribution      =      79.92801689 Ry
     xc contribution           =      -9.27207796 Ry
     ewald contribution        =      61.40972547 Ry
     one-center paw contrib.   =     -12.33429839 Ry

     convergence has been achieved in  11 iterations

     negative rho (up, down):  3.550E-05 0.000E+00

     Forces acting on atoms (cartesian axes, Ry/au):

     atom    1 type  1   force =     0.00000093    0.00000091   -0.00000042
     atom    2 type  1   force =    -0.00000093   -0.00000091    0.00000042

     Total force =     0.000002     Total SCF correction =     0.000003
     SCF correction compared to forces is large: reduce conv_thr to get better values


     Computing stress (Cartesian axis) and pressure


     negative rho (up, down):  3.550E-05 0.000E+00
          total   stress  (Ry/bohr**3)                   (kbar)     P=       -0.08
   0.00000018   0.00000001   0.00000000            0.03        0.00        0.00
   0.00000001   0.00000017   0.00000000            0.00        0.03        0.00
   0.00000000   0.00000000  -0.00000201            0.00        0.00       -0.30


     Writing all to output data dir ./tmp/graphene.save/ :
     XML data file, charge density, pseudopotentials, collected wavefunctions

     init_run     :      7.93s CPU      8.17s WALL (       1 calls)
     electrons    :    277.47s CPU    280.91s WALL (       1 calls)
     forces       :      2.51s CPU      2.61s WALL (       1 calls)
     stress       :      9.18s CPU      9.45s WALL (       1 calls)

     Called by init_run:
     wfcinit      :      6.41s CPU      6.48s WALL (       1 calls)
     potinit      :      0.51s CPU      0.56s WALL (       1 calls)
     hinit0       :      0.74s CPU      0.76s WALL (       1 calls)

     Called by electrons:
     c_bands      :    245.85s CPU    247.30s WALL (      11 calls)
     sum_band     :     26.96s CPU     28.05s WALL (      11 calls)
     v_of_rho     :      1.05s CPU      1.09s WALL (      12 calls)
     newd         :      2.52s CPU      3.47s WALL (      12 calls)
     PAW_pot      :      0.67s CPU      0.68s WALL (      12 calls)
     mix_rho      :      0.47s CPU      0.49s WALL (      11 calls)

     Called by c_bands:
     init_us_2    :      1.52s CPU      1.53s WALL (    1850 calls)
     cegterg      :    240.32s CPU    241.74s WALL (     814 calls)

     Called by *egterg:
     cdiaghg      :      3.00s CPU      3.03s WALL (    3198 calls)
     h_psi        :    145.92s CPU    146.73s WALL (    3272 calls)
     s_psi        :     16.10s CPU     16.16s WALL (    3272 calls)
     g_psi        :      0.73s CPU      0.73s WALL (    2384 calls)

     Called by h_psi:
     h_psi:calbec :     15.80s CPU     15.83s WALL (    3272 calls)
     vloc_psi     :    113.33s CPU    113.74s WALL (    3272 calls)
     add_vuspsi   :     16.11s CPU     16.14s WALL (    3272 calls)

     General routines
     calbec       :     28.98s CPU     29.01s WALL (    5344 calls)
     fft          :      1.39s CPU      1.41s WALL (     314 calls)
     ffts         :      0.36s CPU      0.36s WALL (      92 calls)
     fftw         :     73.12s CPU     73.33s WALL (  180156 calls)
     interpolate  :      0.51s CPU      0.51s WALL (      48 calls)


     PWSCF        :   4m57.22s CPU   5m 1.43s WALL


   This run was terminated on:   9:43:17  27Oct2025            

=------------------------------------------------------------------------------=
   JOB DONE.
=------------------------------------------------------------------------------=
