
     Program PWSCF v.7.4.1 starts on 12Nov2025 at 16:55:46 

     This program is part of the open-source Quantum ESPRESSO suite
     for quantum simulation of materials; please cite
         "P. Giannozzi et al., J. Phys.:Condens. Matter 21 395502 (2009);
         "P. Giannozzi et al., J. Phys.:Condens. Matter 29 465901 (2017);
         "P. Giannozzi et al., J. Chem. Phys. 152 154105 (2020);
          URL http://www.quantum-espresso.org", 
     in publications or presentations arising from this work. More details at
     http://www.quantum-espresso.org/quote

     Parallel version (MPI), running on     6 processors

     MPI processes distributed on     1 nodes
     5954 MiB available memory on the printing compute node when the environment starts

     Reading input from grap_SOC_scf.in

     Current dimensions of program PWSCF are:
     Max number of different atomic species (ntypx) = 10
     Max number of k-points (npk) =  40000
     Max angular momentum in pseudopotentials (lmaxx) =  4
     Presently stress not available with electric field and gates

     file C.rel-pbe-n-kjpaw_psl.0.1.UPF: wavefunction(s)  2P 2P renormalized

     R & G space division:  proc/nbgrp/npool/nimage =       6
     Subspace diagonalization in iterative solution of the eigenvalue problem:
     a serial algorithm will be used


     Parallelization info
     --------------------
     sticks:   dense  smooth     PW     G-vecs:    dense   smooth      PW
     Min         173      70     23                27803     7050    1361
     Max         175      71     24                27830     7077    1378
     Sum        1045     421    139               166859    42343    8205

     Using Slab Decomposition



     bravais-lattice index     =            0
     lattice parameter (alat)  =       4.6624  a.u.
     unit-cell volume          =     533.6317 (a.u.)^3
     number of atoms/cell      =            2
     number of atomic types    =            1
     number of electrons       =         8.00
     number of Kohn-Sham states=           16
     kinetic-energy cutoff     =      70.0000  Ry
     charge density cutoff     =     700.0000  Ry
     scf convergence threshold =      1.0E-08
     mixing beta               =       0.1000
     number of iterations used =            8  plain     mixing
     Exchange-correlation= SLA  PW   PBX  PBC
                           (   1   4   3   4   0   0   0)
     Non magnetic calculation with spin-orbit


     celldm(1)=   4.662410  celldm(2)=   0.000000  celldm(3)=   0.000000
     celldm(4)=   0.000000  celldm(5)=   0.000000  celldm(6)=   0.000000

     crystal axes: (cart. coord. in units of alat)
               a(1) = (   1.000000   0.000000  -0.000000 )  
               a(2) = (  -0.500000   0.866025   0.000000 )  
               a(3) = (  -0.000000   0.000000   6.079666 )  

     reciprocal axes: (cart. coord. in units 2 pi/alat)
               b(1) = (  1.000000  0.577350  0.000000 )  
               b(2) = ( -0.000000  1.154701 -0.000000 )  
               b(3) = (  0.000000  0.000000  0.164483 )  


     PseudoPot. # 1 for C  read from file:
     ../../../pseudos/C.rel-pbe-n-kjpaw_psl.0.1.UPF
     MD5 check sum: 5ef0b8f55ac4be3c3db5d31256eeff6b
     Pseudo is Projector augmented-wave + core cor, Zval =  4.0
     Generated using &quot;atomic&quot; code by A. Dal Corso  v.6.3
     Shape of augmentation charge: BESSEL
     Using radial grid of 1073 points,  6 beta functions with: 
                l(1) =   0
                l(2) =   0
                l(3) =   1
                l(4) =   1
                l(5) =   1
                l(6) =   1
     Q(r) pseudized with 0 coefficients 


     atomic species   valence    mass     pseudopotential
     C                 4.00    12.01100     C ( 1.00)

     No symmetry found



   Cartesian axes

     site n.     atom                  positions (alat units)
         1        C      tau(   1) = (   0.0000000   0.0000000   3.0398328  )
         2        C      tau(   2) = (   0.0000000   0.5773503   3.0398328  )

     number of k points=    74  Gaussian smearing, width (Ry)=  0.0020
                       cart. coord. in units 2pi/alat
        k(    1) = (   0.0000000   0.0000000   0.0000000), wk =   0.0069444
        k(    2) = (   0.0000000   0.0962250   0.0000000), wk =   0.0138889
        k(    3) = (   0.0000000   0.1924501   0.0000000), wk =   0.0138889
        k(    4) = (   0.0000000   0.2886751   0.0000000), wk =   0.0138889
        k(    5) = (   0.0000000   0.3849002   0.0000000), wk =   0.0138889
        k(    6) = (   0.0000000   0.4811252   0.0000000), wk =   0.0138889
        k(    7) = (   0.0000000  -0.5773503   0.0000000), wk =   0.0069444
        k(    8) = (   0.0833333   0.0481125   0.0000000), wk =   0.0138889
        k(    9) = (   0.0833333   0.1443376   0.0000000), wk =   0.0138889
        k(   10) = (   0.0833333   0.2405626   0.0000000), wk =   0.0138889
        k(   11) = (   0.0833333   0.3367877   0.0000000), wk =   0.0138889
        k(   12) = (   0.0833333   0.4330127   0.0000000), wk =   0.0138889
        k(   13) = (   0.0833333   0.5292377   0.0000000), wk =   0.0138889
        k(   14) = (   0.0833333  -0.5292377   0.0000000), wk =   0.0138889
        k(   15) = (   0.0833333  -0.4330127   0.0000000), wk =   0.0138889
        k(   16) = (   0.0833333  -0.3367877   0.0000000), wk =   0.0138889
        k(   17) = (   0.0833333  -0.2405626   0.0000000), wk =   0.0138889
        k(   18) = (   0.0833333  -0.1443376   0.0000000), wk =   0.0138889
        k(   19) = (   0.0833333  -0.0481125   0.0000000), wk =   0.0138889
        k(   20) = (   0.1666667   0.0962250   0.0000000), wk =   0.0138889
        k(   21) = (   0.1666667   0.1924501   0.0000000), wk =   0.0138889
        k(   22) = (   0.1666667   0.2886751   0.0000000), wk =   0.0138889
        k(   23) = (   0.1666667   0.3849002   0.0000000), wk =   0.0138889
        k(   24) = (   0.1666667   0.4811252   0.0000000), wk =   0.0138889
        k(   25) = (   0.1666667   0.5773503   0.0000000), wk =   0.0138889
        k(   26) = (   0.1666667  -0.4811252   0.0000000), wk =   0.0138889
        k(   27) = (   0.1666667  -0.3849002   0.0000000), wk =   0.0138889
        k(   28) = (   0.1666667  -0.2886751   0.0000000), wk =   0.0138889
        k(   29) = (   0.1666667  -0.1924501   0.0000000), wk =   0.0138889
        k(   30) = (   0.1666667  -0.0962250   0.0000000), wk =   0.0138889
        k(   31) = (   0.1666667  -0.0000000   0.0000000), wk =   0.0138889
        k(   32) = (   0.2500000   0.1443376   0.0000000), wk =   0.0138889
        k(   33) = (   0.2500000   0.2405626   0.0000000), wk =   0.0138889
        k(   34) = (   0.2500000   0.3367877   0.0000000), wk =   0.0138889
        k(   35) = (   0.2500000   0.4330127   0.0000000), wk =   0.0138889
        k(   36) = (   0.2500000   0.5292377   0.0000000), wk =   0.0138889
        k(   37) = (   0.2500000   0.6254628   0.0000000), wk =   0.0138889
        k(   38) = (   0.2500000  -0.4330127   0.0000000), wk =   0.0138889
        k(   39) = (   0.2500000  -0.3367877   0.0000000), wk =   0.0138889
        k(   40) = (   0.2500000  -0.2405626   0.0000000), wk =   0.0138889
        k(   41) = (   0.2500000  -0.1443376   0.0000000), wk =   0.0138889
        k(   42) = (   0.2500000  -0.0481125   0.0000000), wk =   0.0138889
        k(   43) = (   0.2500000   0.0481125   0.0000000), wk =   0.0138889
        k(   44) = (   0.3333333   0.1924501   0.0000000), wk =   0.0138889
        k(   45) = (   0.3333333   0.2886751   0.0000000), wk =   0.0138889
        k(   46) = (   0.3333333   0.3849002   0.0000000), wk =   0.0138889
        k(   47) = (   0.3333333   0.4811252   0.0000000), wk =   0.0138889
        k(   48) = (   0.3333333   0.5773503   0.0000000), wk =   0.0138889
        k(   49) = (   0.3333333   0.6735753   0.0000000), wk =   0.0138889
        k(   50) = (   0.3333333  -0.3849002   0.0000000), wk =   0.0138889
        k(   51) = (   0.3333333  -0.2886751   0.0000000), wk =   0.0138889
        k(   52) = (   0.3333333  -0.1924501   0.0000000), wk =   0.0138889
        k(   53) = (   0.3333333  -0.0962250   0.0000000), wk =   0.0138889
        k(   54) = (   0.3333333   0.0000000   0.0000000), wk =   0.0138889
        k(   55) = (   0.3333333   0.0962250   0.0000000), wk =   0.0138889
        k(   56) = (   0.4166667   0.2405626   0.0000000), wk =   0.0138889
        k(   57) = (   0.4166667   0.3367877   0.0000000), wk =   0.0138889
        k(   58) = (   0.4166667   0.4330127   0.0000000), wk =   0.0138889
        k(   59) = (   0.4166667   0.5292377   0.0000000), wk =   0.0138889
        k(   60) = (   0.4166667   0.6254628   0.0000000), wk =   0.0138889
        k(   61) = (   0.4166667   0.7216878   0.0000000), wk =   0.0138889
        k(   62) = (   0.4166667  -0.3367877   0.0000000), wk =   0.0138889
        k(   63) = (   0.4166667  -0.2405626   0.0000000), wk =   0.0138889
        k(   64) = (   0.4166667  -0.1443376   0.0000000), wk =   0.0138889
        k(   65) = (   0.4166667  -0.0481125   0.0000000), wk =   0.0138889
        k(   66) = (   0.4166667   0.0481125   0.0000000), wk =   0.0138889
        k(   67) = (   0.4166667   0.1443376   0.0000000), wk =   0.0138889
        k(   68) = (  -0.5000000  -0.2886751   0.0000000), wk =   0.0069444
        k(   69) = (  -0.5000000  -0.1924501   0.0000000), wk =   0.0138889
        k(   70) = (  -0.5000000  -0.0962250   0.0000000), wk =   0.0138889
        k(   71) = (  -0.5000000   0.0000000   0.0000000), wk =   0.0138889
        k(   72) = (  -0.5000000   0.0962250   0.0000000), wk =   0.0138889
        k(   73) = (  -0.5000000   0.1924501   0.0000000), wk =   0.0138889
        k(   74) = (  -0.5000000  -0.8660254   0.0000000), wk =   0.0069444

     Dense  grid:   166859 G-vectors     FFT dimensions: (  40,  40, 240)

     Smooth grid:    42343 G-vectors     FFT dimensions: (  25,  25, 160)

     Estimated max dynamical RAM per process >     131.86 MB

     Estimated total dynamical RAM >     791.13 MB

     Initial potential from superposition of free atoms

     starting charge       7.9999, renormalised to       8.0000

     negative rho (up, down):  2.781E-05 0.000E+00

     Adding external electric field

     Computed dipole along edir(3) : 
        Dipole               -0.0000 Ry au,         -0.0000 Debye
        Dipole field         -0.0000 Ry au, 

        E field amplitude [Ha a.u.]:  9.7235E-04
        Potential amp.        0.0524 Ry
        Total length         26.9286 bohr

     Starting wfcs are random
     Checking if some PAW data can be deallocated... 

     total cpu time spent up to now is        2.7 secs

     Self-consistent Calculation

     iteration #  1     ecut=    70.00 Ry     beta= 0.10
     Davidson diagonalization with overlap
     ethr =  1.00E-02,  avg # of iterations =  8.9

     negative rho (up, down):  2.278E-05 0.000E+00

     Adding external electric field

     Computed dipole along edir(3) : 
        Dipole                0.0012 Ry au,          0.0032 Debye
        Dipole field          0.0000 Ry au, 

        E field amplitude [Ha a.u.]:  9.7235E-04
        Potential amp.        0.0508 Ry
        Total length         26.9286 bohr


     total cpu time spent up to now is       28.1 secs

     total energy              =     -36.95396544 Ry
     estimated scf accuracy    <       0.20216638 Ry

     iteration #  2     ecut=    70.00 Ry     beta= 0.10
     Davidson diagonalization with overlap
     ethr =  2.53E-03,  avg # of iterations =  1.0

     negative rho (up, down):  1.047E-04 0.000E+00

     Adding external electric field

     Computed dipole along edir(3) : 
        Dipole                0.0093 Ry au,          0.0237 Debye
        Dipole field          0.0002 Ry au, 

        E field amplitude [Ha a.u.]:  9.7235E-04
        Potential amp.        0.0406 Ry
        Total length         26.9286 bohr


     total cpu time spent up to now is       33.1 secs

     total energy              =     -36.85262379 Ry
     estimated scf accuracy    <       0.15628269 Ry

     iteration #  3     ecut=    70.00 Ry     beta= 0.10
     Davidson diagonalization with overlap
     ethr =  1.95E-03,  avg # of iterations =  3.6

     negative rho (up, down):  7.847E-05 0.000E+00

     Adding external electric field

     Computed dipole along edir(3) : 
        Dipole                0.0087 Ry au,          0.0221 Debye
        Dipole field          0.0002 Ry au, 

        E field amplitude [Ha a.u.]:  9.7235E-04
        Potential amp.        0.0414 Ry
        Total length         26.9286 bohr


     total cpu time spent up to now is       39.4 secs

     total energy              =     -36.87754179 Ry
     estimated scf accuracy    <       0.00290455 Ry

     iteration #  4     ecut=    70.00 Ry     beta= 0.10
     Davidson diagonalization with overlap
     ethr =  3.63E-05,  avg # of iterations =  7.3

     negative rho (up, down):  7.902E-05 0.000E+00

     Adding external electric field

     Computed dipole along edir(3) : 
        Dipole                0.0115 Ry au,          0.0292 Debye
        Dipole field          0.0003 Ry au, 

        E field amplitude [Ha a.u.]:  9.7235E-04
        Potential amp.        0.0378 Ry
        Total length         26.9286 bohr


     total cpu time spent up to now is       54.0 secs

     total energy              =     -36.90370947 Ry
     estimated scf accuracy    <       0.00763738 Ry

     iteration #  5     ecut=    70.00 Ry     beta= 0.10
     Davidson diagonalization with overlap
     ethr =  3.63E-05,  avg # of iterations =  5.2

     negative rho (up, down):  1.789E-04 0.000E+00

     Adding external electric field

     Computed dipole along edir(3) : 
        Dipole                0.0060 Ry au,          0.0152 Debye
        Dipole field          0.0001 Ry au, 

        E field amplitude [Ha a.u.]:  9.7235E-04
        Potential amp.        0.0448 Ry
        Total length         26.9286 bohr


     total cpu time spent up to now is       63.0 secs

     total energy              =     -36.88889796 Ry
     estimated scf accuracy    <       0.03622780 Ry

     iteration #  6     ecut=    70.00 Ry     beta= 0.10
     Davidson diagonalization with overlap
     ethr =  3.63E-05,  avg # of iterations =  5.0

     negative rho (up, down):  6.431E-04 0.000E+00

     Adding external electric field

     Computed dipole along edir(3) : 
        Dipole                0.0017 Ry au,          0.0043 Debye
        Dipole field          0.0000 Ry au, 

        E field amplitude [Ha a.u.]:  9.7235E-04
        Potential amp.        0.0502 Ry
        Total length         26.9286 bohr


     total cpu time spent up to now is       72.6 secs

     total energy              =     -36.88749840 Ry
     estimated scf accuracy    <       0.00516801 Ry

     iteration #  7     ecut=    70.00 Ry     beta= 0.10
     Davidson diagonalization with overlap
     ethr =  3.63E-05,  avg # of iterations =  5.8

     negative rho (up, down):  4.732E-04 0.000E+00

     Adding external electric field

     Computed dipole along edir(3) : 
        Dipole                0.0040 Ry au,          0.0101 Debye
        Dipole field          0.0001 Ry au, 

        E field amplitude [Ha a.u.]:  9.7235E-04
        Potential amp.        0.0473 Ry
        Total length         26.9286 bohr


     total cpu time spent up to now is       82.2 secs

     total energy              =     -36.88923326 Ry
     estimated scf accuracy    <       0.00135908 Ry

     iteration #  8     ecut=    70.00 Ry     beta= 0.10
     Davidson diagonalization with overlap
     ethr =  1.70E-05,  avg # of iterations =  2.6

     negative rho (up, down):  4.502E-04 0.000E+00

     Adding external electric field

     Computed dipole along edir(3) : 
        Dipole                0.0042 Ry au,          0.0106 Debye
        Dipole field          0.0001 Ry au, 

        E field amplitude [Ha a.u.]:  9.7235E-04
        Potential amp.        0.0471 Ry
        Total length         26.9286 bohr


     total cpu time spent up to now is       88.7 secs

     total energy              =     -36.88937241 Ry
     estimated scf accuracy    <       0.00129426 Ry

     iteration #  9     ecut=    70.00 Ry     beta= 0.10
     Davidson diagonalization with overlap
     ethr =  1.62E-05,  avg # of iterations =  1.0

     negative rho (up, down):  3.930E-04 0.000E+00

     Adding external electric field

     Computed dipole along edir(3) : 
        Dipole                0.0042 Ry au,          0.0106 Debye
        Dipole field          0.0001 Ry au, 

        E field amplitude [Ha a.u.]:  9.7235E-04
        Potential amp.        0.0471 Ry
        Total length         26.9286 bohr


     total cpu time spent up to now is       93.9 secs

     total energy              =     -36.88918923 Ry
     estimated scf accuracy    <       0.00111652 Ry

     iteration # 10     ecut=    70.00 Ry     beta= 0.10
     Davidson diagonalization with overlap
     ethr =  1.40E-05,  avg # of iterations =  1.1

     negative rho (up, down):  2.219E-04 0.000E+00

     Adding external electric field

     Computed dipole along edir(3) : 
        Dipole                0.0047 Ry au,          0.0119 Debye
        Dipole field          0.0001 Ry au, 

        E field amplitude [Ha a.u.]:  9.7235E-04
        Potential amp.        0.0464 Ry
        Total length         26.9286 bohr


     total cpu time spent up to now is       99.1 secs

     total energy              =     -36.88901907 Ry
     estimated scf accuracy    <       0.00077385 Ry

     iteration # 11     ecut=    70.00 Ry     beta= 0.10
     Davidson diagonalization with overlap
     ethr =  9.67E-06,  avg # of iterations =  1.7

     negative rho (up, down):  1.139E-04 0.000E+00

     Adding external electric field

     Computed dipole along edir(3) : 
        Dipole                0.0052 Ry au,          0.0131 Debye
        Dipole field          0.0001 Ry au, 

        E field amplitude [Ha a.u.]:  9.7235E-04
        Potential amp.        0.0458 Ry
        Total length         26.9286 bohr


     total cpu time spent up to now is      104.6 secs

     total energy              =     -36.88892540 Ry
     estimated scf accuracy    <       0.00040990 Ry

     iteration # 12     ecut=    70.00 Ry     beta= 0.10
     Davidson diagonalization with overlap
     ethr =  5.12E-06,  avg # of iterations =  3.6

     negative rho (up, down):  5.331E-05 0.000E+00

     Adding external electric field

     Computed dipole along edir(3) : 
        Dipole                0.0058 Ry au,          0.0147 Debye
        Dipole field          0.0001 Ry au, 

        E field amplitude [Ha a.u.]:  9.7235E-04
        Potential amp.        0.0450 Ry
        Total length         26.9286 bohr


     total cpu time spent up to now is      110.9 secs

     total energy              =     -36.88885392 Ry
     estimated scf accuracy    <       0.00016923 Ry

     iteration # 13     ecut=    70.00 Ry     beta= 0.10
     Davidson diagonalization with overlap
     ethr =  2.12E-06,  avg # of iterations =  4.8

     negative rho (up, down):  4.354E-05 0.000E+00

     Adding external electric field

     Computed dipole along edir(3) : 
        Dipole                0.0059 Ry au,          0.0150 Debye
        Dipole field          0.0001 Ry au, 

        E field amplitude [Ha a.u.]:  9.7235E-04
        Potential amp.        0.0449 Ry
        Total length         26.9286 bohr


     total cpu time spent up to now is      119.6 secs

     total energy              =     -36.88891155 Ry
     estimated scf accuracy    <       0.00000083 Ry

     iteration # 14     ecut=    70.00 Ry     beta= 0.10
     Davidson diagonalization with overlap
     ethr =  1.03E-08,  avg # of iterations =  4.7

     negative rho (up, down):  3.661E-05 0.000E+00

     Adding external electric field

     Computed dipole along edir(3) : 
        Dipole                0.0059 Ry au,          0.0150 Debye
        Dipole field          0.0001 Ry au, 

        E field amplitude [Ha a.u.]:  9.7235E-04
        Potential amp.        0.0449 Ry
        Total length         26.9286 bohr


     total cpu time spent up to now is      128.3 secs

     total energy              =     -36.88892137 Ry
     estimated scf accuracy    <       0.00000489 Ry

     iteration # 15     ecut=    70.00 Ry     beta= 0.10
     Davidson diagonalization with overlap
     ethr =  1.03E-08,  avg # of iterations =  4.0

     negative rho (up, down):  2.828E-05 0.000E+00

     Adding external electric field

     Computed dipole along edir(3) : 
        Dipole                0.0058 Ry au,          0.0148 Debye
        Dipole field          0.0001 Ry au, 

        E field amplitude [Ha a.u.]:  9.7235E-04
        Potential amp.        0.0450 Ry
        Total length         26.9286 bohr


     total cpu time spent up to now is      135.4 secs

     total energy              =     -36.88891822 Ry
     estimated scf accuracy    <       0.00001250 Ry

     iteration # 16     ecut=    70.00 Ry     beta= 0.10
     Davidson diagonalization with overlap
     ethr =  1.03E-08,  avg # of iterations =  1.4

     negative rho (up, down):  2.679E-05 0.000E+00

     Adding external electric field

     Computed dipole along edir(3) : 
        Dipole                0.0057 Ry au,          0.0146 Debye
        Dipole field          0.0001 Ry au, 

        E field amplitude [Ha a.u.]:  9.7235E-04
        Potential amp.        0.0451 Ry
        Total length         26.9286 bohr


     total cpu time spent up to now is      140.7 secs

     total energy              =     -36.88891592 Ry
     estimated scf accuracy    <       0.00000645 Ry

     iteration # 17     ecut=    70.00 Ry     beta= 0.10
     Davidson diagonalization with overlap
     ethr =  1.03E-08,  avg # of iterations =  3.6

     negative rho (up, down):  2.405E-05 0.000E+00

     Adding external electric field

     Computed dipole along edir(3) : 
        Dipole                0.0057 Ry au,          0.0146 Debye
        Dipole field          0.0001 Ry au, 

        E field amplitude [Ha a.u.]:  9.7235E-04
        Potential amp.        0.0451 Ry
        Total length         26.9286 bohr


     total cpu time spent up to now is      147.9 secs

     total energy              =     -36.88891657 Ry
     estimated scf accuracy    <       0.00000110 Ry

     iteration # 18     ecut=    70.00 Ry     beta= 0.10
     Davidson diagonalization with overlap
     ethr =  1.03E-08,  avg # of iterations =  1.0

     negative rho (up, down):  2.204E-05 0.000E+00

     Adding external electric field

     Computed dipole along edir(3) : 
        Dipole                0.0057 Ry au,          0.0145 Debye
        Dipole field          0.0001 Ry au, 

        E field amplitude [Ha a.u.]:  9.7235E-04
        Potential amp.        0.0451 Ry
        Total length         26.9286 bohr


     total cpu time spent up to now is      153.1 secs

     total energy              =     -36.88891621 Ry
     estimated scf accuracy    <       0.00000107 Ry

     iteration # 19     ecut=    70.00 Ry     beta= 0.10
     Davidson diagonalization with overlap
     ethr =  1.03E-08,  avg # of iterations =  1.1

     negative rho (up, down):  1.959E-05 0.000E+00

     Adding external electric field

     Computed dipole along edir(3) : 
        Dipole                0.0057 Ry au,          0.0146 Debye
        Dipole field          0.0001 Ry au, 

        E field amplitude [Ha a.u.]:  9.7235E-04
        Potential amp.        0.0451 Ry
        Total length         26.9286 bohr


     total cpu time spent up to now is      158.3 secs

     total energy              =     -36.88891657 Ry
     estimated scf accuracy    <       0.00000039 Ry

     iteration # 20     ecut=    70.00 Ry     beta= 0.10
     Davidson diagonalization with overlap
     ethr =  4.84E-09,  avg # of iterations =  1.0

     negative rho (up, down):  1.812E-05 0.000E+00

     Adding external electric field

     Computed dipole along edir(3) : 
        Dipole                0.0057 Ry au,          0.0145 Debye
        Dipole field          0.0001 Ry au, 

        E field amplitude [Ha a.u.]:  9.7235E-04
        Potential amp.        0.0451 Ry
        Total length         26.9286 bohr


     total cpu time spent up to now is      163.5 secs

     total energy              =     -36.88891615 Ry
     estimated scf accuracy    <       0.00000098 Ry

     iteration # 21     ecut=    70.00 Ry     beta= 0.10
     Davidson diagonalization with overlap
     ethr =  4.84E-09,  avg # of iterations =  1.9

     negative rho (up, down):  1.552E-05 0.000E+00

     Adding external electric field

     Computed dipole along edir(3) : 
        Dipole                0.0057 Ry au,          0.0145 Debye
        Dipole field          0.0001 Ry au, 

        E field amplitude [Ha a.u.]:  9.7235E-04
        Potential amp.        0.0451 Ry
        Total length         26.9286 bohr


     total cpu time spent up to now is      169.0 secs

     total energy              =     -36.88891611 Ry
     estimated scf accuracy    <       0.00000018 Ry

     iteration # 22     ecut=    70.00 Ry     beta= 0.10
     Davidson diagonalization with overlap
     ethr =  2.22E-09,  avg # of iterations =  3.5

     negative rho (up, down):  1.369E-05 0.000E+00

     Adding external electric field

     Computed dipole along edir(3) : 
        Dipole                0.0057 Ry au,          0.0145 Debye
        Dipole field          0.0001 Ry au, 

        E field amplitude [Ha a.u.]:  9.7235E-04
        Potential amp.        0.0451 Ry
        Total length         26.9286 bohr


     total cpu time spent up to now is      176.6 secs

     total energy              =     -36.88891629 Ry
     estimated scf accuracy    <       0.00000006 Ry

     iteration # 23     ecut=    70.00 Ry     beta= 0.10
     Davidson diagonalization with overlap
     ethr =  7.18E-10,  avg # of iterations =  1.8

     negative rho (up, down):  1.227E-05 0.000E+00

     Adding external electric field

     Computed dipole along edir(3) : 
        Dipole                0.0057 Ry au,          0.0145 Debye
        Dipole field          0.0001 Ry au, 

        E field amplitude [Ha a.u.]:  9.7235E-04
        Potential amp.        0.0451 Ry
        Total length         26.9286 bohr


     total cpu time spent up to now is      182.1 secs

     total energy              =     -36.88891624 Ry
     estimated scf accuracy    <       0.00000013 Ry

     iteration # 24     ecut=    70.00 Ry     beta= 0.10
     Davidson diagonalization with overlap
     ethr =  7.18E-10,  avg # of iterations =  1.0

     negative rho (up, down):  1.136E-05 0.000E+00

     Adding external electric field

     Computed dipole along edir(3) : 
        Dipole                0.0057 Ry au,          0.0146 Debye
        Dipole field          0.0001 Ry au, 

        E field amplitude [Ha a.u.]:  9.7235E-04
        Potential amp.        0.0451 Ry
        Total length         26.9286 bohr


     total cpu time spent up to now is      187.3 secs

     total energy              =     -36.88891624 Ry
     estimated scf accuracy    <       0.00000003 Ry

     iteration # 25     ecut=    70.00 Ry     beta= 0.10
     Davidson diagonalization with overlap
     ethr =  4.17E-10,  avg # of iterations =  2.7

     negative rho (up, down):  7.070E-06 0.000E+00

     Adding external electric field

     Computed dipole along edir(3) : 
        Dipole                0.0057 Ry au,          0.0146 Debye
        Dipole field          0.0001 Ry au, 

        E field amplitude [Ha a.u.]:  9.7235E-04
        Potential amp.        0.0451 Ry
        Total length         26.9286 bohr


     total cpu time spent up to now is      193.5 secs

     End of self-consistent calculation

          k = 0.0000 0.0000 0.0000 (  5307 PWs)   bands (ev):

   -21.1571 -21.1571  -9.2525  -9.2525  -4.7070  -4.7070  -4.6977  -4.6977
     1.5745   1.5745   2.4857   2.4857   2.7211   2.7211   4.7262   4.7262

          k = 0.0000 0.0962 0.0000 (  5285 PWs)   bands (ev):

   -20.9933 -20.9933  -9.0568  -9.0568  -5.3522  -5.3522  -5.0397  -5.0397
     1.7976   1.7976   2.7103   2.7103   2.9477   2.9477   4.9493   4.9493

          k = 0.0000 0.1925 0.0000 (  5253 PWs)   bands (ev):

   -20.5039 -20.5038  -8.4752  -8.4752  -6.9878  -6.9878  -5.8297  -5.8297
     2.4667   2.4667   3.3826   3.3827   3.6274   3.6275   5.6156   5.6157

          k = 0.0000 0.2887 0.0000 (  5269 PWs)   bands (ev):

   -19.6944 -19.6944  -9.0835  -9.0835  -7.5268  -7.5268  -6.7070  -6.7070
     3.5796   3.5796   4.4839   4.4840   4.7593   4.7593   5.6012   5.6012

          k = 0.0000 0.3849 0.0000 (  5285 PWs)   bands (ev):

   -18.5773 -18.5773 -11.2840 -11.2840  -7.4383  -7.4383  -6.2618  -6.2618
     3.2579   3.2579   5.1253   5.1253   6.0294   6.0300   6.0919   6.0924

          k = 0.0000 0.4811 0.0000 (  5290 PWs)   bands (ev):

   -17.1837 -17.1837 -13.3811 -13.3811  -7.9099  -7.9099  -4.8429  -4.8429
     1.1280   1.1280   5.7880   5.7880   7.1345   7.1346   8.0703   8.0704

          k = 0.0000-0.5774 0.0000 (  5288 PWs)   bands (ev):

   -15.9260 -15.9260 -14.8812 -14.8812  -8.0718  -8.0718  -4.0007  -4.0007
     0.0332   0.0332   5.7086   5.7086   9.4415   9.4415   9.5874   9.5874

          k = 0.0833 0.0481 0.0000 (  5285 PWs)   bands (ev):

   -20.9933 -20.9933  -9.0568  -9.0568  -5.3522  -5.3522  -5.0396  -5.0396
     1.7976   1.7976   2.7103   2.7103   2.9477   2.9477   4.9493   4.9493

          k = 0.0833 0.1443 0.0000 (  5269 PWs)   bands (ev):

   -20.6667 -20.6667  -8.6681  -8.6681  -6.3848  -6.3848  -5.7151  -5.7151
     2.2439   2.2439   3.1589   3.1590   3.4010   3.4010   5.3946   5.3946

          k = 0.0833 0.2406 0.0000 (  5261 PWs)   bands (ev):

   -20.0173 -20.0173  -8.0925  -8.0925  -7.9019  -7.9019  -6.7106  -6.7106
     3.1357   3.1357   4.0523   4.0523   4.3075   4.3075   6.2592   6.2593

          k = 0.0833 0.3368 0.0000 (  5275 PWs)   bands (ev):

   -19.0538 -19.0538 -10.1628 -10.1628  -7.5947  -7.5947  -6.7888  -6.7888
     4.2668   4.2668   4.4699   4.4700   5.4127   5.4128   5.6654   5.6654

          k = 0.0833 0.4330 0.0000 (  5284 PWs)   bands (ev):

   -17.7953 -17.7953 -12.2828 -12.2828  -8.2281  -8.2281  -5.4127  -5.4127
     2.0725   2.0725   6.2156   6.2157   6.6420   6.6421   7.1718   7.1718

          k = 0.0833 0.5292 0.0000 (  5302 PWs)   bands (ev):

   -16.3192 -16.3192 -14.2203 -14.2203  -8.5557  -8.5557  -4.1070  -4.1070
     0.3084   0.3084   6.4466   6.4466   8.4335   8.4336   9.3217   9.3218

          k = 0.0833-0.5292 0.0000 (  5302 PWs)   bands (ev):

   -16.3192 -16.3192 -14.2203 -14.2203  -8.5557  -8.5557  -4.1070  -4.1070
     0.3084   0.3084   6.4466   6.4466   8.4335   8.4335   9.3217   9.3218

          k = 0.0833-0.4330 0.0000 (  5284 PWs)   bands (ev):

   -17.7953 -17.7953 -12.2828 -12.2828  -8.2281  -8.2281  -5.4127  -5.4127
     2.0725   2.0725   6.2156   6.2157   6.6420   6.6421   7.1718   7.1718

          k = 0.0833-0.3368 0.0000 (  5275 PWs)   bands (ev):

   -19.0538 -19.0538 -10.1628 -10.1628  -7.5947  -7.5947  -6.7888  -6.7888
     4.2668   4.2668   4.4699   4.4700   5.4127   5.4128   5.6654   5.6654

          k = 0.0833-0.2406 0.0000 (  5261 PWs)   bands (ev):

   -20.0173 -20.0173  -8.0925  -8.0925  -7.9019  -7.9019  -6.7106  -6.7106
     3.1357   3.1357   4.0523   4.0523   4.3075   4.3075   6.2592   6.2594

          k = 0.0833-0.1443 0.0000 (  5269 PWs)   bands (ev):

   -20.6667 -20.6667  -8.6681  -8.6681  -6.3848  -6.3848  -5.7151  -5.7151
     2.2439   2.2439   3.1589   3.1590   3.4010   3.4010   5.3946   5.3946

          k = 0.0833-0.0481 0.0000 (  5285 PWs)   bands (ev):

   -20.9933 -20.9933  -9.0568  -9.0568  -5.3522  -5.3522  -5.0397  -5.0397
     1.7976   1.7976   2.7103   2.7103   2.9477   2.9477   4.9493   4.9493

          k = 0.1667 0.0962 0.0000 (  5253 PWs)   bands (ev):

   -20.5039 -20.5038  -8.4752  -8.4752  -6.9878  -6.9878  -5.8297  -5.8297
     2.4667   2.4667   3.3826   3.3827   3.6274   3.6274   5.6156   5.6157

          k = 0.1667 0.1925 0.0000 (  5261 PWs)   bands (ev):

   -20.0173 -20.0173  -8.0925  -8.0925  -7.9019  -7.9019  -6.7106  -6.7106
     3.1357   3.1357   4.0523   4.0523   4.3075   4.3075   6.2592   6.2594

          k = 0.1667 0.2887 0.0000 (  5288 PWs)   bands (ev):

   -19.2138 -19.2138  -9.4221  -9.4220  -8.0693  -8.0693  -6.9671  -6.9671
     4.2487   4.2487   4.7226   4.7226   5.1624   5.1625   5.4408   5.4408

          k = 0.1667 0.3849 0.0000 (  5285 PWs)   bands (ev):

   -18.1074 -18.1074 -11.1471 -11.1471  -9.1238  -9.1238  -5.7172  -5.7172
     2.7793   2.7793   5.7979   5.7980   6.6936   6.6937   7.0247   7.0247

          k = 0.1667 0.4811 0.0000 (  5283 PWs)   bands (ev):

   -16.7338 -16.7338 -13.0546 -13.0546  -9.6991  -9.6991  -4.2942  -4.2942
     0.8718   0.8718   7.7562   7.7563   8.3571   8.3573   8.5674   8.5676

          k = 0.1667 0.5774 0.0000 (  5264 PWs)   bands (ev):

   -15.5047 -15.5047 -14.4839 -14.4839  -9.8837  -9.8837  -3.4039  -3.4039
    -0.1935  -0.1935   8.2535   8.2535   9.9444   9.9445  10.0051  10.0051

          k = 0.1667-0.4811 0.0000 (  5283 PWs)   bands (ev):

   -16.7338 -16.7338 -13.0546 -13.0546  -9.6991  -9.6991  -4.2942  -4.2942
     0.8718   0.8718   7.7562   7.7563   8.3572   8.3574   8.5674   8.5676

          k = 0.1667-0.3849 0.0000 (  5285 PWs)   bands (ev):

   -18.1074 -18.1074 -11.1471 -11.1471  -9.1238  -9.1238  -5.7172  -5.7172
     2.7793   2.7793   5.7979   5.7980   6.6936   6.6937   7.0247   7.0247

          k = 0.1667-0.2887 0.0000 (  5288 PWs)   bands (ev):

   -19.2138 -19.2138  -9.4220  -9.4220  -8.0693  -8.0693  -6.9671  -6.9671
     4.2487   4.2487   4.7226   4.7226   5.1624   5.1625   5.4408   5.4408

          k = 0.1667-0.1925 0.0000 (  5261 PWs)   bands (ev):

   -20.0173 -20.0173  -8.0925  -8.0925  -7.9019  -7.9019  -6.7106  -6.7106
     3.1357   3.1357   4.0523   4.0523   4.3075   4.3075   6.2593   6.2593

          k = 0.1667-0.0962 0.0000 (  5253 PWs)   bands (ev):

   -20.5039 -20.5038  -8.4752  -8.4752  -6.9878  -6.9878  -5.8297  -5.8297
     2.4667   2.4667   3.3826   3.3827   3.6274   3.6274   5.6156   5.6157

          k = 0.1667-0.0000 0.0000 (  5269 PWs)   bands (ev):

   -20.6667 -20.6667  -8.6681  -8.6681  -6.3848  -6.3848  -5.7151  -5.7151
     2.2439   2.2439   3.1589   3.1590   3.4010   3.4010   5.3946   5.3946

          k = 0.2500 0.1443 0.0000 (  5269 PWs)   bands (ev):

   -19.6944 -19.6944  -9.0835  -9.0835  -7.5268  -7.5268  -6.7069  -6.7069
     3.5796   3.5796   4.4839   4.4840   4.7593   4.7593   5.6011   5.6011

          k = 0.2500 0.2406 0.0000 (  5275 PWs)   bands (ev):

   -19.0538 -19.0538 -10.1628 -10.1628  -7.5947  -7.5947  -6.7888  -6.7888
     4.2668   4.2668   4.4699   4.4700   5.4127   5.4128   5.6654   5.6655

          k = 0.2500 0.3368 0.0000 (  5285 PWs)   bands (ev):

   -18.1074 -18.1074 -11.1471 -11.1471  -9.1238  -9.1238  -5.7172  -5.7172
     2.7793   2.7793   5.7979   5.7980   6.6936   6.6937   7.0247   7.0247

          k = 0.2500 0.4330 0.0000 (  5268 PWs)   bands (ev):

   -16.8810 -16.8810 -12.1831 -12.1831 -10.6031 -10.6031  -4.3780  -4.3780
     1.1684   1.1684   7.5466   7.5467   8.2769   8.2770   8.8300   8.8301

          k = 0.2500 0.5292 0.0000 (  5282 PWs)   bands (ev):

   -15.4618 -15.4618 -13.6013 -13.6013 -11.3100 -11.3100  -2.9958  -2.9958
    -0.3481  -0.3481   9.2177   9.2178   9.6499   9.6500  10.5197  10.5197

          k = 0.2500 0.6255 0.0000 (  5282 PWs)   bands (ev):

   -15.4618 -15.4618 -13.6013 -13.6013 -11.3100 -11.3100  -2.9958  -2.9958
    -0.3481  -0.3481   9.2177   9.2178   9.6499   9.6500  10.5197  10.5197

          k = 0.2500-0.4330 0.0000 (  5268 PWs)   bands (ev):

   -16.8810 -16.8810 -12.1831 -12.1831 -10.6031 -10.6031  -4.3780  -4.3780
     1.1684   1.1684   7.5466   7.5467   8.2769   8.2770   8.8300   8.8301

          k = 0.2500-0.3368 0.0000 (  5285 PWs)   bands (ev):

   -18.1074 -18.1074 -11.1471 -11.1471  -9.1238  -9.1238  -5.7172  -5.7172
     2.7793   2.7793   5.7979   5.7980   6.6936   6.6937   7.0247   7.0247

          k = 0.2500-0.2406 0.0000 (  5275 PWs)   bands (ev):

   -19.0538 -19.0538 -10.1628 -10.1628  -7.5947  -7.5947  -6.7888  -6.7888
     4.2668   4.2668   4.4699   4.4700   5.4127   5.4128   5.6654   5.6654

          k = 0.2500-0.1443 0.0000 (  5269 PWs)   bands (ev):

   -19.6944 -19.6944  -9.0835  -9.0835  -7.5268  -7.5268  -6.7069  -6.7069
     3.5796   3.5796   4.4839   4.4840   4.7593   4.7593   5.6011   5.6011

          k = 0.2500-0.0481 0.0000 (  5261 PWs)   bands (ev):

   -20.0173 -20.0173  -8.0925  -8.0925  -7.9019  -7.9019  -6.7106  -6.7106
     3.1357   3.1357   4.0523   4.0523   4.3075   4.3075   6.2592   6.2592

          k = 0.2500 0.0481 0.0000 (  5261 PWs)   bands (ev):

   -20.0173 -20.0173  -8.0925  -8.0925  -7.9019  -7.9019  -6.7106  -6.7106
     3.1357   3.1357   4.0523   4.0523   4.3075   4.3075   6.2592   6.2593

          k = 0.3333 0.1925 0.0000 (  5285 PWs)   bands (ev):

   -18.5773 -18.5773 -11.2840 -11.2840  -7.4383  -7.4383  -6.2618  -6.2618
     3.2579   3.2579   5.1253   5.1253   6.0294   6.0300   6.0919   6.0924

          k = 0.3333 0.2887 0.0000 (  5284 PWs)   bands (ev):

   -17.7953 -17.7953 -12.2828 -12.2828  -8.2281  -8.2281  -5.4127  -5.4127
     2.0725   2.0725   6.2156   6.2157   6.6420   6.6421   7.1718   7.1719

          k = 0.3333 0.3849 0.0000 (  5283 PWs)   bands (ev):

   -16.7338 -16.7338 -13.0546 -13.0546  -9.6991  -9.6991  -4.2942  -4.2942
     0.8718   0.8718   7.7562   7.7563   8.3571   8.3574   8.5674   8.5676

          k = 0.3333 0.4811 0.0000 (  5282 PWs)   bands (ev):

   -15.4618 -15.4618 -13.6013 -13.6013 -11.3100 -11.3100  -2.9958  -2.9958
    -0.3481  -0.3481   9.2177   9.2178   9.6499   9.6500  10.5197  10.5197

          k = 0.3333 0.5774 0.0000 (  5292 PWs)   bands (ev):

   -14.2481 -14.2481 -14.2460 -14.2459 -12.2003 -12.2003  -1.6433  -1.6433
    -1.6431  -1.6431   8.9596   8.9596  11.2148  11.2149  11.2189  11.2190

          k = 0.3333 0.6736 0.0000 (  5282 PWs)   bands (ev):

   -15.4618 -15.4618 -13.6013 -13.6013 -11.3100 -11.3100  -2.9958  -2.9958
    -0.3481  -0.3481   9.2177   9.2178   9.6499   9.6500  10.5197  10.5197

          k = 0.3333-0.3849 0.0000 (  5283 PWs)   bands (ev):

   -16.7338 -16.7338 -13.0546 -13.0546  -9.6991  -9.6991  -4.2942  -4.2942
     0.8718   0.8718   7.7562   7.7563   8.3571   8.3573   8.5674   8.5676

          k = 0.3333-0.2887 0.0000 (  5284 PWs)   bands (ev):

   -17.7953 -17.7953 -12.2828 -12.2828  -8.2281  -8.2281  -5.4127  -5.4127
     2.0725   2.0725   6.2156   6.2157   6.6420   6.6421   7.1718   7.1718

          k = 0.3333-0.1925 0.0000 (  5285 PWs)   bands (ev):

   -18.5773 -18.5773 -11.2840 -11.2840  -7.4383  -7.4383  -6.2618  -6.2618
     3.2579   3.2579   5.1253   5.1253   6.0294   6.0300   6.0919   6.0924

          k = 0.3333-0.0962 0.0000 (  5275 PWs)   bands (ev):

   -19.0538 -19.0538 -10.1628 -10.1628  -7.5947  -7.5947  -6.7888  -6.7888
     4.2668   4.2668   4.4699   4.4700   5.4127   5.4128   5.6654   5.6654

          k = 0.3333 0.0000 0.0000 (  5288 PWs)   bands (ev):

   -19.2138 -19.2138  -9.4221  -9.4221  -8.0693  -8.0693  -6.9671  -6.9671
     4.2487   4.2487   4.7226   4.7226   5.1624   5.1625   5.4408   5.4408

          k = 0.3333 0.0962 0.0000 (  5275 PWs)   bands (ev):

   -19.0538 -19.0538 -10.1628 -10.1628  -7.5947  -7.5947  -6.7888  -6.7888
     4.2668   4.2668   4.4699   4.4700   5.4127   5.4128   5.6654   5.6654

          k = 0.4167 0.2406 0.0000 (  5290 PWs)   bands (ev):

   -17.1837 -17.1837 -13.3811 -13.3811  -7.9099  -7.9099  -4.8429  -4.8429
     1.1280   1.1280   5.7880   5.7880   7.1345   7.1346   8.0703   8.0704

          k = 0.4167 0.3368 0.0000 (  5302 PWs)   bands (ev):

   -16.3192 -16.3192 -14.2203 -14.2203  -8.5557  -8.5557  -4.1070  -4.1070
     0.3084   0.3084   6.4466   6.4466   8.4335   8.4336   9.3217   9.3218

          k = 0.4167 0.4330 0.0000 (  5264 PWs)   bands (ev):

   -15.5047 -15.5047 -14.4839 -14.4839  -9.8837  -9.8837  -3.4039  -3.4039
    -0.1935  -0.1935   8.2535   8.2535   9.9444   9.9445  10.0051  10.0051

          k = 0.4167 0.5292 0.0000 (  5282 PWs)   bands (ev):

   -15.4618 -15.4618 -13.6013 -13.6013 -11.3100 -11.3100  -2.9958  -2.9958
    -0.3481  -0.3481   9.2177   9.2178   9.6499   9.6500  10.5197  10.5197

          k = 0.4167 0.6255 0.0000 (  5282 PWs)   bands (ev):

   -15.4618 -15.4618 -13.6013 -13.6013 -11.3100 -11.3100  -2.9958  -2.9958
    -0.3481  -0.3481   9.2177   9.2178   9.6499   9.6500  10.5197  10.5197

          k = 0.4167 0.7217 0.0000 (  5264 PWs)   bands (ev):

   -15.5047 -15.5047 -14.4839 -14.4839  -9.8837  -9.8837  -3.4039  -3.4039
    -0.1935  -0.1935   8.2535   8.2535   9.9444   9.9445  10.0051  10.0051

          k = 0.4167-0.3368 0.0000 (  5302 PWs)   bands (ev):

   -16.3192 -16.3192 -14.2203 -14.2203  -8.5557  -8.5557  -4.1070  -4.1070
     0.3084   0.3084   6.4466   6.4466   8.4335   8.4335   9.3217   9.3218

          k = 0.4167-0.2406 0.0000 (  5290 PWs)   bands (ev):

   -17.1837 -17.1837 -13.3811 -13.3811  -7.9099  -7.9099  -4.8429  -4.8429
     1.1280   1.1280   5.7880   5.7880   7.1345   7.1346   8.0703   8.0704

          k = 0.4167-0.1443 0.0000 (  5284 PWs)   bands (ev):

   -17.7953 -17.7953 -12.2828 -12.2828  -8.2281  -8.2281  -5.4127  -5.4127
     2.0725   2.0725   6.2156   6.2157   6.6420   6.6421   7.1718   7.1718

          k = 0.4167-0.0481 0.0000 (  5285 PWs)   bands (ev):

   -18.1074 -18.1074 -11.1471 -11.1471  -9.1238  -9.1238  -5.7172  -5.7172
     2.7793   2.7793   5.7979   5.7980   6.6936   6.6937   7.0247   7.0247

          k = 0.4167 0.0481 0.0000 (  5285 PWs)   bands (ev):

   -18.1074 -18.1074 -11.1471 -11.1471  -9.1238  -9.1238  -5.7172  -5.7172
     2.7793   2.7793   5.7979   5.7980   6.6936   6.6937   7.0247   7.0247

          k = 0.4167 0.1443 0.0000 (  5284 PWs)   bands (ev):

   -17.7953 -17.7953 -12.2828 -12.2828  -8.2281  -8.2281  -5.4127  -5.4127
     2.0725   2.0725   6.2156   6.2157   6.6420   6.6421   7.1718   7.1719

          k =-0.5000-0.2887 0.0000 (  5288 PWs)   bands (ev):

   -15.9259 -15.9259 -14.8813 -14.8813  -8.0718  -8.0718  -4.0007  -4.0007
     0.0332   0.0332   5.7086   5.7086   9.4415   9.4415   9.5874   9.5874

          k =-0.5000-0.1925 0.0000 (  5302 PWs)   bands (ev):

   -16.3192 -16.3192 -14.2203 -14.2203  -8.5557  -8.5557  -4.1070  -4.1070
     0.3084   0.3084   6.4466   6.4466   8.4335   8.4335   9.3217   9.3218

          k =-0.5000-0.0962 0.0000 (  5283 PWs)   bands (ev):

   -16.7338 -16.7338 -13.0546 -13.0546  -9.6991  -9.6991  -4.2942  -4.2942
     0.8718   0.8718   7.7562   7.7563   8.3571   8.3573   8.5674   8.5676

          k =-0.5000 0.0000 0.0000 (  5268 PWs)   bands (ev):

   -16.8810 -16.8810 -12.1831 -12.1831 -10.6031 -10.6031  -4.3780  -4.3780
     1.1684   1.1684   7.5466   7.5467   8.2769   8.2770   8.8300   8.8301

          k =-0.5000 0.0962 0.0000 (  5283 PWs)   bands (ev):

   -16.7338 -16.7338 -13.0546 -13.0546  -9.6991  -9.6991  -4.2942  -4.2942
     0.8718   0.8718   7.7562   7.7563   8.3571   8.3573   8.5675   8.5676

          k =-0.5000 0.1925 0.0000 (  5302 PWs)   bands (ev):

   -16.3192 -16.3192 -14.2203 -14.2203  -8.5557  -8.5557  -4.1070  -4.1070
     0.3084   0.3084   6.4466   6.4466   8.4335   8.4336   9.3217   9.3218

          k =-0.5000-0.8660 0.0000 (  5288 PWs)   bands (ev):

   -15.9260 -15.9260 -14.8812 -14.8812  -8.0718  -8.0718  -4.0007  -4.0007
     0.0332   0.0332   5.7086   5.7086   9.4415   9.4415   9.5874   9.5874

     the Fermi energy is  -1.643187 ev

!    total energy              =     -36.88891629 Ry
     total all-electron energy =      -152.417206 Ry
     estimated scf accuracy    <          3.2E-09 Ry
     smearing contrib. (-TS)   =      -0.00003134 Ry
     internal energy E=F+TS    =     -36.88888495 Ry

     The total energy is F=E-TS. E is the sum of the following terms:
     one-electron contribution =    -156.62360935 Ry
     hartree contribution      =      79.91881896 Ry
     xc contribution           =      -8.28629772 Ry
     ewald contribution        =      61.40972547 Ry
     electric field correction =      -0.00001040 Ry
     one-center paw contrib.   =     -13.30751190 Ry

     convergence has been achieved in  25 iterations

     negative rho (up, down):  7.070E-06 0.000E+00

     Forces acting on atoms (cartesian axes, Ry/au):

     atom    1 type  1   force =     0.00000154    0.00000169   -0.00000082
     atom    2 type  1   force =    -0.00000154   -0.00000169    0.00000082

     Total force =     0.000003     Total SCF correction =     0.000065
     SCF correction compared to forces is large: reduce conv_thr to get better values

     Writing all to output data dir ./tmp/graphene.save/ :
     XML data file, charge density, pseudopotentials, collected wavefunctions

     init_run     :      2.46s CPU      2.58s WALL (       1 calls)
     electrons    :    183.93s CPU    190.87s WALL (       1 calls)
     forces       :      0.69s CPU      0.72s WALL (       1 calls)

     Called by init_run:
     wfcinit      :      1.80s CPU      1.89s WALL (       1 calls)
     potinit      :      0.19s CPU      0.20s WALL (       1 calls)
     hinit0       :      0.39s CPU      0.39s WALL (       1 calls)

     Called by electrons:
     c_bands      :    159.50s CPU    164.58s WALL (      25 calls)
     sum_band     :     21.06s CPU     22.39s WALL (      25 calls)
     v_of_rho     :      0.91s CPU      0.94s WALL (      26 calls)
     newd         :      1.20s CPU      1.68s WALL (      26 calls)
     PAW_pot      :      0.41s CPU      0.43s WALL (      26 calls)
     mix_rho      :      0.63s CPU      0.65s WALL (      25 calls)

     Called by c_bands:
     init_us_2    :      1.08s CPU      1.11s WALL (    3848 calls)
     cegterg      :    156.10s CPU    161.14s WALL (    1850 calls)

     Called by *egterg:
     cdiaghg      :      6.48s CPU      6.49s WALL (    7707 calls)
     h_psi        :    106.29s CPU    111.09s WALL (    7781 calls)
     s_psi        :      6.88s CPU      6.98s WALL (    7781 calls)
     g_psi        :      0.32s CPU      0.32s WALL (    5857 calls)

     Called by h_psi:
     h_psi:calbec :      7.77s CPU      8.09s WALL (    7781 calls)
     vloc_psi     :     90.66s CPU     95.07s WALL (    7781 calls)
     add_vuspsi   :      6.96s CPU      7.00s WALL (    7781 calls)

     General routines
     calbec       :     10.88s CPU     11.26s WALL (    9927 calls)
     fft          :      1.04s CPU      1.08s WALL (     647 calls)
     ffts         :      0.16s CPU      0.16s WALL (     204 calls)
     fftw         :     39.45s CPU     41.50s WALL (  395984 calls)
     interpolate  :      0.28s CPU      0.29s WALL (     104 calls)

     Parallel routines

     PWSCF        :   3m 7.28s CPU   3m14.49s WALL


   This run was terminated on:  16:59: 0  12Nov2025            

=------------------------------------------------------------------------------=
   JOB DONE.
=------------------------------------------------------------------------------=
