
     Program PWSCF v.7.4.1 starts on 29Jan2026 at  2:20:14 

     This program is part of the open-source Quantum ESPRESSO suite
     for quantum simulation of materials; please cite
         "P. Giannozzi et al., J. Phys.:Condens. Matter 21 395502 (2009);
         "P. Giannozzi et al., J. Phys.:Condens. Matter 29 465901 (2017);
         "P. Giannozzi et al., J. Chem. Phys. 152 154105 (2020);
          URL http://www.quantum-espresso.org", 
     in publications or presentations arising from this work. More details at
     http://www.quantum-espresso.org/quote

     Parallel version (MPI), running on    20 processors

     MPI processes distributed on     1 nodes
     124906 MiB available memory on the printing compute node when the environment starts
 
     Reading input from grap_SOC_scf.in

     Current dimensions of program PWSCF are:
     Max number of different atomic species (ntypx) = 10
     Max number of k-points (npk) =  40000
     Max angular momentum in pseudopotentials (lmaxx) =  4
     Presently stress not available with electric field and gates

     file C.rel-pbe-n-kjpaw_psl.1.0.0.UPF: wavefunction(s)  2S 2P 2P renormalized
 
     R & G space division:  proc/nbgrp/npool/nimage =      20
     Subspace diagonalization in iterative solution of the eigenvalue problem:
     a serial algorithm will be used

 
     Parallelization info
     --------------------
     sticks:   dense  smooth     PW     G-vecs:    dense   smooth      PW
     Min          52      21      6                 8339     2113     392
     Max          57      22      7                 8350     2140     425
     Sum        1045     421    139               166859    42343    8205
 
     Using Slab Decomposition
 


     bravais-lattice index     =            0
     lattice parameter (alat)  =       4.6624  a.u.
     unit-cell volume          =     533.6317 (a.u.)^3
     number of atoms/cell      =            2
     number of atomic types    =            1
     number of electrons       =         8.00
     number of Kohn-Sham states=           16
     kinetic-energy cutoff     =      70.0000  Ry
     charge density cutoff     =     700.0000  Ry
     scf convergence threshold =      1.0E-08
     mixing beta               =       0.1000
     number of iterations used =            8  plain     mixing
     Exchange-correlation= SLA  PW   PBX  PBC
                           (   1   4   3   4   0   0   0)
     Non magnetic calculation with spin-orbit


     celldm(1)=   4.662410  celldm(2)=   0.000000  celldm(3)=   0.000000
     celldm(4)=   0.000000  celldm(5)=   0.000000  celldm(6)=   0.000000

     crystal axes: (cart. coord. in units of alat)
               a(1) = (   1.000000   0.000000   0.000000 )  
               a(2) = (  -0.500000   0.866025   0.000000 )  
               a(3) = (   0.000000   0.000000   6.079666 )  

     reciprocal axes: (cart. coord. in units 2 pi/alat)
               b(1) = (  1.000000  0.577350  0.000000 )  
               b(2) = (  0.000000  1.154701  0.000000 )  
               b(3) = (  0.000000  0.000000  0.164483 )  


     PseudoPot. # 1 for C  read from file:
     ../../../PP_C/C.rel-pbe-n-kjpaw_psl.1.0.0.UPF
     MD5 check sum: dd2b8f743de1f3a10095e4114fb28074
     Pseudo is Projector augmented-wave + core cor, Zval =  4.0
     Generated using &quot;atomic&quot; code by A. Dal Corso  v.6.3
     Shape of augmentation charge: PSQ
     Using radial grid of 1073 points,  6 beta functions with: 
                l(1) =   0
                l(2) =   0
                l(3) =   1
                l(4) =   1
                l(5) =   1
                l(6) =   1
     Q(r) pseudized with 0 coefficients 


     atomic species   valence    mass     pseudopotential
     C                 4.00    12.01100     C ( 1.00)

     No symmetry found



   Cartesian axes

     site n.     atom                  positions (alat units)
         1        C      tau(   1) = (   0.0000000   0.0000000   3.0398328  )
         2        C      tau(   2) = (   0.0000000   0.5773503   3.0398328  )

     number of k points=    74  Gaussian smearing, width (Ry)=  0.0020
                       cart. coord. in units 2pi/alat
        k(    1) = (   0.0000000   0.0000000   0.0000000), wk =   0.0069444
        k(    2) = (   0.0000000   0.0962250   0.0000000), wk =   0.0138889
        k(    3) = (   0.0000000   0.1924501   0.0000000), wk =   0.0138889
        k(    4) = (   0.0000000   0.2886751   0.0000000), wk =   0.0138889
        k(    5) = (   0.0000000   0.3849002   0.0000000), wk =   0.0138889
        k(    6) = (   0.0000000   0.4811252   0.0000000), wk =   0.0138889
        k(    7) = (   0.0000000  -0.5773503   0.0000000), wk =   0.0069444
        k(    8) = (   0.0833333   0.0481125   0.0000000), wk =   0.0138889
        k(    9) = (   0.0833333   0.1443376   0.0000000), wk =   0.0138889
        k(   10) = (   0.0833333   0.2405626   0.0000000), wk =   0.0138889
        k(   11) = (   0.0833333   0.3367877   0.0000000), wk =   0.0138889
        k(   12) = (   0.0833333   0.4330127   0.0000000), wk =   0.0138889
        k(   13) = (   0.0833333   0.5292377   0.0000000), wk =   0.0138889
        k(   14) = (   0.0833333  -0.5292377   0.0000000), wk =   0.0138889
        k(   15) = (   0.0833333  -0.4330127   0.0000000), wk =   0.0138889
        k(   16) = (   0.0833333  -0.3367877   0.0000000), wk =   0.0138889
        k(   17) = (   0.0833333  -0.2405626   0.0000000), wk =   0.0138889
        k(   18) = (   0.0833333  -0.1443376   0.0000000), wk =   0.0138889
        k(   19) = (   0.0833333  -0.0481125   0.0000000), wk =   0.0138889
        k(   20) = (   0.1666667   0.0962250   0.0000000), wk =   0.0138889
        k(   21) = (   0.1666667   0.1924501   0.0000000), wk =   0.0138889
        k(   22) = (   0.1666667   0.2886751   0.0000000), wk =   0.0138889
        k(   23) = (   0.1666667   0.3849002   0.0000000), wk =   0.0138889
        k(   24) = (   0.1666667   0.4811252   0.0000000), wk =   0.0138889
        k(   25) = (   0.1666667   0.5773503   0.0000000), wk =   0.0138889
        k(   26) = (   0.1666667  -0.4811252   0.0000000), wk =   0.0138889
        k(   27) = (   0.1666667  -0.3849002   0.0000000), wk =   0.0138889
        k(   28) = (   0.1666667  -0.2886751   0.0000000), wk =   0.0138889
        k(   29) = (   0.1666667  -0.1924501   0.0000000), wk =   0.0138889
        k(   30) = (   0.1666667  -0.0962250   0.0000000), wk =   0.0138889
        k(   31) = (   0.1666667  -0.0000000   0.0000000), wk =   0.0138889
        k(   32) = (   0.2500000   0.1443376   0.0000000), wk =   0.0138889
        k(   33) = (   0.2500000   0.2405626   0.0000000), wk =   0.0138889
        k(   34) = (   0.2500000   0.3367877   0.0000000), wk =   0.0138889
        k(   35) = (   0.2500000   0.4330127   0.0000000), wk =   0.0138889
        k(   36) = (   0.2500000   0.5292377   0.0000000), wk =   0.0138889
        k(   37) = (   0.2500000   0.6254628   0.0000000), wk =   0.0138889
        k(   38) = (   0.2500000  -0.4330127   0.0000000), wk =   0.0138889
        k(   39) = (   0.2500000  -0.3367877   0.0000000), wk =   0.0138889
        k(   40) = (   0.2500000  -0.2405626   0.0000000), wk =   0.0138889
        k(   41) = (   0.2500000  -0.1443376   0.0000000), wk =   0.0138889
        k(   42) = (   0.2500000  -0.0481125   0.0000000), wk =   0.0138889
        k(   43) = (   0.2500000   0.0481125   0.0000000), wk =   0.0138889
        k(   44) = (   0.3333333   0.1924501   0.0000000), wk =   0.0138889
        k(   45) = (   0.3333333   0.2886751   0.0000000), wk =   0.0138889
        k(   46) = (   0.3333333   0.3849002   0.0000000), wk =   0.0138889
        k(   47) = (   0.3333333   0.4811252   0.0000000), wk =   0.0138889
        k(   48) = (   0.3333333   0.5773503   0.0000000), wk =   0.0138889
        k(   49) = (   0.3333333   0.6735753   0.0000000), wk =   0.0138889
        k(   50) = (   0.3333333  -0.3849002   0.0000000), wk =   0.0138889
        k(   51) = (   0.3333333  -0.2886751   0.0000000), wk =   0.0138889
        k(   52) = (   0.3333333  -0.1924501   0.0000000), wk =   0.0138889
        k(   53) = (   0.3333333  -0.0962250   0.0000000), wk =   0.0138889
        k(   54) = (   0.3333333  -0.0000000   0.0000000), wk =   0.0138889
        k(   55) = (   0.3333333   0.0962250   0.0000000), wk =   0.0138889
        k(   56) = (   0.4166667   0.2405626   0.0000000), wk =   0.0138889
        k(   57) = (   0.4166667   0.3367877   0.0000000), wk =   0.0138889
        k(   58) = (   0.4166667   0.4330127   0.0000000), wk =   0.0138889
        k(   59) = (   0.4166667   0.5292377   0.0000000), wk =   0.0138889
        k(   60) = (   0.4166667   0.6254628   0.0000000), wk =   0.0138889
        k(   61) = (   0.4166667   0.7216878   0.0000000), wk =   0.0138889
        k(   62) = (   0.4166667  -0.3367877   0.0000000), wk =   0.0138889
        k(   63) = (   0.4166667  -0.2405626   0.0000000), wk =   0.0138889
        k(   64) = (   0.4166667  -0.1443376   0.0000000), wk =   0.0138889
        k(   65) = (   0.4166667  -0.0481125   0.0000000), wk =   0.0138889
        k(   66) = (   0.4166667   0.0481125   0.0000000), wk =   0.0138889
        k(   67) = (   0.4166667   0.1443376   0.0000000), wk =   0.0138889
        k(   68) = (  -0.5000000  -0.2886751   0.0000000), wk =   0.0069444
        k(   69) = (  -0.5000000  -0.1924501   0.0000000), wk =   0.0138889
        k(   70) = (  -0.5000000  -0.0962250   0.0000000), wk =   0.0138889
        k(   71) = (  -0.5000000   0.0000000   0.0000000), wk =   0.0138889
        k(   72) = (  -0.5000000   0.0962250   0.0000000), wk =   0.0138889
        k(   73) = (  -0.5000000   0.1924501   0.0000000), wk =   0.0138889
        k(   74) = (  -0.5000000  -0.8660254   0.0000000), wk =   0.0069444

     Dense  grid:   166859 G-vectors     FFT dimensions: (  40,  40, 240)

     Smooth grid:    42343 G-vectors     FFT dimensions: (  25,  25, 160)

     Estimated max dynamical RAM per process >      40.42 MB

     Estimated total dynamical RAM >     808.50 MB

     Initial potential from superposition of free atoms

     starting charge       7.9999, renormalised to       8.0000

     negative rho (up, down):  2.223E-05 0.000E+00
 
     Adding external electric field

     Computed dipole along edir(3) : 
        Dipole               -0.0000 Ry au,         -0.0000 Debye
        Dipole field         -0.0000 Ry au, 
 
        E field amplitude [Ha a.u.]:  1.9447E-04
        Potential amp.        0.0105 Ry
        Total length         26.9286 bohr
 
     Starting wfcs are random
     Checking if some PAW data can be deallocated... 

     total cpu time spent up to now is        1.4 secs

     per-process dynamical memory:    53.7 Mb

     Self-consistent Calculation

     iteration #  1     ecut=    70.00 Ry     beta= 0.10
     Davidson diagonalization with overlap
     ethr =  1.00E-02,  avg # of iterations =  8.4

     negative rho (up, down):  2.183E-05 0.000E+00
 
     Adding external electric field

     Computed dipole along edir(3) : 
        Dipole                0.0003 Ry au,          0.0007 Debye
        Dipole field          0.0000 Ry au, 
 
        E field amplitude [Ha a.u.]:  1.9447E-04
        Potential amp.        0.0101 Ry
        Total length         26.9286 bohr
 

     total cpu time spent up to now is        9.1 secs

     total energy              =     -36.95129612 Ry
     estimated scf accuracy    <       0.20285569 Ry

     iteration #  2     ecut=    70.00 Ry     beta= 0.10
     Davidson diagonalization with overlap
     ethr =  2.54E-03,  avg # of iterations =  1.0

     negative rho (up, down):  2.722E-05 0.000E+00
 
     Adding external electric field

     Computed dipole along edir(3) : 
        Dipole                0.0016 Ry au,          0.0041 Debye
        Dipole field          0.0000 Ry au, 
 
        E field amplitude [Ha a.u.]:  1.9447E-04
        Potential amp.        0.0084 Ry
        Total length         26.9286 bohr
 

     total cpu time spent up to now is       10.9 secs

     total energy              =     -36.86215939 Ry
     estimated scf accuracy    <       0.14952677 Ry

     iteration #  3     ecut=    70.00 Ry     beta= 0.10
     Davidson diagonalization with overlap
     ethr =  1.87E-03,  avg # of iterations =  2.4

     negative rho (up, down):  2.708E-05 0.000E+00
 
     Adding external electric field

     Computed dipole along edir(3) : 
        Dipole                0.0012 Ry au,          0.0030 Debye
        Dipole field          0.0000 Ry au, 
 
        E field amplitude [Ha a.u.]:  1.9447E-04
        Potential amp.        0.0090 Ry
        Total length         26.9286 bohr
 

     total cpu time spent up to now is       13.1 secs

     total energy              =     -36.88689142 Ry
     estimated scf accuracy    <       0.00231798 Ry

     iteration #  4     ecut=    70.00 Ry     beta= 0.10
     Davidson diagonalization with overlap
     ethr =  2.90E-05,  avg # of iterations =  6.2

     negative rho (up, down):  3.055E-05 0.000E+00
 
     Adding external electric field

     Computed dipole along edir(3) : 
        Dipole                0.0005 Ry au,          0.0012 Debye
        Dipole field          0.0000 Ry au, 
 
        E field amplitude [Ha a.u.]:  1.9447E-04
        Potential amp.        0.0099 Ry
        Total length         26.9286 bohr
 

     total cpu time spent up to now is       16.7 secs

     total energy              =     -36.88728949 Ry
     estimated scf accuracy    <       0.00145343 Ry

     iteration #  5     ecut=    70.00 Ry     beta= 0.10
     Davidson diagonalization with overlap
     ethr =  1.82E-05,  avg # of iterations =  1.0

     negative rho (up, down):  3.440E-05 0.000E+00
 
     Adding external electric field

     Computed dipole along edir(3) : 
        Dipole                0.0009 Ry au,          0.0022 Debye
        Dipole field          0.0000 Ry au, 
 
        E field amplitude [Ha a.u.]:  1.9447E-04
        Potential amp.        0.0094 Ry
        Total length         26.9286 bohr
 

     total cpu time spent up to now is       18.4 secs

     total energy              =     -36.88731388 Ry
     estimated scf accuracy    <       0.00016769 Ry

     iteration #  6     ecut=    70.00 Ry     beta= 0.10
     Davidson diagonalization with overlap
     ethr =  2.10E-06,  avg # of iterations =  3.4

     negative rho (up, down):  3.306E-05 0.000E+00
 
     Adding external electric field

     Computed dipole along edir(3) : 
        Dipole                0.0010 Ry au,          0.0027 Debye
        Dipole field          0.0000 Ry au, 
 
        E field amplitude [Ha a.u.]:  1.9447E-04
        Potential amp.        0.0091 Ry
        Total length         26.9286 bohr
 

     total cpu time spent up to now is       21.1 secs

     total energy              =     -36.88725164 Ry
     estimated scf accuracy    <       0.00027068 Ry

     iteration #  7     ecut=    70.00 Ry     beta= 0.10
     Davidson diagonalization with overlap
     ethr =  2.10E-06,  avg # of iterations =  2.7

     negative rho (up, down):  3.326E-05 0.000E+00
 
     Adding external electric field

     Computed dipole along edir(3) : 
        Dipole                0.0011 Ry au,          0.0027 Debye
        Dipole field          0.0000 Ry au, 
 
        E field amplitude [Ha a.u.]:  1.9447E-04
        Potential amp.        0.0091 Ry
        Total length         26.9286 bohr
 

     total cpu time spent up to now is       23.5 secs

     total energy              =     -36.88728854 Ry
     estimated scf accuracy    <       0.00000245 Ry

     iteration #  8     ecut=    70.00 Ry     beta= 0.10
     Davidson diagonalization with overlap
     ethr =  3.07E-08,  avg # of iterations =  1.6

     negative rho (up, down):  3.365E-05 0.000E+00
 
     Adding external electric field

     Computed dipole along edir(3) : 
        Dipole                0.0013 Ry au,          0.0032 Debye
        Dipole field          0.0000 Ry au, 
 
        E field amplitude [Ha a.u.]:  1.9447E-04
        Potential amp.        0.0089 Ry
        Total length         26.9286 bohr
 

     total cpu time spent up to now is       25.3 secs

     total energy              =     -36.88728871 Ry
     estimated scf accuracy    <       0.00000157 Ry

     iteration #  9     ecut=    70.00 Ry     beta= 0.10
     Davidson diagonalization with overlap
     ethr =  1.96E-08,  avg # of iterations =  1.2

     negative rho (up, down):  3.387E-05 0.000E+00
 
     Adding external electric field

     Computed dipole along edir(3) : 
        Dipole                0.0012 Ry au,          0.0031 Debye
        Dipole field          0.0000 Ry au, 
 
        E field amplitude [Ha a.u.]:  1.9447E-04
        Potential amp.        0.0089 Ry
        Total length         26.9286 bohr
 

     total cpu time spent up to now is       27.1 secs

     total energy              =     -36.88728886 Ry
     estimated scf accuracy    <       0.00000015 Ry

     iteration # 10     ecut=    70.00 Ry     beta= 0.10
     Davidson diagonalization with overlap
     ethr =  1.81E-09,  avg # of iterations =  1.9

     negative rho (up, down):  3.405E-05 0.000E+00
 
     Adding external electric field

     Computed dipole along edir(3) : 
        Dipole                0.0011 Ry au,          0.0029 Debye
        Dipole field          0.0000 Ry au, 
 
        E field amplitude [Ha a.u.]:  1.9447E-04
        Potential amp.        0.0090 Ry
        Total length         26.9286 bohr
 

     total cpu time spent up to now is       29.0 secs

     total energy              =     -36.88728888 Ry
     estimated scf accuracy    <       0.00000015 Ry

     iteration # 11     ecut=    70.00 Ry     beta= 0.10
     Davidson diagonalization with overlap
     ethr =  1.81E-09,  avg # of iterations =  1.0

     negative rho (up, down):  3.415E-05 0.000E+00
 
     Adding external electric field

     Computed dipole along edir(3) : 
        Dipole                0.0011 Ry au,          0.0029 Debye
        Dipole field          0.0000 Ry au, 
 
        E field amplitude [Ha a.u.]:  1.9447E-04
        Potential amp.        0.0090 Ry
        Total length         26.9286 bohr
 

     total cpu time spent up to now is       30.7 secs

     total energy              =     -36.88728889 Ry
     estimated scf accuracy    <       0.00000001 Ry

     iteration # 12     ecut=    70.00 Ry     beta= 0.10
     Davidson diagonalization with overlap
     ethr =  1.27E-10,  avg # of iterations =  1.5

     negative rho (up, down):  3.550E-05 0.000E+00
 
     Adding external electric field

     Computed dipole along edir(3) : 
        Dipole                0.0012 Ry au,          0.0030 Debye
        Dipole field          0.0000 Ry au, 
 
        E field amplitude [Ha a.u.]:  1.9447E-04
        Potential amp.        0.0090 Ry
        Total length         26.9286 bohr
 

     total cpu time spent up to now is       32.5 secs

     End of self-consistent calculation

          k = 0.0000 0.0000 0.0000 (  5307 PWs)   bands (ev):

   -21.2361 -21.2361  -9.3327  -9.3327  -4.7789  -4.7789  -4.7697  -4.7697
     1.5188   1.5188   2.4126   2.4126   2.8276   2.8276   4.7377   4.7377

          k = 0.0000 0.0962 0.0000 (  5285 PWs)   bands (ev):

   -21.0724 -21.0724  -9.1369  -9.1369  -5.4250  -5.4250  -5.1122  -5.1122
     1.7417   1.7417   2.6372   2.6372   3.0542   3.0542   4.9607   4.9607

          k = 0.0000 0.1925 0.0000 (  5253 PWs)   bands (ev):

   -20.5829 -20.5829  -8.5550  -8.5550  -7.0624  -7.0624  -5.9038  -5.9038
     2.4100   2.4100   3.3094   3.3094   3.7341   3.7341   5.6266   5.6266

          k = 0.0000 0.2887 0.0000 (  5269 PWs)   bands (ev):

   -19.7734 -19.7734  -9.1599  -9.1599  -7.6061  -7.6061  -6.7828  -6.7828
     3.5218   3.5218   4.4100   4.4100   4.8659   4.8659   5.5284   5.5284

          k = 0.0000 0.3849 0.0000 (  5285 PWs)   bands (ev):

   -18.6561 -18.6561 -11.3618 -11.3618  -7.5156  -7.5156  -6.3404  -6.3404
     3.1842   3.1843   5.0652   5.0652   5.9833   5.9836   6.0136   6.0139

          k = 0.0000 0.4811 0.0000 (  5290 PWs)   bands (ev):

   -17.2624 -17.2624 -13.4598 -13.4598  -7.9882  -7.9882  -4.9209  -4.9209
     1.0545   1.0545   5.7303   5.7303   7.0731   7.0732   7.9962   7.9962

          k = 0.0000-0.5774 0.0000 (  5288 PWs)   bands (ev):

   -16.0037 -16.0037 -14.9612 -14.9612  -8.1504  -8.1504  -4.0786  -4.0786
    -0.0403  -0.0403   5.6507   5.6507   9.3762   9.3762   9.5245   9.5245

          k = 0.0833 0.0481 0.0000 (  5285 PWs)   bands (ev):

   -21.0724 -21.0724  -9.1369  -9.1369  -5.4250  -5.4250  -5.1122  -5.1122
     1.7417   1.7417   2.6372   2.6372   3.0542   3.0542   4.9607   4.9607

          k = 0.0833 0.1443 0.0000 (  5269 PWs)   bands (ev):

   -20.7457 -20.7457  -8.7480  -8.7480  -6.4588  -6.4588  -5.7888  -5.7888
     2.1875   2.1875   3.0858   3.0858   3.5076   3.5076   5.4058   5.4058

          k = 0.0833 0.2406 0.0000 (  5261 PWs)   bands (ev):

   -20.0963 -20.0963  -8.1682  -8.1682  -7.9814  -7.9814  -6.7859  -6.7859
     3.0783   3.0783   3.9789   3.9789   4.4143   4.4143   6.2537   6.2537

          k = 0.0833 0.3368 0.0000 (  5275 PWs)   bands (ev):

   -19.1327 -19.1327 -10.2401 -10.2401  -7.6716  -7.6716  -6.8676  -6.8676
     4.1933   4.1933   4.4102   4.4102   5.3398   5.3398   5.7718   5.7718

          k = 0.0833 0.4330 0.0000 (  5284 PWs)   bands (ev):

   -17.8740 -17.8740 -12.3611 -12.3611  -8.3061  -8.3061  -5.4909  -5.4909
     1.9988   1.9988   6.1544   6.1544   6.5867   6.5867   7.0971   7.0971

          k = 0.0833 0.5292 0.0000 (  5302 PWs)   bands (ev):

   -16.3976 -16.3975 -14.2995 -14.2995  -8.6343  -8.6343  -4.1848  -4.1848
     0.2347   0.2347   6.3888   6.3888   8.3706   8.3706   9.2457   9.2457

          k = 0.0833-0.5292 0.0000 (  5302 PWs)   bands (ev):

   -16.3976 -16.3976 -14.2995 -14.2995  -8.6343  -8.6343  -4.1848  -4.1848
     0.2347   0.2347   6.3888   6.3888   8.3706   8.3706   9.2457   9.2457

          k = 0.0833-0.4330 0.0000 (  5284 PWs)   bands (ev):

   -17.8740 -17.8740 -12.3611 -12.3611  -8.3061  -8.3061  -5.4909  -5.4909
     1.9988   1.9988   6.1544   6.1544   6.5867   6.5867   7.0971   7.0971

          k = 0.0833-0.3368 0.0000 (  5275 PWs)   bands (ev):

   -19.1327 -19.1327 -10.2401 -10.2401  -7.6716  -7.6716  -6.8676  -6.8676
     4.1933   4.1933   4.4102   4.4102   5.3398   5.3398   5.7718   5.7718

          k = 0.0833-0.2406 0.0000 (  5261 PWs)   bands (ev):

   -20.0963 -20.0963  -8.1682  -8.1682  -7.9814  -7.9814  -6.7859  -6.7859
     3.0783   3.0783   3.9789   3.9789   4.4143   4.4143   6.2537   6.2537

          k = 0.0833-0.1443 0.0000 (  5269 PWs)   bands (ev):

   -20.7457 -20.7457  -8.7480  -8.7480  -6.4588  -6.4588  -5.7888  -5.7888
     2.1875   2.1875   3.0858   3.0858   3.5076   3.5076   5.4058   5.4058

          k = 0.0833-0.0481 0.0000 (  5285 PWs)   bands (ev):

   -21.0724 -21.0724  -9.1369  -9.1369  -5.4250  -5.4250  -5.1122  -5.1122
     1.7417   1.7417   2.6372   2.6372   3.0542   3.0542   4.9607   4.9607

          k = 0.1667 0.0962 0.0000 (  5253 PWs)   bands (ev):

   -20.5829 -20.5829  -8.5550  -8.5550  -7.0624  -7.0624  -5.9038  -5.9038
     2.4100   2.4100   3.3094   3.3094   3.7341   3.7341   5.6266   5.6266

          k = 0.1667 0.1925 0.0000 (  5261 PWs)   bands (ev):

   -20.0963 -20.0963  -8.1682  -8.1682  -7.9814  -7.9814  -6.7859  -6.7859
     3.0783   3.0783   3.9789   3.9789   4.4143   4.4143   6.2537   6.2537

          k = 0.1667 0.2887 0.0000 (  5288 PWs)   bands (ev):

   -19.2927 -19.2927  -9.4989  -9.4989  -8.1462  -8.1462  -7.0460  -7.0460
     4.1902   4.1902   4.6481   4.6481   5.0886   5.0886   5.5478   5.5478

          k = 0.1667 0.3849 0.0000 (  5285 PWs)   bands (ev):

   -18.1863 -18.1863 -11.2249 -11.2249  -9.2019  -9.2019  -5.7955  -5.7955
     2.7051   2.7051   5.7379   5.7379   6.6188   6.6188   7.1317   7.1317

          k = 0.1667 0.4811 0.0000 (  5283 PWs)   bands (ev):

   -16.8125 -16.8125 -13.1332 -13.1332  -9.7778  -9.7778  -4.3718  -4.3718
     0.7974   0.7974   7.6941   7.6941   8.3018   8.3018   8.4890   8.4890

          k = 0.1667 0.5774 0.0000 (  5264 PWs)   bands (ev):

   -15.5825 -15.5825 -14.5635 -14.5635  -9.9627  -9.9627  -3.4814  -3.4814
    -0.2679  -0.2679   8.1954   8.1954   9.8817   9.8817   9.9382   9.9382

          k = 0.1667-0.4811 0.0000 (  5283 PWs)   bands (ev):

   -16.8125 -16.8125 -13.1332 -13.1332  -9.7778  -9.7778  -4.3718  -4.3718
     0.7974   0.7974   7.6941   7.6941   8.3018   8.3019   8.4890   8.4890

          k = 0.1667-0.3849 0.0000 (  5285 PWs)   bands (ev):

   -18.1863 -18.1863 -11.2249 -11.2249  -9.2019  -9.2019  -5.7955  -5.7955
     2.7051   2.7051   5.7379   5.7379   6.6188   6.6188   7.1317   7.1317

          k = 0.1667-0.2887 0.0000 (  5288 PWs)   bands (ev):

   -19.2927 -19.2927  -9.4989  -9.4989  -8.1462  -8.1462  -7.0460  -7.0460
     4.1902   4.1902   4.6481   4.6481   5.0886   5.0886   5.5478   5.5478

          k = 0.1667-0.1925 0.0000 (  5261 PWs)   bands (ev):

   -20.0963 -20.0963  -8.1682  -8.1682  -7.9814  -7.9814  -6.7859  -6.7859
     3.0783   3.0783   3.9789   3.9789   4.4143   4.4143   6.2537   6.2537

          k = 0.1667-0.0962 0.0000 (  5253 PWs)   bands (ev):

   -20.5829 -20.5829  -8.5550  -8.5550  -7.0624  -7.0624  -5.9038  -5.9038
     2.4100   2.4100   3.3094   3.3094   3.7341   3.7341   5.6266   5.6266

          k = 0.1667-0.0000 0.0000 (  5269 PWs)   bands (ev):

   -20.7457 -20.7457  -8.7480  -8.7480  -6.4588  -6.4588  -5.7888  -5.7888
     2.1875   2.1875   3.0858   3.0858   3.5076   3.5076   5.4058   5.4058

          k = 0.2500 0.1443 0.0000 (  5269 PWs)   bands (ev):

   -19.7734 -19.7734  -9.1599  -9.1599  -7.6061  -7.6061  -6.7828  -6.7828
     3.5218   3.5218   4.4100   4.4100   4.8659   4.8659   5.5284   5.5284

          k = 0.2500 0.2406 0.0000 (  5275 PWs)   bands (ev):

   -19.1327 -19.1327 -10.2401 -10.2401  -7.6716  -7.6716  -6.8676  -6.8676
     4.1933   4.1933   4.4102   4.4102   5.3398   5.3398   5.7718   5.7718

          k = 0.2500 0.3368 0.0000 (  5285 PWs)   bands (ev):

   -18.1863 -18.1863 -11.2249 -11.2249  -9.2019  -9.2019  -5.7955  -5.7955
     2.7051   2.7051   5.7379   5.7379   6.6188   6.6188   7.1317   7.1317

          k = 0.2500 0.4330 0.0000 (  5268 PWs)   bands (ev):

   -16.9598 -16.9598 -12.2612 -12.2612 -10.6823 -10.6823  -4.4556  -4.4556
     1.0937   1.0937   7.4854   7.4854   8.1986   8.1986   8.9373   8.9373

          k = 0.2500 0.5292 0.0000 (  5282 PWs)   bands (ev):

   -15.5402 -15.5402 -13.6800 -13.6800 -11.3896 -11.3896  -3.0728  -3.0728
    -0.4234  -0.4234   9.1518   9.1518   9.5785   9.5785  10.4605  10.4605

          k = 0.2500 0.6255 0.0000 (  5282 PWs)   bands (ev):

   -15.5402 -15.5402 -13.6800 -13.6800 -11.3896 -11.3896  -3.0728  -3.0728
    -0.4234  -0.4234   9.1518   9.1518   9.5785   9.5785  10.4605  10.4605

          k = 0.2500-0.4330 0.0000 (  5268 PWs)   bands (ev):

   -16.9598 -16.9598 -12.2612 -12.2612 -10.6823 -10.6823  -4.4556  -4.4556
     1.0937   1.0937   7.4854   7.4854   8.1986   8.1986   8.9373   8.9373

          k = 0.2500-0.3368 0.0000 (  5285 PWs)   bands (ev):

   -18.1863 -18.1863 -11.2249 -11.2249  -9.2019  -9.2019  -5.7955  -5.7955
     2.7051   2.7051   5.7379   5.7379   6.6188   6.6188   7.1317   7.1317

          k = 0.2500-0.2406 0.0000 (  5275 PWs)   bands (ev):

   -19.1327 -19.1327 -10.2401 -10.2401  -7.6716  -7.6716  -6.8676  -6.8676
     4.1933   4.1933   4.4102   4.4102   5.3398   5.3398   5.7718   5.7718

          k = 0.2500-0.1443 0.0000 (  5269 PWs)   bands (ev):

   -19.7734 -19.7734  -9.1599  -9.1599  -7.6061  -7.6061  -6.7828  -6.7828
     3.5218   3.5218   4.4100   4.4100   4.8659   4.8659   5.5284   5.5284

          k = 0.2500-0.0481 0.0000 (  5261 PWs)   bands (ev):

   -20.0963 -20.0963  -8.1682  -8.1682  -7.9814  -7.9814  -6.7859  -6.7859
     3.0783   3.0783   3.9789   3.9789   4.4143   4.4143   6.2537   6.2537

          k = 0.2500 0.0481 0.0000 (  5261 PWs)   bands (ev):

   -20.0963 -20.0963  -8.1682  -8.1682  -7.9814  -7.9814  -6.7859  -6.7859
     3.0783   3.0783   3.9789   3.9789   4.4143   4.4143   6.2537   6.2538

          k = 0.3333 0.1925 0.0000 (  5285 PWs)   bands (ev):

   -18.6561 -18.6561 -11.3618 -11.3618  -7.5156  -7.5156  -6.3404  -6.3404
     3.1842   3.1843   5.0652   5.0652   5.9833   5.9836   6.0136   6.0139

          k = 0.3333 0.2887 0.0000 (  5284 PWs)   bands (ev):

   -17.8740 -17.8740 -12.3611 -12.3611  -8.3061  -8.3061  -5.4909  -5.4909
     1.9988   1.9988   6.1544   6.1544   6.5867   6.5867   7.0971   7.0971

          k = 0.3333 0.3849 0.0000 (  5283 PWs)   bands (ev):

   -16.8125 -16.8125 -13.1332 -13.1332  -9.7778  -9.7778  -4.3718  -4.3718
     0.7974   0.7974   7.6941   7.6941   8.3018   8.3019   8.4890   8.4890

          k = 0.3333 0.4811 0.0000 (  5282 PWs)   bands (ev):

   -15.5402 -15.5402 -13.6800 -13.6800 -11.3896 -11.3896  -3.0728  -3.0728
    -0.4234  -0.4234   9.1518   9.1518   9.5785   9.5785  10.4605  10.4605

          k = 0.3333 0.5774 0.0000 (  5292 PWs)   bands (ev):

   -14.3263 -14.3263 -14.3242 -14.3242 -12.2809 -12.2809  -1.7194  -1.7194
    -1.7194  -1.7194   8.8940   8.8940  11.1464  11.1464  11.1504  11.1504

          k = 0.3333 0.6736 0.0000 (  5282 PWs)   bands (ev):

   -15.5402 -15.5402 -13.6800 -13.6800 -11.3896 -11.3896  -3.0728  -3.0728
    -0.4234  -0.4234   9.1518   9.1518   9.5785   9.5785  10.4605  10.4605

          k = 0.3333-0.3849 0.0000 (  5283 PWs)   bands (ev):

   -16.8125 -16.8125 -13.1332 -13.1332  -9.7778  -9.7778  -4.3718  -4.3718
     0.7974   0.7974   7.6941   7.6941   8.3018   8.3019   8.4890   8.4890

          k = 0.3333-0.2887 0.0000 (  5284 PWs)   bands (ev):

   -17.8740 -17.8740 -12.3611 -12.3611  -8.3061  -8.3061  -5.4909  -5.4909
     1.9988   1.9988   6.1544   6.1544   6.5867   6.5867   7.0971   7.0971

          k = 0.3333-0.1925 0.0000 (  5285 PWs)   bands (ev):

   -18.6561 -18.6561 -11.3618 -11.3618  -7.5156  -7.5156  -6.3404  -6.3404
     3.1842   3.1843   5.0652   5.0652   5.9833   5.9836   6.0136   6.0139

          k = 0.3333-0.0962 0.0000 (  5275 PWs)   bands (ev):

   -19.1327 -19.1327 -10.2401 -10.2401  -7.6716  -7.6716  -6.8676  -6.8676
     4.1933   4.1933   4.4102   4.4102   5.3398   5.3398   5.7718   5.7718

          k = 0.3333-0.0000 0.0000 (  5288 PWs)   bands (ev):

   -19.2927 -19.2927  -9.4989  -9.4989  -8.1462  -8.1462  -7.0460  -7.0460
     4.1902   4.1902   4.6481   4.6481   5.0886   5.0886   5.5478   5.5478

          k = 0.3333 0.0962 0.0000 (  5275 PWs)   bands (ev):

   -19.1327 -19.1327 -10.2401 -10.2401  -7.6716  -7.6716  -6.8676  -6.8676
     4.1933   4.1933   4.4102   4.4102   5.3398   5.3398   5.7718   5.7718

          k = 0.4167 0.2406 0.0000 (  5290 PWs)   bands (ev):

   -17.2624 -17.2624 -13.4598 -13.4598  -7.9882  -7.9882  -4.9209  -4.9209
     1.0545   1.0545   5.7303   5.7303   7.0731   7.0732   7.9962   7.9962

          k = 0.4167 0.3368 0.0000 (  5302 PWs)   bands (ev):

   -16.3976 -16.3975 -14.2995 -14.2995  -8.6343  -8.6343  -4.1848  -4.1848
     0.2347   0.2347   6.3888   6.3888   8.3706   8.3706   9.2457   9.2457

          k = 0.4167 0.4330 0.0000 (  5264 PWs)   bands (ev):

   -15.5825 -15.5825 -14.5635 -14.5635  -9.9627  -9.9627  -3.4814  -3.4814
    -0.2679  -0.2679   8.1954   8.1954   9.8817   9.8817   9.9382   9.9383

          k = 0.4167 0.5292 0.0000 (  5282 PWs)   bands (ev):

   -15.5402 -15.5402 -13.6800 -13.6800 -11.3896 -11.3896  -3.0728  -3.0728
    -0.4234  -0.4234   9.1518   9.1518   9.5785   9.5785  10.4605  10.4605

          k = 0.4167 0.6255 0.0000 (  5282 PWs)   bands (ev):

   -15.5402 -15.5402 -13.6800 -13.6800 -11.3896 -11.3896  -3.0728  -3.0728
    -0.4234  -0.4234   9.1518   9.1518   9.5785   9.5785  10.4605  10.4605

          k = 0.4167 0.7217 0.0000 (  5264 PWs)   bands (ev):

   -15.5825 -15.5825 -14.5635 -14.5635  -9.9627  -9.9627  -3.4814  -3.4814
    -0.2679  -0.2679   8.1954   8.1954   9.8817   9.8817   9.9382   9.9382

          k = 0.4167-0.3368 0.0000 (  5302 PWs)   bands (ev):

   -16.3976 -16.3975 -14.2995 -14.2995  -8.6343  -8.6343  -4.1848  -4.1848
     0.2347   0.2347   6.3888   6.3888   8.3706   8.3706   9.2457   9.2457

          k = 0.4167-0.2406 0.0000 (  5290 PWs)   bands (ev):

   -17.2624 -17.2624 -13.4598 -13.4598  -7.9882  -7.9882  -4.9209  -4.9209
     1.0545   1.0545   5.7303   5.7303   7.0731   7.0732   7.9962   7.9962

          k = 0.4167-0.1443 0.0000 (  5284 PWs)   bands (ev):

   -17.8740 -17.8740 -12.3611 -12.3611  -8.3061  -8.3061  -5.4909  -5.4909
     1.9988   1.9988   6.1544   6.1544   6.5867   6.5867   7.0971   7.0971

          k = 0.4167-0.0481 0.0000 (  5285 PWs)   bands (ev):

   -18.1863 -18.1863 -11.2249 -11.2249  -9.2019  -9.2019  -5.7955  -5.7955
     2.7051   2.7051   5.7379   5.7379   6.6188   6.6188   7.1317   7.1317

          k = 0.4167 0.0481 0.0000 (  5285 PWs)   bands (ev):

   -18.1863 -18.1863 -11.2249 -11.2249  -9.2019  -9.2019  -5.7955  -5.7955
     2.7051   2.7051   5.7379   5.7379   6.6188   6.6188   7.1317   7.1317

          k = 0.4167 0.1443 0.0000 (  5284 PWs)   bands (ev):

   -17.8740 -17.8740 -12.3611 -12.3611  -8.3061  -8.3061  -5.4909  -5.4909
     1.9988   1.9988   6.1544   6.1544   6.5867   6.5867   7.0971   7.0971

          k =-0.5000-0.2887 0.0000 (  5288 PWs)   bands (ev):

   -16.0037 -16.0037 -14.9612 -14.9612  -8.1504  -8.1504  -4.0786  -4.0786
    -0.0403  -0.0403   5.6507   5.6507   9.3762   9.3763   9.5245   9.5245

          k =-0.5000-0.1925 0.0000 (  5302 PWs)   bands (ev):

   -16.3976 -16.3975 -14.2995 -14.2995  -8.6343  -8.6343  -4.1848  -4.1848
     0.2347   0.2347   6.3888   6.3888   8.3706   8.3706   9.2457   9.2457

          k =-0.5000-0.0962 0.0000 (  5283 PWs)   bands (ev):

   -16.8125 -16.8125 -13.1332 -13.1332  -9.7778  -9.7778  -4.3718  -4.3718
     0.7974   0.7974   7.6941   7.6941   8.3018   8.3019   8.4890   8.4890

          k =-0.5000 0.0000 0.0000 (  5268 PWs)   bands (ev):

   -16.9598 -16.9598 -12.2612 -12.2612 -10.6823 -10.6823  -4.4556  -4.4556
     1.0937   1.0937   7.4854   7.4854   8.1986   8.1986   8.9373   8.9373

          k =-0.5000 0.0962 0.0000 (  5283 PWs)   bands (ev):

   -16.8125 -16.8125 -13.1332 -13.1332  -9.7778  -9.7778  -4.3718  -4.3718
     0.7974   0.7974   7.6941   7.6941   8.3018   8.3019   8.4890   8.4890

          k =-0.5000 0.1925 0.0000 (  5302 PWs)   bands (ev):

   -16.3975 -16.3975 -14.2995 -14.2995  -8.6343  -8.6343  -4.1848  -4.1848
     0.2347   0.2347   6.3888   6.3888   8.3706   8.3706   9.2457   9.2457

          k =-0.5000-0.8660 0.0000 (  5288 PWs)   bands (ev):

   -16.0037 -16.0037 -14.9612 -14.9612  -8.1504  -8.1504  -4.0786  -4.0786
    -0.0403  -0.0403   5.6507   5.6507   9.3762   9.3762   9.5245   9.5245

     the Fermi energy is    -1.71941214 ev

!    total energy              =     -36.88728891 Ry
     total all-electron energy =      -152.415561 Ry
     estimated scf accuracy    <          7.7E-09 Ry
     smearing contrib. (-TS)   =      -0.00003134 Ry
     internal energy E=F+TS    =     -36.88725757 Ry

     The total energy is F=E-TS. E is the sum of the following terms:
     one-electron contribution =    -156.61865402 Ry
     hartree contribution      =      79.92805271 Ry
     xc contribution           =      -9.27208242 Ry
     ewald contribution        =      61.40972547 Ry
     electric field correction =      -0.00000043 Ry
     one-center paw contrib.   =     -12.33429888 Ry

     convergence has been achieved in  12 iterations

     negative rho (up, down):  3.550E-05 0.000E+00

     Forces acting on atoms (cartesian axes, Ry/au):

     atom    1 type  1   force =     0.00000022    0.00000009   -0.00000024
     atom    2 type  1   force =    -0.00000022   -0.00000009    0.00000024

     Total force =     0.000000     Total SCF correction =     0.000082
     SCF correction compared to forces is large: reduce conv_thr to get better values

     Writing all to output data dir ../tmp/graphene.save/ :
     XML data file, charge density, pseudopotentials, collected wavefunctions
 
     init_run     :      0.73s CPU      1.02s WALL (       1 calls)
     electrons    :     29.89s CPU     31.22s WALL (       1 calls)
     forces       :      0.10s CPU      0.11s WALL (       1 calls)

     Called by init_run:
     wfcinit      :      0.63s CPU      0.73s WALL (       1 calls)
     potinit      :      0.03s CPU      0.13s WALL (       1 calls)
     hinit0       :      0.02s CPU      0.07s WALL (       1 calls)

     Called by electrons:
     c_bands      :     25.45s CPU     26.44s WALL (      12 calls)
     sum_band     :      3.82s CPU      4.04s WALL (      12 calls)
     v_of_rho     :      0.14s CPU      0.16s WALL (      13 calls)
     newd         :      0.22s CPU      0.25s WALL (      13 calls)
     PAW_pot      :      0.14s CPU      0.16s WALL (      13 calls)
     mix_rho      :      0.09s CPU      0.10s WALL (      12 calls)

     Called by c_bands:
     init_us_2    :      0.18s CPU      0.19s WALL (    1924 calls)
     cegterg      :     24.73s CPU     25.66s WALL (     888 calls)

     Called by *egterg:
     cdiaghg      :      3.40s CPU      3.50s WALL (    3278 calls)
     h_psi        :     18.81s CPU     19.63s WALL (    3352 calls)
     s_psi        :      0.41s CPU      0.43s WALL (    3352 calls)
     g_psi        :      0.07s CPU      0.07s WALL (    2390 calls)

     Called by h_psi:
     h_psi:calbec :      0.57s CPU      0.60s WALL (    3352 calls)
     vloc_psi     :     17.64s CPU     18.41s WALL (    3352 calls)
     add_vuspsi   :      0.43s CPU      0.45s WALL (    3352 calls)

     General routines
     calbec       :      0.71s CPU      0.75s WALL (    4536 calls)
     fft          :      0.17s CPU      0.22s WALL (     322 calls)
     ffts         :      0.01s CPU      0.09s WALL (     100 calls)
     fftw         :     15.37s CPU     16.05s WALL (  191972 calls)
     interpolate  :      0.03s CPU      0.10s WALL (      52 calls)
 
     Parallel routines
 
     PWSCF        :     31.06s CPU     35.14s WALL

 
   This run was terminated on:   2:20:49  29Jan2026            

=------------------------------------------------------------------------------=
   JOB DONE.
=------------------------------------------------------------------------------=
