
     Program PWSCF v.7.4.1 starts on 29Jan2026 at  2:22: 3 

     This program is part of the open-source Quantum ESPRESSO suite
     for quantum simulation of materials; please cite
         "P. Giannozzi et al., J. Phys.:Condens. Matter 21 395502 (2009);
         "P. Giannozzi et al., J. Phys.:Condens. Matter 29 465901 (2017);
         "P. Giannozzi et al., J. Chem. Phys. 152 154105 (2020);
          URL http://www.quantum-espresso.org", 
     in publications or presentations arising from this work. More details at
     http://www.quantum-espresso.org/quote

     Parallel version (MPI), running on    20 processors

     MPI processes distributed on     1 nodes
     124667 MiB available memory on the printing compute node when the environment starts
 
     Reading input from grap_SOC_scf.in

     Current dimensions of program PWSCF are:
     Max number of different atomic species (ntypx) = 10
     Max number of k-points (npk) =  40000
     Max angular momentum in pseudopotentials (lmaxx) =  4
     Presently stress not available with electric field and gates

     file C.rel-pbe-n-kjpaw_psl.1.0.0.UPF: wavefunction(s)  2S 2P 2P renormalized
 
     R & G space division:  proc/nbgrp/npool/nimage =      20
     Subspace diagonalization in iterative solution of the eigenvalue problem:
     a serial algorithm will be used

 
     Parallelization info
     --------------------
     sticks:   dense  smooth     PW     G-vecs:    dense   smooth      PW
     Min          52      21      6                 8339     2113     392
     Max          57      22      7                 8350     2140     425
     Sum        1045     421    139               166859    42343    8205
 
     Using Slab Decomposition
 


     bravais-lattice index     =            0
     lattice parameter (alat)  =       4.6624  a.u.
     unit-cell volume          =     533.6317 (a.u.)^3
     number of atoms/cell      =            2
     number of atomic types    =            1
     number of electrons       =         8.00
     number of Kohn-Sham states=           16
     kinetic-energy cutoff     =      70.0000  Ry
     charge density cutoff     =     700.0000  Ry
     scf convergence threshold =      1.0E-08
     mixing beta               =       0.1000
     number of iterations used =            8  plain     mixing
     Exchange-correlation= SLA  PW   PBX  PBC
                           (   1   4   3   4   0   0   0)
     Non magnetic calculation with spin-orbit


     celldm(1)=   4.662410  celldm(2)=   0.000000  celldm(3)=   0.000000
     celldm(4)=   0.000000  celldm(5)=   0.000000  celldm(6)=   0.000000

     crystal axes: (cart. coord. in units of alat)
               a(1) = (   1.000000   0.000000   0.000000 )  
               a(2) = (  -0.500000   0.866025   0.000000 )  
               a(3) = (   0.000000   0.000000   6.079666 )  

     reciprocal axes: (cart. coord. in units 2 pi/alat)
               b(1) = (  1.000000  0.577350  0.000000 )  
               b(2) = (  0.000000  1.154701  0.000000 )  
               b(3) = (  0.000000  0.000000  0.164483 )  


     PseudoPot. # 1 for C  read from file:
     ../../../PP_C/C.rel-pbe-n-kjpaw_psl.1.0.0.UPF
     MD5 check sum: dd2b8f743de1f3a10095e4114fb28074
     Pseudo is Projector augmented-wave + core cor, Zval =  4.0
     Generated using &quot;atomic&quot; code by A. Dal Corso  v.6.3
     Shape of augmentation charge: PSQ
     Using radial grid of 1073 points,  6 beta functions with: 
                l(1) =   0
                l(2) =   0
                l(3) =   1
                l(4) =   1
                l(5) =   1
                l(6) =   1
     Q(r) pseudized with 0 coefficients 


     atomic species   valence    mass     pseudopotential
     C                 4.00    12.01100     C ( 1.00)

     No symmetry found



   Cartesian axes

     site n.     atom                  positions (alat units)
         1        C      tau(   1) = (   0.0000000   0.0000000   3.0398328  )
         2        C      tau(   2) = (   0.0000000   0.5773503   3.0398328  )

     number of k points=    74  Gaussian smearing, width (Ry)=  0.0020
                       cart. coord. in units 2pi/alat
        k(    1) = (   0.0000000   0.0000000   0.0000000), wk =   0.0069444
        k(    2) = (   0.0000000   0.0962250   0.0000000), wk =   0.0138889
        k(    3) = (   0.0000000   0.1924501   0.0000000), wk =   0.0138889
        k(    4) = (   0.0000000   0.2886751   0.0000000), wk =   0.0138889
        k(    5) = (   0.0000000   0.3849002   0.0000000), wk =   0.0138889
        k(    6) = (   0.0000000   0.4811252   0.0000000), wk =   0.0138889
        k(    7) = (   0.0000000  -0.5773503   0.0000000), wk =   0.0069444
        k(    8) = (   0.0833333   0.0481125   0.0000000), wk =   0.0138889
        k(    9) = (   0.0833333   0.1443376   0.0000000), wk =   0.0138889
        k(   10) = (   0.0833333   0.2405626   0.0000000), wk =   0.0138889
        k(   11) = (   0.0833333   0.3367877   0.0000000), wk =   0.0138889
        k(   12) = (   0.0833333   0.4330127   0.0000000), wk =   0.0138889
        k(   13) = (   0.0833333   0.5292377   0.0000000), wk =   0.0138889
        k(   14) = (   0.0833333  -0.5292377   0.0000000), wk =   0.0138889
        k(   15) = (   0.0833333  -0.4330127   0.0000000), wk =   0.0138889
        k(   16) = (   0.0833333  -0.3367877   0.0000000), wk =   0.0138889
        k(   17) = (   0.0833333  -0.2405626   0.0000000), wk =   0.0138889
        k(   18) = (   0.0833333  -0.1443376   0.0000000), wk =   0.0138889
        k(   19) = (   0.0833333  -0.0481125   0.0000000), wk =   0.0138889
        k(   20) = (   0.1666667   0.0962250   0.0000000), wk =   0.0138889
        k(   21) = (   0.1666667   0.1924501   0.0000000), wk =   0.0138889
        k(   22) = (   0.1666667   0.2886751   0.0000000), wk =   0.0138889
        k(   23) = (   0.1666667   0.3849002   0.0000000), wk =   0.0138889
        k(   24) = (   0.1666667   0.4811252   0.0000000), wk =   0.0138889
        k(   25) = (   0.1666667   0.5773503   0.0000000), wk =   0.0138889
        k(   26) = (   0.1666667  -0.4811252   0.0000000), wk =   0.0138889
        k(   27) = (   0.1666667  -0.3849002   0.0000000), wk =   0.0138889
        k(   28) = (   0.1666667  -0.2886751   0.0000000), wk =   0.0138889
        k(   29) = (   0.1666667  -0.1924501   0.0000000), wk =   0.0138889
        k(   30) = (   0.1666667  -0.0962250   0.0000000), wk =   0.0138889
        k(   31) = (   0.1666667  -0.0000000   0.0000000), wk =   0.0138889
        k(   32) = (   0.2500000   0.1443376   0.0000000), wk =   0.0138889
        k(   33) = (   0.2500000   0.2405626   0.0000000), wk =   0.0138889
        k(   34) = (   0.2500000   0.3367877   0.0000000), wk =   0.0138889
        k(   35) = (   0.2500000   0.4330127   0.0000000), wk =   0.0138889
        k(   36) = (   0.2500000   0.5292377   0.0000000), wk =   0.0138889
        k(   37) = (   0.2500000   0.6254628   0.0000000), wk =   0.0138889
        k(   38) = (   0.2500000  -0.4330127   0.0000000), wk =   0.0138889
        k(   39) = (   0.2500000  -0.3367877   0.0000000), wk =   0.0138889
        k(   40) = (   0.2500000  -0.2405626   0.0000000), wk =   0.0138889
        k(   41) = (   0.2500000  -0.1443376   0.0000000), wk =   0.0138889
        k(   42) = (   0.2500000  -0.0481125   0.0000000), wk =   0.0138889
        k(   43) = (   0.2500000   0.0481125   0.0000000), wk =   0.0138889
        k(   44) = (   0.3333333   0.1924501   0.0000000), wk =   0.0138889
        k(   45) = (   0.3333333   0.2886751   0.0000000), wk =   0.0138889
        k(   46) = (   0.3333333   0.3849002   0.0000000), wk =   0.0138889
        k(   47) = (   0.3333333   0.4811252   0.0000000), wk =   0.0138889
        k(   48) = (   0.3333333   0.5773503   0.0000000), wk =   0.0138889
        k(   49) = (   0.3333333   0.6735753   0.0000000), wk =   0.0138889
        k(   50) = (   0.3333333  -0.3849002   0.0000000), wk =   0.0138889
        k(   51) = (   0.3333333  -0.2886751   0.0000000), wk =   0.0138889
        k(   52) = (   0.3333333  -0.1924501   0.0000000), wk =   0.0138889
        k(   53) = (   0.3333333  -0.0962250   0.0000000), wk =   0.0138889
        k(   54) = (   0.3333333  -0.0000000   0.0000000), wk =   0.0138889
        k(   55) = (   0.3333333   0.0962250   0.0000000), wk =   0.0138889
        k(   56) = (   0.4166667   0.2405626   0.0000000), wk =   0.0138889
        k(   57) = (   0.4166667   0.3367877   0.0000000), wk =   0.0138889
        k(   58) = (   0.4166667   0.4330127   0.0000000), wk =   0.0138889
        k(   59) = (   0.4166667   0.5292377   0.0000000), wk =   0.0138889
        k(   60) = (   0.4166667   0.6254628   0.0000000), wk =   0.0138889
        k(   61) = (   0.4166667   0.7216878   0.0000000), wk =   0.0138889
        k(   62) = (   0.4166667  -0.3367877   0.0000000), wk =   0.0138889
        k(   63) = (   0.4166667  -0.2405626   0.0000000), wk =   0.0138889
        k(   64) = (   0.4166667  -0.1443376   0.0000000), wk =   0.0138889
        k(   65) = (   0.4166667  -0.0481125   0.0000000), wk =   0.0138889
        k(   66) = (   0.4166667   0.0481125   0.0000000), wk =   0.0138889
        k(   67) = (   0.4166667   0.1443376   0.0000000), wk =   0.0138889
        k(   68) = (  -0.5000000  -0.2886751   0.0000000), wk =   0.0069444
        k(   69) = (  -0.5000000  -0.1924501   0.0000000), wk =   0.0138889
        k(   70) = (  -0.5000000  -0.0962250   0.0000000), wk =   0.0138889
        k(   71) = (  -0.5000000   0.0000000   0.0000000), wk =   0.0138889
        k(   72) = (  -0.5000000   0.0962250   0.0000000), wk =   0.0138889
        k(   73) = (  -0.5000000   0.1924501   0.0000000), wk =   0.0138889
        k(   74) = (  -0.5000000  -0.8660254   0.0000000), wk =   0.0069444

     Dense  grid:   166859 G-vectors     FFT dimensions: (  40,  40, 240)

     Smooth grid:    42343 G-vectors     FFT dimensions: (  25,  25, 160)

     Estimated max dynamical RAM per process >      40.42 MB

     Estimated total dynamical RAM >     808.50 MB

     Initial potential from superposition of free atoms

     starting charge       7.9999, renormalised to       8.0000

     negative rho (up, down):  2.223E-05 0.000E+00
 
     Adding external electric field

     Computed dipole along edir(3) : 
        Dipole               -0.0000 Ry au,         -0.0000 Debye
        Dipole field         -0.0000 Ry au, 
 
        E field amplitude [Ha a.u.]:  4.7450E-03
        Potential amp.        0.2556 Ry
        Total length         26.9286 bohr
 
     Starting wfcs are random
     Checking if some PAW data can be deallocated... 

     total cpu time spent up to now is        0.9 secs

     per-process dynamical memory:    53.7 Mb

     Self-consistent Calculation

     iteration #  1     ecut=    70.00 Ry     beta= 0.10
     Davidson diagonalization with overlap
     ethr =  1.00E-02,  avg # of iterations =  8.5

     negative rho (up, down):  2.163E-05 0.000E+00
 
     Adding external electric field

     Computed dipole along edir(3) : 
        Dipole                0.0060 Ry au,          0.0152 Debye
        Dipole field          0.0001 Ry au, 
 
        E field amplitude [Ha a.u.]:  4.7450E-03
        Potential amp.        0.2480 Ry
        Total length         26.9286 bohr
 

     total cpu time spent up to now is        8.9 secs

     total energy              =     -36.95145301 Ry
     estimated scf accuracy    <       0.20336220 Ry

     iteration #  2     ecut=    70.00 Ry     beta= 0.10
     Davidson diagonalization with overlap
     ethr =  2.54E-03,  avg # of iterations =  1.0

     negative rho (up, down):  2.685E-05 0.000E+00
 
     Adding external electric field

     Computed dipole along edir(3) : 
        Dipole                0.0378 Ry au,          0.0962 Debye
        Dipole field          0.0009 Ry au, 
 
        E field amplitude [Ha a.u.]:  4.7450E-03
        Potential amp.        0.2076 Ry
        Total length         26.9286 bohr
 

     total cpu time spent up to now is       10.8 secs

     total energy              =     -36.86212687 Ry
     estimated scf accuracy    <       0.14989480 Ry

     iteration #  3     ecut=    70.00 Ry     beta= 0.10
     Davidson diagonalization with overlap
     ethr =  1.87E-03,  avg # of iterations =  2.6

     negative rho (up, down):  2.666E-05 0.000E+00
 
     Adding external electric field

     Computed dipole along edir(3) : 
        Dipole                0.0290 Ry au,          0.0736 Debye
        Dipole field          0.0007 Ry au, 
 
        E field amplitude [Ha a.u.]:  4.7450E-03
        Potential amp.        0.2188 Ry
        Total length         26.9286 bohr
 

     total cpu time spent up to now is       13.0 secs

     total energy              =     -36.88701102 Ry
     estimated scf accuracy    <       0.00256404 Ry

     iteration #  4     ecut=    70.00 Ry     beta= 0.10
     Davidson diagonalization with overlap
     ethr =  3.21E-05,  avg # of iterations =  6.9

     negative rho (up, down):  2.943E-05 0.000E+00
 
     Adding external electric field

     Computed dipole along edir(3) : 
        Dipole                0.0180 Ry au,          0.0457 Debye
        Dipole field          0.0004 Ry au, 
 
        E field amplitude [Ha a.u.]:  4.7450E-03
        Potential amp.        0.2328 Ry
        Total length         26.9286 bohr
 

     total cpu time spent up to now is       17.0 secs

     total energy              =     -36.88738387 Ry
     estimated scf accuracy    <       0.00154138 Ry

     iteration #  5     ecut=    70.00 Ry     beta= 0.10
     Davidson diagonalization with overlap
     ethr =  1.93E-05,  avg # of iterations =  2.9

     negative rho (up, down):  3.306E-05 0.000E+00
 
     Adding external electric field

     Computed dipole along edir(3) : 
        Dipole                0.0278 Ry au,          0.0708 Debye
        Dipole field          0.0007 Ry au, 
 
        E field amplitude [Ha a.u.]:  4.7450E-03
        Potential amp.        0.2202 Ry
        Total length         26.9286 bohr
 

     total cpu time spent up to now is       19.2 secs

     total energy              =     -36.88750519 Ry
     estimated scf accuracy    <       0.00034862 Ry

     iteration #  6     ecut=    70.00 Ry     beta= 0.10
     Davidson diagonalization with overlap
     ethr =  4.36E-06,  avg # of iterations =  4.2

     negative rho (up, down):  3.255E-05 0.000E+00
 
     Adding external electric field

     Computed dipole along edir(3) : 
        Dipole                0.0271 Ry au,          0.0688 Debye
        Dipole field          0.0006 Ry au, 
 
        E field amplitude [Ha a.u.]:  4.7450E-03
        Potential amp.        0.2212 Ry
        Total length         26.9286 bohr
 

     total cpu time spent up to now is       22.3 secs

     total energy              =     -36.88732076 Ry
     estimated scf accuracy    <       0.00046449 Ry

     iteration #  7     ecut=    70.00 Ry     beta= 0.10
     Davidson diagonalization with overlap
     ethr =  4.36E-06,  avg # of iterations =  3.9

     negative rho (up, down):  3.317E-05 0.000E+00
 
     Adding external electric field

     Computed dipole along edir(3) : 
        Dipole                0.0280 Ry au,          0.0711 Debye
        Dipole field          0.0007 Ry au, 
 
        E field amplitude [Ha a.u.]:  4.7450E-03
        Potential amp.        0.2201 Ry
        Total length         26.9286 bohr
 

     total cpu time spent up to now is       25.1 secs

     total energy              =     -36.88741882 Ry
     estimated scf accuracy    <       0.00001622 Ry

     iteration #  8     ecut=    70.00 Ry     beta= 0.10
     Davidson diagonalization with overlap
     ethr =  2.03E-07,  avg # of iterations =  2.3

     negative rho (up, down):  3.338E-05 0.000E+00
 
     Adding external electric field

     Computed dipole along edir(3) : 
        Dipole                0.0283 Ry au,          0.0719 Debye
        Dipole field          0.0007 Ry au, 
 
        E field amplitude [Ha a.u.]:  4.7450E-03
        Potential amp.        0.2197 Ry
        Total length         26.9286 bohr
 

     total cpu time spent up to now is       27.1 secs

     total energy              =     -36.88742084 Ry
     estimated scf accuracy    <       0.00000083 Ry

     iteration #  9     ecut=    70.00 Ry     beta= 0.10
     Davidson diagonalization with overlap
     ethr =  1.03E-08,  avg # of iterations =  2.1

     negative rho (up, down):  3.374E-05 0.000E+00
 
     Adding external electric field

     Computed dipole along edir(3) : 
        Dipole                0.0278 Ry au,          0.0708 Debye
        Dipole field          0.0007 Ry au, 
 
        E field amplitude [Ha a.u.]:  4.7450E-03
        Potential amp.        0.2202 Ry
        Total length         26.9286 bohr
 

     total cpu time spent up to now is       29.4 secs

     total energy              =     -36.88742110 Ry
     estimated scf accuracy    <       0.00000062 Ry

     iteration # 10     ecut=    70.00 Ry     beta= 0.10
     Davidson diagonalization with overlap
     ethr =  7.71E-09,  avg # of iterations =  2.0

     negative rho (up, down):  3.398E-05 0.000E+00
 
     Adding external electric field

     Computed dipole along edir(3) : 
        Dipole                0.0279 Ry au,          0.0709 Debye
        Dipole field          0.0007 Ry au, 
 
        E field amplitude [Ha a.u.]:  4.7450E-03
        Potential amp.        0.2202 Ry
        Total length         26.9286 bohr
 

     total cpu time spent up to now is       31.4 secs

     total energy              =     -36.88742118 Ry
     estimated scf accuracy    <       0.00000025 Ry

     iteration # 11     ecut=    70.00 Ry     beta= 0.10
     Davidson diagonalization with overlap
     ethr =  3.13E-09,  avg # of iterations =  1.0

     negative rho (up, down):  3.546E-05 0.000E+00
 
     Adding external electric field

     Computed dipole along edir(3) : 
        Dipole                0.0280 Ry au,          0.0711 Debye
        Dipole field          0.0007 Ry au, 
 
        E field amplitude [Ha a.u.]:  4.7450E-03
        Potential amp.        0.2201 Ry
        Total length         26.9286 bohr
 

     total cpu time spent up to now is       33.2 secs

     End of self-consistent calculation

          k = 0.0000 0.0000 0.0000 (  5307 PWs)   bands (ev):

   -21.1618 -21.1618  -9.2584  -9.2584  -4.7045  -4.7045  -4.6953  -4.6953
     1.3246   1.3246   2.3021   2.3021   2.7704   2.7704   4.9238   4.9238

          k = 0.0000 0.0962 0.0000 (  5285 PWs)   bands (ev):

   -20.9980 -20.9980  -9.0627  -9.0627  -5.3506  -5.3506  -5.0379  -5.0379
     1.5494   1.5494   2.5264   2.5265   2.9950   2.9951   5.1470   5.1470

          k = 0.0000 0.1925 0.0000 (  5253 PWs)   bands (ev):

   -20.5085 -20.5085  -8.4808  -8.4808  -6.9880  -6.9880  -5.8295  -5.8295
     2.2236   2.2237   3.1995   3.1995   3.6676   3.6676   5.8134   5.8135

          k = 0.0000 0.2887 0.0000 (  5269 PWs)   bands (ev):

   -19.6990 -19.6990  -9.0856  -9.0856  -7.5318  -7.5318  -6.7084  -6.7084
     3.3446   3.3447   4.3188   4.3189   4.7645   4.7646   5.6118   5.6118

          k = 0.0000 0.3849 0.0000 (  5285 PWs)   bands (ev):

   -18.5818 -18.5818 -11.2875 -11.2874  -7.4413  -7.4413  -6.2661  -6.2661
     3.2577   3.2577   4.9137   4.9139   5.8465   5.8468   6.1084   6.1085

          k = 0.0000 0.4811 0.0000 (  5290 PWs)   bands (ev):

   -17.1881 -17.1881 -13.3855 -13.3855  -7.9138  -7.9138  -4.8466  -4.8466
     1.1286   1.1287   5.8045   5.8045   6.9293   6.9295   7.9062   7.9064

          k = 0.0000-0.5774 0.0000 (  5288 PWs)   bands (ev):

   -15.9293 -15.9293 -14.8868 -14.8868  -8.0760  -8.0760  -4.0042  -4.0042
     0.0339   0.0339   5.7251   5.7251   9.2888   9.2888   9.3847   9.3847

          k = 0.0833 0.0481 0.0000 (  5285 PWs)   bands (ev):

   -20.9980 -20.9980  -9.0627  -9.0627  -5.3506  -5.3506  -5.0379  -5.0379
     1.5494   1.5494   2.5264   2.5265   2.9950   2.9951   5.1470   5.1470

          k = 0.0833 0.1443 0.0000 (  5269 PWs)   bands (ev):

   -20.6714 -20.6714  -8.6738  -8.6738  -6.3845  -6.3844  -5.7145  -5.7145
     1.9991   1.9991   2.9753   2.9754   3.4438   3.4439   5.5925   5.5925

          k = 0.0833 0.2406 0.0000 (  5261 PWs)   bands (ev):

   -20.0219 -20.0219  -8.0939  -8.0939  -7.9071  -7.9071  -6.7116  -6.7116
     2.8974   2.8975   3.8727   3.8728   4.3375   4.3375   6.3922   6.3925

          k = 0.0833 0.3368 0.0000 (  5275 PWs)   bands (ev):

   -19.0584 -19.0584 -10.1657 -10.1657  -7.5973  -7.5973  -6.7934  -6.7933
     4.1989   4.1991   4.3159   4.3161   5.2168   5.2169   5.6934   5.6935

          k = 0.0833 0.4330 0.0000 (  5284 PWs)   bands (ev):

   -17.7997 -17.7997 -12.2867 -12.2867  -8.2317  -8.2317  -5.4166  -5.4166
     2.0729   2.0729   6.0203   6.0205   6.6245   6.6247   7.0317   7.0318

          k = 0.0833 0.5292 0.0000 (  5302 PWs)   bands (ev):

   -16.3232 -16.3232 -14.2251 -14.2251  -8.5599  -8.5599  -4.1105  -4.1105
     0.3088   0.3089   6.4631   6.4631   8.2416   8.2419   9.2211   9.2215

          k = 0.0833-0.5292 0.0000 (  5302 PWs)   bands (ev):

   -16.3232 -16.3232 -14.2251 -14.2251  -8.5599  -8.5599  -4.1105  -4.1105
     0.3088   0.3089   6.4631   6.4631   8.2416   8.2419   9.2212   9.2215

          k = 0.0833-0.4330 0.0000 (  5284 PWs)   bands (ev):

   -17.7997 -17.7997 -12.2867 -12.2867  -8.2317  -8.2317  -5.4166  -5.4166
     2.0729   2.0729   6.0203   6.0205   6.6245   6.6247   7.0317   7.0318

          k = 0.0833-0.3368 0.0000 (  5275 PWs)   bands (ev):

   -19.0584 -19.0584 -10.1657 -10.1657  -7.5973  -7.5973  -6.7934  -6.7933
     4.1989   4.1991   4.3159   4.3161   5.2168   5.2169   5.6934   5.6935

          k = 0.0833-0.2406 0.0000 (  5261 PWs)   bands (ev):

   -20.0219 -20.0219  -8.0939  -8.0939  -7.9071  -7.9071  -6.7116  -6.7116
     2.8974   2.8975   3.8727   3.8728   4.3375   4.3375   6.3925   6.3926

          k = 0.0833-0.1443 0.0000 (  5269 PWs)   bands (ev):

   -20.6714 -20.6714  -8.6738  -8.6738  -6.3845  -6.3844  -5.7145  -5.7145
     1.9991   1.9991   2.9753   2.9754   3.4438   3.4439   5.5925   5.5925

          k = 0.0833-0.0481 0.0000 (  5285 PWs)   bands (ev):

   -20.9980 -20.9980  -9.0627  -9.0627  -5.3506  -5.3506  -5.0379  -5.0379
     1.5494   1.5494   2.5264   2.5265   2.9950   2.9951   5.1470   5.1470

          k = 0.1667 0.0962 0.0000 (  5253 PWs)   bands (ev):

   -20.5085 -20.5085  -8.4808  -8.4808  -6.9880  -6.9880  -5.8295  -5.8295
     2.2236   2.2237   3.1995   3.1995   3.6676   3.6676   5.8134   5.8135

          k = 0.1667 0.1925 0.0000 (  5261 PWs)   bands (ev):

   -20.0219 -20.0219  -8.0939  -8.0939  -7.9071  -7.9071  -6.7116  -6.7116
     2.8974   2.8975   3.8727   3.8728   4.3375   4.3375   6.3924   6.3926

          k = 0.1667 0.2887 0.0000 (  5288 PWs)   bands (ev):

   -19.2183 -19.2183  -9.4245  -9.4245  -8.0718  -8.0718  -6.9718  -6.9718
     4.0182   4.0183   4.7224   4.7225   4.9936   4.9937   5.4486   5.4486

          k = 0.1667 0.3849 0.0000 (  5285 PWs)   bands (ev):

   -18.1119 -18.1119 -11.1506 -11.1506  -9.1275  -9.1275  -5.7212  -5.7212
     2.7794   2.7794   5.5795   5.5797   6.5551   6.5553   6.9816   6.9817

          k = 0.1667 0.4811 0.0000 (  5283 PWs)   bands (ev):

   -16.7381 -16.7381 -13.0589 -13.0589  -9.7035  -9.7035  -4.2975  -4.2975
     0.8717   0.8717   7.5595   7.5598   8.3362   8.3367   8.5715   8.5719

          k = 0.1667 0.5774 0.0000 (  5264 PWs)   bands (ev):

   -15.5082 -15.5082 -14.4892 -14.4892  -9.8883  -9.8883  -3.4070  -3.4070
    -0.1936  -0.1936   8.2697   8.2697   9.7641   9.7642   9.8808   9.8810

          k = 0.1667-0.4811 0.0000 (  5283 PWs)   bands (ev):

   -16.7381 -16.7381 -13.0589 -13.0589  -9.7035  -9.7035  -4.2975  -4.2975
     0.8717   0.8717   7.5595   7.5598   8.3362   8.3367   8.5714   8.5718

          k = 0.1667-0.3849 0.0000 (  5285 PWs)   bands (ev):

   -18.1119 -18.1119 -11.1506 -11.1506  -9.1275  -9.1275  -5.7212  -5.7212
     2.7794   2.7794   5.5795   5.5797   6.5551   6.5553   6.9816   6.9817

          k = 0.1667-0.2887 0.0000 (  5288 PWs)   bands (ev):

   -19.2183 -19.2183  -9.4245  -9.4245  -8.0718  -8.0718  -6.9718  -6.9718
     4.0182   4.0183   4.7224   4.7225   4.9936   4.9937   5.4486   5.4486

          k = 0.1667-0.1925 0.0000 (  5261 PWs)   bands (ev):

   -20.0219 -20.0219  -8.0939  -8.0939  -7.9071  -7.9071  -6.7116  -6.7116
     2.8974   2.8975   3.8727   3.8728   4.3375   4.3375   6.3924   6.3926

          k = 0.1667-0.0962 0.0000 (  5253 PWs)   bands (ev):

   -20.5085 -20.5085  -8.4808  -8.4808  -6.9880  -6.9880  -5.8295  -5.8295
     2.2236   2.2237   3.1995   3.1995   3.6676   3.6676   5.8134   5.8135

          k = 0.1667-0.0000 0.0000 (  5269 PWs)   bands (ev):

   -20.6714 -20.6714  -8.6738  -8.6738  -6.3845  -6.3844  -5.7145  -5.7145
     1.9991   1.9991   2.9753   2.9754   3.4438   3.4439   5.5925   5.5925

          k = 0.2500 0.1443 0.0000 (  5269 PWs)   bands (ev):

   -19.6990 -19.6990  -9.0856  -9.0856  -7.5318  -7.5318  -6.7084  -6.7084
     3.3446   3.3447   4.3188   4.3189   4.7645   4.7646   5.6118   5.6118

          k = 0.2500 0.2406 0.0000 (  5275 PWs)   bands (ev):

   -19.0584 -19.0584 -10.1657 -10.1657  -7.5973  -7.5973  -6.7934  -6.7933
     4.1989   4.1991   4.3159   4.3161   5.2168   5.2169   5.6934   5.6935

          k = 0.2500 0.3368 0.0000 (  5285 PWs)   bands (ev):

   -18.1119 -18.1119 -11.1506 -11.1506  -9.1275  -9.1275  -5.7212  -5.7212
     2.7794   2.7794   5.5795   5.5797   6.5551   6.5553   6.9816   6.9817

          k = 0.2500 0.4330 0.0000 (  5268 PWs)   bands (ev):

   -16.8854 -16.8854 -12.1868 -12.1868 -10.6080 -10.6080  -4.3813  -4.3812
     1.1680   1.1680   7.3353   7.3355   8.2935   8.2939   8.5877   8.5878

          k = 0.2500 0.5292 0.0000 (  5282 PWs)   bands (ev):

   -15.4659 -15.4659 -13.6056 -13.6056 -11.3153 -11.3153  -2.9985  -2.9985
    -0.3490  -0.3490   9.1386   9.1389   9.6395   9.6399  10.4915  10.4917

          k = 0.2500 0.6255 0.0000 (  5282 PWs)   bands (ev):

   -15.4659 -15.4659 -13.6056 -13.6056 -11.3153 -11.3153  -2.9985  -2.9985
    -0.3490  -0.3490   9.1386   9.1389   9.6395   9.6399  10.4915  10.4917

          k = 0.2500-0.4330 0.0000 (  5268 PWs)   bands (ev):

   -16.8854 -16.8854 -12.1868 -12.1868 -10.6080 -10.6080  -4.3813  -4.3812
     1.1680   1.1680   7.3353   7.3356   8.2935   8.2940   8.5877   8.5878

          k = 0.2500-0.3368 0.0000 (  5285 PWs)   bands (ev):

   -18.1119 -18.1119 -11.1506 -11.1506  -9.1275  -9.1275  -5.7212  -5.7212
     2.7794   2.7794   5.5795   5.5797   6.5551   6.5553   6.9816   6.9817

          k = 0.2500-0.2406 0.0000 (  5275 PWs)   bands (ev):

   -19.0584 -19.0584 -10.1657 -10.1657  -7.5973  -7.5973  -6.7934  -6.7933
     4.1989   4.1991   4.3159   4.3161   5.2168   5.2169   5.6934   5.6935

          k = 0.2500-0.1443 0.0000 (  5269 PWs)   bands (ev):

   -19.6990 -19.6990  -9.0856  -9.0856  -7.5318  -7.5318  -6.7084  -6.7084
     3.3446   3.3447   4.3188   4.3189   4.7645   4.7646   5.6118   5.6118

          k = 0.2500-0.0481 0.0000 (  5261 PWs)   bands (ev):

   -20.0219 -20.0219  -8.0939  -8.0939  -7.9071  -7.9071  -6.7116  -6.7116
     2.8974   2.8975   3.8727   3.8728   4.3375   4.3375   6.3936   6.3937

          k = 0.2500 0.0481 0.0000 (  5261 PWs)   bands (ev):

   -20.0219 -20.0219  -8.0939  -8.0939  -7.9071  -7.9071  -6.7116  -6.7116
     2.8974   2.8975   3.8727   3.8728   4.3375   4.3375   6.3922   6.3925

          k = 0.3333 0.1925 0.0000 (  5285 PWs)   bands (ev):

   -18.5818 -18.5818 -11.2875 -11.2874  -7.4413  -7.4413  -6.2661  -6.2661
     3.2577   3.2577   4.9137   4.9139   5.8465   5.8468   6.1084   6.1085

          k = 0.3333 0.2887 0.0000 (  5284 PWs)   bands (ev):

   -17.7997 -17.7997 -12.2867 -12.2867  -8.2317  -8.2317  -5.4166  -5.4166
     2.0729   2.0729   6.0203   6.0205   6.6245   6.6247   7.0317   7.0318

          k = 0.3333 0.3849 0.0000 (  5283 PWs)   bands (ev):

   -16.7381 -16.7381 -13.0589 -13.0589  -9.7035  -9.7035  -4.2975  -4.2975
     0.8717   0.8717   7.5595   7.5598   8.3362   8.3367   8.5714   8.5718

          k = 0.3333 0.4811 0.0000 (  5282 PWs)   bands (ev):

   -15.4659 -15.4659 -13.6056 -13.6056 -11.3153 -11.3153  -2.9985  -2.9985
    -0.3490  -0.3490   9.1386   9.1389   9.6395   9.6399  10.4915  10.4917

          k = 0.3333 0.5774 0.0000 (  5292 PWs)   bands (ev):

   -14.2519 -14.2519 -14.2498 -14.2498 -12.2066 -12.2066  -1.6451  -1.6451
    -1.6450  -1.6450   8.9601   8.9601  11.1897  11.1902  11.1938  11.1938

          k = 0.3333 0.6736 0.0000 (  5282 PWs)   bands (ev):

   -15.4659 -15.4659 -13.6056 -13.6056 -11.3153 -11.3153  -2.9985  -2.9985
    -0.3490  -0.3490   9.1386   9.1389   9.6395   9.6399  10.4915  10.4917

          k = 0.3333-0.3849 0.0000 (  5283 PWs)   bands (ev):

   -16.7381 -16.7381 -13.0589 -13.0589  -9.7035  -9.7035  -4.2975  -4.2975
     0.8717   0.8717   7.5595   7.5598   8.3362   8.3367   8.5716   8.5718

          k = 0.3333-0.2887 0.0000 (  5284 PWs)   bands (ev):

   -17.7997 -17.7997 -12.2867 -12.2867  -8.2317  -8.2317  -5.4166  -5.4166
     2.0729   2.0729   6.0203   6.0205   6.6245   6.6247   7.0318   7.0318

          k = 0.3333-0.1925 0.0000 (  5285 PWs)   bands (ev):

   -18.5818 -18.5818 -11.2875 -11.2874  -7.4413  -7.4413  -6.2661  -6.2661
     3.2577   3.2577   4.9137   4.9139   5.8465   5.8468   6.1084   6.1085

          k = 0.3333-0.0962 0.0000 (  5275 PWs)   bands (ev):

   -19.0584 -19.0584 -10.1657 -10.1657  -7.5973  -7.5973  -6.7934  -6.7933
     4.1989   4.1991   4.3159   4.3161   5.2168   5.2169   5.6934   5.6935

          k = 0.3333-0.0000 0.0000 (  5288 PWs)   bands (ev):

   -19.2183 -19.2183  -9.4245  -9.4245  -8.0718  -8.0718  -6.9718  -6.9718
     4.0182   4.0183   4.7224   4.7225   4.9936   4.9937   5.4486   5.4486

          k = 0.3333 0.0962 0.0000 (  5275 PWs)   bands (ev):

   -19.0584 -19.0584 -10.1657 -10.1657  -7.5973  -7.5973  -6.7934  -6.7933
     4.1989   4.1991   4.3159   4.3161   5.2168   5.2169   5.6934   5.6935

          k = 0.4167 0.2406 0.0000 (  5290 PWs)   bands (ev):

   -17.1881 -17.1881 -13.3855 -13.3855  -7.9138  -7.9138  -4.8466  -4.8466
     1.1286   1.1287   5.8045   5.8045   6.9293   6.9295   7.9063   7.9064

          k = 0.4167 0.3368 0.0000 (  5302 PWs)   bands (ev):

   -16.3232 -16.3232 -14.2251 -14.2251  -8.5600  -8.5599  -4.1105  -4.1105
     0.3088   0.3089   6.4631   6.4631   8.2416   8.2419   9.2212   9.2215

          k = 0.4167 0.4330 0.0000 (  5264 PWs)   bands (ev):

   -15.5082 -15.5082 -14.4892 -14.4892  -9.8883  -9.8883  -3.4070  -3.4070
    -0.1936  -0.1936   8.2697   8.2697   9.7640   9.7642   9.8808   9.8810

          k = 0.4167 0.5292 0.0000 (  5282 PWs)   bands (ev):

   -15.4659 -15.4659 -13.6056 -13.6056 -11.3153 -11.3153  -2.9985  -2.9985
    -0.3490  -0.3490   9.1386   9.1389   9.6395   9.6399  10.4915  10.4917

          k = 0.4167 0.6255 0.0000 (  5282 PWs)   bands (ev):

   -15.4659 -15.4659 -13.6056 -13.6056 -11.3153 -11.3153  -2.9985  -2.9985
    -0.3490  -0.3490   9.1386   9.1389   9.6395   9.6399  10.4915  10.4917

          k = 0.4167 0.7217 0.0000 (  5264 PWs)   bands (ev):

   -15.5082 -15.5082 -14.4892 -14.4892  -9.8883  -9.8883  -3.4070  -3.4070
    -0.1936  -0.1936   8.2697   8.2697   9.7640   9.7642   9.8808   9.8810

          k = 0.4167-0.3368 0.0000 (  5302 PWs)   bands (ev):

   -16.3232 -16.3232 -14.2251 -14.2251  -8.5599  -8.5599  -4.1105  -4.1105
     0.3088   0.3089   6.4631   6.4631   8.2416   8.2419   9.2212   9.2215

          k = 0.4167-0.2406 0.0000 (  5290 PWs)   bands (ev):

   -17.1881 -17.1881 -13.3855 -13.3855  -7.9138  -7.9138  -4.8466  -4.8466
     1.1286   1.1287   5.8045   5.8045   6.9293   6.9295   7.9062   7.9064

          k = 0.4167-0.1443 0.0000 (  5284 PWs)   bands (ev):

   -17.7997 -17.7997 -12.2867 -12.2867  -8.2317  -8.2317  -5.4166  -5.4166
     2.0729   2.0729   6.0203   6.0205   6.6245   6.6247   7.0317   7.0318

          k = 0.4167-0.0481 0.0000 (  5285 PWs)   bands (ev):

   -18.1119 -18.1119 -11.1506 -11.1506  -9.1275  -9.1275  -5.7212  -5.7212
     2.7794   2.7794   5.5795   5.5797   6.5551   6.5553   6.9816   6.9817

          k = 0.4167 0.0481 0.0000 (  5285 PWs)   bands (ev):

   -18.1119 -18.1119 -11.1506 -11.1506  -9.1275  -9.1275  -5.7212  -5.7212
     2.7794   2.7794   5.5795   5.5797   6.5551   6.5553   6.9816   6.9817

          k = 0.4167 0.1443 0.0000 (  5284 PWs)   bands (ev):

   -17.7997 -17.7997 -12.2867 -12.2867  -8.2317  -8.2317  -5.4166  -5.4166
     2.0729   2.0729   6.0203   6.0205   6.6245   6.6247   7.0318   7.0318

          k =-0.5000-0.2887 0.0000 (  5288 PWs)   bands (ev):

   -15.9293 -15.9293 -14.8868 -14.8868  -8.0761  -8.0761  -4.0042  -4.0042
     0.0339   0.0339   5.7251   5.7251   9.2888   9.2888   9.3847   9.3847

          k =-0.5000-0.1925 0.0000 (  5302 PWs)   bands (ev):

   -16.3232 -16.3232 -14.2251 -14.2251  -8.5600  -8.5599  -4.1105  -4.1105
     0.3088   0.3089   6.4631   6.4631   8.2416   8.2419   9.2212   9.2215

          k =-0.5000-0.0962 0.0000 (  5283 PWs)   bands (ev):

   -16.7381 -16.7381 -13.0589 -13.0589  -9.7035  -9.7035  -4.2975  -4.2975
     0.8717   0.8717   7.5595   7.5598   8.3362   8.3367   8.5714   8.5718

          k =-0.5000 0.0000 0.0000 (  5268 PWs)   bands (ev):

   -16.8854 -16.8854 -12.1868 -12.1868 -10.6080 -10.6080  -4.3813  -4.3812
     1.1680   1.1680   7.3353   7.3356   8.2935   8.2939   8.5877   8.5878

          k =-0.5000 0.0962 0.0000 (  5283 PWs)   bands (ev):

   -16.7381 -16.7381 -13.0589 -13.0589  -9.7035  -9.7035  -4.2975  -4.2975
     0.8717   0.8717   7.5595   7.5598   8.3362   8.3367   8.5714   8.5718

          k =-0.5000 0.1925 0.0000 (  5302 PWs)   bands (ev):

   -16.3232 -16.3232 -14.2251 -14.2251  -8.5599  -8.5599  -4.1105  -4.1105
     0.3088   0.3089   6.4631   6.4631   8.2416   8.2419   9.2212   9.2215

          k =-0.5000-0.8660 0.0000 (  5288 PWs)   bands (ev):

   -15.9293 -15.9293 -14.8868 -14.8868  -8.0760  -8.0760  -4.0042  -4.0042
     0.0339   0.0339   5.7251   5.7251   9.2888   9.2888   9.3847   9.3847

     the Fermi energy is    -1.64505224 ev

!    total energy              =     -36.88742123 Ry
     total all-electron energy =      -152.415694 Ry
     estimated scf accuracy    <          6.0E-09 Ry
     smearing contrib. (-TS)   =      -0.00003134 Ry
     internal energy E=F+TS    =     -36.88738989 Ry

     The total energy is F=E-TS. E is the sum of the following terms:
     one-electron contribution =    -156.61770851 Ry
     hartree contribution      =      79.92715599 Ry
     xc contribution           =      -9.27201696 Ry
     ewald contribution        =      61.40972547 Ry
     electric field correction =      -0.00024704 Ry
     one-center paw contrib.   =     -12.33429883 Ry

     convergence has been achieved in  11 iterations

     negative rho (up, down):  3.546E-05 0.000E+00

     Forces acting on atoms (cartesian axes, Ry/au):

     atom    1 type  1   force =     0.00000024    0.00000013    0.00000027
     atom    2 type  1   force =    -0.00000024   -0.00000013   -0.00000027

     Total force =     0.000001     Total SCF correction =     0.000061
     SCF correction compared to forces is large: reduce conv_thr to get better values

     Writing all to output data dir ../tmp/graphene.save/ :
     XML data file, charge density, pseudopotentials, collected wavefunctions
 
     init_run     :      0.77s CPU      0.83s WALL (       1 calls)
     electrons    :     31.10s CPU     32.37s WALL (       1 calls)
     forces       :      0.10s CPU      0.11s WALL (       1 calls)

     Called by init_run:
     wfcinit      :      0.68s CPU      0.71s WALL (       1 calls)
     potinit      :      0.03s CPU      0.04s WALL (       1 calls)
     hinit0       :      0.02s CPU      0.02s WALL (       1 calls)

     Called by electrons:
     c_bands      :     27.01s CPU     28.04s WALL (      11 calls)
     sum_band     :      3.52s CPU      3.67s WALL (      11 calls)
     v_of_rho     :      0.13s CPU      0.15s WALL (      12 calls)
     newd         :      0.21s CPU      0.21s WALL (      12 calls)
     PAW_pot      :      0.13s CPU      0.14s WALL (      12 calls)
     mix_rho      :      0.08s CPU      0.08s WALL (      11 calls)

     Called by c_bands:
     init_us_2    :      0.16s CPU      0.17s WALL (    1776 calls)
     cegterg      :     26.35s CPU     27.32s WALL (     814 calls)

     Called by *egterg:
     cdiaghg      :      3.87s CPU      3.94s WALL (    3584 calls)
     h_psi        :     19.83s CPU     20.68s WALL (    3658 calls)
     s_psi        :      0.41s CPU      0.42s WALL (    3658 calls)
     g_psi        :      0.07s CPU      0.07s WALL (    2770 calls)

     Called by h_psi:
     h_psi:calbec :      0.59s CPU      0.62s WALL (    3658 calls)
     vloc_psi     :     18.64s CPU     19.44s WALL (    3658 calls)
     add_vuspsi   :      0.43s CPU      0.44s WALL (    3658 calls)

     General routines
     calbec       :      0.73s CPU      0.76s WALL (    4768 calls)
     fft          :      0.16s CPU      0.17s WALL (     297 calls)
     ffts         :      0.01s CPU      0.01s WALL (      92 calls)
     fftw         :     16.24s CPU     16.95s WALL (  186884 calls)
     interpolate  :      0.03s CPU      0.03s WALL (      48 calls)
 
     Parallel routines
 
     PWSCF        :     32.30s CPU     35.88s WALL

 
   This run was terminated on:   2:22:39  29Jan2026            

=------------------------------------------------------------------------------=
   JOB DONE.
=------------------------------------------------------------------------------=
