
     Program PWSCF v.7.4.1 starts on  1Oct2025 at  7: 4:36 

     This program is part of the open-source Quantum ESPRESSO suite
     for quantum simulation of materials; please cite
         "P. Giannozzi et al., J. Phys.:Condens. Matter 21 395502 (2009);
         "P. Giannozzi et al., J. Phys.:Condens. Matter 29 465901 (2017);
         "P. Giannozzi et al., J. Chem. Phys. 152 154105 (2020);
          URL http://www.quantum-espresso.org", 
     in publications or presentations arising from this work. More details at
     http://www.quantum-espresso.org/quote

     Serial version
     16893 MiB available memory on the printing compute node when the environment starts

     Reading input from graphene_scf.in

     Current dimensions of program PWSCF are:
     Max number of different atomic species (ntypx) = 10
     Max number of k-points (npk) =  40000
     Max angular momentum in pseudopotentials (lmaxx) =  4
     file C.pbe-n-kjpaw_psl.1.0.0.UPF: wavefunction(s)  2S 2P renormalized
     Message from routine setup:
     using ibrav=0 with symmetry is DISCOURAGED, use correct ibrav instead


     G-vector sticks info
     --------------------
     sticks:   dense  smooth     PW     G-vecs:    dense   smooth      PW
     Sum         301     121     37                25495     6489    1321

     Using Slab Decomposition



     bravais-lattice index     =            0
     lattice parameter (alat)  =       4.6540  a.u.
     unit-cell volume          =     531.7080 (a.u.)^3
     number of atoms/cell      =            2
     number of atomic types    =            1
     number of electrons       =         8.00
     number of Kohn-Sham states=            8
     kinetic-energy cutoff     =      20.0000  Ry
     charge density cutoff     =     200.0000  Ry
     scf convergence threshold =      1.0E-08
     mixing beta               =       0.7000
     number of iterations used =            8  plain     mixing
     Exchange-correlation= SLA  PW   PBX  PBC
                           (   1   4   3   4   0   0   0)

     celldm(1)=   4.653998  celldm(2)=   0.000000  celldm(3)=   0.000000
     celldm(4)=   0.000000  celldm(5)=   0.000000  celldm(6)=   0.000000

     crystal axes: (cart. coord. in units of alat)
               a(1) = (   1.000000   0.000000   0.000000 )  
               a(2) = (  -0.500000   0.866025   0.000000 )  
               a(3) = (   0.000000   0.000000   6.090654 )  

     reciprocal axes: (cart. coord. in units 2 pi/alat)
               b(1) = (  1.000000  0.577350 -0.000000 )  
               b(2) = (  0.000000  1.154701  0.000000 )  
               b(3) = (  0.000000 -0.000000  0.164186 )  


     PseudoPot. # 1 for C  read from file:
     ../../../../pseudos/C.pbe-n-kjpaw_psl.1.0.0.UPF
     MD5 check sum: 5d2aebdfa2cae82b50a7e79e9516da0f
     Pseudo is Projector augmented-wave + core cor, Zval =  4.0
     Generated using "atomic" code by A. Dal Corso  v.5.1
     Shape of augmentation charge: PSQ
     Using radial grid of 1073 points,  4 beta functions with: 
                l(1) =   0
                l(2) =   0
                l(3) =   1
                l(4) =   1
     Q(r) pseudized with 0 coefficients 


     atomic species   valence    mass     pseudopotential
     C                 4.00    12.01070     C ( 1.00)

     24 Sym. Ops., with inversion, found (12 have fractional translation)



   Cartesian axes

     site n.     atom                  positions (alat units)
         1        C      tau(   1) = (   0.0000000   0.0000000   0.0000000  )
         2        C      tau(   2) = (   0.0000000   0.5773503   0.0000000  )

     number of k points=    12  Gaussian smearing, width (Ry)=  0.0100
                       cart. coord. in units 2pi/alat
        k(    1) = (   0.0000000   0.0000000   0.0000000), wk =   0.0246914
        k(    2) = (   0.0000000   0.1283001   0.0000000), wk =   0.1481481
        k(    3) = (   0.0000000   0.2566001   0.0000000), wk =   0.1481481
        k(    4) = (   0.0000000   0.3849002   0.0000000), wk =   0.1481481
        k(    5) = (   0.0000000   0.5132002   0.0000000), wk =   0.1481481
        k(    6) = (   0.1111111   0.1924501   0.0000000), wk =   0.1481481
        k(    7) = (   0.1111111   0.3207501   0.0000000), wk =   0.2962963
        k(    8) = (   0.1111111   0.4490502   0.0000000), wk =   0.2962963
        k(    9) = (   0.1111111   0.5773503   0.0000000), wk =   0.1481481
        k(   10) = (   0.2222222   0.3849002   0.0000000), wk =   0.1481481
        k(   11) = (   0.2222222   0.5132002   0.0000000), wk =   0.2962963
        k(   12) = (   0.3333333   0.5773503   0.0000000), wk =   0.0493827

     Dense  grid:    25495 G-vectors     FFT dimensions: (  24,  24, 128)

     Smooth grid:     6489 G-vectors     FFT dimensions: (  15,  15,  81)

     Estimated max dynamical RAM per process >      36.76 MB

     Check: negative core charge=   -0.000025

     Initial potential from superposition of free atoms

     starting charge       7.9999, renormalised to       8.0000

     negative rho (up, down):  4.969E-05 0.000E+00
     Starting wfcs are    8 randomized atomic wfcs

     total cpu time spent up to now is        0.7 secs

     Self-consistent Calculation

     iteration #  1     ecut=    20.00 Ry     beta= 0.70
     Davidson diagonalization with overlap
     ethr =  1.00E-02,  avg # of iterations =  6.0

     negative rho (up, down):  4.975E-05 0.000E+00

     total cpu time spent up to now is        1.0 secs

     total energy              =     -36.72178747 Ry
     estimated scf accuracy    <       0.17001775 Ry

     iteration #  2     ecut=    20.00 Ry     beta= 0.70
     Davidson diagonalization with overlap
     ethr =  2.13E-03,  avg # of iterations =  3.9

     negative rho (up, down):  8.021E-05 0.000E+00

     total cpu time spent up to now is        1.2 secs

     total energy              =     -36.74531310 Ry
     estimated scf accuracy    <       0.00248036 Ry

     iteration #  3     ecut=    20.00 Ry     beta= 0.70
     Davidson diagonalization with overlap
     ethr =  3.10E-05,  avg # of iterations =  7.4

     negative rho (up, down):  1.358E-04 0.000E+00

     total cpu time spent up to now is        1.5 secs

     total energy              =     -36.74545759 Ry
     estimated scf accuracy    <       0.00016841 Ry

     iteration #  4     ecut=    20.00 Ry     beta= 0.70
     Davidson diagonalization with overlap
     ethr =  2.11E-06,  avg # of iterations =  4.9

     negative rho (up, down):  1.002E-04 0.000E+00

     total cpu time spent up to now is        1.8 secs

     total energy              =     -36.74546525 Ry
     estimated scf accuracy    <       0.00000032 Ry

     iteration #  5     ecut=    20.00 Ry     beta= 0.70
     Davidson diagonalization with overlap
     ethr =  4.00E-09,  avg # of iterations =  3.3

     negative rho (up, down):  9.693E-05 0.000E+00

     total cpu time spent up to now is        2.1 secs

     total energy              =     -36.74546584 Ry
     estimated scf accuracy    <       0.00000002 Ry

     iteration #  6     ecut=    20.00 Ry     beta= 0.70
     Davidson diagonalization with overlap
     ethr =  2.68E-10,  avg # of iterations =  1.9

     negative rho (up, down):  9.695E-05 0.000E+00

     total cpu time spent up to now is        2.3 secs

     End of self-consistent calculation

          k = 0.0000 0.0000 0.0000 (   815 PWs)   bands (ev):

   -21.5469  -9.3582  -4.6572  -4.6572   1.0949   1.8403   2.0778   4.1047

          k = 0.0000 0.1283 0.0000 (   825 PWs)   bands (ev):

   -21.2490  -9.0057  -5.8352  -5.2894   1.4976   2.2439   2.4805   4.5026

          k = 0.0000 0.2566 0.0000 (   810 PWs)   bands (ev):

   -20.3677  -8.4109  -7.9704  -6.4242   2.7040   3.4501   3.6875   5.6728

          k = 0.0000 0.3849 0.0000 (   806 PWs)   bands (ev):

   -18.9223 -11.4176  -7.4658  -6.3206   3.3597   4.7076   5.4858   5.6790

          k = 0.0000 0.5132 0.0000 (   806 PWs)   bands (ev):

   -16.9960 -14.2413  -8.0315  -4.4301   0.6117   5.5704   7.5042   8.2737

          k = 0.1111 0.1925 0.0000 (   823 PWs)   bands (ev):

   -20.6618  -8.3042  -7.4249  -6.4313   2.3021   3.0500   3.2854   5.2952

          k = 0.1111 0.3208 0.0000 (   802 PWs)   bands (ev):

   -19.4979  -9.9149  -7.8242  -6.9517   3.9086   4.5766   4.7730   4.8942

          k = 0.1111 0.4491 0.0000 (   797 PWs)   bands (ev):

   -17.7992 -12.7477  -8.7162  -5.0928   1.7629   6.3035   7.0103   7.0548

          k = 0.1111 0.5774 0.0000 (   794 PWs)   bands (ev):

   -16.0563 -14.9088  -9.0123  -3.7363  -0.0231   6.8444   9.4060   9.5107

          k = 0.2222 0.3849 0.0000 (   795 PWs)   bands (ev):

   -18.0781 -11.4942  -9.8861  -5.3280   2.4154   5.9079   6.6238   6.9013

          k = 0.2222 0.5132 0.0000 (   794 PWs)   bands (ev):

   -16.2042 -13.6517 -10.8953  -3.4413   0.1328   8.6628   8.9647   9.6741

          k = 0.3333 0.5774 0.0000 (   783 PWs)   bands (ev):

   -14.5124 -14.5124 -12.2670  -1.6038  -1.6038   8.8167  11.2210  11.2210

     the Fermi energy is    -1.6038 ev

!    total energy              =     -36.74546584 Ry
     total all-electron energy =      -152.273661 Ry
     estimated scf accuracy    <          5.2E-10 Ry
     smearing contrib. (-TS)   =      -0.00027861 Ry
     internal energy E=F+TS    =     -36.74518723 Ry

     The total energy is F=E-TS. E is the sum of the following terms:
     one-electron contribution =    -156.90966445 Ry
     hartree contribution      =      80.04566387 Ry
     xc contribution           =      -9.24390397 Ry
     ewald contribution        =      61.70343440 Ry
     one-center paw contrib.   =     -12.34071709 Ry

     convergence has been achieved in   6 iterations

     negative rho (up, down):  9.695E-05 0.000E+00

     Forces acting on atoms (cartesian axes, Ry/au):

     atom    1 type  1   force =     0.00000000    0.00000000    0.00000000
     atom    2 type  1   force =     0.00000000   -0.00000000    0.00000000

     Total force =     0.000000     Total SCF correction =     0.000000


     Computing stress (Cartesian axis) and pressure


     negative rho (up, down):  9.695E-05 0.000E+00
          total   stress  (Ry/bohr**3)                   (kbar)     P=      -84.50
  -0.00047729  -0.00000000   0.00000000          -70.21       -0.00        0.00
  -0.00000000  -0.00047729   0.00000000           -0.00      -70.21        0.00
   0.00000000  -0.00000000  -0.00076865            0.00       -0.00     -113.07


     Writing all to output data dir ./tmp/graphene.save/ :
     XML data file, charge density, pseudopotentials, collected wavefunctions

     init_run     :      0.61s CPU      0.58s WALL (       1 calls)
     electrons    :      2.90s CPU      1.66s WALL (       1 calls)
     forces       :      0.05s CPU      0.05s WALL (       1 calls)
     stress       :      0.30s CPU      0.19s WALL (       1 calls)

     Called by init_run:
     wfcinit      :      0.10s CPU      0.06s WALL (       1 calls)
     potinit      :      0.13s CPU      0.14s WALL (       1 calls)
     hinit0       :      0.35s CPU      0.34s WALL (       1 calls)

     Called by electrons:
     c_bands      :      1.27s CPU      0.69s WALL (       6 calls)
     sum_band     :      0.39s CPU      0.19s WALL (       6 calls)
     v_of_rho     :      0.40s CPU      0.23s WALL (       7 calls)
     newd         :      0.08s CPU      0.07s WALL (       7 calls)
     PAW_pot      :      0.80s CPU      0.54s WALL (       7 calls)
     mix_rho      :      0.03s CPU      0.01s WALL (       6 calls)

     Called by c_bands:
     init_us_2    :      0.05s CPU      0.03s WALL (     180 calls)
     cegterg      :      1.20s CPU      0.65s WALL (      72 calls)

     Called by *egterg:
     cdiaghg      :      0.08s CPU      0.05s WALL (     402 calls)
     h_psi        :      1.02s CPU      0.55s WALL (     414 calls)
     s_psi        :      0.03s CPU      0.02s WALL (     414 calls)
     g_psi        :      0.01s CPU      0.01s WALL (     330 calls)

     Called by h_psi:
     h_psi:calbec :      0.03s CPU      0.02s WALL (     414 calls)
     vloc_psi     :      0.91s CPU      0.48s WALL (     414 calls)
     add_vuspsi   :      0.06s CPU      0.05s WALL (     414 calls)

     General routines
     calbec       :      0.05s CPU      0.03s WALL (     690 calls)
     fft          :      0.41s CPU      0.36s WALL (     114 calls)
     ffts         :      0.06s CPU      0.06s WALL (      13 calls)
     fftw         :      0.69s CPU      0.37s WALL (    4272 calls)
     interpolate  :      0.06s CPU      0.06s WALL (       7 calls)


     PWSCF        :      4.04s CPU      2.58s WALL


   This run was terminated on:   7: 4:38   1Oct2025            

=------------------------------------------------------------------------------=
   JOB DONE.
=------------------------------------------------------------------------------=
