
     Program PWSCF v.7.4.1 starts on 29Jan2026 at  2:25: 1 

     This program is part of the open-source Quantum ESPRESSO suite
     for quantum simulation of materials; please cite
         "P. Giannozzi et al., J. Phys.:Condens. Matter 21 395502 (2009);
         "P. Giannozzi et al., J. Phys.:Condens. Matter 29 465901 (2017);
         "P. Giannozzi et al., J. Chem. Phys. 152 154105 (2020);
          URL http://www.quantum-espresso.org", 
     in publications or presentations arising from this work. More details at
     http://www.quantum-espresso.org/quote

     Parallel version (MPI), running on    20 processors

     MPI processes distributed on     1 nodes
     124143 MiB available memory on the printing compute node when the environment starts
 
     Reading input from grap_SOC_scf.in

     Current dimensions of program PWSCF are:
     Max number of different atomic species (ntypx) = 10
     Max number of k-points (npk) =  40000
     Max angular momentum in pseudopotentials (lmaxx) =  4
     Presently stress not available with electric field and gates

     file C.rel-pbe-n-kjpaw_psl.1.0.0.UPF: wavefunction(s)  2S 2P 2P renormalized
 
     R & G space division:  proc/nbgrp/npool/nimage =      20
     Subspace diagonalization in iterative solution of the eigenvalue problem:
     a serial algorithm will be used

 
     Parallelization info
     --------------------
     sticks:   dense  smooth     PW     G-vecs:    dense   smooth      PW
     Min          52      21      6                 8339     2113     392
     Max          57      22      7                 8350     2140     425
     Sum        1045     421    139               166859    42343    8205
 
     Using Slab Decomposition
 


     bravais-lattice index     =            0
     lattice parameter (alat)  =       4.6624  a.u.
     unit-cell volume          =     533.6317 (a.u.)^3
     number of atoms/cell      =            2
     number of atomic types    =            1
     number of electrons       =         8.00
     number of Kohn-Sham states=           16
     kinetic-energy cutoff     =      70.0000  Ry
     charge density cutoff     =     700.0000  Ry
     scf convergence threshold =      1.0E-08
     mixing beta               =       0.1000
     number of iterations used =            8  plain     mixing
     Exchange-correlation= SLA  PW   PBX  PBC
                           (   1   4   3   4   0   0   0)
     Non magnetic calculation with spin-orbit


     celldm(1)=   4.662410  celldm(2)=   0.000000  celldm(3)=   0.000000
     celldm(4)=   0.000000  celldm(5)=   0.000000  celldm(6)=   0.000000

     crystal axes: (cart. coord. in units of alat)
               a(1) = (   1.000000   0.000000   0.000000 )  
               a(2) = (  -0.500000   0.866025   0.000000 )  
               a(3) = (   0.000000   0.000000   6.079666 )  

     reciprocal axes: (cart. coord. in units 2 pi/alat)
               b(1) = (  1.000000  0.577350  0.000000 )  
               b(2) = (  0.000000  1.154701  0.000000 )  
               b(3) = (  0.000000  0.000000  0.164483 )  


     PseudoPot. # 1 for C  read from file:
     ../../../PP_C/C.rel-pbe-n-kjpaw_psl.1.0.0.UPF
     MD5 check sum: dd2b8f743de1f3a10095e4114fb28074
     Pseudo is Projector augmented-wave + core cor, Zval =  4.0
     Generated using &quot;atomic&quot; code by A. Dal Corso  v.6.3
     Shape of augmentation charge: PSQ
     Using radial grid of 1073 points,  6 beta functions with: 
                l(1) =   0
                l(2) =   0
                l(3) =   1
                l(4) =   1
                l(5) =   1
                l(6) =   1
     Q(r) pseudized with 0 coefficients 


     atomic species   valence    mass     pseudopotential
     C                 4.00    12.01100     C ( 1.00)

     No symmetry found



   Cartesian axes

     site n.     atom                  positions (alat units)
         1        C      tau(   1) = (   0.0000000   0.0000000   3.0398328  )
         2        C      tau(   2) = (   0.0000000   0.5773503   3.0398328  )

     number of k points=    74  Gaussian smearing, width (Ry)=  0.0020
                       cart. coord. in units 2pi/alat
        k(    1) = (   0.0000000   0.0000000   0.0000000), wk =   0.0069444
        k(    2) = (   0.0000000   0.0962250   0.0000000), wk =   0.0138889
        k(    3) = (   0.0000000   0.1924501   0.0000000), wk =   0.0138889
        k(    4) = (   0.0000000   0.2886751   0.0000000), wk =   0.0138889
        k(    5) = (   0.0000000   0.3849002   0.0000000), wk =   0.0138889
        k(    6) = (   0.0000000   0.4811252   0.0000000), wk =   0.0138889
        k(    7) = (   0.0000000  -0.5773503   0.0000000), wk =   0.0069444
        k(    8) = (   0.0833333   0.0481125   0.0000000), wk =   0.0138889
        k(    9) = (   0.0833333   0.1443376   0.0000000), wk =   0.0138889
        k(   10) = (   0.0833333   0.2405626   0.0000000), wk =   0.0138889
        k(   11) = (   0.0833333   0.3367877   0.0000000), wk =   0.0138889
        k(   12) = (   0.0833333   0.4330127   0.0000000), wk =   0.0138889
        k(   13) = (   0.0833333   0.5292377   0.0000000), wk =   0.0138889
        k(   14) = (   0.0833333  -0.5292377   0.0000000), wk =   0.0138889
        k(   15) = (   0.0833333  -0.4330127   0.0000000), wk =   0.0138889
        k(   16) = (   0.0833333  -0.3367877   0.0000000), wk =   0.0138889
        k(   17) = (   0.0833333  -0.2405626   0.0000000), wk =   0.0138889
        k(   18) = (   0.0833333  -0.1443376   0.0000000), wk =   0.0138889
        k(   19) = (   0.0833333  -0.0481125   0.0000000), wk =   0.0138889
        k(   20) = (   0.1666667   0.0962250   0.0000000), wk =   0.0138889
        k(   21) = (   0.1666667   0.1924501   0.0000000), wk =   0.0138889
        k(   22) = (   0.1666667   0.2886751   0.0000000), wk =   0.0138889
        k(   23) = (   0.1666667   0.3849002   0.0000000), wk =   0.0138889
        k(   24) = (   0.1666667   0.4811252   0.0000000), wk =   0.0138889
        k(   25) = (   0.1666667   0.5773503   0.0000000), wk =   0.0138889
        k(   26) = (   0.1666667  -0.4811252   0.0000000), wk =   0.0138889
        k(   27) = (   0.1666667  -0.3849002   0.0000000), wk =   0.0138889
        k(   28) = (   0.1666667  -0.2886751   0.0000000), wk =   0.0138889
        k(   29) = (   0.1666667  -0.1924501   0.0000000), wk =   0.0138889
        k(   30) = (   0.1666667  -0.0962250   0.0000000), wk =   0.0138889
        k(   31) = (   0.1666667  -0.0000000   0.0000000), wk =   0.0138889
        k(   32) = (   0.2500000   0.1443376   0.0000000), wk =   0.0138889
        k(   33) = (   0.2500000   0.2405626   0.0000000), wk =   0.0138889
        k(   34) = (   0.2500000   0.3367877   0.0000000), wk =   0.0138889
        k(   35) = (   0.2500000   0.4330127   0.0000000), wk =   0.0138889
        k(   36) = (   0.2500000   0.5292377   0.0000000), wk =   0.0138889
        k(   37) = (   0.2500000   0.6254628   0.0000000), wk =   0.0138889
        k(   38) = (   0.2500000  -0.4330127   0.0000000), wk =   0.0138889
        k(   39) = (   0.2500000  -0.3367877   0.0000000), wk =   0.0138889
        k(   40) = (   0.2500000  -0.2405626   0.0000000), wk =   0.0138889
        k(   41) = (   0.2500000  -0.1443376   0.0000000), wk =   0.0138889
        k(   42) = (   0.2500000  -0.0481125   0.0000000), wk =   0.0138889
        k(   43) = (   0.2500000   0.0481125   0.0000000), wk =   0.0138889
        k(   44) = (   0.3333333   0.1924501   0.0000000), wk =   0.0138889
        k(   45) = (   0.3333333   0.2886751   0.0000000), wk =   0.0138889
        k(   46) = (   0.3333333   0.3849002   0.0000000), wk =   0.0138889
        k(   47) = (   0.3333333   0.4811252   0.0000000), wk =   0.0138889
        k(   48) = (   0.3333333   0.5773503   0.0000000), wk =   0.0138889
        k(   49) = (   0.3333333   0.6735753   0.0000000), wk =   0.0138889
        k(   50) = (   0.3333333  -0.3849002   0.0000000), wk =   0.0138889
        k(   51) = (   0.3333333  -0.2886751   0.0000000), wk =   0.0138889
        k(   52) = (   0.3333333  -0.1924501   0.0000000), wk =   0.0138889
        k(   53) = (   0.3333333  -0.0962250   0.0000000), wk =   0.0138889
        k(   54) = (   0.3333333  -0.0000000   0.0000000), wk =   0.0138889
        k(   55) = (   0.3333333   0.0962250   0.0000000), wk =   0.0138889
        k(   56) = (   0.4166667   0.2405626   0.0000000), wk =   0.0138889
        k(   57) = (   0.4166667   0.3367877   0.0000000), wk =   0.0138889
        k(   58) = (   0.4166667   0.4330127   0.0000000), wk =   0.0138889
        k(   59) = (   0.4166667   0.5292377   0.0000000), wk =   0.0138889
        k(   60) = (   0.4166667   0.6254628   0.0000000), wk =   0.0138889
        k(   61) = (   0.4166667   0.7216878   0.0000000), wk =   0.0138889
        k(   62) = (   0.4166667  -0.3367877   0.0000000), wk =   0.0138889
        k(   63) = (   0.4166667  -0.2405626   0.0000000), wk =   0.0138889
        k(   64) = (   0.4166667  -0.1443376   0.0000000), wk =   0.0138889
        k(   65) = (   0.4166667  -0.0481125   0.0000000), wk =   0.0138889
        k(   66) = (   0.4166667   0.0481125   0.0000000), wk =   0.0138889
        k(   67) = (   0.4166667   0.1443376   0.0000000), wk =   0.0138889
        k(   68) = (  -0.5000000  -0.2886751   0.0000000), wk =   0.0069444
        k(   69) = (  -0.5000000  -0.1924501   0.0000000), wk =   0.0138889
        k(   70) = (  -0.5000000  -0.0962250   0.0000000), wk =   0.0138889
        k(   71) = (  -0.5000000   0.0000000   0.0000000), wk =   0.0138889
        k(   72) = (  -0.5000000   0.0962250   0.0000000), wk =   0.0138889
        k(   73) = (  -0.5000000   0.1924501   0.0000000), wk =   0.0138889
        k(   74) = (  -0.5000000  -0.8660254   0.0000000), wk =   0.0069444

     Dense  grid:   166859 G-vectors     FFT dimensions: (  40,  40, 240)

     Smooth grid:    42343 G-vectors     FFT dimensions: (  25,  25, 160)

     Estimated max dynamical RAM per process >      40.42 MB

     Estimated total dynamical RAM >     808.50 MB

     Initial potential from superposition of free atoms

     starting charge       7.9999, renormalised to       8.0000

     negative rho (up, down):  2.223E-05 0.000E+00
 
     Adding external electric field

     Computed dipole along edir(3) : 
        Dipole               -0.0000 Ry au,         -0.0000 Debye
        Dipole field         -0.0000 Ry au, 
 
        E field amplitude [Ha a.u.]:  1.4585E-02
        Potential amp.        0.7855 Ry
        Total length         26.9286 bohr
 
     Starting wfcs are random
     Checking if some PAW data can be deallocated... 

     total cpu time spent up to now is        0.9 secs

     per-process dynamical memory:    53.7 Mb

     Self-consistent Calculation

     iteration #  1     ecut=    70.00 Ry     beta= 0.10
     Davidson diagonalization with overlap
     ethr =  1.00E-02,  avg # of iterations =  8.7

     negative rho (up, down):  2.120E-05 0.000E+00
 
     Adding external electric field

     Computed dipole along edir(3) : 
        Dipole                0.0183 Ry au,          0.0464 Debye
        Dipole field          0.0004 Ry au, 
 
        E field amplitude [Ha a.u.]:  1.4585E-02
        Potential amp.        0.7623 Ry
        Total length         26.9286 bohr
 

     total cpu time spent up to now is        8.7 secs

     total energy              =     -36.95311645 Ry
     estimated scf accuracy    <       0.20679784 Ry

     iteration #  2     ecut=    70.00 Ry     beta= 0.10
     Davidson diagonalization with overlap
     ethr =  2.58E-03,  avg # of iterations =  1.0

     negative rho (up, down):  2.613E-05 0.000E+00
 
     Adding external electric field

     Computed dipole along edir(3) : 
        Dipole                0.1159 Ry au,          0.2946 Debye
        Dipole field          0.0027 Ry au, 
 
        E field amplitude [Ha a.u.]:  1.4585E-02
        Potential amp.        0.6385 Ry
        Total length         26.9286 bohr
 

     total cpu time spent up to now is       10.5 secs

     total energy              =     -36.86295300 Ry
     estimated scf accuracy    <       0.15197845 Ry

     iteration #  3     ecut=    70.00 Ry     beta= 0.10
     Davidson diagonalization with overlap
     ethr =  1.90E-03,  avg # of iterations =  2.8

     negative rho (up, down):  2.601E-05 0.000E+00
 
     Adding external electric field

     Computed dipole along edir(3) : 
        Dipole                0.0928 Ry au,          0.2360 Debye
        Dipole field          0.0022 Ry au, 
 
        E field amplitude [Ha a.u.]:  1.4585E-02
        Potential amp.        0.6678 Ry
        Total length         26.9286 bohr
 

     total cpu time spent up to now is       12.8 secs

     total energy              =     -36.88824817 Ry
     estimated scf accuracy    <       0.00453255 Ry

     iteration #  4     ecut=    70.00 Ry     beta= 0.10
     Davidson diagonalization with overlap
     ethr =  5.67E-05,  avg # of iterations =  5.1

     negative rho (up, down):  2.816E-05 0.000E+00
 
     Adding external electric field

     Computed dipole along edir(3) : 
        Dipole                0.0597 Ry au,          0.1517 Debye
        Dipole field          0.0014 Ry au, 
 
        E field amplitude [Ha a.u.]:  1.4585E-02
        Potential amp.        0.7098 Ry
        Total length         26.9286 bohr
 

     total cpu time spent up to now is       15.7 secs

     total energy              =     -36.88830992 Ry
     estimated scf accuracy    <       0.00230367 Ry

     iteration #  5     ecut=    70.00 Ry     beta= 0.10
     Davidson diagonalization with overlap
     ethr =  2.88E-05,  avg # of iterations =  3.0

     negative rho (up, down):  2.824E-05 0.000E+00
 
     Adding external electric field

     Computed dipole along edir(3) : 
        Dipole                0.0594 Ry au,          0.1510 Debye
        Dipole field          0.0014 Ry au, 
 
        E field amplitude [Ha a.u.]:  1.4585E-02
        Potential amp.        0.7102 Ry
        Total length         26.9286 bohr
 

     total cpu time spent up to now is       18.0 secs

     total energy              =     -36.88880361 Ry
     estimated scf accuracy    <       0.00128491 Ry

     iteration #  6     ecut=    70.00 Ry     beta= 0.10
     Davidson diagonalization with overlap
     ethr =  1.61E-05,  avg # of iterations =  1.0

     negative rho (up, down):  2.846E-05 0.000E+00
 
     Adding external electric field

     Computed dipole along edir(3) : 
        Dipole                0.0552 Ry au,          0.1404 Debye
        Dipole field          0.0013 Ry au, 
 
        E field amplitude [Ha a.u.]:  1.4585E-02
        Potential amp.        0.7155 Ry
        Total length         26.9286 bohr
 

     total cpu time spent up to now is       19.8 secs

     total energy              =     -36.88899419 Ry
     estimated scf accuracy    <       0.00130433 Ry

     iteration #  7     ecut=    70.00 Ry     beta= 0.10
     Davidson diagonalization with overlap
     ethr =  1.61E-05,  avg # of iterations =  1.0

     negative rho (up, down):  3.267E-05 0.000E+00
 
     Adding external electric field

     Computed dipole along edir(3) : 
        Dipole                0.1057 Ry au,          0.2687 Debye
        Dipole field          0.0025 Ry au, 
 
        E field amplitude [Ha a.u.]:  1.4585E-02
        Potential amp.        0.6515 Ry
        Total length         26.9286 bohr
 

     total cpu time spent up to now is       21.5 secs

     total energy              =     -36.88802442 Ry
     estimated scf accuracy    <       0.00182500 Ry

     iteration #  8     ecut=    70.00 Ry     beta= 0.10
     Davidson diagonalization with overlap
     ethr =  1.61E-05,  avg # of iterations =  3.4

     negative rho (up, down):  3.307E-05 0.000E+00
 
     Adding external electric field

     Computed dipole along edir(3) : 
        Dipole                0.0896 Ry au,          0.2277 Debye
        Dipole field          0.0021 Ry au, 
 
        E field amplitude [Ha a.u.]:  1.4585E-02
        Potential amp.        0.6719 Ry
        Total length         26.9286 bohr
 

     total cpu time spent up to now is       24.2 secs

     total energy              =     -36.88842029 Ry
     estimated scf accuracy    <       0.00120073 Ry

     iteration #  9     ecut=    70.00 Ry     beta= 0.10
     Davidson diagonalization with overlap
     ethr =  1.50E-05,  avg # of iterations =  2.2

     negative rho (up, down):  3.306E-05 0.000E+00
 
     Adding external electric field

     Computed dipole along edir(3) : 
        Dipole                0.0879 Ry au,          0.2234 Debye
        Dipole field          0.0021 Ry au, 
 
        E field amplitude [Ha a.u.]:  1.4585E-02
        Potential amp.        0.6740 Ry
        Total length         26.9286 bohr
 

     total cpu time spent up to now is       26.2 secs

     total energy              =     -36.88852747 Ry
     estimated scf accuracy    <       0.00011133 Ry

     iteration # 10     ecut=    70.00 Ry     beta= 0.10
     Davidson diagonalization with overlap
     ethr =  1.39E-06,  avg # of iterations =  1.8

     negative rho (up, down):  3.318E-05 0.000E+00
 
     Adding external electric field

     Computed dipole along edir(3) : 
        Dipole                0.0880 Ry au,          0.2237 Debye
        Dipole field          0.0021 Ry au, 
 
        E field amplitude [Ha a.u.]:  1.4585E-02
        Potential amp.        0.6739 Ry
        Total length         26.9286 bohr
 

     total cpu time spent up to now is       28.1 secs

     total energy              =     -36.88853893 Ry
     estimated scf accuracy    <       0.00002068 Ry

     iteration # 11     ecut=    70.00 Ry     beta= 0.10
     Davidson diagonalization with overlap
     ethr =  2.59E-07,  avg # of iterations =  1.1

     negative rho (up, down):  3.335E-05 0.000E+00
 
     Adding external electric field

     Computed dipole along edir(3) : 
        Dipole                0.0880 Ry au,          0.2236 Debye
        Dipole field          0.0021 Ry au, 
 
        E field amplitude [Ha a.u.]:  1.4585E-02
        Potential amp.        0.6739 Ry
        Total length         26.9286 bohr
 

     total cpu time spent up to now is       29.9 secs

     total energy              =     -36.88853788 Ry
     estimated scf accuracy    <       0.00002488 Ry

     iteration # 12     ecut=    70.00 Ry     beta= 0.10
     Davidson diagonalization with overlap
     ethr =  2.59E-07,  avg # of iterations =  1.0

     negative rho (up, down):  3.376E-05 0.000E+00
 
     Adding external electric field

     Computed dipole along edir(3) : 
        Dipole                0.0862 Ry au,          0.2190 Debye
        Dipole field          0.0020 Ry au, 
 
        E field amplitude [Ha a.u.]:  1.4585E-02
        Potential amp.        0.6762 Ry
        Total length         26.9286 bohr
 

     total cpu time spent up to now is       31.7 secs

     total energy              =     -36.88854330 Ry
     estimated scf accuracy    <       0.00000996 Ry

     iteration # 13     ecut=    70.00 Ry     beta= 0.10
     Davidson diagonalization with overlap
     ethr =  1.24E-07,  avg # of iterations =  2.0

     negative rho (up, down):  3.400E-05 0.000E+00
 
     Adding external electric field

     Computed dipole along edir(3) : 
        Dipole                0.0862 Ry au,          0.2191 Debye
        Dipole field          0.0020 Ry au, 
 
        E field amplitude [Ha a.u.]:  1.4585E-02
        Potential amp.        0.6762 Ry
        Total length         26.9286 bohr
 

     total cpu time spent up to now is       33.7 secs

     total energy              =     -36.88853885 Ry
     estimated scf accuracy    <       0.00003646 Ry

     iteration # 14     ecut=    70.00 Ry     beta= 0.10
     Davidson diagonalization with overlap
     ethr =  1.24E-07,  avg # of iterations =  1.6

     negative rho (up, down):  3.412E-05 0.000E+00
 
     Adding external electric field

     Computed dipole along edir(3) : 
        Dipole                0.0862 Ry au,          0.2190 Debye
        Dipole field          0.0020 Ry au, 
 
        E field amplitude [Ha a.u.]:  1.4585E-02
        Potential amp.        0.6762 Ry
        Total length         26.9286 bohr
 

     total cpu time spent up to now is       35.6 secs

     total energy              =     -36.88854167 Ry
     estimated scf accuracy    <       0.00000212 Ry

     iteration # 15     ecut=    70.00 Ry     beta= 0.10
     Davidson diagonalization with overlap
     ethr =  2.65E-08,  avg # of iterations =  1.7

     negative rho (up, down):  3.416E-05 0.000E+00
 
     Adding external electric field

     Computed dipole along edir(3) : 
        Dipole                0.0859 Ry au,          0.2184 Debye
        Dipole field          0.0020 Ry au, 
 
        E field amplitude [Ha a.u.]:  1.4585E-02
        Potential amp.        0.6765 Ry
        Total length         26.9286 bohr
 

     total cpu time spent up to now is       37.5 secs

     total energy              =     -36.88854186 Ry
     estimated scf accuracy    <       0.00000035 Ry

     iteration # 16     ecut=    70.00 Ry     beta= 0.10
     Davidson diagonalization with overlap
     ethr =  4.35E-09,  avg # of iterations =  2.4

     negative rho (up, down):  3.423E-05 0.000E+00
 
     Adding external electric field

     Computed dipole along edir(3) : 
        Dipole                0.0859 Ry au,          0.2183 Debye
        Dipole field          0.0020 Ry au, 
 
        E field amplitude [Ha a.u.]:  1.4585E-02
        Potential amp.        0.6766 Ry
        Total length         26.9286 bohr
 

     total cpu time spent up to now is       39.7 secs

     total energy              =     -36.88854198 Ry
     estimated scf accuracy    <       0.00000005 Ry

     iteration # 17     ecut=    70.00 Ry     beta= 0.10
     Davidson diagonalization with overlap
     ethr =  6.12E-10,  avg # of iterations =  1.4

     negative rho (up, down):  3.433E-05 0.000E+00
 
     Adding external electric field

     Computed dipole along edir(3) : 
        Dipole                0.0859 Ry au,          0.2184 Debye
        Dipole field          0.0020 Ry au, 
 
        E field amplitude [Ha a.u.]:  1.4585E-02
        Potential amp.        0.6765 Ry
        Total length         26.9286 bohr
 

     total cpu time spent up to now is       41.5 secs

     total energy              =     -36.88854196 Ry
     estimated scf accuracy    <       0.00000011 Ry

     iteration # 18     ecut=    70.00 Ry     beta= 0.10
     Davidson diagonalization with overlap
     ethr =  6.12E-10,  avg # of iterations =  1.0

     negative rho (up, down):  3.440E-05 0.000E+00
 
     Adding external electric field

     Computed dipole along edir(3) : 
        Dipole                0.0860 Ry au,          0.2185 Debye
        Dipole field          0.0020 Ry au, 
 
        E field amplitude [Ha a.u.]:  1.4585E-02
        Potential amp.        0.6765 Ry
        Total length         26.9286 bohr
 

     total cpu time spent up to now is       43.2 secs

     total energy              =     -36.88854196 Ry
     estimated scf accuracy    <       0.00000002 Ry

     iteration # 19     ecut=    70.00 Ry     beta= 0.10
     Davidson diagonalization with overlap
     ethr =  2.20E-10,  avg # of iterations =  2.0

     negative rho (up, down):  3.510E-05 0.000E+00
 
     Adding external electric field

     Computed dipole along edir(3) : 
        Dipole                0.0860 Ry au,          0.2186 Debye
        Dipole field          0.0020 Ry au, 
 
        E field amplitude [Ha a.u.]:  1.4585E-02
        Potential amp.        0.6765 Ry
        Total length         26.9286 bohr
 

     total cpu time spent up to now is       45.2 secs

     End of self-consistent calculation

          k = 0.0000 0.0000 0.0000 (  5307 PWs)   bands (ev):

   -21.0119 -21.0119  -9.1090  -9.1090  -4.5550  -4.5550  -4.5458  -4.5458
    -0.1636  -0.1636   1.2976   1.2976   3.2147   3.2147   4.4767   4.4767

          k = 0.0000 0.0962 0.0000 (  5285 PWs)   bands (ev):

   -20.8481 -20.8481  -8.9133  -8.9132  -5.2011  -5.2011  -4.8883  -4.8883
     0.0648   0.0648   1.5219   1.5220   3.4359   3.4360   4.6983   4.6983

          k = 0.0000 0.1925 0.0000 (  5253 PWs)   bands (ev):

   -20.3586 -20.3586  -8.3313  -8.3312  -6.8384  -6.8384  -5.6799  -5.6799
     0.7498   0.7499   2.1947   2.1948   4.0993   4.0994   5.3595   5.3596

          k = 0.0000 0.2887 0.0000 (  5269 PWs)   bands (ev):

   -19.5491 -19.5491  -8.9359  -8.9359  -7.3822  -7.3822  -6.5589  -6.5589
     1.8912   1.8912   3.3121   3.3122   5.1903   5.1905   5.7225   5.7225

          k = 0.0000 0.3849 0.0000 (  5285 PWs)   bands (ev):

   -18.4319 -18.4319 -11.1377 -11.1377  -7.2917  -7.2917  -6.1164  -6.1164
     3.3747   3.3748   3.5207   3.5208   4.8905   4.8908   6.1802   6.1805

          k = 0.0000 0.4811 0.0000 (  5290 PWs)   bands (ev):

   -17.0382 -17.0382 -13.2356 -13.2356  -7.7642  -7.7642  -4.6966  -4.6965
     1.2771   1.2772   5.5437   5.5438   5.9558   5.9559   6.8958   6.8960

          k = 0.0000-0.5774 0.0000 (  5288 PWs)   bands (ev):

   -15.7795 -15.7795 -14.7369 -14.7369  -7.9264  -7.9264  -3.8539  -3.8539
     0.1824   0.1824   5.8753   5.8753   8.0442   8.0442   8.0557   8.0557

          k = 0.0833 0.0481 0.0000 (  5285 PWs)   bands (ev):

   -20.8481 -20.8481  -8.9133  -8.9132  -5.2011  -5.2011  -4.8883  -4.8883
     0.0648   0.0648   1.5219   1.5220   3.4359   3.4360   4.6983   4.6983

          k = 0.0833 0.1443 0.0000 (  5269 PWs)   bands (ev):

   -20.5215 -20.5215  -8.5243  -8.5243  -6.2349  -6.2349  -5.5649  -5.5649
     0.5215   0.5215   1.9706   1.9707   3.8787   3.8788   5.1403   5.1403

          k = 0.0833 0.2406 0.0000 (  5261 PWs)   bands (ev):

   -19.8720 -19.8720  -7.9443  -7.9442  -7.7576  -7.7575  -6.5620  -6.5619
     1.4348   1.4348   2.8667   2.8668   4.7626   4.7627   6.0102   6.0102

          k = 0.0833 0.3368 0.0000 (  5275 PWs)   bands (ev):

   -18.9085 -18.9085 -10.0160 -10.0160  -7.4477  -7.4476  -6.6437  -6.6436
     2.8035   2.8035   4.1770   4.1772   4.4643   4.4645   6.0809   6.0813

          k = 0.0833 0.4330 0.0000 (  5284 PWs)   bands (ev):

   -17.6498 -17.6498 -12.1369 -12.1369  -8.0821  -8.0821  -5.2668  -5.2667
     2.2213   2.2214   4.6314   4.6314   5.9915   5.9918   6.7789   6.7792

          k = 0.0833 0.5292 0.0000 (  5302 PWs)   bands (ev):

   -16.1734 -16.1733 -14.0753 -14.0753  -8.4103  -8.4103  -3.9603  -3.9603
     0.4577   0.4577   6.6130   6.6130   6.9106   6.9106   8.2037   8.2041

          k = 0.0833-0.5292 0.0000 (  5302 PWs)   bands (ev):

   -16.1734 -16.1733 -14.0753 -14.0753  -8.4103  -8.4103  -3.9603  -3.9603
     0.4577   0.4577   6.6130   6.6130   6.9106   6.9106   8.2037   8.2041

          k = 0.0833-0.4330 0.0000 (  5284 PWs)   bands (ev):

   -17.6498 -17.6498 -12.1369 -12.1369  -8.0821  -8.0821  -5.2668  -5.2667
     2.2213   2.2214   4.6314   4.6314   5.9915   5.9918   6.7789   6.7792

          k = 0.0833-0.3368 0.0000 (  5275 PWs)   bands (ev):

   -18.9085 -18.9085 -10.0160 -10.0160  -7.4477  -7.4476  -6.6437  -6.6436
     2.8035   2.8035   4.1770   4.1772   4.4643   4.4645   6.0809   6.0813

          k = 0.0833-0.2406 0.0000 (  5261 PWs)   bands (ev):

   -19.8720 -19.8720  -7.9443  -7.9442  -7.7576  -7.7575  -6.5619  -6.5619
     1.4348   1.4348   2.8667   2.8668   4.7626   4.7627   6.0102   6.0103

          k = 0.0833-0.1443 0.0000 (  5269 PWs)   bands (ev):

   -20.5215 -20.5215  -8.5243  -8.5243  -6.2349  -6.2349  -5.5649  -5.5649
     0.5215   0.5215   1.9706   1.9707   3.8787   3.8788   5.1403   5.1403

          k = 0.0833-0.0481 0.0000 (  5285 PWs)   bands (ev):

   -20.8481 -20.8481  -8.9133  -8.9132  -5.2011  -5.2011  -4.8883  -4.8883
     0.0648   0.0648   1.5219   1.5220   3.4359   3.4360   4.6983   4.6983

          k = 0.1667 0.0962 0.0000 (  5253 PWs)   bands (ev):

   -20.3586 -20.3586  -8.3313  -8.3312  -6.8384  -6.8384  -5.6799  -5.6799
     0.7498   0.7499   2.1947   2.1948   4.0993   4.0994   5.3595   5.3596

          k = 0.1667 0.1925 0.0000 (  5261 PWs)   bands (ev):

   -19.8720 -19.8720  -7.9443  -7.9442  -7.7576  -7.7575  -6.5620  -6.5619
     1.4348   1.4348   2.8667   2.8668   4.7626   4.7627   6.0102   6.0102

          k = 0.1667 0.2887 0.0000 (  5288 PWs)   bands (ev):

   -19.0684 -19.0684  -9.2749  -9.2748  -7.9222  -7.9221  -6.8221  -6.8221
     2.5760   2.5760   3.9843   3.9844   4.8723   4.8725   5.8654   5.8657

          k = 0.1667 0.3849 0.0000 (  5285 PWs)   bands (ev):

   -17.9620 -17.9620 -11.0009 -11.0008  -8.9778  -8.9778  -5.5714  -5.5714
     2.9289   2.9290   4.1731   4.1732   5.5410   5.5412   7.3881   7.3885

          k = 0.1667 0.4811 0.0000 (  5283 PWs)   bands (ev):

   -16.5883 -16.5882 -12.9091 -12.9091  -9.5538  -9.5537  -4.1475  -4.1475
     1.0213   1.0214   6.2232   6.2232   7.5150   7.5154   8.5001   8.5005

          k = 0.1667 0.5774 0.0000 (  5264 PWs)   bands (ev):

   -15.3584 -15.3584 -14.3393 -14.3393  -9.7386  -9.7386  -3.2568  -3.2567
    -0.0443  -0.0442   8.4188   8.4188   8.7053   8.7053   8.7245   8.7245

          k = 0.1667-0.4811 0.0000 (  5283 PWs)   bands (ev):

   -16.5883 -16.5882 -12.9091 -12.9091  -9.5538  -9.5537  -4.1475  -4.1475
     1.0213   1.0214   6.2232   6.2232   7.5150   7.5154   8.5001   8.5005

          k = 0.1667-0.3849 0.0000 (  5285 PWs)   bands (ev):

   -17.9620 -17.9620 -11.0009 -11.0008  -8.9778  -8.9778  -5.5714  -5.5714
     2.9289   2.9290   4.1731   4.1732   5.5410   5.5412   7.3881   7.3885

          k = 0.1667-0.2887 0.0000 (  5288 PWs)   bands (ev):

   -19.0684 -19.0684  -9.2749  -9.2748  -7.9222  -7.9221  -6.8221  -6.8221
     2.5760   2.5760   3.9843   3.9844   4.8723   4.8725   5.8654   5.8657

          k = 0.1667-0.1925 0.0000 (  5261 PWs)   bands (ev):

   -19.8720 -19.8720  -7.9443  -7.9442  -7.7576  -7.7575  -6.5619  -6.5619
     1.4348   1.4348   2.8667   2.8668   4.7626   4.7627   6.0102   6.0102

          k = 0.1667-0.0962 0.0000 (  5253 PWs)   bands (ev):

   -20.3586 -20.3586  -8.3313  -8.3312  -6.8384  -6.8384  -5.6799  -5.6799
     0.7498   0.7499   2.1947   2.1948   4.0993   4.0994   5.3595   5.3596

          k = 0.1667-0.0000 0.0000 (  5269 PWs)   bands (ev):

   -20.5215 -20.5215  -8.5243  -8.5243  -6.2349  -6.2349  -5.5649  -5.5649
     0.5215   0.5215   1.9706   1.9707   3.8787   3.8788   5.1403   5.1403

          k = 0.2500 0.1443 0.0000 (  5269 PWs)   bands (ev):

   -19.5491 -19.5491  -8.9359  -8.9359  -7.3822  -7.3822  -6.5589  -6.5589
     1.8912   1.8912   3.3121   3.3122   5.1903   5.1905   5.7225   5.7225

          k = 0.2500 0.2406 0.0000 (  5275 PWs)   bands (ev):

   -18.9085 -18.9085 -10.0160 -10.0160  -7.4477  -7.4476  -6.6437  -6.6436
     2.8035   2.8035   4.1770   4.1772   4.4643   4.4645   6.0809   6.0813

          k = 0.2500 0.3368 0.0000 (  5285 PWs)   bands (ev):

   -17.9620 -17.9620 -11.0008 -11.0008  -8.9778  -8.9778  -5.5714  -5.5714
     2.9289   2.9290   4.1731   4.1732   5.5410   5.5412   7.3881   7.3885

          k = 0.2500 0.4330 0.0000 (  5268 PWs)   bands (ev):

   -16.7356 -16.7356 -12.0371 -12.0371 -10.4582 -10.4581  -4.2313  -4.2313
     1.3181   1.3182   5.9931   5.9931   7.2812   7.2815   9.0164   9.0171

          k = 0.2500 0.5292 0.0000 (  5282 PWs)   bands (ev):

   -15.3161 -15.3161 -13.4558 -13.4558 -11.1655 -11.1654  -2.8484  -2.8483
    -0.1990  -0.1989   8.2430   8.2431   9.1517   9.1520   9.9174   9.9178

          k = 0.2500 0.6255 0.0000 (  5282 PWs)   bands (ev):

   -15.3161 -15.3161 -13.4558 -13.4558 -11.1655 -11.1654  -2.8484  -2.8483
    -0.1990  -0.1989   8.2430   8.2431   9.1517   9.1520   9.9174   9.9178

          k = 0.2500-0.4330 0.0000 (  5268 PWs)   bands (ev):

   -16.7356 -16.7356 -12.0371 -12.0371 -10.4581 -10.4581  -4.2313  -4.2313
     1.3181   1.3182   5.9931   5.9931   7.2812   7.2815   9.0164   9.0171

          k = 0.2500-0.3368 0.0000 (  5285 PWs)   bands (ev):

   -17.9620 -17.9620 -11.0009 -11.0008  -8.9778  -8.9778  -5.5714  -5.5714
     2.9289   2.9290   4.1731   4.1732   5.5410   5.5412   7.3881   7.3885

          k = 0.2500-0.2406 0.0000 (  5275 PWs)   bands (ev):

   -18.9085 -18.9085 -10.0160 -10.0160  -7.4477  -7.4476  -6.6437  -6.6436
     2.8035   2.8035   4.1770   4.1772   4.4643   4.4645   6.0809   6.0813

          k = 0.2500-0.1443 0.0000 (  5269 PWs)   bands (ev):

   -19.5491 -19.5491  -8.9359  -8.9359  -7.3822  -7.3822  -6.5589  -6.5589
     1.8912   1.8912   3.3121   3.3122   5.1903   5.1905   5.7225   5.7225

          k = 0.2500-0.0481 0.0000 (  5261 PWs)   bands (ev):

   -19.8720 -19.8720  -7.9443  -7.9442  -7.7576  -7.7575  -6.5620  -6.5619
     1.4348   1.4348   2.8667   2.8668   4.7626   4.7627   6.0102   6.0102

          k = 0.2500 0.0481 0.0000 (  5261 PWs)   bands (ev):

   -19.8720 -19.8720  -7.9443  -7.9442  -7.7576  -7.7575  -6.5620  -6.5619
     1.4348   1.4348   2.8667   2.8668   4.7626   4.7627   6.0102   6.0102

          k = 0.3333 0.1925 0.0000 (  5285 PWs)   bands (ev):

   -18.4319 -18.4319 -11.1377 -11.1377  -7.2917  -7.2917  -6.1164  -6.1164
     3.3747   3.3748   3.5207   3.5208   4.8905   4.8908   6.1802   6.1805

          k = 0.3333 0.2887 0.0000 (  5284 PWs)   bands (ev):

   -17.6498 -17.6498 -12.1369 -12.1369  -8.0821  -8.0821  -5.2668  -5.2667
     2.2213   2.2214   4.6314   4.6314   5.9915   5.9918   6.7789   6.7792

          k = 0.3333 0.3849 0.0000 (  5283 PWs)   bands (ev):

   -16.5883 -16.5882 -12.9091 -12.9091  -9.5538  -9.5537  -4.1475  -4.1475
     1.0213   1.0214   6.2232   6.2232   7.5150   7.5154   8.5001   8.5005

          k = 0.3333 0.4811 0.0000 (  5282 PWs)   bands (ev):

   -15.3161 -15.3161 -13.4558 -13.4558 -11.1655 -11.1654  -2.8484  -2.8483
    -0.1990  -0.1989   8.2430   8.2431   9.1517   9.1520   9.9174   9.9178

          k = 0.3333 0.5774 0.0000 (  5292 PWs)   bands (ev):

   -14.1022 -14.1021 -14.1001 -14.1000 -12.0567 -12.0567  -1.4949  -1.4949
    -1.4948  -1.4947   9.0386   9.0386  10.7194  10.7200  10.7200  10.7204

          k = 0.3333 0.6736 0.0000 (  5282 PWs)   bands (ev):

   -15.3161 -15.3161 -13.4558 -13.4558 -11.1655 -11.1654  -2.8484  -2.8483
    -0.1990  -0.1989   8.2430   8.2431   9.1517   9.1520   9.9174   9.9178

          k = 0.3333-0.3849 0.0000 (  5283 PWs)   bands (ev):

   -16.5883 -16.5882 -12.9091 -12.9091  -9.5538  -9.5537  -4.1475  -4.1475
     1.0213   1.0214   6.2232   6.2232   7.5150   7.5154   8.5001   8.5005

          k = 0.3333-0.2887 0.0000 (  5284 PWs)   bands (ev):

   -17.6498 -17.6498 -12.1369 -12.1369  -8.0821  -8.0821  -5.2668  -5.2667
     2.2213   2.2214   4.6314   4.6314   5.9915   5.9918   6.7789   6.7792

          k = 0.3333-0.1925 0.0000 (  5285 PWs)   bands (ev):

   -18.4319 -18.4319 -11.1377 -11.1377  -7.2917  -7.2917  -6.1164  -6.1164
     3.3747   3.3748   3.5207   3.5208   4.8905   4.8908   6.1802   6.1805

          k = 0.3333-0.0962 0.0000 (  5275 PWs)   bands (ev):

   -18.9085 -18.9085 -10.0160 -10.0160  -7.4477  -7.4476  -6.6437  -6.6436
     2.8035   2.8035   4.1770   4.1772   4.4643   4.4645   6.0809   6.0813

          k = 0.3333-0.0000 0.0000 (  5288 PWs)   bands (ev):

   -19.0684 -19.0684  -9.2749  -9.2748  -7.9222  -7.9221  -6.8221  -6.8221
     2.5760   2.5760   3.9843   3.9844   4.8723   4.8725   5.8654   5.8657

          k = 0.3333 0.0962 0.0000 (  5275 PWs)   bands (ev):

   -18.9085 -18.9085 -10.0160 -10.0160  -7.4477  -7.4476  -6.6437  -6.6436
     2.8035   2.8035   4.1770   4.1772   4.4643   4.4645   6.0809   6.0813

          k = 0.4167 0.2406 0.0000 (  5290 PWs)   bands (ev):

   -17.0382 -17.0382 -13.2356 -13.2356  -7.7642  -7.7642  -4.6966  -4.6965
     1.2771   1.2772   5.5437   5.5438   5.9558   5.9559   6.8958   6.8960

          k = 0.4167 0.3368 0.0000 (  5302 PWs)   bands (ev):

   -16.1734 -16.1733 -14.0753 -14.0753  -8.4103  -8.4103  -3.9603  -3.9603
     0.4577   0.4577   6.6130   6.6130   6.9106   6.9106   8.2037   8.2041

          k = 0.4167 0.4330 0.0000 (  5264 PWs)   bands (ev):

   -15.3584 -15.3584 -14.3393 -14.3393  -9.7386  -9.7386  -3.2568  -3.2567
    -0.0443  -0.0442   8.4188   8.4188   8.7053   8.7053   8.7245   8.7245

          k = 0.4167 0.5292 0.0000 (  5282 PWs)   bands (ev):

   -15.3161 -15.3161 -13.4558 -13.4558 -11.1655 -11.1654  -2.8484  -2.8483
    -0.1990  -0.1989   8.2430   8.2431   9.1517   9.1520   9.9174   9.9178

          k = 0.4167 0.6255 0.0000 (  5282 PWs)   bands (ev):

   -15.3161 -15.3161 -13.4558 -13.4558 -11.1655 -11.1654  -2.8484  -2.8483
    -0.1990  -0.1989   8.2430   8.2431   9.1517   9.1520   9.9174   9.9178

          k = 0.4167 0.7217 0.0000 (  5264 PWs)   bands (ev):

   -15.3584 -15.3584 -14.3393 -14.3393  -9.7386  -9.7386  -3.2568  -3.2567
    -0.0443  -0.0442   8.4188   8.4188   8.7053   8.7053   8.7245   8.7245

          k = 0.4167-0.3368 0.0000 (  5302 PWs)   bands (ev):

   -16.1734 -16.1733 -14.0753 -14.0753  -8.4103  -8.4103  -3.9603  -3.9603
     0.4577   0.4577   6.6130   6.6130   6.9106   6.9106   8.2037   8.2041

          k = 0.4167-0.2406 0.0000 (  5290 PWs)   bands (ev):

   -17.0382 -17.0382 -13.2356 -13.2356  -7.7642  -7.7642  -4.6966  -4.6965
     1.2771   1.2772   5.5437   5.5438   5.9558   5.9559   6.8958   6.8960

          k = 0.4167-0.1443 0.0000 (  5284 PWs)   bands (ev):

   -17.6498 -17.6498 -12.1369 -12.1369  -8.0821  -8.0821  -5.2668  -5.2667
     2.2213   2.2214   4.6314   4.6314   5.9915   5.9918   6.7789   6.7792

          k = 0.4167-0.0481 0.0000 (  5285 PWs)   bands (ev):

   -17.9620 -17.9620 -11.0009 -11.0008  -8.9778  -8.9778  -5.5714  -5.5714
     2.9289   2.9290   4.1731   4.1732   5.5410   5.5412   7.3881   7.3885

          k = 0.4167 0.0481 0.0000 (  5285 PWs)   bands (ev):

   -17.9620 -17.9620 -11.0008 -11.0008  -8.9778  -8.9778  -5.5714  -5.5714
     2.9289   2.9290   4.1731   4.1732   5.5410   5.5412   7.3881   7.3885

          k = 0.4167 0.1443 0.0000 (  5284 PWs)   bands (ev):

   -17.6498 -17.6498 -12.1369 -12.1369  -8.0821  -8.0821  -5.2668  -5.2667
     2.2213   2.2214   4.6314   4.6314   5.9915   5.9918   6.7789   6.7792

          k =-0.5000-0.2887 0.0000 (  5288 PWs)   bands (ev):

   -15.7795 -15.7795 -14.7369 -14.7369  -7.9264  -7.9264  -3.8539  -3.8539
     0.1824   0.1824   5.8753   5.8753   8.0442   8.0442   8.0557   8.0557

          k =-0.5000-0.1925 0.0000 (  5302 PWs)   bands (ev):

   -16.1734 -16.1733 -14.0753 -14.0753  -8.4103  -8.4103  -3.9603  -3.9603
     0.4577   0.4577   6.6130   6.6130   6.9106   6.9106   8.2037   8.2041

          k =-0.5000-0.0962 0.0000 (  5283 PWs)   bands (ev):

   -16.5883 -16.5882 -12.9091 -12.9091  -9.5538  -9.5537  -4.1475  -4.1475
     1.0213   1.0214   6.2232   6.2232   7.5150   7.5154   8.5001   8.5005

          k =-0.5000 0.0000 0.0000 (  5268 PWs)   bands (ev):

   -16.7356 -16.7356 -12.0371 -12.0371 -10.4582 -10.4581  -4.2313  -4.2313
     1.3181   1.3182   5.9931   5.9931   7.2812   7.2815   9.0164   9.0171

          k =-0.5000 0.0962 0.0000 (  5283 PWs)   bands (ev):

   -16.5883 -16.5882 -12.9091 -12.9091  -9.5538  -9.5537  -4.1475  -4.1475
     1.0213   1.0214   6.2232   6.2232   7.5150   7.5154   8.5001   8.5005

          k =-0.5000 0.1925 0.0000 (  5302 PWs)   bands (ev):

   -16.1734 -16.1733 -14.0753 -14.0753  -8.4103  -8.4103  -3.9603  -3.9603
     0.4577   0.4577   6.6130   6.6130   6.9106   6.9106   8.2037   8.2041

          k =-0.5000-0.8660 0.0000 (  5288 PWs)   bands (ev):

   -15.7795 -15.7795 -14.7369 -14.7369  -7.9264  -7.9264  -3.8539  -3.8539
     0.1824   0.1824   5.8753   5.8753   8.0442   8.0442   8.0557   8.0557

     the Fermi energy is    -1.49482193 ev

!    total energy              =     -36.88854197 Ry
     total all-electron energy =      -152.416814 Ry
     estimated scf accuracy    <          4.3E-09 Ry
     smearing contrib. (-TS)   =      -0.00003134 Ry
     internal energy E=F+TS    =     -36.88851063 Ry

     The total energy is F=E-TS. E is the sum of the following terms:
     one-electron contribution =    -156.61039220 Ry
     hartree contribution      =      79.92038929 Ry
     xc contribution           =      -9.27159168 Ry
     ewald contribution        =      61.40972547 Ry
     electric field correction =      -0.00233436 Ry
     one-center paw contrib.   =     -12.33430714 Ry

     convergence has been achieved in  19 iterations

     negative rho (up, down):  3.510E-05 0.000E+00

     Forces acting on atoms (cartesian axes, Ry/au):

     atom    1 type  1   force =     0.00000118    0.00000071   -0.00000051
     atom    2 type  1   force =    -0.00000118   -0.00000071    0.00000051

     Total force =     0.000002     Total SCF correction =     0.000053
     SCF correction compared to forces is large: reduce conv_thr to get better values

     Writing all to output data dir ../tmp/graphene.save/ :
     XML data file, charge density, pseudopotentials, collected wavefunctions
 
     init_run     :      0.73s CPU      0.79s WALL (       1 calls)
     electrons    :     42.59s CPU     44.39s WALL (       1 calls)
     forces       :      0.11s CPU      0.11s WALL (       1 calls)

     Called by init_run:
     wfcinit      :      0.63s CPU      0.67s WALL (       1 calls)
     potinit      :      0.03s CPU      0.04s WALL (       1 calls)
     hinit0       :      0.02s CPU      0.02s WALL (       1 calls)

     Called by electrons:
     c_bands      :     35.51s CPU     36.91s WALL (      19 calls)
     sum_band     :      6.08s CPU      6.34s WALL (      19 calls)
     v_of_rho     :      0.22s CPU      0.25s WALL (      20 calls)
     newd         :      0.34s CPU      0.35s WALL (      20 calls)
     PAW_pot      :      0.23s CPU      0.23s WALL (      20 calls)
     mix_rho      :      0.16s CPU      0.16s WALL (      19 calls)

     Called by c_bands:
     init_us_2    :      0.27s CPU      0.29s WALL (    2960 calls)
     cegterg      :     34.36s CPU     35.67s WALL (    1406 calls)

     Called by *egterg:
     cdiaghg      :      4.06s CPU      4.12s WALL (    4674 calls)
     h_psi        :     26.95s CPU     28.12s WALL (    4748 calls)
     s_psi        :      0.58s CPU      0.60s WALL (    4748 calls)
     g_psi        :      0.09s CPU      0.10s WALL (    3268 calls)

     Called by h_psi:
     h_psi:calbec :      0.80s CPU      0.83s WALL (    4748 calls)
     vloc_psi     :     25.31s CPU     26.42s WALL (    4748 calls)
     add_vuspsi   :      0.61s CPU      0.63s WALL (    4748 calls)

     General routines
     calbec       :      1.01s CPU      1.06s WALL (    6450 calls)
     fft          :      0.27s CPU      0.28s WALL (     497 calls)
     ffts         :      0.02s CPU      0.02s WALL (     156 calls)
     fftw         :     22.32s CPU     23.32s WALL (  278132 calls)
     interpolate  :      0.04s CPU      0.04s WALL (      80 calls)
 
     Parallel routines
 
     PWSCF        :     43.73s CPU     48.21s WALL

 
   This run was terminated on:   2:25:49  29Jan2026            

=------------------------------------------------------------------------------=
   JOB DONE.
=------------------------------------------------------------------------------=
