
     Program PWSCF v.7.4.1 starts on 12Oct2025 at 19:18:11 

     This program is part of the open-source Quantum ESPRESSO suite
     for quantum simulation of materials; please cite
         "P. Giannozzi et al., J. Phys.:Condens. Matter 21 395502 (2009);
         "P. Giannozzi et al., J. Phys.:Condens. Matter 29 465901 (2017);
         "P. Giannozzi et al., J. Chem. Phys. 152 154105 (2020);
          URL http://www.quantum-espresso.org", 
     in publications or presentations arising from this work. More details at
     http://www.quantum-espresso.org/quote

     Serial version
     1679 MiB available memory on the printing compute node when the environment starts

     Reading input from grap_scf.in

     Current dimensions of program PWSCF are:
     Max number of different atomic species (ntypx) = 10
     Max number of k-points (npk) =  40000
     Max angular momentum in pseudopotentials (lmaxx) =  4
     file C.pz-n-kjpaw-LDA.UPF: wavefunction(s)  2P renormalized
     Message from routine setup:
     using ibrav=0 with symmetry is DISCOURAGED, use correct ibrav instead


     G-vector sticks info
     --------------------
     sticks:   dense  smooth     PW     G-vecs:    dense   smooth      PW
     Sum        1039     421    121               163611    41503    7019

     Using Slab Decomposition



     bravais-lattice index     =            0
     lattice parameter (alat)  =       4.6223  a.u.
     unit-cell volume          =     522.6524 (a.u.)^3
     number of atoms/cell      =            2
     number of atomic types    =            1
     number of electrons       =         8.00
     number of Kohn-Sham states=            8
     kinetic-energy cutoff     =      70.0000  Ry
     charge density cutoff     =     700.0000  Ry
     scf convergence threshold =      1.0E-08
     mixing beta               =       0.5000
     number of iterations used =            8  plain     mixing
     Exchange-correlation= SLA  PZ   NOGX NOGC
                           (   1   1   0   0   0   0   0)

     celldm(1)=   4.622345  celldm(2)=   0.000000  celldm(3)=   0.000000
     celldm(4)=   0.000000  celldm(5)=   0.000000  celldm(6)=   0.000000

     crystal axes: (cart. coord. in units of alat)
               a(1) = (   1.000000  -0.000000   0.000000 )  
               a(2) = (  -0.500000   0.866025   0.000000 )  
               a(3) = (  -0.000000  -0.000000   6.110762 )  

     reciprocal axes: (cart. coord. in units 2 pi/alat)
               b(1) = (  1.000000  0.577350  0.000000 )  
               b(2) = (  0.000000  1.154701  0.000000 )  
               b(3) = ( -0.000000 -0.000000  0.163646 )  


     PseudoPot. # 1 for C  read from file:
     ../../../pseudos/C.pz-n-kjpaw-LDA.UPF
     MD5 check sum: 9411bb2a2f5f8788c750e3a83f356d1e
     Pseudo is Projector augmented-wave + core cor, Zval =  4.0
     Generated using "atomic" code by A. Dal Corso  (Quantum ESPRESSO distribution)
     Shape of augmentation charge: BESSEL
     Using radial grid of 1073 points,  4 beta functions with: 
                l(1) =   0
                l(2) =   0
                l(3) =   1
                l(4) =   1
     Q(r) pseudized with 0 coefficients 


     atomic species   valence    mass     pseudopotential
     C                 4.00    12.01100     C ( 1.00)

     24 Sym. Ops., with inversion, found (12 have fractional translation)


                                    s                        frac. trans.

      isym =  1     identity                                     

 cryst.   s( 1) = (     1          0          0      )
                  (     0          1          0      )
                  (     0          0          1      )

 cart.    s( 1) = (  1.0000000  0.0000000  0.0000000 )
                  (  0.0000000  1.0000000  0.0000000 )
                  (  0.0000000  0.0000000  1.0000000 )


      isym =  2     180 deg rotation - cart. axis [0,0,1]        

 cryst.   s( 2) = (    -1          0          0      )    f =( -0.3333334 )
                  (     0         -1          0      )       (  0.3333333 )
                  (     0          0          1      )       (  0.0000000 )

 cart.    s( 2) = ( -1.0000000  0.0000000  0.0000000 )    f =( -0.5000000 )
                  (  0.0000000 -1.0000000  0.0000000 )       (  0.2886751 )
                  (  0.0000000  0.0000000  1.0000000 )       (  0.0000000 )


      isym =  3     180 deg rotation - cart. axis [0,1,0]        

 cryst.   s( 3) = (    -1          0          0      )
                  (     1          1          0      )
                  (     0          0         -1      )

 cart.    s( 3) = ( -1.0000000  0.0000000  0.0000000 )
                  (  0.0000000  1.0000000  0.0000000 )
                  (  0.0000000  0.0000000 -1.0000000 )


      isym =  4     180 deg rotation - cart. axis [1,0,0]        

 cryst.   s( 4) = (     1          0          0      )    f =( -0.3333334 )
                  (    -1         -1          0      )       (  0.3333333 )
                  (     0          0         -1      )       (  0.0000000 )

 cart.    s( 4) = (  1.0000000 -0.0000000  0.0000000 )    f =( -0.5000000 )
                  (  0.0000000 -1.0000000  0.0000000 )       (  0.2886751 )
                  (  0.0000000  0.0000000 -1.0000000 )       (  0.0000000 )


      isym =  5      60 deg rotation - cryst. axis [0,0,1]       

 cryst.   s( 5) = (     1          1          0      )    f =( -0.3333334 )
                  (    -1          0          0      )       (  0.3333334 )
                  (     0          0          1      )       (  0.0000000 )

 cart.    s( 5) = (  0.5000000 -0.8660254  0.0000000 )    f =( -0.5000000 )
                  (  0.8660254  0.5000000  0.0000000 )       (  0.2886751 )
                  (  0.0000000  0.0000000  1.0000000 )       (  0.0000000 )


      isym =  6      60 deg rotation - cryst. axis [0,0,-1]      

 cryst.   s( 6) = (     0         -1          0      )    f =( -0.3333333 )
                  (     1          1          0      )       (  0.3333334 )
                  (     0          0          1      )       (  0.0000000 )

 cart.    s( 6) = (  0.5000000  0.8660254  0.0000000 )    f =( -0.5000000 )
                  ( -0.8660254  0.5000000  0.0000000 )       (  0.2886752 )
                  (  0.0000000  0.0000000  1.0000000 )       (  0.0000000 )


      isym =  7     120 deg rotation - cryst. axis [0,0,1]       

 cryst.   s( 7) = (     0          1          0      )
                  (    -1         -1          0      )
                  (     0          0          1      )

 cart.    s( 7) = ( -0.5000000 -0.8660254  0.0000000 )
                  (  0.8660254 -0.5000000  0.0000000 )
                  (  0.0000000  0.0000000  1.0000000 )


      isym =  8     120 deg rotation - cryst. axis [0,0,-1]      

 cryst.   s( 8) = (    -1         -1          0      )
                  (     1          0          0      )
                  (     0          0          1      )

 cart.    s( 8) = ( -0.5000000  0.8660254  0.0000000 )
                  ( -0.8660254 -0.5000000  0.0000000 )
                  (  0.0000000  0.0000000  1.0000000 )


      isym =  9     180 deg rotation - cryst. axis [1,-1,0]      

 cryst.   s( 9) = (     0         -1          0      )
                  (    -1          0          0      )
                  (     0          0         -1      )

 cart.    s( 9) = (  0.5000000 -0.8660254  0.0000000 )
                  ( -0.8660254 -0.5000000  0.0000000 )
                  (  0.0000000  0.0000000 -1.0000000 )


      isym = 10     180 deg rotation - cryst. axis [2,1,0]       

 cryst.   s(10) = (     1          1          0      )
                  (     0         -1          0      )
                  (     0          0         -1      )

 cart.    s(10) = (  0.5000000  0.8660254  0.0000000 )
                  (  0.8660254 -0.5000000  0.0000000 )
                  (  0.0000000  0.0000000 -1.0000000 )


      isym = 11     180 deg rotation - cryst. axis [0,1,0]       

 cryst.   s(11) = (    -1         -1          0      )    f =( -0.3333334 )
                  (     0          1          0      )       (  0.3333334 )
                  (     0          0         -1      )       (  0.0000000 )

 cart.    s(11) = ( -0.5000000 -0.8660254  0.0000000 )    f =( -0.5000000 )
                  ( -0.8660254  0.5000000  0.0000000 )       (  0.2886752 )
                  (  0.0000000  0.0000000 -1.0000000 )       (  0.0000000 )


      isym = 12     180 deg rotation - cryst. axis [1,1,0]       

 cryst.   s(12) = (     0          1          0      )    f =( -0.3333333 )
                  (     1          0          0      )       (  0.3333334 )
                  (     0          0         -1      )       (  0.0000000 )

 cart.    s(12) = ( -0.5000000  0.8660254  0.0000000 )    f =( -0.5000000 )
                  (  0.8660254  0.5000000  0.0000000 )       (  0.2886751 )
                  (  0.0000000  0.0000000 -1.0000000 )       (  0.0000000 )


      isym = 13     inversion                                    

 cryst.   s(13) = (    -1          0          0      )    f =( -0.3333334 )
                  (     0         -1          0      )       (  0.3333333 )
                  (     0          0         -1      )       (  0.0000000 )

 cart.    s(13) = ( -1.0000000  0.0000000  0.0000000 )    f =( -0.5000000 )
                  (  0.0000000 -1.0000000  0.0000000 )       (  0.2886751 )
                  (  0.0000000  0.0000000 -1.0000000 )       (  0.0000000 )


      isym = 14     inv. 180 deg rotation - cart. axis [0,0,1]   

 cryst.   s(14) = (     1          0          0      )
                  (     0          1          0      )
                  (     0          0         -1      )

 cart.    s(14) = (  1.0000000  0.0000000  0.0000000 )
                  (  0.0000000  1.0000000  0.0000000 )
                  (  0.0000000  0.0000000 -1.0000000 )


      isym = 15     inv. 180 deg rotation - cart. axis [0,1,0]   

 cryst.   s(15) = (     1          0          0      )    f =( -0.3333334 )
                  (    -1         -1          0      )       (  0.3333333 )
                  (     0          0          1      )       (  0.0000000 )

 cart.    s(15) = (  1.0000000 -0.0000000  0.0000000 )    f =( -0.5000000 )
                  (  0.0000000 -1.0000000  0.0000000 )       (  0.2886751 )
                  (  0.0000000  0.0000000  1.0000000 )       (  0.0000000 )


      isym = 16     inv. 180 deg rotation - cart. axis [1,0,0]   

 cryst.   s(16) = (    -1          0          0      )
                  (     1          1          0      )
                  (     0          0          1      )

 cart.    s(16) = ( -1.0000000  0.0000000  0.0000000 )
                  (  0.0000000  1.0000000  0.0000000 )
                  (  0.0000000  0.0000000  1.0000000 )


      isym = 17     inv.  60 deg rotation - cryst. axis [0,0,1]  

 cryst.   s(17) = (    -1         -1          0      )
                  (     1          0          0      )
                  (     0          0         -1      )

 cart.    s(17) = ( -0.5000000  0.8660254  0.0000000 )
                  ( -0.8660254 -0.5000000  0.0000000 )
                  (  0.0000000  0.0000000 -1.0000000 )


      isym = 18     inv.  60 deg rotation - cryst. axis [0,0,-1] 

 cryst.   s(18) = (     0          1          0      )
                  (    -1         -1          0      )
                  (     0          0         -1      )

 cart.    s(18) = ( -0.5000000 -0.8660254  0.0000000 )
                  (  0.8660254 -0.5000000  0.0000000 )
                  (  0.0000000  0.0000000 -1.0000000 )


      isym = 19     inv. 120 deg rotation - cryst. axis [0,0,1]  

 cryst.   s(19) = (     0         -1          0      )    f =( -0.3333333 )
                  (     1          1          0      )       (  0.3333334 )
                  (     0          0         -1      )       (  0.0000000 )

 cart.    s(19) = (  0.5000000  0.8660254  0.0000000 )    f =( -0.5000000 )
                  ( -0.8660254  0.5000000  0.0000000 )       (  0.2886752 )
                  (  0.0000000  0.0000000 -1.0000000 )       (  0.0000000 )


      isym = 20     inv. 120 deg rotation - cryst. axis [0,0,-1] 

 cryst.   s(20) = (     1          1          0      )    f =( -0.3333334 )
                  (    -1          0          0      )       (  0.3333334 )
                  (     0          0         -1      )       (  0.0000000 )

 cart.    s(20) = (  0.5000000 -0.8660254  0.0000000 )    f =( -0.5000000 )
                  (  0.8660254  0.5000000  0.0000000 )       (  0.2886751 )
                  (  0.0000000  0.0000000 -1.0000000 )       (  0.0000000 )


      isym = 21     inv. 180 deg rotation - cryst. axis [1,-1,0] 

 cryst.   s(21) = (     0          1          0      )    f =( -0.3333333 )
                  (     1          0          0      )       (  0.3333334 )
                  (     0          0          1      )       (  0.0000000 )

 cart.    s(21) = ( -0.5000000  0.8660254  0.0000000 )    f =( -0.5000000 )
                  (  0.8660254  0.5000000  0.0000000 )       (  0.2886751 )
                  (  0.0000000  0.0000000  1.0000000 )       (  0.0000000 )


      isym = 22     inv. 180 deg rotation - cryst. axis [2,1,0]  

 cryst.   s(22) = (    -1         -1          0      )    f =( -0.3333334 )
                  (     0          1          0      )       (  0.3333334 )
                  (     0          0          1      )       (  0.0000000 )

 cart.    s(22) = ( -0.5000000 -0.8660254  0.0000000 )    f =( -0.5000000 )
                  ( -0.8660254  0.5000000  0.0000000 )       (  0.2886752 )
                  (  0.0000000  0.0000000  1.0000000 )       (  0.0000000 )


      isym = 23     inv. 180 deg rotation - cryst. axis [0,1,0]  

 cryst.   s(23) = (     1          1          0      )
                  (     0         -1          0      )
                  (     0          0          1      )

 cart.    s(23) = (  0.5000000  0.8660254  0.0000000 )
                  (  0.8660254 -0.5000000  0.0000000 )
                  (  0.0000000  0.0000000  1.0000000 )


      isym = 24     inv. 180 deg rotation - cryst. axis [1,1,0]  

 cryst.   s(24) = (     0         -1          0      )
                  (    -1          0          0      )
                  (     0          0          1      )

 cart.    s(24) = (  0.5000000 -0.8660254  0.0000000 )
                  ( -0.8660254 -0.5000000  0.0000000 )
                  (  0.0000000  0.0000000  1.0000000 )


   Cartesian axes

     site n.     atom                  positions (alat units)
         1        C      tau(   1) = (  -0.0000000  -0.0000000  -0.0000000  )
         2        C      tau(   2) = (  -0.0000000   0.5773503   0.0000000  )

   Crystallographic axes

     site n.     atom                  positions (cryst. coord.)
         1        C      tau(   1) = ( -0.0000000 -0.0000000  0.0000000  )
         2        C      tau(   2) = (  0.3333334  0.6666667  0.0000000  )

     number of k points=    19  Gaussian smearing, width (Ry)=  0.0020
                       cart. coord. in units 2pi/alat
        k(    1) = (   0.0000000   0.0000000   0.0000000), wk =   0.0138889
        k(    2) = (   0.0000000   0.0962250   0.0000000), wk =   0.0833333
        k(    3) = (   0.0000000   0.1924501   0.0000000), wk =   0.0833333
        k(    4) = (   0.0000000   0.2886751   0.0000000), wk =   0.0833333
        k(    5) = (   0.0000000   0.3849002   0.0000000), wk =   0.0833333
        k(    6) = (   0.0000000   0.4811252   0.0000000), wk =   0.0833333
        k(    7) = (   0.0000000  -0.5773503   0.0000000), wk =   0.0416667
        k(    8) = (   0.0833333   0.1443376   0.0000000), wk =   0.0833333
        k(    9) = (   0.0833333   0.2405626   0.0000000), wk =   0.1666667
        k(   10) = (   0.0833333   0.3367877   0.0000000), wk =   0.1666667
        k(   11) = (   0.0833333   0.4330127   0.0000000), wk =   0.1666667
        k(   12) = (   0.0833333   0.5292377   0.0000000), wk =   0.1666667
        k(   13) = (   0.1666667   0.2886751   0.0000000), wk =   0.0833333
        k(   14) = (   0.1666667   0.3849002   0.0000000), wk =   0.1666667
        k(   15) = (   0.1666667   0.4811252   0.0000000), wk =   0.1666667
        k(   16) = (   0.1666667   0.5773503   0.0000000), wk =   0.0833333
        k(   17) = (   0.2500000   0.4330127   0.0000000), wk =   0.0833333
        k(   18) = (   0.2500000   0.5292377   0.0000000), wk =   0.1666667
        k(   19) = (   0.3333333   0.5773503   0.0000000), wk =   0.0277778

                       cryst. coord.
        k(    1) = (   0.0000000   0.0000000   0.0000000), wk =   0.0138889
        k(    2) = (   0.0000000   0.0833333   0.0000000), wk =   0.0833333
        k(    3) = (   0.0000000   0.1666667   0.0000000), wk =   0.0833333
        k(    4) = (   0.0000000   0.2500000   0.0000000), wk =   0.0833333
        k(    5) = (   0.0000000   0.3333333   0.0000000), wk =   0.0833333
        k(    6) = (   0.0000000   0.4166667   0.0000000), wk =   0.0833333
        k(    7) = (   0.0000000  -0.5000000   0.0000000), wk =   0.0416667
        k(    8) = (   0.0833333   0.0833333   0.0000000), wk =   0.0833333
        k(    9) = (   0.0833333   0.1666667   0.0000000), wk =   0.1666667
        k(   10) = (   0.0833333   0.2500000   0.0000000), wk =   0.1666667
        k(   11) = (   0.0833333   0.3333333   0.0000000), wk =   0.1666667
        k(   12) = (   0.0833333   0.4166667   0.0000000), wk =   0.1666667
        k(   13) = (   0.1666667   0.1666667   0.0000000), wk =   0.0833333
        k(   14) = (   0.1666667   0.2500000   0.0000000), wk =   0.1666667
        k(   15) = (   0.1666667   0.3333333   0.0000000), wk =   0.1666667
        k(   16) = (   0.1666667   0.4166667   0.0000000), wk =   0.0833333
        k(   17) = (   0.2500000   0.2500000   0.0000000), wk =   0.0833333
        k(   18) = (   0.2500000   0.3333333   0.0000000), wk =   0.1666667
        k(   19) = (   0.3333333   0.3333333   0.0000000), wk =   0.0277778

     Dense  grid:   163611 G-vectors     FFT dimensions: (  45,  45, 240)

     Smooth grid:    41503 G-vectors     FFT dimensions: (  27,  27, 160)

     Dynamical RAM for                 wfc:       0.63 MB

     Dynamical RAM for     wfc (w. buffer):      12.62 MB

     Dynamical RAM for           str. fact:       2.50 MB

     Dynamical RAM for           local pot:       0.00 MB

     Dynamical RAM for          nlocal pot:       1.26 MB

     Dynamical RAM for                qrad:       0.61 MB

     Dynamical RAM for          rho,v,vnew:      18.61 MB

     Dynamical RAM for               rhoin:       6.20 MB

     Dynamical RAM for            rho*nmix:      39.94 MB

     Dynamical RAM for           G-vectors:       9.68 MB

     Dynamical RAM for          h,s,v(r/c):       0.01 MB

     Dynamical RAM for          <psi|beta>:       0.00 MB

     Dynamical RAM for                 psi:       1.26 MB

     Dynamical RAM for                hpsi:       1.26 MB

     Dynamical RAM for                spsi:       1.26 MB

     Dynamical RAM for      wfcinit/wfcrot:       1.26 MB

     Dynamical RAM for           addusdens:     112.34 MB

     Dynamical RAM for          addusforce:     118.59 MB

     Dynamical RAM for         addusstress:     124.83 MB

     Estimated static dynamical RAM per process >      75.01 MB

     Estimated max dynamical RAM per process >     239.78 MB

     Initial potential from superposition of free atoms

     starting charge       7.9999, renormalised to       8.0000

     negative rho (up, down):  2.414E-05 0.000E+00
     Starting wfcs are random

     total cpu time spent up to now is        2.0 secs

     Self-consistent Calculation

     iteration #  1     ecut=    70.00 Ry     beta= 0.50
     Davidson diagonalization with overlap

---- Real-time Memory Report at c_bands before calling an iterative solver
           183 MiB given to the printing process from OS
             0 MiB allocation reported by mallinfo(arena+hblkhd)
          1570 MiB available memory on the node where the printing process lives
------------------
     c_bands:  1 eigenvalues not converged
     ethr =  1.00E-02,  avg # of iterations = 14.7

     total cpu time spent up to now is        8.2 secs

     total energy              =     -35.59012995 Ry
     estimated scf accuracy    <       0.15495701 Ry

     iteration #  2     ecut=    70.00 Ry     beta= 0.50
     Davidson diagonalization with overlap

---- Real-time Memory Report at c_bands before calling an iterative solver
           208 MiB given to the printing process from OS
             0 MiB allocation reported by mallinfo(arena+hblkhd)
          1551 MiB available memory on the node where the printing process lives
------------------
     ethr =  1.94E-03,  avg # of iterations =  2.7

     negative rho (up, down):  1.449E-08 0.000E+00

     total cpu time spent up to now is        9.9 secs

     total energy              =     -35.61884028 Ry
     estimated scf accuracy    <       0.03473611 Ry

     iteration #  3     ecut=    70.00 Ry     beta= 0.50
     Davidson diagonalization with overlap

---- Real-time Memory Report at c_bands before calling an iterative solver
           210 MiB given to the printing process from OS
             0 MiB allocation reported by mallinfo(arena+hblkhd)
          1551 MiB available memory on the node where the printing process lives
------------------
     ethr =  4.34E-04,  avg # of iterations =  6.4

     total cpu time spent up to now is       12.5 secs

     total energy              =     -35.63357963 Ry
     estimated scf accuracy    <       0.00417719 Ry

     iteration #  4     ecut=    70.00 Ry     beta= 0.50
     Davidson diagonalization with overlap

---- Real-time Memory Report at c_bands before calling an iterative solver
           211 MiB given to the printing process from OS
             0 MiB allocation reported by mallinfo(arena+hblkhd)
          1512 MiB available memory on the node where the printing process lives
------------------
     ethr =  5.22E-05,  avg # of iterations =  9.0

     negative rho (up, down):  3.619E-06 0.000E+00

     total cpu time spent up to now is       15.2 secs

     total energy              =     -35.63598028 Ry
     estimated scf accuracy    <       0.00022069 Ry

     iteration #  5     ecut=    70.00 Ry     beta= 0.50
     Davidson diagonalization with overlap

---- Real-time Memory Report at c_bands before calling an iterative solver
           212 MiB given to the printing process from OS
             0 MiB allocation reported by mallinfo(arena+hblkhd)
          1488 MiB available memory on the node where the printing process lives
------------------
     c_bands:  1 eigenvalues not converged
     c_bands:  2 eigenvalues not converged
     ethr =  2.76E-06,  avg # of iterations = 12.9

     negative rho (up, down):  3.143E-06 0.000E+00

     total cpu time spent up to now is       19.2 secs

     total energy              =     -35.63618282 Ry
     estimated scf accuracy    <       0.00034427 Ry

     iteration #  6     ecut=    70.00 Ry     beta= 0.50
     Davidson diagonalization with overlap

---- Real-time Memory Report at c_bands before calling an iterative solver
           213 MiB given to the printing process from OS
             0 MiB allocation reported by mallinfo(arena+hblkhd)
          1501 MiB available memory on the node where the printing process lives
------------------
     c_bands:  1 eigenvalues not converged
     ethr =  2.76E-06,  avg # of iterations =  4.9

     negative rho (up, down):  4.498E-06 0.000E+00

     total cpu time spent up to now is       21.2 secs

     total energy              =     -35.63624990 Ry
     estimated scf accuracy    <       0.00000023 Ry

     iteration #  7     ecut=    70.00 Ry     beta= 0.50
     Davidson diagonalization with overlap

---- Real-time Memory Report at c_bands before calling an iterative solver
           215 MiB given to the printing process from OS
             0 MiB allocation reported by mallinfo(arena+hblkhd)
          1512 MiB available memory on the node where the printing process lives
------------------
     ethr =  2.89E-09,  avg # of iterations =  8.9

     negative rho (up, down):  7.863E-06 0.000E+00

     total cpu time spent up to now is       24.2 secs

     total energy              =     -35.63626528 Ry
     estimated scf accuracy    <       0.00000559 Ry

     iteration #  8     ecut=    70.00 Ry     beta= 0.50
     Davidson diagonalization with overlap

---- Real-time Memory Report at c_bands before calling an iterative solver
           216 MiB given to the printing process from OS
             0 MiB allocation reported by mallinfo(arena+hblkhd)
          1418 MiB available memory on the node where the printing process lives
------------------
     ethr =  2.89E-09,  avg # of iterations =  2.0

     negative rho (up, down):  1.323E-05 0.000E+00

     total cpu time spent up to now is       25.7 secs

     total energy              =     -35.63626370 Ry
     estimated scf accuracy    <       0.00000319 Ry

     iteration #  9     ecut=    70.00 Ry     beta= 0.50
     Davidson diagonalization with overlap

---- Real-time Memory Report at c_bands before calling an iterative solver
           217 MiB given to the printing process from OS
             0 MiB allocation reported by mallinfo(arena+hblkhd)
          1448 MiB available memory on the node where the printing process lives
------------------
     ethr =  2.89E-09,  avg # of iterations =  4.2

     negative rho (up, down):  1.299E-05 0.000E+00

     total cpu time spent up to now is       27.8 secs

     End of self-consistent calculation

          k = 0.0000 0.0000 0.0000 (  5163 PWs)   bands (ev):

   -21.4127  -9.7223  -4.9411  -4.9411   1.4035   2.4495   2.8436   4.7355

     occupation numbers 
     1.0000   1.0000   1.0000   1.0000   0.0000   0.0000   0.0000   0.0000

          k = 0.0000 0.0962 0.0000 (  5149 PWs)   bands (ev):

   -21.2475  -9.5221  -5.5824  -5.2877   1.6284   2.6772   3.0742   4.9610

     occupation numbers 
     1.0000   1.0000   1.0000   1.0000   0.0000   0.0000   0.0000   0.0000

          k = 0.0000 0.1925 0.0000 (  5145 PWs)   bands (ev):

   -20.7536  -8.9266  -7.2062  -6.0979   2.3031   3.3586   3.7663   5.6367

     occupation numbers 
     1.0000   1.0000   1.0000   1.0000   0.0000   0.0000   0.0000   0.0000

          k = 0.0000 0.2887 0.0000 (  5157 PWs)   bands (ev):

   -19.9365  -9.2997  -7.9549  -6.9958   3.4252   4.4658   4.9185   5.4606

     occupation numbers 
     1.0000   1.0000   1.0000   1.0000   0.0000   0.0000   0.0000   0.0000

          k = 0.0000 0.3849 0.0000 (  5172 PWs)   bands (ev):

   -18.8073 -11.5084  -7.7433  -6.6567   3.0468   4.9820   6.0689   6.0990

     occupation numbers 
     1.0000   1.0000   1.0000   1.0000   0.0000   0.0000   0.0000   0.0000

          k = 0.0000 0.4811 0.0000 (  5182 PWs)   bands (ev):

   -17.3910 -13.6272  -8.2249  -5.1947   0.8562   5.8350   7.0129   8.0987

     occupation numbers 
     1.0000   1.0000   1.0000   1.0000   0.0000   0.0000   0.0000   0.0000

          k = 0.0000-0.5774 0.0000 (  5192 PWs)   bands (ev):

   -16.0354 -15.2251  -8.3902  -4.3188  -0.2790   5.7678   9.3508   9.4430

     occupation numbers 
     1.0000   1.0000   1.0000   1.0000   0.0000   0.0000   0.0000   0.0000

          k = 0.0833 0.1443 0.0000 (  5148 PWs)   bands (ev):

   -20.9180  -9.1242  -6.6013  -5.9812   2.0784   3.1320   3.5356   5.4124

     occupation numbers 
     1.0000   1.0000   1.0000   1.0000   0.0000   0.0000   0.0000   0.0000

          k = 0.0833 0.2406 0.0000 (  5152 PWs)   bands (ev):

   -20.2625  -8.3394  -8.2999  -6.9978   2.9780   4.0362   4.4586   6.2401

     occupation numbers 
     1.0000   1.0000   1.0000   1.0000   0.0000   0.0000   0.0000   0.0000

          k = 0.0833 0.3368 0.0000 (  5168 PWs)   bands (ev):

   -19.2894 -10.3757  -7.8959  -7.1981   4.0900   4.3221   5.4152   5.8408

     occupation numbers 
     1.0000   1.0000   1.0000   1.0000   0.0000   0.0000   0.0000   0.0000

          k = 0.0833 0.4330 0.0000 (  5176 PWs)   bands (ev):

   -18.0151 -12.5111  -8.5388  -5.7841   1.8376   6.0846   6.6728   7.1876

     occupation numbers 
     1.0000   1.0000   1.0000   1.0000   0.0000   0.0000   0.0000   0.0000

          k = 0.0833 0.5292 0.0000 (  5180 PWs)   bands (ev):

   -16.4967 -14.4914  -8.8713  -4.4337   0.0170   6.4942   8.3139   9.3240

     occupation numbers 
     1.0000   1.0000   1.0000   1.0000   0.0000   0.0000   0.0000   0.0000

          k = 0.1667 0.2887 0.0000 (  5152 PWs)   bands (ev):

   -19.4511  -9.6058  -8.3916  -7.3813   4.1008   4.5654   5.1576   5.6128

     occupation numbers 
     1.0000   1.0000   1.0000   1.0000   0.0000   0.0000   0.0000   0.0000

          k = 0.1667 0.3849 0.0000 (  5165 PWs)   bands (ev):

   -18.3325 -11.3402  -9.4540  -6.0987   2.5819   5.6619   6.6945   7.2262

     occupation numbers 
     1.0000   1.0000   1.0000   1.0000   0.0000   0.0000   0.0000   0.0000

          k = 0.1667 0.4811 0.0000 (  5170 PWs)   bands (ev):

   -16.9362 -13.2795 -10.0243  -4.6342   0.6242   7.6331   8.3765   8.5202

     occupation numbers 
     1.0000   1.0000   1.0000   1.0000   0.0000   0.0000   0.0000   0.0000

          k = 0.1667 0.5774 0.0000 (  5200 PWs)   bands (ev):

   -15.6196 -14.7993 -10.2075  -3.7111  -0.4778   8.2841   9.6587   9.9024

     occupation numbers 
     1.0000   1.0000   1.0000   1.0000   0.0000   0.0000   0.0000   0.0000

          k = 0.2500 0.4330 0.0000 (  5174 PWs)   bands (ev):

   -17.0891 -12.3376 -10.9883  -4.7234   0.9459   7.4207   8.1944   9.0664

     occupation numbers 
     1.0000   1.0000   1.0000   1.0000   0.0000   0.0000   0.0000   0.0000

          k = 0.2500 0.5292 0.0000 (  5188 PWs)   bands (ev):

   -15.6318 -13.7988 -11.6905  -3.3008  -0.6048   8.8298   9.5183  10.5028

     occupation numbers 
     1.0000   1.0000   1.0000   1.0000   0.0000   0.0000   0.0000   0.0000

          k = 0.3333 0.5774 0.0000 (  5220 PWs)   bands (ev):

   -14.3777 -14.3777 -12.6855  -1.9178  -1.9178   8.4936  11.1115  11.1122

     occupation numbers 
     1.0000   1.0000   1.0000   0.5000   0.5000   0.0000   0.0000   0.0000

     the Fermi energy is    -1.9178 ev

!    total energy              =     -35.63626439 Ry
     total all-electron energy =      -151.245435 Ry
     estimated scf accuracy    <          6.9E-10 Ry
     smearing contrib. (-TS)   =      -0.00003134 Ry
     internal energy E=F+TS    =     -35.63623305 Ry

     The total energy is F=E-TS. E is the sum of the following terms:
     one-electron contribution =    -158.66179459 Ry
     hartree contribution      =      80.93813584 Ry
     xc contribution           =      -8.28299911 Ry
     ewald contribution        =      62.46262411 Ry
     one-center paw contrib.   =     -12.09219930 Ry
      -> PAW hartree energy AE =      22.80205734 Ry
      -> PAW hartree energy PS =     -22.77501671 Ry
      -> PAW xc energy AE      =     -20.84513842 Ry
      -> PAW xc energy PS      =       8.72589850 Ry
      -> total E_H with PAW    =      80.96517647 Ry
      -> total E_XC with PAW   =     -20.40223903 Ry

     convergence has been achieved in   9 iterations

     negative rho (up, down):  1.299E-05 0.000E+00

     Forces acting on atoms (cartesian axes, Ry/au):

     atom    1 type  1   force =     0.00000000    0.00000000    0.00000000
     atom    2 type  1   force =     0.00000000   -0.00000000    0.00000000
     The non-local contrib.  to forces
     atom    1 type  1   force =     0.00000000   -0.00000000    0.00000000
     atom    2 type  1   force =     0.00000000    0.00000000   -0.00000000
     The ionic contribution  to forces
     atom    1 type  1   force =    -0.00000000    0.00000053   -0.00000000
     atom    2 type  1   force =     0.00000000   -0.00000053    0.00000000
     The local contribution  to forces
     atom    1 type  1   force =    -0.00000000    0.00000000   -0.00000000
     atom    2 type  1   force =     0.00000000   -0.00000038    0.00000000
     The core correction contribution to forces
     atom    1 type  1   force =     0.00000000    0.00000000    0.00000000
     atom    2 type  1   force =    -0.00000000    0.00000001   -0.00000000
     The Hubbard contrib.    to forces
     atom    1 type  1   force =     0.00000000    0.00000000    0.00000000
     atom    2 type  1   force =     0.00000000    0.00000000    0.00000000
     The SCF correction term to forces
     atom    1 type  1   force =     0.00000000    0.00000000   -0.00000000
     atom    2 type  1   force =    -0.00000000   -0.00000000    0.00000000

     Total force =     0.000000     Total SCF correction =     0.000000


     Computing stress (Cartesian axis) and pressure


     negative rho (up, down):  1.299E-05 0.000E+00
          total   stress  (Ry/bohr**3)                   (kbar)     P=       -0.09
  -0.00000040   0.00000000   0.00000000           -0.06        0.00        0.00
   0.00000000  -0.00000040  -0.00000000            0.00       -0.06       -0.00
   0.00000000  -0.00000000  -0.00000097            0.00       -0.00       -0.14

     kinetic stress (kbar)   2601.93     -0.00      0.00
                               -0.00   2601.93      0.00
                                0.00      0.00   2948.12

     local   stress (kbar) -48625.21      0.00     -0.00
                                0.00 -48625.21      0.00
                               -0.00      0.00  47976.30

     nonloc. stress (kbar)    961.23     -0.00      0.00
                               -0.00    961.23      0.00
                               -0.00      0.00    867.24

     hartree stress (kbar)  22553.15      0.00      0.00
                                0.00  22553.15      0.00
                                0.00      0.00 -22325.57

     exc-cor stress (kbar)   -300.93      0.00      0.00
                                0.00   -300.93      0.00
                                0.00      0.00   -300.93

     corecor stress (kbar)   -378.34     -0.00      0.00
                               -0.00   -378.34     -0.00
                                0.00     -0.00   -369.74

     ewald   stress (kbar)  23188.11     -0.00      0.00
                               -0.00  23188.11     -0.00
                                0.00     -0.00 -28795.57

     hubbard stress (kbar)      0.00      0.00      0.00
                                0.00      0.00      0.00
                                0.00      0.00      0.00

     DFT-D   stress (kbar)      0.00      0.00      0.00
                                0.00      0.00      0.00
                                0.00      0.00      0.00

     XDM     stress (kbar)      0.00      0.00      0.00
                                0.00      0.00      0.00
                                0.00      0.00      0.00

     dft-nl  stress (kbar)      0.00      0.00      0.00
                                0.00      0.00      0.00
                                0.00      0.00      0.00

     TS-vdW  stress (kbar)      0.00      0.00      0.00
                                0.00      0.00      0.00
                                0.00      0.00      0.00

     MDB     stress (kbar)      0.00      0.00      0.00
                                0.00      0.00      0.00
                                0.00      0.00      0.00

     3D-RISM stress (kbar)      0.00      0.00      0.00
                                0.00      0.00      0.00
                                0.00      0.00      0.00


     Writing all to output data dir ./tmp/graphene.save/ :
     XML data file, charge density, pseudopotentials, collected wavefunctions

     init_run     :      1.77s CPU      1.87s WALL (       1 calls)
     electrons    :     25.05s CPU     25.71s WALL (       1 calls)
     forces       :      0.30s CPU      0.34s WALL (       1 calls)
     stress       :      1.06s CPU      1.16s WALL (       1 calls)

     Called by init_run:
     wfcinit      :      0.62s CPU      0.63s WALL (       1 calls)
     wfcinit:wfcr :      0.58s CPU      0.59s WALL (      19 calls)
     potinit      :      0.39s CPU      0.41s WALL (       1 calls)
     hinit0       :      0.63s CPU      0.65s WALL (       1 calls)

     Called by electrons:
     c_bands      :     21.29s CPU     21.35s WALL (       9 calls)
     sum_band     :      2.45s CPU      2.76s WALL (       9 calls)
     v_of_rho     :      0.23s CPU      0.25s WALL (      10 calls)
     v_h          :      0.08s CPU      0.08s WALL (      10 calls)
     v_xc         :      0.19s CPU      0.20s WALL (      12 calls)
     newd         :      0.88s CPU      1.18s WALL (      10 calls)
     PAW_pot      :      0.08s CPU      0.09s WALL (      10 calls)
     mix_rho      :      0.12s CPU      0.13s WALL (       9 calls)

     Called by c_bands:
     init_us_2    :      0.23s CPU      0.23s WALL (     399 calls)
     cegterg      :     21.01s CPU     21.07s WALL (     171 calls)

     Called by sum_band:
     sum_band:wei :      0.00s CPU      0.00s WALL (       9 calls)
     sum_band:loo :      1.51s CPU      1.52s WALL (       9 calls)
     sum_band:buf :      0.01s CPU      0.01s WALL (     171 calls)
     sum_band:ini :      0.10s CPU      0.10s WALL (     171 calls)
     sum_band:cal :      0.16s CPU      0.16s WALL (     171 calls)
     sum_band:bec :      0.00s CPU      0.00s WALL (     171 calls)
     addusdens    :      0.79s CPU      1.10s WALL (       9 calls)
                                        0.00s GPU  (       9 calls)
     addusd:skk   :      0.01s CPU      0.01s WALL (       9 calls)
                                        0.00s GPU  (       9 calls)

     Called by *egterg:
     cdiaghg      :      0.10s CPU      0.11s WALL (    1420 calls)
     cegterg:over :      1.21s CPU      1.21s WALL (    1249 calls)
     cegterg:upda :      0.78s CPU      0.78s WALL (    1249 calls)
     cegterg:last :      2.03s CPU      2.04s WALL (     801 calls)
     h_psi        :     16.20s CPU     16.25s WALL (    1439 calls)
     s_psi        :      0.86s CPU      0.86s WALL (    1439 calls)
     g_psi        :      0.08s CPU      0.08s WALL (    1249 calls)

     Called by h_psi:
     h_psi:calbec :      0.91s CPU      0.92s WALL (    1439 calls)
     vloc_psi     :     14.37s CPU     14.41s WALL (    1439 calls)
     add_vuspsi   :      0.87s CPU      0.87s WALL (    1439 calls)

     General routines
     calbec       :      1.36s CPU      1.37s WALL (    1933 calls)
     fft          :      0.78s CPU      0.79s WALL (      66 calls)
     ffts         :      0.34s CPU      0.34s WALL (      19 calls)
     fftw         :     12.22s CPU     12.25s WALL (   15496 calls)
     interpolate  :      0.39s CPU      0.39s WALL (      10 calls)


     PAW routines
     PAW_pot      :      0.08s CPU      0.09s WALL (      10 calls)
     PAW_symme    :      0.00s CPU      0.00s WALL (      19 calls)

     PWSCF        :     28.36s CPU     29.28s WALL


   This run was terminated on:  19:18:40  12Oct2025            

=------------------------------------------------------------------------------=
   JOB DONE.
=------------------------------------------------------------------------------=
