
     Program PWSCF v.7.4.1 starts on  1Oct2025 at 21: 8: 0 

     This program is part of the open-source Quantum ESPRESSO suite
     for quantum simulation of materials; please cite
         "P. Giannozzi et al., J. Phys.:Condens. Matter 21 395502 (2009);
         "P. Giannozzi et al., J. Phys.:Condens. Matter 29 465901 (2017);
         "P. Giannozzi et al., J. Chem. Phys. 152 154105 (2020);
          URL http://www.quantum-espresso.org", 
     in publications or presentations arising from this work. More details at
     http://www.quantum-espresso.org/quote

     Serial version
     12862 MiB available memory on the printing compute node when the environment starts

     Reading input from graphene_scf.in

     Current dimensions of program PWSCF are:
     Max number of different atomic species (ntypx) = 10
     Max number of k-points (npk) =  40000
     Max angular momentum in pseudopotentials (lmaxx) =  4
     file C.pbe-n-kjpaw_psl.1.0.0.UPF: wavefunction(s)  2S 2P renormalized
     Message from routine setup:
     using ibrav=0 with symmetry is DISCOURAGED, use correct ibrav instead


     G-vector sticks info
     --------------------
     sticks:   dense  smooth     PW     G-vecs:    dense   smooth      PW
     Sum        1039     421    121               166325    42211    7091

     Using Slab Decomposition



     bravais-lattice index     =            0
     lattice parameter (alat)  =       4.6540  a.u.
     unit-cell volume          =     531.7080 (a.u.)^3
     number of atoms/cell      =            2
     number of atomic types    =            1
     number of electrons       =         8.00
     number of Kohn-Sham states=            8
     kinetic-energy cutoff     =      70.0000  Ry
     charge density cutoff     =     700.0000  Ry
     scf convergence threshold =      1.0E-08
     mixing beta               =       0.7000
     number of iterations used =            8  plain     mixing
     Exchange-correlation= SLA  PW   PBX  PBC
                           (   1   4   3   4   0   0   0)

     celldm(1)=   4.653998  celldm(2)=   0.000000  celldm(3)=   0.000000
     celldm(4)=   0.000000  celldm(5)=   0.000000  celldm(6)=   0.000000

     crystal axes: (cart. coord. in units of alat)
               a(1) = (   1.000000   0.000000   0.000000 )  
               a(2) = (  -0.500000   0.866025   0.000000 )  
               a(3) = (   0.000000   0.000000   6.090654 )  

     reciprocal axes: (cart. coord. in units 2 pi/alat)
               b(1) = (  1.000000  0.577350 -0.000000 )  
               b(2) = (  0.000000  1.154701  0.000000 )  
               b(3) = (  0.000000 -0.000000  0.164186 )  


     PseudoPot. # 1 for C  read from file:
     ../../../../pseudos/C.pbe-n-kjpaw_psl.1.0.0.UPF
     MD5 check sum: 5d2aebdfa2cae82b50a7e79e9516da0f
     Pseudo is Projector augmented-wave + core cor, Zval =  4.0
     Generated using "atomic" code by A. Dal Corso  v.5.1
     Shape of augmentation charge: PSQ
     Using radial grid of 1073 points,  4 beta functions with: 
                l(1) =   0
                l(2) =   0
                l(3) =   1
                l(4) =   1
     Q(r) pseudized with 0 coefficients 


     atomic species   valence    mass     pseudopotential
     C                 4.00    12.01070     C ( 1.00)

     24 Sym. Ops., with inversion, found (12 have fractional translation)



   Cartesian axes

     site n.     atom                  positions (alat units)
         1        C      tau(   1) = (   0.0000000   0.0000000   0.0000000  )
         2        C      tau(   2) = (   0.0000000   0.5773503   0.0000000  )

     number of k points=    19  Gaussian smearing, width (Ry)=  0.0100
                       cart. coord. in units 2pi/alat
        k(    1) = (   0.0000000   0.0000000   0.0000000), wk =   0.0138889
        k(    2) = (   0.0000000   0.0962250   0.0000000), wk =   0.0833333
        k(    3) = (   0.0000000   0.1924501   0.0000000), wk =   0.0833333
        k(    4) = (   0.0000000   0.2886751   0.0000000), wk =   0.0833333
        k(    5) = (   0.0000000   0.3849002   0.0000000), wk =   0.0833333
        k(    6) = (   0.0000000   0.4811252   0.0000000), wk =   0.0833333
        k(    7) = (   0.0000000  -0.5773503   0.0000000), wk =   0.0416667
        k(    8) = (   0.0833333   0.1443376   0.0000000), wk =   0.0833333
        k(    9) = (   0.0833333   0.2405626   0.0000000), wk =   0.1666667
        k(   10) = (   0.0833333   0.3367877   0.0000000), wk =   0.1666667
        k(   11) = (   0.0833333   0.4330127   0.0000000), wk =   0.1666667
        k(   12) = (   0.0833333   0.5292377   0.0000000), wk =   0.1666667
        k(   13) = (   0.1666667   0.2886751   0.0000000), wk =   0.0833333
        k(   14) = (   0.1666667   0.3849002   0.0000000), wk =   0.1666667
        k(   15) = (   0.1666667   0.4811252   0.0000000), wk =   0.1666667
        k(   16) = (   0.1666667   0.5773503   0.0000000), wk =   0.0833333
        k(   17) = (   0.2500000   0.4330127   0.0000000), wk =   0.0833333
        k(   18) = (   0.2500000   0.5292377   0.0000000), wk =   0.1666667
        k(   19) = (   0.3333333   0.5773503   0.0000000), wk =   0.0277778

     Dense  grid:   166325 G-vectors     FFT dimensions: (  45,  45, 240)

     Smooth grid:    42211 G-vectors     FFT dimensions: (  27,  27, 160)

     Estimated max dynamical RAM per process >     243.21 MB

     Initial potential from superposition of free atoms

     starting charge       7.9999, renormalised to       8.0000

     negative rho (up, down):  2.230E-05 0.000E+00
     Starting wfcs are    8 randomized atomic wfcs

     total cpu time spent up to now is        5.0 secs

     Self-consistent Calculation

     iteration #  1     ecut=    70.00 Ry     beta= 0.70
     Davidson diagonalization with overlap
     ethr =  1.00E-02,  avg # of iterations =  5.4

     negative rho (up, down):  2.325E-05 0.000E+00

     total cpu time spent up to now is       13.1 secs

     total energy              =     -36.86073380 Ry
     estimated scf accuracy    <       0.19352774 Ry

     iteration #  2     ecut=    70.00 Ry     beta= 0.70
     Davidson diagonalization with overlap
     ethr =  2.42E-03,  avg # of iterations =  3.8

     negative rho (up, down):  2.949E-05 0.000E+00

     total cpu time spent up to now is       17.4 secs

     total energy              =     -36.88716866 Ry
     estimated scf accuracy    <       0.00195979 Ry

     iteration #  3     ecut=    70.00 Ry     beta= 0.70
     Davidson diagonalization with overlap
     c_bands:  1 eigenvalues not converged
     ethr =  2.45E-05,  avg # of iterations = 10.3

     negative rho (up, down):  3.485E-05 0.000E+00

     total cpu time spent up to now is       23.7 secs

     total energy              =     -36.88747412 Ry
     estimated scf accuracy    <       0.00015033 Ry

     iteration #  4     ecut=    70.00 Ry     beta= 0.70
     Davidson diagonalization with overlap
     ethr =  1.88E-06,  avg # of iterations =  3.6

     negative rho (up, down):  3.547E-05 0.000E+00

     total cpu time spent up to now is       27.2 secs

     total energy              =     -36.88748668 Ry
     estimated scf accuracy    <       0.00000183 Ry

     iteration #  5     ecut=    70.00 Ry     beta= 0.70
     Davidson diagonalization with overlap
     ethr =  2.29E-08,  avg # of iterations =  2.9

     negative rho (up, down):  3.551E-05 0.000E+00

     total cpu time spent up to now is       30.4 secs

     total energy              =     -36.88748769 Ry
     estimated scf accuracy    <       0.00000006 Ry

     iteration #  6     ecut=    70.00 Ry     beta= 0.70
     Davidson diagonalization with overlap
     ethr =  7.05E-10,  avg # of iterations =  2.6

     negative rho (up, down):  3.552E-05 0.000E+00

     total cpu time spent up to now is       33.5 secs

     End of self-consistent calculation

          k = 0.0000 0.0000 0.0000 (  5283 PWs)   bands (ev):

   -21.2633  -9.3524  -4.7558  -4.7558   1.5223   2.4169   2.8474   4.7451

          k = 0.0000 0.0962 0.0000 (  5251 PWs)   bands (ev):

   -21.0990  -9.1558  -5.4078  -5.0957   1.7458   2.6423   3.0748   4.9690

          k = 0.0000 0.1925 0.0000 (  5237 PWs)   bands (ev):

   -20.6080  -8.5712  -7.0492  -5.8917   2.4165   3.3171   3.7571   5.6374

          k = 0.0000 0.2887 0.0000 (  5251 PWs)   bands (ev):

   -19.7959  -9.1527  -7.6179  -6.7752   3.5321   4.4223   4.8932   5.5805

          k = 0.0000 0.3849 0.0000 (  5255 PWs)   bands (ev):

   -18.6749 -11.3615  -7.5116  -6.3462   3.2230   5.0813   6.0315   6.0513

          k = 0.0000 0.4811 0.0000 (  5270 PWs)   bands (ev):

   -17.2758 -13.4670  -7.9864  -4.9195   1.0810   5.8000   7.0968   8.0217

          k = 0.0000-0.5774 0.0000 (  5280 PWs)   bands (ev):

   -16.0063 -14.9799  -8.1494  -4.0722  -0.0205   5.7215   9.4079   9.5564

          k = 0.0833 0.1443 0.0000 (  5251 PWs)   bands (ev):

   -20.7714  -8.7651  -6.4437  -5.7761   2.1932   3.0926   3.5298   5.4156

          k = 0.0833 0.2406 0.0000 (  5240 PWs)   bands (ev):

   -20.1198  -8.1574  -7.9950  -6.7782   3.0872   3.9891   4.4398   6.2768

          k = 0.0833 0.3368 0.0000 (  5253 PWs)   bands (ev):

   -19.1532 -10.2356  -7.6677  -6.8760   4.2382   4.4236   5.3560   5.8023

          k = 0.0833 0.4330 0.0000 (  5260 PWs)   bands (ev):

   -17.8901 -12.3638  -8.3048  -5.4926   2.0314   6.1764   6.6555   7.1192

          k = 0.0833 0.5292 0.0000 (  5282 PWs)   bands (ev):

   -16.4063 -14.3110  -8.6345  -4.1794   0.2569   6.4610   8.3985   9.2765

          k = 0.1667 0.2887 0.0000 (  5262 PWs)   bands (ev):

   -19.3137  -9.4899  -8.1455  -7.0553   4.2030   4.6974   5.1029   5.5776

          k = 0.1667 0.3849 0.0000 (  5263 PWs)   bands (ev):

   -18.2035 -11.2215  -9.2049  -5.7988   2.7435   5.7561   6.6389   7.1674

          k = 0.1667 0.4811 0.0000 (  5264 PWs)   bands (ev):

   -16.8244 -13.1376  -9.7821  -4.3679   0.8250   7.7202   8.3771   8.5165

          k = 0.1667 0.5774 0.0000 (  5256 PWs)   bands (ev):

   -15.5845 -14.5788  -9.9674  -3.4724  -0.2467   8.2722   9.9727  10.1651

          k = 0.2500 0.4330 0.0000 (  5254 PWs)   bands (ev):

   -16.9725 -12.2575 -10.6940  -4.4522   1.1243   7.5099   8.2248   8.9800

          k = 0.2500 0.5292 0.0000 (  5270 PWs)   bands (ev):

   -15.5462 -13.6834 -11.4031  -3.0623  -0.4006   9.1810   9.6118  10.5394

          k = 0.3333 0.5774 0.0000 (  5268 PWs)   bands (ev):

   -14.3252 -14.3252 -12.3048  -1.7023  -1.7023   8.9198  11.2032  11.2032

     the Fermi energy is    -1.7023 ev

!    total energy              =     -36.88748771 Ry
     total all-electron energy =      -152.415683 Ry
     estimated scf accuracy    <          5.2E-10 Ry
     smearing contrib. (-TS)   =      -0.00015672 Ry
     internal energy E=F+TS    =     -36.88733099 Ry

     The total energy is F=E-TS. E is the sum of the following terms:
     one-electron contribution =    -157.20073967 Ry
     hartree contribution      =      80.22427136 Ry
     xc contribution           =      -9.28001703 Ry
     ewald contribution        =      61.70343446 Ry
     one-center paw contrib.   =     -12.33428011 Ry

     convergence has been achieved in   6 iterations

     negative rho (up, down):  3.552E-05 0.000E+00

     Forces acting on atoms (cartesian axes, Ry/au):

     atom    1 type  1   force =     0.00000000    0.00000000    0.00000000
     atom    2 type  1   force =     0.00000000   -0.00000000    0.00000000

     Total force =     0.000000     Total SCF correction =     0.000000


     Computing stress (Cartesian axis) and pressure


     negative rho (up, down):  3.552E-05 0.000E+00
          total   stress  (Ry/bohr**3)                   (kbar)     P=        3.21
   0.00003352   0.00000000   0.00000000            4.93        0.00        0.00
   0.00000000   0.00003352  -0.00000000            0.00        4.93       -0.00
   0.00000000   0.00000000  -0.00000155            0.00        0.00       -0.23


     Writing all to output data dir ./tmp/graphene.save/ :
     XML data file, charge density, pseudopotentials, collected wavefunctions

     init_run     :      4.14s CPU      4.78s WALL (       1 calls)
     electrons    :     36.92s CPU     28.55s WALL (       1 calls)
     forces       :      0.47s CPU      0.51s WALL (       1 calls)
     stress       :      1.94s CPU      1.89s WALL (       1 calls)

     Called by init_run:
     wfcinit      :      1.92s CPU      1.85s WALL (       1 calls)
     potinit      :      0.88s CPU      0.99s WALL (       1 calls)
     hinit0       :      1.11s CPU      1.57s WALL (       1 calls)

     Called by electrons:
     c_bands      :     30.54s CPU     22.65s WALL (       6 calls)
     sum_band     :      3.61s CPU      2.69s WALL (       6 calls)
     v_of_rho     :      1.51s CPU      1.77s WALL (       7 calls)
     newd         :      0.79s CPU      1.10s WALL (       7 calls)
     PAW_pot      :      0.73s CPU      0.73s WALL (       7 calls)
     mix_rho      :      0.12s CPU      0.12s WALL (       6 calls)

     Called by c_bands:
     init_us_2    :      0.53s CPU      0.38s WALL (     285 calls)
     cegterg      :     29.71s CPU     22.09s WALL (     114 calls)

     Called by *egterg:
     cdiaghg      :      0.21s CPU      0.11s WALL (     658 calls)
     h_psi        :     28.50s CPU     21.88s WALL (     677 calls)
     s_psi        :      0.43s CPU      0.35s WALL (     677 calls)
     g_psi        :      0.13s CPU      0.06s WALL (     544 calls)

     Called by h_psi:
     h_psi:calbec :      0.46s CPU      0.50s WALL (     677 calls)
     vloc_psi     :     26.28s CPU     18.72s WALL (     677 calls)
     add_vuspsi   :      1.65s CPU      2.59s WALL (     677 calls)

     General routines
     calbec       :      0.59s CPU      0.62s WALL (    1114 calls)
     fft          :      1.73s CPU      1.99s WALL (     114 calls)
     ffts         :      0.42s CPU      0.42s WALL (      13 calls)
     fftw         :     19.67s CPU     14.29s WALL (    6996 calls)
     interpolate  :      0.49s CPU      0.49s WALL (       7 calls)


     PWSCF        :     43.70s CPU     35.98s WALL


   This run was terminated on:  21: 8:36   1Oct2025            

=------------------------------------------------------------------------------=
   JOB DONE.
=------------------------------------------------------------------------------=
