
     Program PWSCF v.7.4.1 starts on 12Nov2025 at 22:39:11 

     This program is part of the open-source Quantum ESPRESSO suite
     for quantum simulation of materials; please cite
         "P. Giannozzi et al., J. Phys.:Condens. Matter 21 395502 (2009);
         "P. Giannozzi et al., J. Phys.:Condens. Matter 29 465901 (2017);
         "P. Giannozzi et al., J. Chem. Phys. 152 154105 (2020);
          URL http://www.quantum-espresso.org", 
     in publications or presentations arising from this work. More details at
     http://www.quantum-espresso.org/quote

     Parallel version (MPI), running on     6 processors

     MPI processes distributed on     1 nodes
     5239 MiB available memory on the printing compute node when the environment starts

     Reading input from grap_SOC_nscf.in

     Current dimensions of program PWSCF are:
     Max number of different atomic species (ntypx) = 10
     Max number of k-points (npk) =  40000
     Max angular momentum in pseudopotentials (lmaxx) =  4
     Presently stress not available with electric field and gates

     Message from routine input:
     WARNING: "startingwfc" set to random may spoil restart
     file C.rel-pbe-n-kjpaw_psl.0.1.UPF: wavefunction(s)  2P 2P renormalized

     R & G space division:  proc/nbgrp/npool/nimage =       6
     Subspace diagonalization in iterative solution of the eigenvalue problem:
     a serial algorithm will be used


     Parallelization info
     --------------------
     sticks:   dense  smooth     PW     G-vecs:    dense   smooth      PW
     Min         173      70     23                37063     9404    1815
     Max         175      71     24                37100     9435    1840
     Sum        1045     421    139               222427    56469   10947

     Using Slab Decomposition



     bravais-lattice index     =            0
     lattice parameter (alat)  =       4.6624  a.u.
     unit-cell volume          =     711.5090 (a.u.)^3
     number of atoms/cell      =            2
     number of atomic types    =            1
     number of electrons       =         8.00
     number of Kohn-Sham states=           16
     kinetic-energy cutoff     =      70.0000  Ry
     charge density cutoff     =     700.0000  Ry
     Exchange-correlation= SLA  PW   PBX  PBC
                           (   1   4   3   4   0   0   0)
     Non magnetic calculation with spin-orbit


     celldm(1)=   4.662410  celldm(2)=   0.000000  celldm(3)=   0.000000
     celldm(4)=   0.000000  celldm(5)=   0.000000  celldm(6)=   0.000000

     crystal axes: (cart. coord. in units of alat)
               a(1) = (   1.000000   0.000000  -0.000000 )  
               a(2) = (  -0.500000   0.866025   0.000000 )  
               a(3) = (  -0.000000   0.000000   8.106221 )  

     reciprocal axes: (cart. coord. in units 2 pi/alat)
               b(1) = (  1.000000  0.577350  0.000000 )  
               b(2) = ( -0.000000  1.154701 -0.000000 )  
               b(3) = (  0.000000  0.000000  0.123362 )  


     PseudoPot. # 1 for C  read from file:
     ../../../pseudos/C.rel-pbe-n-kjpaw_psl.0.1.UPF
     MD5 check sum: 5ef0b8f55ac4be3c3db5d31256eeff6b
     Pseudo is Projector augmented-wave + core cor, Zval =  4.0
     Generated using &quot;atomic&quot; code by A. Dal Corso  v.6.3
     Shape of augmentation charge: BESSEL
     Using radial grid of 1073 points,  6 beta functions with: 
                l(1) =   0
                l(2) =   0
                l(3) =   1
                l(4) =   1
                l(5) =   1
                l(6) =   1
     Q(r) pseudized with 0 coefficients 


     atomic species   valence    mass     pseudopotential
     C                 4.00    12.01100     C ( 1.00)

     No symmetry found



   Cartesian axes

     site n.     atom                  positions (alat units)
         1        C      tau(   1) = (   0.0000000   0.0000000   4.0531104  )
         2        C      tau(   2) = (   0.0000000   0.5773503   4.0531104  )

     number of k points= 11252  Gaussian smearing, width (Ry)=  0.0020

     Number of k-points >= 100: set verbosity='high' to print them.

     Dense  grid:   222427 G-vectors     FFT dimensions: (  40,  40, 320)

     Smooth grid:    56469 G-vectors     FFT dimensions: (  25,  25, 216)

     Estimated max dynamical RAM per process >      90.75 MB

     Estimated total dynamical RAM >     544.51 MB

     Atomic positions and unit cell read from directory:
     ./tmp/graphene.save/


     The potential is recalculated from file :
     ./tmp/graphene.save/charge-density


     negative rho (up, down):  1.080E-05 0.000E+00

     Adding external electric field

     Computed dipole along edir(3) : 
        Dipole                0.0115 Ry au,          0.0292 Debye
        Dipole field          0.0002 Ry au, 

        E field amplitude [Ha a.u.]:  1.9447E-03
        Potential amp.        0.1251 Ry
        Total length         35.9048 bohr

     Starting wfcs are random
     Checking if some PAW data can be deallocated... 

     Band Structure Calculation
     Davidson diagonalization with overlap

     ethr =  1.25E-10,  avg # of iterations = 32.9

     total cpu time spent up to now is    18810.1 secs

     End of band structure calculation

     Number of k-points >= 100: set verbosity='high' to print the bands.

     the Fermi energy is  -2.130662 ev
     (compare with:  -2.130521 eV, computed in scf)

     Writing all to output data dir ./tmp/graphene.save/ :
     XML data file, pseudopotentials, collected wavefunctions

     init_run     :      2.39s CPU      2.53s WALL (       1 calls)
     electrons    :  18069.20s CPU  18807.40s WALL (       1 calls)

     Called by init_run:
     wfcinit      :      0.00s CPU      0.00s WALL (       1 calls)
     potinit      :      0.30s CPU      0.33s WALL (       1 calls)
     hinit0       :      0.54s CPU      0.55s WALL (       1 calls)

     Called by electrons:
     c_bands      :  18069.17s CPU  18807.37s WALL (       1 calls)
     v_of_rho     :      0.08s CPU      0.10s WALL (       1 calls)
     newd         :      0.09s CPU      0.14s WALL (       1 calls)
     PAW_pot      :      0.02s CPU      0.02s WALL (       1 calls)

     Called by c_bands:
     init_us_2    :      4.09s CPU      5.37s WALL (   11252 calls)
     cegterg      :  17500.24s CPU  18216.90s WALL (   23281 calls)

     Called by *egterg:
     cdiaghg      :    826.88s CPU    828.09s WALL (  381159 calls)
     h_psi        :  10282.61s CPU  10951.09s WALL (  404440 calls)
     s_psi        :    453.11s CPU    474.40s WALL (  404440 calls)
     g_psi        :     31.52s CPU     31.69s WALL (  369907 calls)

     Called by h_psi:
     h_psi:calbec :    592.35s CPU    607.05s WALL (  404440 calls)
     vloc_psi     :   9154.84s CPU   9797.35s WALL (  404440 calls)
     add_vuspsi   :    470.49s CPU    472.24s WALL (  404440 calls)

     General routines
     calbec       :    591.17s CPU    605.95s WALL (  404440 calls)
     fft          :      0.37s CPU      0.38s WALL (      19 calls)
     ffts         :      0.17s CPU      0.17s WALL (       4 calls)
     fftw         :   3020.11s CPU   3469.39s WALL (16223552 calls)
     interpolate  :      0.18s CPU      0.18s WALL (       4 calls)
     davcio       :      3.83s CPU     18.07s WALL (   22504 calls)

     Parallel routines

     PWSCF        :      5h 1m CPU      5h17m WALL


   This run was terminated on:   3:56:56  13Nov2025            

=------------------------------------------------------------------------------=
   JOB DONE.
=------------------------------------------------------------------------------=
