
     Program PWSCF v.7.4.1 starts on 15Oct2025 at 15:55:22 

     This program is part of the open-source Quantum ESPRESSO suite
     for quantum simulation of materials; please cite
         "P. Giannozzi et al., J. Phys.:Condens. Matter 21 395502 (2009);
         "P. Giannozzi et al., J. Phys.:Condens. Matter 29 465901 (2017);
         "P. Giannozzi et al., J. Chem. Phys. 152 154105 (2020);
          URL http://www.quantum-espresso.org", 
     in publications or presentations arising from this work. More details at
     http://www.quantum-espresso.org/quote

     Serial version
     11672 MiB available memory on the printing compute node when the environment starts

     Reading input from grap_SOC_scf.in

     Current dimensions of program PWSCF are:
     Max number of different atomic species (ntypx) = 10
     Max number of k-points (npk) =  40000
     Max angular momentum in pseudopotentials (lmaxx) =  4
     file C.rel-pbe-n-kjpaw.UPF: wavefunction(s)  2P 2P renormalized


     G-vector sticks info
     --------------------
     sticks:   dense  smooth     PW     G-vecs:    dense   smooth      PW
     Sum        1045     421    139               166859    42343    8205

     Using Slab Decomposition



     bravais-lattice index     =            0
     lattice parameter (alat)  =       4.6624  a.u.
     unit-cell volume          =     533.6317 (a.u.)^3
     number of atoms/cell      =            2
     number of atomic types    =            1
     number of electrons       =         8.00
     number of Kohn-Sham states=           16
     kinetic-energy cutoff     =      70.0000  Ry
     charge density cutoff     =     700.0000  Ry
     scf convergence threshold =      1.0E-08
     mixing beta               =       0.3000
     number of iterations used =            8  plain     mixing
     Exchange-correlation= SLA  PW   PBX  PBC
                           (   1   4   3   4   0   0   0)
     Non magnetic calculation with spin-orbit


     celldm(1)=   4.662410  celldm(2)=   0.000000  celldm(3)=   0.000000
     celldm(4)=   0.000000  celldm(5)=   0.000000  celldm(6)=   0.000000

     crystal axes: (cart. coord. in units of alat)
               a(1) = (   1.000000   0.000000  -0.000000 )  
               a(2) = (  -0.500000   0.866025   0.000000 )  
               a(3) = (  -0.000000   0.000000   6.079666 )  

     reciprocal axes: (cart. coord. in units 2 pi/alat)
               b(1) = (  1.000000  0.577350  0.000000 )  
               b(2) = ( -0.000000  1.154701 -0.000000 )  
               b(3) = (  0.000000  0.000000  0.164483 )  


     PseudoPot. # 1 for C  read from file:
     ../../../pseudos/C.rel-pbe-n-kjpaw.UPF
     MD5 check sum: 8ca7f8d5b29b973b07b5aad864045a33
     Pseudo is Projector augmented-wave + core cor, Zval =  4.0
     Generated using "atomic" code by A. Dal Corso  (Quantum ESPRESSO distribution)
     Shape of augmentation charge: BESSEL
     Using radial grid of 1073 points,  6 beta functions with: 
                l(1) =   0
                l(2) =   0
                l(3) =   1
                l(4) =   1
                l(5) =   1
                l(6) =   1
     Q(r) pseudized with 0 coefficients 


     atomic species   valence    mass     pseudopotential
     C                 4.00    12.01100     C ( 1.00)

     No symmetry found



   Cartesian axes

     site n.     atom                  positions (alat units)
         1        C      tau(   1) = (   0.0000000   0.0000000   0.0000000  )
         2        C      tau(   2) = (   0.0000000   0.5773503   0.0000000  )

     number of k points=    74  Gaussian smearing, width (Ry)=  0.0020
                       cart. coord. in units 2pi/alat
        k(    1) = (   0.0000000   0.0000000   0.0000000), wk =   0.0069444
        k(    2) = (   0.0000000   0.0962250   0.0000000), wk =   0.0138889
        k(    3) = (   0.0000000   0.1924501   0.0000000), wk =   0.0138889
        k(    4) = (   0.0000000   0.2886751   0.0000000), wk =   0.0138889
        k(    5) = (   0.0000000   0.3849002   0.0000000), wk =   0.0138889
        k(    6) = (   0.0000000   0.4811252   0.0000000), wk =   0.0138889
        k(    7) = (   0.0000000  -0.5773503   0.0000000), wk =   0.0069444
        k(    8) = (   0.0833333   0.0481125   0.0000000), wk =   0.0138889
        k(    9) = (   0.0833333   0.1443376   0.0000000), wk =   0.0138889
        k(   10) = (   0.0833333   0.2405626   0.0000000), wk =   0.0138889
        k(   11) = (   0.0833333   0.3367877   0.0000000), wk =   0.0138889
        k(   12) = (   0.0833333   0.4330127   0.0000000), wk =   0.0138889
        k(   13) = (   0.0833333   0.5292377   0.0000000), wk =   0.0138889
        k(   14) = (   0.0833333  -0.5292377   0.0000000), wk =   0.0138889
        k(   15) = (   0.0833333  -0.4330127   0.0000000), wk =   0.0138889
        k(   16) = (   0.0833333  -0.3367877   0.0000000), wk =   0.0138889
        k(   17) = (   0.0833333  -0.2405626   0.0000000), wk =   0.0138889
        k(   18) = (   0.0833333  -0.1443376   0.0000000), wk =   0.0138889
        k(   19) = (   0.0833333  -0.0481125   0.0000000), wk =   0.0138889
        k(   20) = (   0.1666667   0.0962250   0.0000000), wk =   0.0138889
        k(   21) = (   0.1666667   0.1924501   0.0000000), wk =   0.0138889
        k(   22) = (   0.1666667   0.2886751   0.0000000), wk =   0.0138889
        k(   23) = (   0.1666667   0.3849002   0.0000000), wk =   0.0138889
        k(   24) = (   0.1666667   0.4811252   0.0000000), wk =   0.0138889
        k(   25) = (   0.1666667   0.5773503   0.0000000), wk =   0.0138889
        k(   26) = (   0.1666667  -0.4811252   0.0000000), wk =   0.0138889
        k(   27) = (   0.1666667  -0.3849002   0.0000000), wk =   0.0138889
        k(   28) = (   0.1666667  -0.2886751   0.0000000), wk =   0.0138889
        k(   29) = (   0.1666667  -0.1924501   0.0000000), wk =   0.0138889
        k(   30) = (   0.1666667  -0.0962250   0.0000000), wk =   0.0138889
        k(   31) = (   0.1666667  -0.0000000   0.0000000), wk =   0.0138889
        k(   32) = (   0.2500000   0.1443376   0.0000000), wk =   0.0138889
        k(   33) = (   0.2500000   0.2405626   0.0000000), wk =   0.0138889
        k(   34) = (   0.2500000   0.3367877   0.0000000), wk =   0.0138889
        k(   35) = (   0.2500000   0.4330127   0.0000000), wk =   0.0138889
        k(   36) = (   0.2500000   0.5292377   0.0000000), wk =   0.0138889
        k(   37) = (   0.2500000   0.6254628   0.0000000), wk =   0.0138889
        k(   38) = (   0.2500000  -0.4330127   0.0000000), wk =   0.0138889
        k(   39) = (   0.2500000  -0.3367877   0.0000000), wk =   0.0138889
        k(   40) = (   0.2500000  -0.2405626   0.0000000), wk =   0.0138889
        k(   41) = (   0.2500000  -0.1443376   0.0000000), wk =   0.0138889
        k(   42) = (   0.2500000  -0.0481125   0.0000000), wk =   0.0138889
        k(   43) = (   0.2500000   0.0481125   0.0000000), wk =   0.0138889
        k(   44) = (   0.3333333   0.1924501   0.0000000), wk =   0.0138889
        k(   45) = (   0.3333333   0.2886751   0.0000000), wk =   0.0138889
        k(   46) = (   0.3333333   0.3849002   0.0000000), wk =   0.0138889
        k(   47) = (   0.3333333   0.4811252   0.0000000), wk =   0.0138889
        k(   48) = (   0.3333333   0.5773503   0.0000000), wk =   0.0138889
        k(   49) = (   0.3333333   0.6735753   0.0000000), wk =   0.0138889
        k(   50) = (   0.3333333  -0.3849002   0.0000000), wk =   0.0138889
        k(   51) = (   0.3333333  -0.2886751   0.0000000), wk =   0.0138889
        k(   52) = (   0.3333333  -0.1924501   0.0000000), wk =   0.0138889
        k(   53) = (   0.3333333  -0.0962250   0.0000000), wk =   0.0138889
        k(   54) = (   0.3333333   0.0000000   0.0000000), wk =   0.0138889
        k(   55) = (   0.3333333   0.0962250   0.0000000), wk =   0.0138889
        k(   56) = (   0.4166667   0.2405626   0.0000000), wk =   0.0138889
        k(   57) = (   0.4166667   0.3367877   0.0000000), wk =   0.0138889
        k(   58) = (   0.4166667   0.4330127   0.0000000), wk =   0.0138889
        k(   59) = (   0.4166667   0.5292377   0.0000000), wk =   0.0138889
        k(   60) = (   0.4166667   0.6254628   0.0000000), wk =   0.0138889
        k(   61) = (   0.4166667   0.7216878   0.0000000), wk =   0.0138889
        k(   62) = (   0.4166667  -0.3367877   0.0000000), wk =   0.0138889
        k(   63) = (   0.4166667  -0.2405626   0.0000000), wk =   0.0138889
        k(   64) = (   0.4166667  -0.1443376   0.0000000), wk =   0.0138889
        k(   65) = (   0.4166667  -0.0481125   0.0000000), wk =   0.0138889
        k(   66) = (   0.4166667   0.0481125   0.0000000), wk =   0.0138889
        k(   67) = (   0.4166667   0.1443376   0.0000000), wk =   0.0138889
        k(   68) = (  -0.5000000  -0.2886751   0.0000000), wk =   0.0069444
        k(   69) = (  -0.5000000  -0.1924501   0.0000000), wk =   0.0138889
        k(   70) = (  -0.5000000  -0.0962250   0.0000000), wk =   0.0138889
        k(   71) = (  -0.5000000   0.0000000   0.0000000), wk =   0.0138889
        k(   72) = (  -0.5000000   0.0962250   0.0000000), wk =   0.0138889
        k(   73) = (  -0.5000000   0.1924501   0.0000000), wk =   0.0138889
        k(   74) = (  -0.5000000  -0.8660254   0.0000000), wk =   0.0069444

     Dense  grid:   166859 G-vectors     FFT dimensions: (  40,  40, 240)

     Smooth grid:    42343 G-vectors     FFT dimensions: (  25,  25, 160)

     Estimated max dynamical RAM per process >     798.94 MB

     Initial potential from superposition of free atoms

     starting charge       7.9999, renormalised to       8.0000

     negative rho (up, down):  2.781E-05 0.000E+00
     Starting wfcs are random

     total cpu time spent up to now is        8.4 secs

     Self-consistent Calculation

     iteration #  1     ecut=    70.00 Ry     beta= 0.30
     Davidson diagonalization with overlap
     ethr =  1.00E-02,  avg # of iterations =  8.8

     negative rho (up, down):  1.280E-05 0.000E+00

     total cpu time spent up to now is       92.4 secs

     total energy              =     -36.90971846 Ry
     estimated scf accuracy    <       0.20213640 Ry

     iteration #  2     ecut=    70.00 Ry     beta= 0.30
     Davidson diagonalization with overlap
     ethr =  2.53E-03,  avg # of iterations =  1.0

     negative rho (up, down):  3.142E-05 0.000E+00

     total cpu time spent up to now is      108.4 secs

     total energy              =     -36.86039047 Ry
     estimated scf accuracy    <       0.08225703 Ry

     iteration #  3     ecut=    70.00 Ry     beta= 0.30
     Davidson diagonalization with overlap
     ethr =  1.03E-03,  avg # of iterations =  5.8

     negative rho (up, down):  1.967E-05 0.000E+00

     total cpu time spent up to now is      137.3 secs

     total energy              =     -36.89662067 Ry
     estimated scf accuracy    <       0.01138443 Ry

     iteration #  4     ecut=    70.00 Ry     beta= 0.30
     Davidson diagonalization with overlap
     ethr =  1.42E-04,  avg # of iterations =  3.0

     negative rho (up, down):  2.475E-05 0.000E+00

     total cpu time spent up to now is      156.4 secs

     total energy              =     -36.88675827 Ry
     estimated scf accuracy    <       0.01690494 Ry

     iteration #  5     ecut=    70.00 Ry     beta= 0.30
     Davidson diagonalization with overlap
     ethr =  1.42E-04,  avg # of iterations =  2.0

     negative rho (up, down):  2.000E-05 0.000E+00

     total cpu time spent up to now is      173.4 secs

     total energy              =     -36.88720592 Ry
     estimated scf accuracy    <       0.00097310 Ry

     iteration #  6     ecut=    70.00 Ry     beta= 0.30
     Davidson diagonalization with overlap
     ethr =  1.22E-05,  avg # of iterations =  5.4

     negative rho (up, down):  9.889E-06 0.000E+00

     total cpu time spent up to now is      210.8 secs

     total energy              =     -36.88874754 Ry
     estimated scf accuracy    <       0.00108809 Ry

     iteration #  7     ecut=    70.00 Ry     beta= 0.30
     Davidson diagonalization with overlap
     ethr =  1.22E-05,  avg # of iterations =  1.8

     negative rho (up, down):  9.218E-06 0.000E+00

     total cpu time spent up to now is      227.8 secs

     total energy              =     -36.88878008 Ry
     estimated scf accuracy    <       0.00006778 Ry

     iteration #  8     ecut=    70.00 Ry     beta= 0.30
     Davidson diagonalization with overlap
     ethr =  8.47E-07,  avg # of iterations =  4.8

     negative rho (up, down):  8.131E-06 0.000E+00

     total cpu time spent up to now is      263.2 secs

     total energy              =     -36.88893975 Ry
     estimated scf accuracy    <       0.00007010 Ry

     iteration #  9     ecut=    70.00 Ry     beta= 0.30
     Davidson diagonalization with overlap
     ethr =  8.47E-07,  avg # of iterations =  1.0

     negative rho (up, down):  9.678E-06 0.000E+00

     total cpu time spent up to now is      279.0 secs

     total energy              =     -36.88890090 Ry
     estimated scf accuracy    <       0.00007828 Ry

     iteration # 10     ecut=    70.00 Ry     beta= 0.30
     Davidson diagonalization with overlap
     ethr =  8.47E-07,  avg # of iterations =  1.0

     negative rho (up, down):  8.247E-06 0.000E+00

     total cpu time spent up to now is      294.9 secs

     total energy              =     -36.88889464 Ry
     estimated scf accuracy    <       0.00001610 Ry

     iteration # 11     ecut=    70.00 Ry     beta= 0.30
     Davidson diagonalization with overlap
     ethr =  2.01E-07,  avg # of iterations =  3.5

     negative rho (up, down):  7.027E-06 0.000E+00

     total cpu time spent up to now is      318.7 secs

     total energy              =     -36.88890340 Ry
     estimated scf accuracy    <       0.00000063 Ry

     iteration # 12     ecut=    70.00 Ry     beta= 0.30
     Davidson diagonalization with overlap
     ethr =  7.86E-09,  avg # of iterations =  3.0

     negative rho (up, down):  6.867E-06 0.000E+00

     total cpu time spent up to now is      336.8 secs

     total energy              =     -36.88890354 Ry
     estimated scf accuracy    <       0.00000004 Ry

     iteration # 13     ecut=    70.00 Ry     beta= 0.30
     Davidson diagonalization with overlap
     ethr =  5.35E-10,  avg # of iterations =  4.2

     negative rho (up, down):  7.075E-06 0.000E+00

     total cpu time spent up to now is      361.4 secs

     End of self-consistent calculation

          k = 0.0000 0.0000 0.0000 (  5307 PWs)   bands (ev):

   -21.2383 -21.2383  -9.3336  -9.3336  -4.7884  -4.7884  -4.7792  -4.7792
     1.5196   1.5196   2.4170   2.4170   2.8597   2.8597   4.7539   4.7539

          k = 0.0000 0.0962 0.0000 (  5285 PWs)   bands (ev):

   -21.0746 -21.0746  -9.1380  -9.1380  -5.4336  -5.4336  -5.1211  -5.1211
     1.7424   1.7424   2.6416   2.6416   3.0863   3.0863   4.9769   4.9769

          k = 0.0000 0.1925 0.0000 (  5253 PWs)   bands (ev):

   -20.5851 -20.5851  -8.5564  -8.5564  -7.0692  -7.0692  -5.9111  -5.9111
     2.4105   2.4105   3.3137   3.3137   3.7662   3.7662   5.6428   5.6428

          k = 0.0000 0.2887 0.0000 (  5269 PWs)   bands (ev):

   -19.7757 -19.7757  -9.1649  -9.1649  -7.6080  -7.6080  -6.7883  -6.7883
     3.5219   3.5219   4.4137   4.4137   4.8981   4.8981   5.5224   5.5224

          k = 0.0000 0.3849 0.0000 (  5285 PWs)   bands (ev):

   -18.6586 -18.6586 -11.3653 -11.3653  -7.5197  -7.5197  -6.3430  -6.3430
     3.1767   3.1767   5.0643   5.0643   5.9623   5.9623   6.0166   6.0166

          k = 0.0000 0.4811 0.0000 (  5290 PWs)   bands (ev):

   -17.2651 -17.2651 -13.4624 -13.4624  -7.9913  -7.9913  -4.9240  -4.9240
     1.0469   1.0469   5.7068   5.7068   7.0722   7.0722   7.9994   7.9994

          k = 0.0000-0.5774 0.0000 (  5288 PWs)   bands (ev):

   -16.0073 -16.0073 -14.9626 -14.9626  -8.1532  -8.1532  -4.0818  -4.0818
    -0.0480  -0.0480   5.6273   5.6273   9.3728   9.3728   9.5237   9.5237

          k = 0.0833 0.0481 0.0000 (  5285 PWs)   bands (ev):

   -21.0746 -21.0746  -9.1380  -9.1380  -5.4336  -5.4336  -5.1211  -5.1211
     1.7424   1.7424   2.6416   2.6416   3.0863   3.0863   4.9769   4.9769

          k = 0.0833 0.1443 0.0000 (  5269 PWs)   bands (ev):

   -20.7480 -20.7480  -8.7493  -8.7493  -6.4662  -6.4662  -5.7965  -5.7965
     2.1880   2.1880   3.0901   3.0901   3.5397   3.5397   5.4220   5.4220

          k = 0.0833 0.2406 0.0000 (  5261 PWs)   bands (ev):

   -20.0986 -20.0986  -8.1739  -8.1739  -7.9831  -7.9831  -6.7920  -6.7920
     3.0786   3.0786   3.9830   3.9830   4.4464   4.4464   6.2635   6.2635

          k = 0.0833 0.3368 0.0000 (  5275 PWs)   bands (ev):

   -19.1351 -19.1351 -10.2442 -10.2442  -7.6761  -7.6761  -6.8699  -6.8699
     4.1863   4.1863   4.4100   4.4100   5.3436   5.3436   5.8038   5.8038

          k = 0.0833 0.4330 0.0000 (  5284 PWs)   bands (ev):

   -17.8766 -17.8766 -12.3641 -12.3641  -8.3094  -8.3094  -5.4939  -5.4939
     1.9913   1.9913   6.1516   6.1516   6.5652   6.5652   7.1003   7.1003

          k = 0.0833 0.5292 0.0000 (  5302 PWs)   bands (ev):

   -16.4005 -16.4005 -14.3016 -14.3016  -8.6371  -8.6371  -4.1882  -4.1882
     0.2273   0.2273   6.3653   6.3653   8.3689   8.3689   9.2477   9.2477

          k = 0.0833-0.5292 0.0000 (  5302 PWs)   bands (ev):

   -16.4005 -16.4005 -14.3016 -14.3016  -8.6371  -8.6371  -4.1882  -4.1882
     0.2273   0.2273   6.3653   6.3653   8.3689   8.3689   9.2477   9.2477

          k = 0.0833-0.4330 0.0000 (  5284 PWs)   bands (ev):

   -17.8766 -17.8766 -12.3641 -12.3641  -8.3094  -8.3094  -5.4939  -5.4939
     1.9913   1.9913   6.1516   6.1516   6.5652   6.5652   7.1003   7.1003

          k = 0.0833-0.3368 0.0000 (  5275 PWs)   bands (ev):

   -19.1351 -19.1351 -10.2442 -10.2442  -7.6761  -7.6761  -6.8699  -6.8699
     4.1863   4.1863   4.4100   4.4100   5.3436   5.3436   5.8038   5.8038

          k = 0.0833-0.2406 0.0000 (  5261 PWs)   bands (ev):

   -20.0986 -20.0986  -8.1739  -8.1739  -7.9831  -7.9831  -6.7920  -6.7920
     3.0786   3.0786   3.9830   3.9830   4.4464   4.4464   6.2635   6.2635

          k = 0.0833-0.1443 0.0000 (  5269 PWs)   bands (ev):

   -20.7480 -20.7480  -8.7493  -8.7493  -6.4662  -6.4662  -5.7965  -5.7965
     2.1880   2.1880   3.0901   3.0901   3.5397   3.5397   5.4220   5.4220

          k = 0.0833-0.0481 0.0000 (  5285 PWs)   bands (ev):

   -21.0746 -21.0746  -9.1380  -9.1380  -5.4336  -5.4336  -5.1211  -5.1211
     1.7424   1.7424   2.6416   2.6416   3.0863   3.0863   4.9769   4.9769

          k = 0.1667 0.0962 0.0000 (  5253 PWs)   bands (ev):

   -20.5851 -20.5851  -8.5564  -8.5564  -7.0692  -7.0692  -5.9111  -5.9111
     2.4105   2.4105   3.3137   3.3137   3.7662   3.7662   5.6428   5.6428

          k = 0.1667 0.1925 0.0000 (  5261 PWs)   bands (ev):

   -20.0986 -20.0986  -8.1739  -8.1739  -7.9831  -7.9831  -6.7920  -6.7920
     3.0786   3.0786   3.9830   3.9830   4.4464   4.4464   6.2635   6.2636

          k = 0.1667 0.2887 0.0000 (  5288 PWs)   bands (ev):

   -19.2951 -19.2951  -9.5034  -9.5034  -8.1507  -8.1507  -7.0482  -7.0482
     4.1902   4.1902   4.6413   4.6413   5.0924   5.0924   5.5801   5.5801

          k = 0.1667 0.3849 0.0000 (  5285 PWs)   bands (ev):

   -18.1887 -18.1887 -11.2284 -11.2284  -9.2051  -9.2051  -5.7984  -5.7984
     2.6981   2.6981   5.7373   5.7373   6.6219   6.6219   7.1641   7.1641

          k = 0.1667 0.4811 0.0000 (  5283 PWs)   bands (ev):

   -16.8151 -16.8151 -13.1359 -13.1359  -9.7804  -9.7804  -4.3754  -4.3754
     0.7906   0.7906   7.6919   7.6919   8.2793   8.2793   8.4897   8.4897

          k = 0.1667 0.5774 0.0000 (  5264 PWs)   bands (ev):

   -15.5860 -15.5860 -14.5652 -14.5652  -9.9651  -9.9651  -3.4851  -3.4851
    -0.2747  -0.2747   8.1722   8.1722   9.8748   9.8748   9.9336   9.9337

          k = 0.1667-0.4811 0.0000 (  5283 PWs)   bands (ev):

   -16.8151 -16.8151 -13.1359 -13.1359  -9.7804  -9.7804  -4.3754  -4.3754
     0.7906   0.7906   7.6919   7.6919   8.2793   8.2793   8.4897   8.4897

          k = 0.1667-0.3849 0.0000 (  5285 PWs)   bands (ev):

   -18.1887 -18.1887 -11.2284 -11.2284  -9.2051  -9.2051  -5.7984  -5.7984
     2.6981   2.6981   5.7373   5.7373   6.6219   6.6219   7.1641   7.1641

          k = 0.1667-0.2887 0.0000 (  5288 PWs)   bands (ev):

   -19.2951 -19.2951  -9.5034  -9.5034  -8.1507  -8.1507  -7.0482  -7.0482
     4.1902   4.1902   4.6413   4.6413   5.0924   5.0924   5.5801   5.5801

          k = 0.1667-0.1925 0.0000 (  5261 PWs)   bands (ev):

   -20.0986 -20.0986  -8.1739  -8.1739  -7.9831  -7.9831  -6.7920  -6.7920
     3.0786   3.0786   3.9830   3.9830   4.4464   4.4464   6.2635   6.2635

          k = 0.1667-0.0962 0.0000 (  5253 PWs)   bands (ev):

   -20.5851 -20.5851  -8.5564  -8.5564  -7.0692  -7.0692  -5.9111  -5.9111
     2.4105   2.4105   3.3137   3.3137   3.7662   3.7662   5.6428   5.6428

          k = 0.1667-0.0000 0.0000 (  5269 PWs)   bands (ev):

   -20.7480 -20.7480  -8.7493  -8.7493  -6.4662  -6.4662  -5.7965  -5.7965
     2.1880   2.1880   3.0901   3.0901   3.5397   3.5397   5.4220   5.4220

          k = 0.2500 0.1443 0.0000 (  5269 PWs)   bands (ev):

   -19.7757 -19.7757  -9.1649  -9.1649  -7.6080  -7.6080  -6.7883  -6.7883
     3.5219   3.5219   4.4137   4.4137   4.8981   4.8981   5.5224   5.5224

          k = 0.2500 0.2406 0.0000 (  5275 PWs)   bands (ev):

   -19.1351 -19.1351 -10.2442 -10.2442  -7.6761  -7.6761  -6.8699  -6.8699
     4.1863   4.1863   4.4100   4.4100   5.3436   5.3436   5.8038   5.8038

          k = 0.2500 0.3368 0.0000 (  5285 PWs)   bands (ev):

   -18.1887 -18.1887 -11.2284 -11.2284  -9.2051  -9.2051  -5.7984  -5.7984
     2.6981   2.6981   5.7373   5.7373   6.6219   6.6219   7.1641   7.1641

          k = 0.2500 0.4330 0.0000 (  5268 PWs)   bands (ev):

   -16.9624 -16.9624 -12.2644 -12.2644 -10.6844 -10.6844  -4.4591  -4.4591
     1.0872   1.0872   7.4840   7.4840   8.1985   8.1985   8.9701   8.9701

          k = 0.2500 0.5292 0.0000 (  5282 PWs)   bands (ev):

   -15.5431 -15.5431 -13.6827 -13.6827 -11.3913 -11.3913  -3.0770  -3.0770
    -0.4293  -0.4293   9.1405   9.1405   9.5747   9.5747  10.4404  10.4404

          k = 0.2500 0.6255 0.0000 (  5282 PWs)   bands (ev):

   -15.5431 -15.5431 -13.6827 -13.6827 -11.3913 -11.3913  -3.0770  -3.0770
    -0.4293  -0.4293   9.1405   9.1405   9.5747   9.5747  10.4404  10.4404

          k = 0.2500-0.4330 0.0000 (  5268 PWs)   bands (ev):

   -16.9624 -16.9624 -12.2644 -12.2644 -10.6844 -10.6844  -4.4591  -4.4591
     1.0872   1.0872   7.4840   7.4840   8.1985   8.1985   8.9701   8.9701

          k = 0.2500-0.3368 0.0000 (  5285 PWs)   bands (ev):

   -18.1887 -18.1887 -11.2284 -11.2284  -9.2051  -9.2051  -5.7984  -5.7984
     2.6981   2.6981   5.7373   5.7373   6.6219   6.6219   7.1641   7.1641

          k = 0.2500-0.2406 0.0000 (  5275 PWs)   bands (ev):

   -19.1351 -19.1351 -10.2442 -10.2442  -7.6761  -7.6761  -6.8699  -6.8699
     4.1863   4.1863   4.4100   4.4100   5.3436   5.3436   5.8038   5.8038

          k = 0.2500-0.1443 0.0000 (  5269 PWs)   bands (ev):

   -19.7757 -19.7757  -9.1649  -9.1649  -7.6080  -7.6080  -6.7883  -6.7883
     3.5219   3.5219   4.4137   4.4137   4.8981   4.8981   5.5224   5.5224

          k = 0.2500-0.0481 0.0000 (  5261 PWs)   bands (ev):

   -20.0986 -20.0986  -8.1739  -8.1739  -7.9831  -7.9831  -6.7920  -6.7920
     3.0786   3.0786   3.9830   3.9830   4.4464   4.4464   6.2635   6.2635

          k = 0.2500 0.0481 0.0000 (  5261 PWs)   bands (ev):

   -20.0986 -20.0986  -8.1739  -8.1739  -7.9831  -7.9831  -6.7920  -6.7920
     3.0786   3.0786   3.9830   3.9830   4.4464   4.4464   6.2635   6.2635

          k = 0.3333 0.1925 0.0000 (  5285 PWs)   bands (ev):

   -18.6586 -18.6586 -11.3653 -11.3653  -7.5197  -7.5197  -6.3430  -6.3430
     3.1767   3.1767   5.0643   5.0643   5.9623   5.9623   6.0166   6.0166

          k = 0.3333 0.2887 0.0000 (  5284 PWs)   bands (ev):

   -17.8766 -17.8766 -12.3641 -12.3641  -8.3094  -8.3094  -5.4939  -5.4939
     1.9913   1.9913   6.1516   6.1516   6.5652   6.5652   7.1003   7.1003

          k = 0.3333 0.3849 0.0000 (  5283 PWs)   bands (ev):

   -16.8151 -16.8151 -13.1359 -13.1359  -9.7804  -9.7804  -4.3754  -4.3754
     0.7906   0.7906   7.6919   7.6919   8.2793   8.2793   8.4897   8.4897

          k = 0.3333 0.4811 0.0000 (  5282 PWs)   bands (ev):

   -15.5431 -15.5431 -13.6827 -13.6827 -11.3913 -11.3913  -3.0770  -3.0770
    -0.4293  -0.4293   9.1405   9.1405   9.5747   9.5747  10.4403  10.4404

          k = 0.3333 0.5774 0.0000 (  5292 PWs)   bands (ev):

   -14.3294 -14.3294 -14.3273 -14.3273 -12.2816 -12.2816  -1.7244  -1.7244
    -1.7244  -1.7244   8.8789   8.8789  11.1356  11.1356  11.1397  11.1397

          k = 0.3333 0.6736 0.0000 (  5282 PWs)   bands (ev):

   -15.5431 -15.5431 -13.6827 -13.6827 -11.3913 -11.3913  -3.0770  -3.0770
    -0.4293  -0.4293   9.1405   9.1405   9.5747   9.5747  10.4404  10.4404

          k = 0.3333-0.3849 0.0000 (  5283 PWs)   bands (ev):

   -16.8151 -16.8151 -13.1359 -13.1359  -9.7804  -9.7804  -4.3754  -4.3754
     0.7906   0.7906   7.6919   7.6919   8.2793   8.2793   8.4897   8.4897

          k = 0.3333-0.2887 0.0000 (  5284 PWs)   bands (ev):

   -17.8766 -17.8766 -12.3641 -12.3641  -8.3094  -8.3094  -5.4939  -5.4939
     1.9913   1.9913   6.1516   6.1516   6.5652   6.5652   7.1003   7.1003

          k = 0.3333-0.1925 0.0000 (  5285 PWs)   bands (ev):

   -18.6586 -18.6586 -11.3653 -11.3653  -7.5197  -7.5197  -6.3430  -6.3430
     3.1767   3.1767   5.0643   5.0643   5.9623   5.9623   6.0166   6.0166

          k = 0.3333-0.0962 0.0000 (  5275 PWs)   bands (ev):

   -19.1351 -19.1351 -10.2442 -10.2442  -7.6761  -7.6761  -6.8699  -6.8699
     4.1863   4.1863   4.4100   4.4100   5.3436   5.3436   5.8038   5.8038

          k = 0.3333 0.0000 0.0000 (  5288 PWs)   bands (ev):

   -19.2951 -19.2951  -9.5034  -9.5034  -8.1507  -8.1507  -7.0482  -7.0482
     4.1902   4.1902   4.6413   4.6413   5.0924   5.0924   5.5801   5.5801

          k = 0.3333 0.0962 0.0000 (  5275 PWs)   bands (ev):

   -19.1351 -19.1351 -10.2442 -10.2442  -7.6761  -7.6761  -6.8699  -6.8699
     4.1863   4.1863   4.4100   4.4100   5.3436   5.3436   5.8038   5.8038

          k = 0.4167 0.2406 0.0000 (  5290 PWs)   bands (ev):

   -17.2651 -17.2651 -13.4624 -13.4624  -7.9913  -7.9913  -4.9240  -4.9240
     1.0468   1.0468   5.7067   5.7067   7.0722   7.0722   7.9994   7.9994

          k = 0.4167 0.3368 0.0000 (  5302 PWs)   bands (ev):

   -16.4005 -16.4005 -14.3016 -14.3016  -8.6371  -8.6371  -4.1882  -4.1882
     0.2272   0.2272   6.3653   6.3653   8.3689   8.3689   9.2477   9.2477

          k = 0.4167 0.4330 0.0000 (  5264 PWs)   bands (ev):

   -15.5860 -15.5860 -14.5652 -14.5652  -9.9651  -9.9651  -3.4851  -3.4851
    -0.2747  -0.2747   8.1722   8.1722   9.8748   9.8748   9.9336   9.9336

          k = 0.4167 0.5292 0.0000 (  5282 PWs)   bands (ev):

   -15.5431 -15.5431 -13.6827 -13.6827 -11.3913 -11.3913  -3.0770  -3.0770
    -0.4293  -0.4293   9.1405   9.1405   9.5747   9.5747  10.4403  10.4403

          k = 0.4167 0.6255 0.0000 (  5282 PWs)   bands (ev):

   -15.5431 -15.5431 -13.6827 -13.6827 -11.3913 -11.3913  -3.0770  -3.0770
    -0.4293  -0.4293   9.1405   9.1405   9.5747   9.5747  10.4404  10.4404

          k = 0.4167 0.7217 0.0000 (  5264 PWs)   bands (ev):

   -15.5860 -15.5860 -14.5652 -14.5652  -9.9651  -9.9651  -3.4851  -3.4851
    -0.2747  -0.2747   8.1722   8.1722   9.8748   9.8748   9.9336   9.9336

          k = 0.4167-0.3368 0.0000 (  5302 PWs)   bands (ev):

   -16.4005 -16.4005 -14.3016 -14.3016  -8.6371  -8.6371  -4.1882  -4.1882
     0.2272   0.2272   6.3653   6.3653   8.3689   8.3689   9.2477   9.2477

          k = 0.4167-0.2406 0.0000 (  5290 PWs)   bands (ev):

   -17.2651 -17.2651 -13.4624 -13.4624  -7.9913  -7.9913  -4.9240  -4.9240
     1.0468   1.0468   5.7068   5.7068   7.0722   7.0722   7.9994   7.9994

          k = 0.4167-0.1443 0.0000 (  5284 PWs)   bands (ev):

   -17.8766 -17.8766 -12.3641 -12.3641  -8.3094  -8.3094  -5.4939  -5.4939
     1.9913   1.9913   6.1516   6.1516   6.5652   6.5652   7.1003   7.1003

          k = 0.4167-0.0481 0.0000 (  5285 PWs)   bands (ev):

   -18.1887 -18.1887 -11.2284 -11.2284  -9.2051  -9.2051  -5.7984  -5.7984
     2.6981   2.6981   5.7373   5.7373   6.6219   6.6219   7.1641   7.1641

          k = 0.4167 0.0481 0.0000 (  5285 PWs)   bands (ev):

   -18.1887 -18.1887 -11.2284 -11.2284  -9.2051  -9.2051  -5.7984  -5.7984
     2.6981   2.6981   5.7373   5.7373   6.6219   6.6219   7.1641   7.1641

          k = 0.4167 0.1443 0.0000 (  5284 PWs)   bands (ev):

   -17.8766 -17.8766 -12.3641 -12.3641  -8.3094  -8.3094  -5.4939  -5.4939
     1.9913   1.9913   6.1516   6.1516   6.5652   6.5652   7.1003   7.1003

          k =-0.5000-0.2887 0.0000 (  5288 PWs)   bands (ev):

   -16.0073 -16.0073 -14.9626 -14.9626  -8.1532  -8.1532  -4.0818  -4.0818
    -0.0480  -0.0480   5.6273   5.6273   9.3728   9.3728   9.5237   9.5237

          k =-0.5000-0.1925 0.0000 (  5302 PWs)   bands (ev):

   -16.4005 -16.4005 -14.3016 -14.3016  -8.6371  -8.6371  -4.1882  -4.1882
     0.2272   0.2272   6.3653   6.3653   8.3689   8.3689   9.2477   9.2477

          k =-0.5000-0.0962 0.0000 (  5283 PWs)   bands (ev):

   -16.8151 -16.8151 -13.1359 -13.1359  -9.7804  -9.7804  -4.3754  -4.3754
     0.7906   0.7906   7.6919   7.6919   8.2793   8.2793   8.4897   8.4897

          k =-0.5000 0.0000 0.0000 (  5268 PWs)   bands (ev):

   -16.9624 -16.9624 -12.2644 -12.2644 -10.6844 -10.6844  -4.4591  -4.4591
     1.0872   1.0872   7.4840   7.4840   8.1985   8.1985   8.9701   8.9701

          k =-0.5000 0.0962 0.0000 (  5283 PWs)   bands (ev):

   -16.8151 -16.8151 -13.1359 -13.1359  -9.7804  -9.7804  -4.3754  -4.3754
     0.7906   0.7906   7.6919   7.6919   8.2793   8.2793   8.4897   8.4897

          k =-0.5000 0.1925 0.0000 (  5302 PWs)   bands (ev):

   -16.4005 -16.4005 -14.3016 -14.3016  -8.6371  -8.6371  -4.1882  -4.1882
     0.2272   0.2272   6.3653   6.3653   8.3689   8.3689   9.2477   9.2477

          k =-0.5000-0.8660 0.0000 (  5288 PWs)   bands (ev):

   -16.0073 -16.0073 -14.9626 -14.9626  -8.1532  -8.1532  -4.0818  -4.0818
    -0.0480  -0.0480   5.6273   5.6273   9.3728   9.3728   9.5237   9.5237

     the Fermi energy is    -1.7244 ev

!    total energy              =     -36.88890362 Ry
     total all-electron energy =      -152.417195 Ry
     estimated scf accuracy    <          6.7E-09 Ry
     smearing contrib. (-TS)   =      -0.00003134 Ry
     internal energy E=F+TS    =     -36.88887228 Ry

     The total energy is F=E-TS. E is the sum of the following terms:
     one-electron contribution =    -156.62368622 Ry
     hartree contribution      =      79.91891282 Ry
     xc contribution           =      -8.28631043 Ry
     ewald contribution        =      61.40972547 Ry
     one-center paw contrib.   =     -13.30751391 Ry

     convergence has been achieved in  13 iterations

     negative rho (up, down):  7.075E-06 0.000E+00

     Forces acting on atoms (cartesian axes, Ry/au):

     atom    1 type  1   force =     0.00000085   -0.00000000    0.00000019
     atom    2 type  1   force =    -0.00000085    0.00000000   -0.00000019

     Total force =     0.000001     Total SCF correction =     0.000009
     SCF correction compared to forces is large: reduce conv_thr to get better values


     Computing stress (Cartesian axis) and pressure


     negative rho (up, down):  7.075E-06 0.000E+00
          total   stress  (Ry/bohr**3)                   (kbar)     P=       -0.80
  -0.00000809   0.00000000   0.00000000           -1.19        0.00        0.00
   0.00000000  -0.00000809  -0.00000000            0.00       -1.19       -0.00
   0.00000000  -0.00000000  -0.00000013            0.00       -0.00       -0.02


     Writing all to output data dir ./tmp/graphene.save/ :
     XML data file, charge density, pseudopotentials, collected wavefunctions

     init_run     :      7.94s CPU      8.13s WALL (       1 calls)
     electrons    :    349.45s CPU    353.04s WALL (       1 calls)
     forces       :      2.50s CPU      2.60s WALL (       1 calls)
     stress       :      8.92s CPU      9.20s WALL (       1 calls)

     Called by init_run:
     wfcinit      :      6.42s CPU      6.47s WALL (       1 calls)
     potinit      :      0.52s CPU      0.55s WALL (       1 calls)
     hinit0       :      0.72s CPU      0.75s WALL (       1 calls)

     Called by electrons:
     c_bands      :    313.56s CPU    314.89s WALL (      13 calls)
     sum_band     :     30.48s CPU     31.71s WALL (      13 calls)
     v_of_rho     :      1.21s CPU      1.23s WALL (      14 calls)
     newd         :      2.91s CPU      3.97s WALL (      14 calls)
     PAW_pot      :      0.77s CPU      0.77s WALL (      14 calls)
     mix_rho      :      0.56s CPU      0.57s WALL (      13 calls)

     Called by c_bands:
     init_us_2    :      1.74s CPU      1.75s WALL (    2146 calls)
     cegterg      :    307.15s CPU    308.45s WALL (     962 calls)

     Called by *egterg:
     cdiaghg      :      4.01s CPU      4.03s WALL (    4325 calls)
     h_psi        :    180.27s CPU    181.02s WALL (    4399 calls)
     s_psi        :     20.04s CPU     20.09s WALL (    4399 calls)
     g_psi        :      0.96s CPU      0.96s WALL (    3363 calls)

     Called by h_psi:
     h_psi:calbec :     19.78s CPU     19.80s WALL (    4399 calls)
     vloc_psi     :    139.53s CPU    139.92s WALL (    4399 calls)
     add_vuspsi   :     20.09s CPU     20.11s WALL (    4399 calls)

     General routines
     calbec       :     33.59s CPU     33.63s WALL (    6619 calls)
     fft          :      1.48s CPU      1.49s WALL (     364 calls)
     ffts         :      0.36s CPU      0.36s WALL (     108 calls)
     fftw         :     88.52s CPU     88.74s WALL (  228172 calls)
     interpolate  :      0.53s CPU      0.53s WALL (      56 calls)


     PWSCF        :   6m 9.03s CPU   6m13.35s WALL


   This run was terminated on:  16: 1:36  15Oct2025            

=------------------------------------------------------------------------------=
   JOB DONE.
=------------------------------------------------------------------------------=
