
     Program PWSCF v.7.4.1 starts on  6Jan2026 at  2:55:46 

     This program is part of the open-source Quantum ESPRESSO suite
     for quantum simulation of materials; please cite
         "P. Giannozzi et al., J. Phys.:Condens. Matter 21 395502 (2009);
         "P. Giannozzi et al., J. Phys.:Condens. Matter 29 465901 (2017);
         "P. Giannozzi et al., J. Chem. Phys. 152 154105 (2020);
          URL http://www.quantum-espresso.org", 
     in publications or presentations arising from this work. More details at
     http://www.quantum-espresso.org/quote

     Parallel version (MPI), running on    20 processors

     MPI processes distributed on     1 nodes
     26238 MiB available memory on the printing compute node when the environment starts
 
     Reading input from 2-agnr_scf.in

     Current dimensions of program PWSCF are:
     Max number of different atomic species (ntypx) = 10
     Max number of k-points (npk) =  40000
     Max angular momentum in pseudopotentials (lmaxx) =  4
     file C.pbe-n-kjpaw_psl.1.0.0.UPF: wavefunction(s)  2S 2P renormalized
     file H.pbe-kjpaw_psl.1.0.0.UPF: wavefunction(s)  1S renormalized
 
     R & G space division:  proc/nbgrp/npool/nimage =      20
     Subspace diagonalization in iterative solution of the eigenvalue problem:
     a serial algorithm will be used

 
     Parallelization info
     --------------------
     sticks:   dense  smooth     PW     G-vecs:    dense   smooth      PW
     Min        1521     609    167               485663   122905   17601
     Max        1522     610    168               485670   122917   17612
     Sum       30437   12181   3341              9713367  2458215  352067
 
     Using Slab Decomposition
 


     bravais-lattice index     =            0
     lattice parameter (alat)  =       8.0993  a.u.
     unit-cell volume          =   31062.2401 (a.u.)^3
     number of atoms/cell      =           12
     number of atomic types    =            2
     number of electrons       =        36.00
     number of Kohn-Sham states=           22
     kinetic-energy cutoff     =      70.0000  Ry
     charge density cutoff     =     700.0000  Ry
     scf convergence threshold =      1.0E-08
     mixing beta               =       0.5000
     number of iterations used =            8  plain     mixing
     Exchange-correlation= SLA  PW   PBX  PBC
                           (   1   4   3   4   0   0   0)

     celldm(1)=   8.099301  celldm(2)=   0.000000  celldm(3)=   0.000000
     celldm(4)=   0.000000  celldm(5)=   0.000000  celldm(6)=   0.000000

     crystal axes: (cart. coord. in units of alat)
               a(1) = (   0.000000   0.000000   1.000000 )  
               a(2) = (   8.328007   0.000000   0.000000 )  
               a(3) = (   0.000000   7.020193   0.000000 )  

     reciprocal axes: (cart. coord. in units 2 pi/alat)
               b(1) = (  0.000000  0.000000  1.000000 )  
               b(2) = (  0.120077  0.000000  0.000000 )  
               b(3) = (  0.000000  0.142446  0.000000 )  


     PseudoPot. # 1 for C  read from file:
     ../../../PP_C/C.pbe-n-kjpaw_psl.1.0.0.UPF
     MD5 check sum: 5f16ad9a65e90284d1d834d4ab3b0f7d
     Pseudo is Projector augmented-wave + core cor, Zval =  4.0
     Generated using &quot;atomic&quot; code by A. Dal Corso  v.6.3
     Shape of augmentation charge: PSQ
     Using radial grid of 1073 points,  4 beta functions with: 
                l(1) =   0
                l(2) =   0
                l(3) =   1
                l(4) =   1
     Q(r) pseudized with 0 coefficients 


     PseudoPot. # 2 for H  read from file:
     ../../../PP_C/H.pbe-kjpaw_psl.1.0.0.UPF
     MD5 check sum: d81a744832360e4a8af0b0b5b123bc2a
     Pseudo is Projector augmented-wave, Zval =  1.0
     Generated using &quot;atomic&quot; code by A. Dal Corso  v.6.3MaX
     Shape of augmentation charge: PSQ
     Using radial grid of  929 points,  2 beta functions with: 
                l(1) =   0
                l(2) =   0
     Q(r) pseudized with 0 coefficients 


     atomic species   valence    mass     pseudopotential
     C                 4.00    12.01100     C ( 1.00)
     H                 1.00     1.00790     H ( 1.00)

     No symmetry found


                                    s                        frac. trans.

      isym =  1     identity                                     

 cryst.   s( 1) = (     1          0          0      )
                  (     0          1          0      )
                  (     0          0          1      )

 cart.    s( 1) = (  1.0000000  0.0000000  0.0000000 )
                  (  0.0000000  1.0000000  0.0000000 )
                  (  0.0000000  0.0000000  1.0000000 )


   Cartesian axes

     site n.     atom                  positions (alat units)
         1        C      tau(   1) = (   4.2956968   3.4997948   0.0000000  )
         2        C      tau(   2) = (   4.5835247   3.4997948   0.1661775  )
         3        C      tau(   3) = (   4.5835247   3.4997948   0.4985326  )
         4        C      tau(   4) = (   4.2956968   3.4997948   0.6647101  )
         5        C      tau(   5) = (   3.7200410   3.4997948   0.0000000  )
         6        C      tau(   6) = (   4.0078689   3.4997948   0.1661775  )
         7        C      tau(   7) = (   4.0078689   3.4997948   0.4985326  )
         8        C      tau(   8) = (   3.7200410   3.4997948   0.6647101  )
         9        H      tau(   9) = (   3.4997948   3.4997948   0.1271592  )
        10        H      tau(  10) = (   3.4997948   3.4997948   0.5375509  )
        11        H      tau(  11) = (   4.8037709   3.4997948   0.0390183  )
        12        H      tau(  12) = (   4.8037709   3.4997948   0.6256918  )

   Crystallographic axes

     site n.     atom                  positions (cryst. coord.)
         1        C      tau(   1) = (  0.0000000  0.5158133  0.4985326  )
         2        C      tau(   2) = (  0.1661775  0.5503747  0.4985326  )
         3        C      tau(   3) = (  0.4985326  0.5503747  0.4985326  )
         4        C      tau(   4) = (  0.6647101  0.5158133  0.4985326  )
         5        C      tau(   5) = (  0.0000000  0.4466904  0.4985326  )
         6        C      tau(   6) = (  0.1661775  0.4812519  0.4985326  )
         7        C      tau(   7) = (  0.4985326  0.4812519  0.4985326  )
         8        C      tau(   8) = (  0.6647101  0.4466904  0.4985326  )
         9        H      tau(   9) = (  0.1271592  0.4202440  0.4985326  )
        10        H      tau(  10) = (  0.5375509  0.4202440  0.4985326  )
        11        H      tau(  11) = (  0.0390183  0.5768212  0.4985326  )
        12        H      tau(  12) = (  0.6256918  0.5768212  0.4985326  )

     number of k points=     7  Gaussian smearing, width (Ry)=  0.0020
                       cart. coord. in units 2pi/alat
        k(    1) = (   0.0000000   0.0000000   0.0000000), wk =   0.1666667
        k(    2) = (   0.0000000   0.0000000   0.0833333), wk =   0.3333333
        k(    3) = (   0.0000000   0.0000000   0.1666667), wk =   0.3333333
        k(    4) = (   0.0000000   0.0000000   0.2500000), wk =   0.3333333
        k(    5) = (   0.0000000   0.0000000   0.3333333), wk =   0.3333333
        k(    6) = (   0.0000000   0.0000000   0.4166667), wk =   0.3333333
        k(    7) = (   0.0000000   0.0000000  -0.5000000), wk =   0.1666667

                       cryst. coord.
        k(    1) = (   0.0000000   0.0000000   0.0000000), wk =   0.1666667
        k(    2) = (   0.0833333   0.0000000   0.0000000), wk =   0.3333333
        k(    3) = (   0.1666667   0.0000000   0.0000000), wk =   0.3333333
        k(    4) = (   0.2500000   0.0000000   0.0000000), wk =   0.3333333
        k(    5) = (   0.3333333   0.0000000   0.0000000), wk =   0.3333333
        k(    6) = (   0.4166667   0.0000000   0.0000000), wk =   0.3333333
        k(    7) = (  -0.5000000   0.0000000   0.0000000), wk =   0.1666667

     Dense  grid:  9713367 G-vectors     FFT dimensions: (  72, 576, 480)

     Smooth grid:  2458215 G-vectors     FFT dimensions: (  45, 360, 320)

     Dynamical RAM for                 wfc:       5.16 MB

     Dynamical RAM for     wfc (w. buffer):      41.25 MB

     Dynamical RAM for           str. fact:      14.82 MB

     Dynamical RAM for           local pot:       0.00 MB

     Dynamical RAM for          nlocal pot:      16.88 MB

     Dynamical RAM for                qrad:       1.21 MB

     Dynamical RAM for          rho,v,vnew:      45.01 MB

     Dynamical RAM for               rhoin:      15.00 MB

     Dynamical RAM for            rho*nmix:     118.57 MB

     Dynamical RAM for           G-vectors:      28.73 MB

     Dynamical RAM for          h,s,v(r/c):       1.42 MB

     Dynamical RAM for          <psi|beta>:       0.02 MB

     Dynamical RAM for                 psi:      41.25 MB

     Dynamical RAM for                hpsi:      41.25 MB

     Dynamical RAM for                spsi:      41.25 MB

     Dynamical RAM for      wfcinit/wfcrot:      10.32 MB

     Dynamical RAM for           addusdens:     377.95 MB

     Dynamical RAM for          addusforce:     485.41 MB

     Dynamical RAM for         addusstress:     370.54 MB

     Estimated static dynamical RAM per process >     223.11 MB

     Estimated max dynamical RAM per process >     827.09 MB

     Estimated total dynamical RAM >      16.15 GB

     Initial potential from superposition of free atoms

     starting charge      35.9996, renormalised to      36.0000

     negative rho (up, down):  7.647E-04 0.000E+00
     Starting wfcs are random
     Checking if some PAW data can be deallocated... 
       PAW data deallocated on    4 nodes for type:  1
       PAW data deallocated on   16 nodes for type:  2

     total cpu time spent up to now is       14.3 secs

     per-process dynamical memory:   249.8 Mb

     Self-consistent Calculation

     iteration #  1     ecut=    70.00 Ry     beta= 0.50
     Davidson diagonalization with overlap

---- Real-time Memory Report at c_bands before calling an iterative solver
           628 MiB given to the printing process from OS
           249 MiB allocation reported by mallinfo(arena+hblkhd)
         20333 MiB available memory on the node where the printing process lives
------------------
     ethr =  1.00E-02,  avg # of iterations = 13.4

     negative rho (up, down):  6.351E-04 0.000E+00

     total cpu time spent up to now is       62.7 secs

     total energy              =    -152.04731710 Ry
     estimated scf accuracy    <       1.23661961 Ry

     iteration #  2     ecut=    70.00 Ry     beta= 0.50
     Davidson diagonalization with overlap

---- Real-time Memory Report at c_bands before calling an iterative solver
           788 MiB given to the printing process from OS
           337 MiB allocation reported by mallinfo(arena+hblkhd)
         17268 MiB available memory on the node where the printing process lives
------------------
     ethr =  3.44E-03,  avg # of iterations =  2.0

     negative rho (up, down):  8.093E-04 0.000E+00

     total cpu time spent up to now is       80.1 secs

     total energy              =    -152.18089085 Ry
     estimated scf accuracy    <       0.08075171 Ry

     iteration #  3     ecut=    70.00 Ry     beta= 0.50
     Davidson diagonalization with overlap

---- Real-time Memory Report at c_bands before calling an iterative solver
           795 MiB given to the printing process from OS
           341 MiB allocation reported by mallinfo(arena+hblkhd)
         17491 MiB available memory on the node where the printing process lives
------------------
     ethr =  2.24E-04,  avg # of iterations =  4.1

     negative rho (up, down):  9.446E-04 0.000E+00

     total cpu time spent up to now is       98.3 secs

     total energy              =    -152.18411510 Ry
     estimated scf accuracy    <       0.00994388 Ry

     iteration #  4     ecut=    70.00 Ry     beta= 0.50
     Davidson diagonalization with overlap

---- Real-time Memory Report at c_bands before calling an iterative solver
           799 MiB given to the printing process from OS
           345 MiB allocation reported by mallinfo(arena+hblkhd)
         17450 MiB available memory on the node where the printing process lives
------------------
     ethr =  2.76E-05,  avg # of iterations =  4.6

     negative rho (up, down):  9.581E-04 0.000E+00

     total cpu time spent up to now is      119.5 secs

     total energy              =    -152.18583447 Ry
     estimated scf accuracy    <       0.00054455 Ry

     iteration #  5     ecut=    70.00 Ry     beta= 0.50
     Davidson diagonalization with overlap

---- Real-time Memory Report at c_bands before calling an iterative solver
           804 MiB given to the printing process from OS
           349 MiB allocation reported by mallinfo(arena+hblkhd)
         17261 MiB available memory on the node where the printing process lives
------------------
     c_bands:  1 eigenvalues not converged
     ethr =  1.51E-06,  avg # of iterations =  6.6

     negative rho (up, down):  9.744E-04 0.000E+00

     total cpu time spent up to now is      141.4 secs

     total energy              =    -152.18593072 Ry
     estimated scf accuracy    <       0.00007968 Ry

     iteration #  6     ecut=    70.00 Ry     beta= 0.50
     Davidson diagonalization with overlap

---- Real-time Memory Report at c_bands before calling an iterative solver
           809 MiB given to the printing process from OS
           352 MiB allocation reported by mallinfo(arena+hblkhd)
         17191 MiB available memory on the node where the printing process lives
------------------
     ethr =  2.21E-07,  avg # of iterations =  3.0

     negative rho (up, down):  9.788E-04 0.000E+00

     total cpu time spent up to now is      159.4 secs

     total energy              =    -152.18593843 Ry
     estimated scf accuracy    <       0.00001103 Ry

     iteration #  7     ecut=    70.00 Ry     beta= 0.50
     Davidson diagonalization with overlap

---- Real-time Memory Report at c_bands before calling an iterative solver
           813 MiB given to the printing process from OS
           356 MiB allocation reported by mallinfo(arena+hblkhd)
         17001 MiB available memory on the node where the printing process lives
------------------
     ethr =  3.06E-08,  avg # of iterations =  2.0

     negative rho (up, down):  9.799E-04 0.000E+00

     total cpu time spent up to now is      177.3 secs

     total energy              =    -152.18594108 Ry
     estimated scf accuracy    <       0.00000202 Ry

     iteration #  8     ecut=    70.00 Ry     beta= 0.50
     Davidson diagonalization with overlap

---- Real-time Memory Report at c_bands before calling an iterative solver
           818 MiB given to the printing process from OS
           360 MiB allocation reported by mallinfo(arena+hblkhd)
         16881 MiB available memory on the node where the printing process lives
------------------
     ethr =  5.62E-09,  avg # of iterations =  2.0

     negative rho (up, down):  9.802E-04 0.000E+00

     total cpu time spent up to now is      193.7 secs

     total energy              =    -152.18594123 Ry
     estimated scf accuracy    <       0.00000053 Ry

     iteration #  9     ecut=    70.00 Ry     beta= 0.50
     Davidson diagonalization with overlap

---- Real-time Memory Report at c_bands before calling an iterative solver
           822 MiB given to the printing process from OS
           364 MiB allocation reported by mallinfo(arena+hblkhd)
         16624 MiB available memory on the node where the printing process lives
------------------
     ethr =  1.47E-09,  avg # of iterations =  2.0

     negative rho (up, down):  9.803E-04 0.000E+00

     total cpu time spent up to now is      211.5 secs

     total energy              =    -152.18594132 Ry
     estimated scf accuracy    <       0.00000002 Ry

     iteration # 10     ecut=    70.00 Ry     beta= 0.50
     Davidson diagonalization with overlap

---- Real-time Memory Report at c_bands before calling an iterative solver
           827 MiB given to the printing process from OS
           368 MiB allocation reported by mallinfo(arena+hblkhd)
         16628 MiB available memory on the node where the printing process lives
------------------
     ethr =  4.30E-11,  avg # of iterations =  3.4

     negative rho (up, down):  9.805E-04 0.000E+00

     total cpu time spent up to now is      231.5 secs

     End of self-consistent calculation

          k = 0.0000 0.0000 0.0000 (307233 PWs)   bands (ev):

   -22.2362 -20.0669 -17.2545 -17.1414 -16.2303 -15.1628 -13.0932 -13.0663
   -12.3885 -10.8558 -10.2906 -10.2885  -9.4451  -7.9446  -7.7341  -7.3325
    -5.0527  -4.8329  -2.5138  -2.4370  -0.4886  -0.4556

     occupation numbers 
     1.0000   1.0000   1.0000   1.0000   1.0000   1.0000   1.0000   1.0000
     1.0000   1.0000   1.0000   1.0000   1.0000   1.0000   1.0000   1.0000
     1.0000   1.0000   0.0000   0.0000   0.0000   0.0000

          k = 0.0000 0.0000 0.0833 (307253 PWs)   bands (ev):

   -22.1959 -20.0289 -17.6281 -17.2606 -15.7127 -15.3628 -13.1037 -12.7904
   -12.5108 -10.8227 -10.2430 -10.1183  -9.5839  -7.9044  -7.7448  -7.4256
    -5.3434  -4.8987  -2.4974  -2.1226  -0.4327  -0.4026

     occupation numbers 
     1.0000   1.0000   1.0000   1.0000   1.0000   1.0000   1.0000   1.0000
     1.0000   1.0000   1.0000   1.0000   1.0000   1.0000   1.0000   1.0000
     1.0000   1.0000   0.0000   0.0000   0.0000   0.0000

          k = 0.0000 0.0000 0.1667 (307121 PWs)   bands (ev):

   -22.0751 -19.9155 -18.3521 -17.3141 -15.7210 -14.9131 -13.3075 -12.5545
   -12.1748 -10.7403 -10.1006  -9.9176  -9.7573  -7.8449  -7.7849  -7.6849
    -5.9726  -5.0935  -2.4304  -1.4261  -0.2676  -0.2425

     occupation numbers 
     1.0000   1.0000   1.0000   1.0000   1.0000   1.0000   1.0000   1.0000
     1.0000   1.0000   1.0000   1.0000   1.0000   1.0000   1.0000   1.0000
     1.0000   1.0000   0.0000   0.0000   0.0000   0.0000

          k = 0.0000 0.0000 0.2500 (307108 PWs)   bands (ev):

   -21.8742 -19.7318 -19.0481 -17.5085 -15.9293 -14.2183 -13.6623 -12.2733
   -11.4563 -10.7528 -10.1934  -9.8644  -9.4125  -8.1328  -8.0618  -7.5891
    -6.6847  -5.4001  -2.2812  -0.6125   0.0003   0.2379

     occupation numbers 
     1.0000   1.0000   1.0000   1.0000   1.0000   1.0000   1.0000   1.0000
     1.0000   1.0000   1.0000   1.0000   1.0000   1.0000   1.0000   1.0000
     1.0000   1.0000   0.0000   0.0000   0.0000   0.0000

          k = 0.0000 0.0000 0.3333 (307272 PWs)   bands (ev):

   -21.5943 -19.7320 -19.4326 -17.8704 -15.8828 -14.3974 -13.2864 -11.7469
   -11.1457 -10.7349 -10.0743  -9.5363  -9.2119  -8.6312  -8.5021  -7.3949
    -7.3110  -5.7822  -2.0349  -0.2778   0.2200   0.3654

     occupation numbers 
     1.0000   1.0000   1.0000   1.0000   1.0000   1.0000   1.0000   1.0000
     1.0000   1.0000   1.0000   1.0000   1.0000   1.0000   1.0000   1.0000
     1.0000   1.0000   0.0000   0.0000   0.0000   0.0000

          k = 0.0000 0.0000 0.4167 (307354 PWs)   bands (ev):

   -21.2367 -20.2920 -19.1241 -18.3048 -15.6489 -14.8638 -12.7108 -11.6487
   -11.0342 -10.1576  -9.7711  -9.2653  -9.2184  -9.1192  -8.9598  -8.0346
    -6.9904  -6.1969  -1.6952  -0.7912   0.8176   1.0190

     occupation numbers 
     1.0000   1.0000   1.0000   1.0000   1.0000   1.0000   1.0000   1.0000
     1.0000   1.0000   1.0000   1.0000   1.0000   1.0000   1.0000   1.0000
     1.0000   1.0000   0.0000   0.0000   0.0000   0.0000

          k = 0.0000 0.0000-0.5000 (307422 PWs)   bands (ev):

   -20.8384 -20.7631 -18.7759 -18.6967 -15.3254 -15.2654 -12.2075 -12.1400
   -10.3136 -10.2485  -9.4708  -9.4195  -9.4082  -9.3613  -8.6451  -8.5871
    -6.6390  -6.5796  -1.3040  -1.2434   1.2681   1.2742

     occupation numbers 
     1.0000   1.0000   1.0000   1.0000   1.0000   1.0000   1.0000   1.0000
     1.0000   1.0000   1.0000   1.0000   1.0000   1.0000   1.0000   1.0000
     1.0000   1.0000   0.0000   0.0000   0.0000   0.0000

     the Fermi energy is    -4.4674 ev

!    total energy              =    -152.18594133 Ry
     total all-electron energy =      -614.298702 Ry
     estimated scf accuracy    <          2.0E-09 Ry
     smearing contrib. (-TS)   =      -0.00000000 Ry
     internal energy E=F+TS    =    -152.18594133 Ry

     The total energy is F=E-TS. E is the sum of the following terms:
     one-electron contribution =   -1075.61050013 Ry
     hartree contribution      =     542.45674168 Ry
     xc contribution           =     -39.71916023 Ry
     ewald contribution        =     470.02195296 Ry
     one-center paw contrib.   =     -49.33497561 Ry
      -> PAW hartree energy AE =       9.29676907 Ry
      -> PAW hartree energy PS =      -9.28816967 Ry
      -> PAW xc energy AE      =     -10.62783277 Ry
      -> PAW xc energy PS      =       4.45241587 Ry
      -> total E_H with PAW    =     542.46534109 Ry
      -> total E_XC with PAW   =     -45.89457713 Ry

     convergence has been achieved in  10 iterations

     negative rho (up, down):  9.805E-04 0.000E+00

     Forces acting on atoms (cartesian axes, Ry/au):

     atom    1 type  1   force =     0.00664650   -0.00000388    0.00196353
     atom    2 type  1   force =    -0.01339544   -0.00000498    0.08896748
     atom    3 type  1   force =    -0.01339593   -0.00000469   -0.08896151
     atom    4 type  1   force =     0.00664808   -0.00000413   -0.00196392
     atom    5 type  1   force =     0.01316917   -0.00000439   -0.10668410
     atom    6 type  1   force =    -0.00643838   -0.00000393   -0.02077618
     atom    7 type  1   force =    -0.00643727   -0.00000381    0.02077955
     atom    8 type  1   force =     0.01316883   -0.00000449    0.10668609
     atom    9 type  2   force =     0.00264061    0.00000863   -0.01204893
     atom   10 type  2   force =     0.00264034    0.00000860    0.01204383
     atom   11 type  2   force =    -0.00262222    0.00000851    0.01082071
     atom   12 type  2   force =    -0.00262430    0.00000857   -0.01082656
     The non-local contrib.  to forces
     atom    1 type  1   force =     0.00216213   -0.00000538   -0.01151522
     atom    2 type  1   force =    -0.02873340   -0.00000238    0.03903933
     atom    3 type  1   force =    -0.02873583   -0.00000374   -0.03903412
     atom    4 type  1   force =     0.00216334   -0.00000040    0.01151499
     atom    5 type  1   force =     0.02864066   -0.00000290   -0.05885163
     atom    6 type  1   force =    -0.00223795   -0.00000169   -0.00806765
     atom    7 type  1   force =    -0.00223766   -0.00000348    0.00806918
     atom    8 type  1   force =     0.02863994   -0.00000277    0.05885335
     atom    9 type  2   force =     0.06712491   -0.00000000   -0.03776674
     atom   10 type  2   force =     0.06712490   -0.00000001    0.03776675
     atom   11 type  2   force =    -0.06709448   -0.00000001    0.03775688
     atom   12 type  2   force =    -0.06709453   -0.00000001   -0.03775689
     The ionic contribution  to forces
     atom    1 type  1   force =     3.07629074    0.00000000   -0.21025109
     atom    2 type  1   force =     9.73244785    0.00000000   -0.96669895
     atom    3 type  1   force =     9.73244785    0.00000000    0.96669895
     atom    4 type  1   force =     3.07629074    0.00000000    0.21025109
     atom    5 type  1   force =    -9.73014656    0.00000000    0.84675018
     atom    6 type  1   force =    -3.07875706   -0.00000000    0.07596659
     atom    7 type  1   force =    -3.07875706   -0.00000000   -0.07596659
     atom    8 type  1   force =    -9.73014656    0.00000000   -0.84675018
     atom    9 type  2   force =    -4.14232513    0.00000000    0.79914838
     atom   10 type  2   force =    -4.14232513    0.00000000   -0.79914838
     atom   11 type  2   force =     4.14249017    0.00000000   -0.81133952
     atom   12 type  2   force =     4.14249017    0.00000000    0.81133952
     The local contribution  to forces
     atom    1 type  1   force =    -3.07168221    0.00000886    0.22320159
     atom    2 type  1   force =    -9.71638114    0.00000268    1.01652429
     atom    3 type  1   force =    -9.71638067    0.00000455   -1.01651852
     atom    4 type  1   force =    -3.07167629    0.00000052   -0.22321125
     atom    5 type  1   force =     9.71395370    0.00000434   -0.89511534
     atom    6 type  1   force =     3.07441153    0.00000269   -0.08878119
     atom    7 type  1   force =     3.07441646    0.00000548    0.08878083
     atom    8 type  1   force =     9.71395557    0.00000432    0.89511444
     atom    9 type  2   force =     4.07783784    0.00000018   -0.77342763
     atom   10 type  2   force =     4.07783711    0.00000013    0.77342729
     atom   11 type  2   force =    -4.07801325   -0.00000014    0.78440292
     atom   12 type  2   force =    -4.07801779    0.00000003   -0.78440523
     The core correction contribution to forces
     atom    1 type  1   force =    -0.00011631   -0.00001334    0.00051506
     atom    2 type  1   force =    -0.00069525   -0.00001413    0.00009463
     atom    3 type  1   force =    -0.00069524   -0.00001405   -0.00008497
     atom    4 type  1   force =    -0.00011624   -0.00001367   -0.00050869
     atom    5 type  1   force =     0.00069133   -0.00001399    0.00053862
     atom    6 type  1   force =     0.00011641   -0.00001344    0.00010468
     atom    7 type  1   force =     0.00011635   -0.00001335   -0.00009514
     atom    8 type  1   force =     0.00069140   -0.00001413   -0.00053183
     atom    9 type  2   force =     0.00000000    0.00000000    0.00000000
     atom   10 type  2   force =     0.00000000    0.00000000    0.00000000
     atom   11 type  2   force =     0.00000000    0.00000000    0.00000000
     atom   12 type  2   force =     0.00000000    0.00000000    0.00000000
     The Hubbard contrib.    to forces
     atom    1 type  1   force =     0.00000000    0.00000000    0.00000000
     atom    2 type  1   force =     0.00000000    0.00000000    0.00000000
     atom    3 type  1   force =     0.00000000    0.00000000    0.00000000
     atom    4 type  1   force =     0.00000000    0.00000000    0.00000000
     atom    5 type  1   force =     0.00000000    0.00000000    0.00000000
     atom    6 type  1   force =     0.00000000    0.00000000    0.00000000
     atom    7 type  1   force =     0.00000000    0.00000000    0.00000000
     atom    8 type  1   force =     0.00000000    0.00000000    0.00000000
     atom    9 type  2   force =     0.00000000    0.00000000    0.00000000
     atom   10 type  2   force =     0.00000000    0.00000000    0.00000000
     atom   11 type  2   force =     0.00000000    0.00000000    0.00000000
     atom   12 type  2   force =     0.00000000    0.00000000    0.00000000
     The SCF correction term to forces
     atom    1 type  1   force =    -0.00000856   -0.00000262    0.00001563
     atom    2 type  1   force =    -0.00003421    0.00000026    0.00001062
     atom    3 type  1   force =    -0.00003274   -0.00000004   -0.00002041
     atom    4 type  1   force =    -0.00001419    0.00000084   -0.00000763
     atom    5 type  1   force =     0.00002932   -0.00000043   -0.00000350
     atom    6 type  1   force =     0.00002798   -0.00000008    0.00000382
     atom    7 type  1   force =     0.00002393   -0.00000105   -0.00000629
     atom    8 type  1   force =     0.00002778   -0.00000050    0.00000275
     atom    9 type  2   force =     0.00000228   -0.00000013   -0.00000051
     atom   10 type  2   force =     0.00000275   -0.00000011    0.00000061
     atom   11 type  2   force =    -0.00000536    0.00000007    0.00000288
     atom   12 type  2   force =    -0.00000285   -0.00000005   -0.00000152

     Total force =     0.202221     Total SCF correction =     0.000080


     Computing stress (Cartesian axis) and pressure


     negative rho (up, down):  9.805E-04 0.000E+00
          total   stress  (Ry/bohr**3)                   (kbar)     P=       -0.65
  -0.00000694  -0.00000000   0.00000000           -1.02       -0.00        0.00
  -0.00000000  -0.00000011   0.00000000           -0.00       -0.02        0.00
   0.00000000   0.00000000  -0.00000626            0.00        0.00       -0.92

     kinetic stress (kbar)    187.71      0.00      0.00
                                0.00    214.00      0.00
                                0.00      0.00    189.62

     local   stress (kbar)   -664.21      0.00      0.00
                                0.00    625.79      0.00
                                0.00      0.00  -5327.74

     nonloc. stress (kbar)     44.12     -0.00     -0.00
                               -0.00     40.47     -0.00
                               -0.00     -0.00     44.21

     hartree stress (kbar)    258.40     -0.00     -0.00
                               -0.00   -235.47     -0.00
                               -0.00     -0.00   2546.05

     exc-cor stress (kbar)     -7.21     -0.00      0.00
                               -0.00     -9.19      0.00
                                0.00      0.00     -7.06

     corecor stress (kbar)    -42.71     -0.00      0.00
                               -0.00    -41.96      0.00
                                0.00      0.00    -42.71

     ewald   stress (kbar)    222.87     -0.00      0.00
                               -0.00   -593.66      0.00
                                0.00      0.00   2596.72

     hubbard stress (kbar)      0.00      0.00      0.00
                                0.00      0.00      0.00
                                0.00      0.00      0.00

     DFT-D   stress (kbar)      0.00      0.00      0.00
                                0.00      0.00      0.00
                                0.00      0.00      0.00

     XDM     stress (kbar)      0.00      0.00      0.00
                                0.00      0.00      0.00
                                0.00      0.00      0.00

     dft-nl  stress (kbar)      0.00      0.00      0.00
                                0.00      0.00      0.00
                                0.00      0.00      0.00

     TS-vdW  stress (kbar)      0.00      0.00      0.00
                                0.00      0.00      0.00
                                0.00      0.00      0.00

     MDB     stress (kbar)      0.00      0.00      0.00
                                0.00      0.00      0.00
                                0.00      0.00      0.00

     3D-RISM stress (kbar)      0.00      0.00      0.00
                                0.00      0.00      0.00
                                0.00      0.00      0.00


     Writing all to output data dir ../tmp/AGNR.save/ :
     XML data file, charge density, pseudopotentials, collected wavefunctions
 
     init_run     :     13.24s CPU     14.10s WALL (       1 calls)
     electrons    :    201.79s CPU    220.36s WALL (       1 calls)
     forces       :      3.96s CPU      4.95s WALL (       1 calls)
     stress       :     12.72s CPU     13.94s WALL (       1 calls)

     Called by init_run:
     wfcinit      :      4.24s CPU      4.32s WALL (       1 calls)
     wfcinit:wfcr :      3.97s CPU      4.04s WALL (       7 calls)
     potinit      :      1.45s CPU      1.70s WALL (       1 calls)
     hinit0       :      0.31s CPU      0.41s WALL (       1 calls)

     Called by electrons:
     c_bands      :    143.31s CPU    146.61s WALL (      10 calls)
     sum_band     :     31.00s CPU     36.80s WALL (      10 calls)
     v_of_rho     :     14.15s CPU     15.80s WALL (      11 calls)
     v_h          :      1.71s CPU      1.98s WALL (      11 calls)
     v_xc         :     14.78s CPU     16.44s WALL (      13 calls)
     newd         :      9.77s CPU     14.85s WALL (      11 calls)
     PAW_pot      :      0.37s CPU      0.38s WALL (      11 calls)
     mix_rho      :      3.12s CPU      3.36s WALL (      10 calls)

     Called by c_bands:
     init_us_2    :      3.83s CPU      3.88s WALL (     161 calls)
     cegterg      :    140.00s CPU    143.23s WALL (      70 calls)

     Called by sum_band:
     sum_band:wei :      0.00s CPU      0.00s WALL (      10 calls)
     sum_band:loo :     19.20s CPU     19.41s WALL (      10 calls)
     sum_band:buf :      0.31s CPU      0.32s WALL (      70 calls)
     sum_band:ini :      1.67s CPU      1.68s WALL (      70 calls)
     sum_band:cal :      0.81s CPU      0.81s WALL (      70 calls)
     sum_band:bec :      0.00s CPU      0.00s WALL (      70 calls)
     addusdens    :      9.41s CPU     14.85s WALL (      10 calls)
                                        0.00s GPU  (      10 calls)
     addusd:skk   :      0.51s CPU      0.81s WALL (      20 calls)
                                        0.00s GPU  (      20 calls)

     Called by *egterg:
     cdiaghg      :      0.65s CPU      0.65s WALL (     372 calls)
     cegterg:over :      5.98s CPU      6.02s WALL (     302 calls)
     cegterg:upda :      5.02s CPU      5.35s WALL (     302 calls)
     cegterg:last :      1.34s CPU      1.35s WALL (      77 calls)
     h_psi        :    123.94s CPU    126.06s WALL (     379 calls)
     s_psi        :      4.01s CPU      4.04s WALL (     379 calls)
     g_psi        :      0.34s CPU      0.34s WALL (     302 calls)

     Called by h_psi:
     h_psi:calbec :      3.36s CPU      3.39s WALL (     379 calls)
     vloc_psi     :    115.62s CPU    117.09s WALL (     379 calls)
     add_vuspsi   :      4.01s CPU      4.04s WALL (     379 calls)

     General routines
     calbec       :      5.46s CPU      5.51s WALL (     568 calls)
     fft          :     15.52s CPU     17.57s WALL (     166 calls)
     ffts         :      0.35s CPU      0.38s WALL (      21 calls)
     fftw         :     64.11s CPU     64.86s WALL (   11904 calls)
     interpolate  :      1.17s CPU      1.31s WALL (      11 calls)
 
     Parallel routines

     PAW routines
     PAW_pot      :      0.37s CPU      0.38s WALL (      11 calls)
 
     PWSCF        :   3m52.77s CPU   4m24.85s WALL

 
   This run was terminated on:   3: 0:11   6Jan2026            

=------------------------------------------------------------------------------=
   JOB DONE.
=------------------------------------------------------------------------------=
