Converted from QE input
1.0
    2.4627897580    0.0000000000    0.0000000000
   -1.2313948790    2.1328384946    0.0000000000
    0.0000000000    0.0000000000   14.7767385480
C
2
Direct
    0.0000000000    0.0000000000    0.0000000000
    0.3333333511    0.6666667022    0.0000000000
