
     Program PWSCF v.7.4.1 starts on 29Oct2025 at 11:33:35 

     This program is part of the open-source Quantum ESPRESSO suite
     for quantum simulation of materials; please cite
         "P. Giannozzi et al., J. Phys.:Condens. Matter 21 395502 (2009);
         "P. Giannozzi et al., J. Phys.:Condens. Matter 29 465901 (2017);
         "P. Giannozzi et al., J. Chem. Phys. 152 154105 (2020);
          URL http://www.quantum-espresso.org", 
     in publications or presentations arising from this work. More details at
     http://www.quantum-espresso.org/quote

     Serial version
     6631 MiB available memory on the printing compute node when the environment starts

     Reading input from grap_SOC_scf.in

     Current dimensions of program PWSCF are:
     Max number of different atomic species (ntypx) = 10
     Max number of k-points (npk) =  40000
     Max angular momentum in pseudopotentials (lmaxx) =  4
     file C.rel-pz-n-kjpaw_psl.0.1.UPF: wavefunction(s)  2P 2P renormalized


     G-vector sticks info
     --------------------
     sticks:   dense  smooth     PW     G-vecs:    dense   smooth      PW
     Sum        1039     421    139               163611    41503    8097

     Using Slab Decomposition



     bravais-lattice index     =            0
     lattice parameter (alat)  =       4.6223  a.u.
     unit-cell volume          =     522.6524 (a.u.)^3
     number of atoms/cell      =            2
     number of atomic types    =            1
     number of electrons       =         8.00
     number of Kohn-Sham states=           16
     kinetic-energy cutoff     =      70.0000  Ry
     charge density cutoff     =     700.0000  Ry
     scf convergence threshold =      1.0E-08
     mixing beta               =       0.1000
     number of iterations used =            8  plain     mixing
     Exchange-correlation= SLA  PZ   NOGX NOGC
                           (   1   1   0   0   0   0   0)
     Non magnetic calculation with spin-orbit


     celldm(1)=   4.622345  celldm(2)=   0.000000  celldm(3)=   0.000000
     celldm(4)=   0.000000  celldm(5)=   0.000000  celldm(6)=   0.000000

     crystal axes: (cart. coord. in units of alat)
               a(1) = (   1.000000  -0.000000   0.000000 )  
               a(2) = (  -0.500000   0.866025   0.000000 )  
               a(3) = (  -0.000000  -0.000000   6.110762 )  

     reciprocal axes: (cart. coord. in units 2 pi/alat)
               b(1) = (  1.000000  0.577350  0.000000 )  
               b(2) = (  0.000000  1.154701  0.000000 )  
               b(3) = ( -0.000000 -0.000000  0.163646 )  


     PseudoPot. # 1 for C  read from file:
     ../../../pseudos/C.rel-pz-n-kjpaw_psl.0.1.UPF
     MD5 check sum: 9b227004301b41f0f491a5e582f66be3
     Pseudo is Projector augmented-wave + core cor, Zval =  4.0
     Generated using "atomic" code by A. Dal Corso  v.5.0.2 svn rev. 9415
     Shape of augmentation charge: BESSEL
     Using radial grid of 1073 points,  6 beta functions with: 
                l(1) =   0
                l(2) =   0
                l(3) =   1
                l(4) =   1
                l(5) =   1
                l(6) =   1
     Q(r) pseudized with 0 coefficients 


     atomic species   valence    mass     pseudopotential
     C                 4.00    12.01100     C ( 1.00)

     No symmetry found



   Cartesian axes

     site n.     atom                  positions (alat units)
         1        C      tau(   1) = (  -0.0000000  -0.0000000  -0.0000000  )
         2        C      tau(   2) = (  -0.0000000   0.5773503   0.0000000  )

     number of k points=    74  Gaussian smearing, width (Ry)=  0.0020
                       cart. coord. in units 2pi/alat
        k(    1) = (   0.0000000   0.0000000   0.0000000), wk =   0.0069444
        k(    2) = (   0.0000000   0.0962250   0.0000000), wk =   0.0138889
        k(    3) = (   0.0000000   0.1924501   0.0000000), wk =   0.0138889
        k(    4) = (   0.0000000   0.2886751   0.0000000), wk =   0.0138889
        k(    5) = (   0.0000000   0.3849002   0.0000000), wk =   0.0138889
        k(    6) = (   0.0000000   0.4811252   0.0000000), wk =   0.0138889
        k(    7) = (   0.0000000  -0.5773503   0.0000000), wk =   0.0069444
        k(    8) = (   0.0833333   0.0481125   0.0000000), wk =   0.0138889
        k(    9) = (   0.0833333   0.1443376   0.0000000), wk =   0.0138889
        k(   10) = (   0.0833333   0.2405626   0.0000000), wk =   0.0138889
        k(   11) = (   0.0833333   0.3367877   0.0000000), wk =   0.0138889
        k(   12) = (   0.0833333   0.4330127   0.0000000), wk =   0.0138889
        k(   13) = (   0.0833333   0.5292377   0.0000000), wk =   0.0138889
        k(   14) = (   0.0833333  -0.5292377   0.0000000), wk =   0.0138889
        k(   15) = (   0.0833333  -0.4330127   0.0000000), wk =   0.0138889
        k(   16) = (   0.0833333  -0.3367877   0.0000000), wk =   0.0138889
        k(   17) = (   0.0833333  -0.2405626   0.0000000), wk =   0.0138889
        k(   18) = (   0.0833333  -0.1443376   0.0000000), wk =   0.0138889
        k(   19) = (   0.0833333  -0.0481125   0.0000000), wk =   0.0138889
        k(   20) = (   0.1666667   0.0962250   0.0000000), wk =   0.0138889
        k(   21) = (   0.1666667   0.1924501   0.0000000), wk =   0.0138889
        k(   22) = (   0.1666667   0.2886751   0.0000000), wk =   0.0138889
        k(   23) = (   0.1666667   0.3849002   0.0000000), wk =   0.0138889
        k(   24) = (   0.1666667   0.4811252   0.0000000), wk =   0.0138889
        k(   25) = (   0.1666667   0.5773503   0.0000000), wk =   0.0138889
        k(   26) = (   0.1666667  -0.4811252   0.0000000), wk =   0.0138889
        k(   27) = (   0.1666667  -0.3849002   0.0000000), wk =   0.0138889
        k(   28) = (   0.1666667  -0.2886751   0.0000000), wk =   0.0138889
        k(   29) = (   0.1666667  -0.1924501   0.0000000), wk =   0.0138889
        k(   30) = (   0.1666667  -0.0962250   0.0000000), wk =   0.0138889
        k(   31) = (   0.1666667  -0.0000000   0.0000000), wk =   0.0138889
        k(   32) = (   0.2500000   0.1443376   0.0000000), wk =   0.0138889
        k(   33) = (   0.2500000   0.2405626   0.0000000), wk =   0.0138889
        k(   34) = (   0.2500000   0.3367877   0.0000000), wk =   0.0138889
        k(   35) = (   0.2500000   0.4330127   0.0000000), wk =   0.0138889
        k(   36) = (   0.2500000   0.5292377   0.0000000), wk =   0.0138889
        k(   37) = (   0.2500000   0.6254628   0.0000000), wk =   0.0138889
        k(   38) = (   0.2500000  -0.4330127   0.0000000), wk =   0.0138889
        k(   39) = (   0.2500000  -0.3367877   0.0000000), wk =   0.0138889
        k(   40) = (   0.2500000  -0.2405626   0.0000000), wk =   0.0138889
        k(   41) = (   0.2500000  -0.1443376   0.0000000), wk =   0.0138889
        k(   42) = (   0.2500000  -0.0481125   0.0000000), wk =   0.0138889
        k(   43) = (   0.2500000   0.0481125   0.0000000), wk =   0.0138889
        k(   44) = (   0.3333333   0.1924501   0.0000000), wk =   0.0138889
        k(   45) = (   0.3333333   0.2886751   0.0000000), wk =   0.0138889
        k(   46) = (   0.3333333   0.3849002   0.0000000), wk =   0.0138889
        k(   47) = (   0.3333333   0.4811252   0.0000000), wk =   0.0138889
        k(   48) = (   0.3333333   0.5773503   0.0000000), wk =   0.0138889
        k(   49) = (   0.3333333   0.6735753   0.0000000), wk =   0.0138889
        k(   50) = (   0.3333333  -0.3849002   0.0000000), wk =   0.0138889
        k(   51) = (   0.3333333  -0.2886751   0.0000000), wk =   0.0138889
        k(   52) = (   0.3333333  -0.1924501   0.0000000), wk =   0.0138889
        k(   53) = (   0.3333333  -0.0962250   0.0000000), wk =   0.0138889
        k(   54) = (   0.3333333  -0.0000000   0.0000000), wk =   0.0138889
        k(   55) = (   0.3333333   0.0962250   0.0000000), wk =   0.0138889
        k(   56) = (   0.4166667   0.2405626   0.0000000), wk =   0.0138889
        k(   57) = (   0.4166667   0.3367877   0.0000000), wk =   0.0138889
        k(   58) = (   0.4166667   0.4330127   0.0000000), wk =   0.0138889
        k(   59) = (   0.4166667   0.5292377   0.0000000), wk =   0.0138889
        k(   60) = (   0.4166667   0.6254628   0.0000000), wk =   0.0138889
        k(   61) = (   0.4166667   0.7216878   0.0000000), wk =   0.0138889
        k(   62) = (   0.4166667  -0.3367877   0.0000000), wk =   0.0138889
        k(   63) = (   0.4166667  -0.2405626   0.0000000), wk =   0.0138889
        k(   64) = (   0.4166667  -0.1443376   0.0000000), wk =   0.0138889
        k(   65) = (   0.4166667  -0.0481125   0.0000000), wk =   0.0138889
        k(   66) = (   0.4166667   0.0481125   0.0000000), wk =   0.0138889
        k(   67) = (   0.4166667   0.1443376   0.0000000), wk =   0.0138889
        k(   68) = (  -0.5000000  -0.2886751   0.0000000), wk =   0.0069444
        k(   69) = (  -0.5000000  -0.1924501   0.0000000), wk =   0.0138889
        k(   70) = (  -0.5000000  -0.0962250   0.0000000), wk =   0.0138889
        k(   71) = (  -0.5000000   0.0000000   0.0000000), wk =   0.0138889
        k(   72) = (  -0.5000000   0.0962250   0.0000000), wk =   0.0138889
        k(   73) = (  -0.5000000   0.1924501   0.0000000), wk =   0.0138889
        k(   74) = (  -0.5000000  -0.8660254   0.0000000), wk =   0.0069444

     Dense  grid:   163611 G-vectors     FFT dimensions: (  40,  40, 240)

     Smooth grid:    41503 G-vectors     FFT dimensions: (  25,  25, 160)

     Estimated max dynamical RAM per process >     784.55 MB

     Initial potential from superposition of free atoms

     starting charge       7.9999, renormalised to       8.0000

     negative rho (up, down):  2.416E-05 0.000E+00
     Starting wfcs are random

     total cpu time spent up to now is        8.2 secs

     Self-consistent Calculation

     iteration #  1     ecut=    70.00 Ry     beta= 0.10
     Davidson diagonalization with overlap
     ethr =  1.00E-02,  avg # of iterations =  8.9

     negative rho (up, down):  1.909E-05 0.000E+00

     total cpu time spent up to now is       93.2 secs

     total energy              =     -35.71386034 Ry
     estimated scf accuracy    <       0.22932912 Ry

     iteration #  2     ecut=    70.00 Ry     beta= 0.10
     Davidson diagonalization with overlap
     ethr =  2.87E-03,  avg # of iterations =  1.0

     negative rho (up, down):  1.005E-04 0.000E+00

     total cpu time spent up to now is      109.0 secs

     total energy              =     -35.59816743 Ry
     estimated scf accuracy    <       0.17281109 Ry

     iteration #  3     ecut=    70.00 Ry     beta= 0.10
     Davidson diagonalization with overlap
     ethr =  2.16E-03,  avg # of iterations =  3.8

     negative rho (up, down):  7.808E-05 0.000E+00

     total cpu time spent up to now is      131.1 secs

     total energy              =     -35.63525711 Ry
     estimated scf accuracy    <       0.00604553 Ry

     iteration #  4     ecut=    70.00 Ry     beta= 0.10
     Davidson diagonalization with overlap
     ethr =  7.56E-05,  avg # of iterations =  6.3

     negative rho (up, down):  6.779E-05 0.000E+00

     total cpu time spent up to now is      160.6 secs

     total energy              =     -35.63601691 Ry
     estimated scf accuracy    <       0.00271444 Ry

     iteration #  5     ecut=    70.00 Ry     beta= 0.10
     Davidson diagonalization with overlap
     ethr =  3.39E-05,  avg # of iterations =  3.4

     negative rho (up, down):  1.030E-04 0.000E+00

     total cpu time spent up to now is      184.9 secs

     total energy              =     -35.63570883 Ry
     estimated scf accuracy    <       0.00290673 Ry

     iteration #  6     ecut=    70.00 Ry     beta= 0.10
     Davidson diagonalization with overlap
     ethr =  3.39E-05,  avg # of iterations =  1.1

     negative rho (up, down):  9.040E-05 0.000E+00

     total cpu time spent up to now is      200.8 secs

     total energy              =     -35.63597886 Ry
     estimated scf accuracy    <       0.00001289 Ry

     iteration #  7     ecut=    70.00 Ry     beta= 0.10
     Davidson diagonalization with overlap
     ethr =  1.61E-07,  avg # of iterations =  4.7

     negative rho (up, down):  7.970E-05 0.000E+00

     total cpu time spent up to now is      235.0 secs

     total energy              =     -35.63607315 Ry
     estimated scf accuracy    <       0.00000141 Ry

     iteration #  8     ecut=    70.00 Ry     beta= 0.10
     Davidson diagonalization with overlap
     ethr =  1.76E-08,  avg # of iterations =  1.0

     negative rho (up, down):  7.080E-05 0.000E+00

     total cpu time spent up to now is      250.8 secs

     total energy              =     -35.63607316 Ry
     estimated scf accuracy    <       0.00000133 Ry

     iteration #  9     ecut=    70.00 Ry     beta= 0.10
     Davidson diagonalization with overlap
     ethr =  1.66E-08,  avg # of iterations =  1.0

     negative rho (up, down):  6.228E-05 0.000E+00

     total cpu time spent up to now is      266.5 secs

     total energy              =     -35.63607328 Ry
     estimated scf accuracy    <       0.00000103 Ry

     iteration # 10     ecut=    70.00 Ry     beta= 0.10
     Davidson diagonalization with overlap
     ethr =  1.29E-08,  avg # of iterations =  1.0

     negative rho (up, down):  5.531E-05 0.000E+00

     total cpu time spent up to now is      282.3 secs

     total energy              =     -35.63607328 Ry
     estimated scf accuracy    <       0.00000029 Ry

     iteration # 11     ecut=    70.00 Ry     beta= 0.10
     Davidson diagonalization with overlap
     ethr =  3.57E-09,  avg # of iterations =  1.0

     negative rho (up, down):  4.926E-05 0.000E+00

     total cpu time spent up to now is      298.2 secs

     total energy              =     -35.63607324 Ry
     estimated scf accuracy    <       0.00000013 Ry

     iteration # 12     ecut=    70.00 Ry     beta= 0.10
     Davidson diagonalization with overlap
     ethr =  1.66E-09,  avg # of iterations =  3.0

     negative rho (up, down):  4.410E-05 0.000E+00

     total cpu time spent up to now is      321.1 secs

     total energy              =     -35.63607357 Ry
     estimated scf accuracy    <       0.00000002 Ry

     iteration # 13     ecut=    70.00 Ry     beta= 0.10
     Davidson diagonalization with overlap
     ethr =  2.60E-10,  avg # of iterations =  1.8

     negative rho (up, down):  1.323E-05 0.000E+00

     total cpu time spent up to now is      337.5 secs

     End of self-consistent calculation

          k = 0.0000 0.0000 0.0000 (  5163 PWs)   bands (ev):

   -21.4115 -21.4115  -9.7217  -9.7217  -4.9449  -4.9449  -4.9354  -4.9354
     1.3978   1.3978   2.4354   2.4354   2.7945   2.7945   4.6972   4.6972

          k = 0.0000 0.0962 0.0000 (  5149 PWs)   bands (ev):

   -21.2463 -21.2463  -9.5215  -9.5215  -5.5815  -5.5815  -5.2867  -5.2867
     1.6227   1.6227   2.6633   2.6633   3.0251   3.0251   4.9234   4.9234

          k = 0.0000 0.1925 0.0000 (  5145 PWs)   bands (ev):

   -20.7523 -20.7523  -8.9260  -8.9260  -7.2052  -7.2052  -6.0969  -6.0969
     2.2976   2.2976   3.3449   3.3449   3.7169   3.7169   5.5982   5.5982

          k = 0.0000 0.2887 0.0000 (  5157 PWs)   bands (ev):

   -19.9352 -19.9352  -9.2987  -9.2987  -7.9544  -7.9544  -6.9947  -6.9947
     3.4202   3.4202   4.4534   4.4534   4.8690   4.8691   5.4587   5.4587

          k = 0.0000 0.3849 0.0000 (  5172 PWs)   bands (ev):

   -18.8060 -18.8060 -11.5072 -11.5072  -7.7421  -7.7421  -6.6562  -6.6562
     3.0472   3.0472   4.9776   4.9777   6.0672   6.0672   6.0865   6.0865

          k = 0.0000 0.4811 0.0000 (  5182 PWs)   bands (ev):

   -17.3897 -17.3897 -13.6260 -13.6260  -8.2237  -8.2237  -5.1942  -5.1942
     0.8565   0.8565   5.8354   5.8354   7.0090   7.0090   8.0877   8.0877

          k = 0.0000-0.5774 0.0000 (  5192 PWs)   bands (ev):

   -16.0342 -16.0342 -15.2238 -15.2238  -8.3890  -8.3890  -4.3183  -4.3183
    -0.2787  -0.2787   5.7681   5.7681   9.3479   9.3479   9.4395   9.4395

          k = 0.0833 0.0481 0.0000 (  5149 PWs)   bands (ev):

   -21.2463 -21.2463  -9.5215  -9.5215  -5.5815  -5.5815  -5.2867  -5.2867
     1.6227   1.6227   2.6633   2.6633   3.0251   3.0251   4.9234   4.9234

          k = 0.0833 0.1443 0.0000 (  5148 PWs)   bands (ev):

   -20.9167 -20.9167  -9.1236  -9.1236  -6.6003  -6.6003  -5.9803  -5.9803
     2.0729   2.0730   3.1182   3.1182   3.4864   3.4864   5.3746   5.3746

          k = 0.0833 0.2406 0.0000 (  5152 PWs)   bands (ev):

   -20.2612 -20.2612  -8.3389  -8.3389  -8.2989  -8.2989  -6.9968  -6.9968
     2.9728   2.9728   4.0229   4.0229   4.4093   4.4093   6.2211   6.2211

          k = 0.0833 0.3368 0.0000 (  5168 PWs)   bands (ev):

   -19.2881 -19.2881 -10.3746 -10.3746  -7.8948  -7.8948  -7.1976  -7.1976
     4.0904   4.0904   4.3174   4.3174   5.4025   5.4025   5.7913   5.7913

          k = 0.0833 0.4330 0.0000 (  5176 PWs)   bands (ev):

   -18.0138 -18.0138 -12.5099 -12.5099  -8.5376  -8.5376  -5.7836  -5.7836
     1.8380   1.8380   6.0808   6.0809   6.6724   6.6724   7.1763   7.1763

          k = 0.0833 0.5292 0.0000 (  5180 PWs)   bands (ev):

   -16.4955 -16.4955 -14.4901 -14.4901  -8.8702  -8.8702  -4.4332  -4.4332
     0.0173   0.0173   6.4946   6.4946   8.3106   8.3106   9.3156   9.3156

          k = 0.0833-0.5292 0.0000 (  5180 PWs)   bands (ev):

   -16.4955 -16.4955 -14.4901 -14.4901  -8.8702  -8.8702  -4.4332  -4.4332
     0.0173   0.0173   6.4946   6.4946   8.3106   8.3106   9.3156   9.3156

          k = 0.0833-0.4330 0.0000 (  5176 PWs)   bands (ev):

   -18.0138 -18.0138 -12.5099 -12.5099  -8.5376  -8.5376  -5.7836  -5.7836
     1.8380   1.8380   6.0809   6.0809   6.6724   6.6724   7.1763   7.1763

          k = 0.0833-0.3368 0.0000 (  5168 PWs)   bands (ev):

   -19.2881 -19.2881 -10.3746 -10.3746  -7.8948  -7.8948  -7.1976  -7.1976
     4.0904   4.0904   4.3174   4.3174   5.4025   5.4025   5.7913   5.7913

          k = 0.0833-0.2406 0.0000 (  5152 PWs)   bands (ev):

   -20.2612 -20.2612  -8.3389  -8.3389  -8.2989  -8.2989  -6.9968  -6.9968
     2.9728   2.9728   4.0229   4.0229   4.4093   4.4093   6.2210   6.2211

          k = 0.0833-0.1443 0.0000 (  5148 PWs)   bands (ev):

   -20.9167 -20.9167  -9.1236  -9.1236  -6.6003  -6.6003  -5.9802  -5.9802
     2.0729   2.0730   3.1182   3.1182   3.4864   3.4864   5.3746   5.3746

          k = 0.0833-0.0481 0.0000 (  5149 PWs)   bands (ev):

   -21.2463 -21.2463  -9.5215  -9.5215  -5.5815  -5.5815  -5.2867  -5.2867
     1.6227   1.6227   2.6633   2.6633   3.0251   3.0251   4.9234   4.9234

          k = 0.1667 0.0962 0.0000 (  5145 PWs)   bands (ev):

   -20.7523 -20.7523  -8.9260  -8.9260  -7.2052  -7.2052  -6.0969  -6.0969
     2.2976   2.2976   3.3449   3.3449   3.7169   3.7170   5.5982   5.5982

          k = 0.1667 0.1925 0.0000 (  5152 PWs)   bands (ev):

   -20.2612 -20.2612  -8.3389  -8.3389  -8.2989  -8.2989  -6.9968  -6.9968
     2.9728   2.9728   4.0229   4.0229   4.4093   4.4093   6.2212   6.2212

          k = 0.1667 0.2887 0.0000 (  5152 PWs)   bands (ev):

   -19.4498 -19.4498  -9.6047  -9.6047  -8.3906  -8.3906  -7.3807  -7.3807
     4.0960   4.0960   4.5658   4.5658   5.1450   5.1450   5.5633   5.5633

          k = 0.1667 0.3849 0.0000 (  5165 PWs)   bands (ev):

   -18.3312 -18.3312 -11.3390 -11.3390  -9.4529  -9.4529  -6.0982  -6.0982
     2.5822   2.5822   5.6576   5.6576   6.6833   6.6833   7.1762   7.1762

          k = 0.1667 0.4811 0.0000 (  5170 PWs)   bands (ev):

   -16.9349 -16.9349 -13.2782 -13.2782 -10.0231 -10.0231  -4.6337  -4.6337
     0.6245   0.6245   7.6298   7.6298   8.3766   8.3766   8.5133   8.5133

          k = 0.1667 0.5774 0.0000 (  5200 PWs)   bands (ev):

   -15.6184 -15.6184 -14.7980 -14.7980 -10.2063 -10.2063  -3.7106  -3.7106
    -0.4775  -0.4775   8.2846   8.2846   9.6579   9.6579   9.8998   9.9001

          k = 0.1667-0.4811 0.0000 (  5170 PWs)   bands (ev):

   -16.9349 -16.9349 -13.2782 -13.2782 -10.0231 -10.0231  -4.6337  -4.6337
     0.6245   0.6245   7.6298   7.6298   8.3766   8.3766   8.5133   8.5133

          k = 0.1667-0.3849 0.0000 (  5165 PWs)   bands (ev):

   -18.3312 -18.3312 -11.3390 -11.3390  -9.4529  -9.4529  -6.0982  -6.0982
     2.5822   2.5822   5.6576   5.6576   6.6833   6.6833   7.1762   7.1762

          k = 0.1667-0.2887 0.0000 (  5152 PWs)   bands (ev):

   -19.4498 -19.4498  -9.6047  -9.6047  -8.3906  -8.3906  -7.3807  -7.3807
     4.0960   4.0960   4.5658   4.5658   5.1450   5.1451   5.5633   5.5633

          k = 0.1667-0.1925 0.0000 (  5152 PWs)   bands (ev):

   -20.2612 -20.2612  -8.3389  -8.3389  -8.2989  -8.2989  -6.9968  -6.9968
     2.9728   2.9728   4.0229   4.0229   4.4093   4.4093   6.2211   6.2212

          k = 0.1667-0.0962 0.0000 (  5145 PWs)   bands (ev):

   -20.7523 -20.7523  -8.9260  -8.9260  -7.2052  -7.2052  -6.0969  -6.0969
     2.2976   2.2976   3.3449   3.3449   3.7169   3.7170   5.5982   5.5982

          k = 0.1667-0.0000 0.0000 (  5148 PWs)   bands (ev):

   -20.9167 -20.9167  -9.1236  -9.1236  -6.6003  -6.6003  -5.9802  -5.9802
     2.0729   2.0729   3.1182   3.1182   3.4864   3.4864   5.3746   5.3746

          k = 0.2500 0.1443 0.0000 (  5157 PWs)   bands (ev):

   -19.9352 -19.9352  -9.2987  -9.2987  -7.9544  -7.9544  -6.9947  -6.9947
     3.4202   3.4202   4.4534   4.4534   4.8690   4.8691   5.4587   5.4587

          k = 0.2500 0.2406 0.0000 (  5168 PWs)   bands (ev):

   -19.2881 -19.2881 -10.3746 -10.3746  -7.8948  -7.8948  -7.1976  -7.1976
     4.0904   4.0904   4.3174   4.3174   5.4025   5.4025   5.7913   5.7913

          k = 0.2500 0.3368 0.0000 (  5165 PWs)   bands (ev):

   -18.3312 -18.3312 -11.3390 -11.3390  -9.4529  -9.4529  -6.0982  -6.0982
     2.5822   2.5822   5.6576   5.6576   6.6833   6.6833   7.1762   7.1762

          k = 0.2500 0.4330 0.0000 (  5174 PWs)   bands (ev):

   -17.0878 -17.0878 -12.3364 -12.3364 -10.9871 -10.9871  -4.7229  -4.7229
     0.9463   0.9463   7.4171   7.4171   8.1884   8.1884   9.0162   9.0162

          k = 0.2500 0.5292 0.0000 (  5188 PWs)   bands (ev):

   -15.6305 -15.6305 -13.7976 -13.7976 -11.6893 -11.6893  -3.3004  -3.3004
    -0.6045  -0.6045   8.8294   8.8294   9.5159   9.5159  10.5028  10.5028

          k = 0.2500 0.6255 0.0000 (  5188 PWs)   bands (ev):

   -15.6305 -15.6305 -13.7976 -13.7976 -11.6893 -11.6893  -3.3004  -3.3004
    -0.6045  -0.6045   8.8294   8.8294   9.5159   9.5159  10.5028  10.5028

          k = 0.2500-0.4330 0.0000 (  5174 PWs)   bands (ev):

   -17.0878 -17.0878 -12.3364 -12.3364 -10.9871 -10.9871  -4.7229  -4.7229
     0.9463   0.9463   7.4171   7.4171   8.1884   8.1884   9.0162   9.0162

          k = 0.2500-0.3368 0.0000 (  5165 PWs)   bands (ev):

   -18.3312 -18.3312 -11.3390 -11.3390  -9.4529  -9.4529  -6.0982  -6.0982
     2.5822   2.5822   5.6576   5.6576   6.6833   6.6833   7.1762   7.1762

          k = 0.2500-0.2406 0.0000 (  5168 PWs)   bands (ev):

   -19.2881 -19.2881 -10.3746 -10.3746  -7.8948  -7.8948  -7.1976  -7.1976
     4.0904   4.0904   4.3174   4.3174   5.4025   5.4025   5.7913   5.7913

          k = 0.2500-0.1443 0.0000 (  5157 PWs)   bands (ev):

   -19.9352 -19.9352  -9.2987  -9.2987  -7.9544  -7.9544  -6.9947  -6.9947
     3.4202   3.4202   4.4534   4.4534   4.8691   4.8691   5.4587   5.4587

          k = 0.2500-0.0481 0.0000 (  5152 PWs)   bands (ev):

   -20.2612 -20.2612  -8.3389  -8.3389  -8.2989  -8.2989  -6.9968  -6.9968
     2.9728   2.9728   4.0229   4.0229   4.4093   4.4093   6.2211   6.2212

          k = 0.2500 0.0481 0.0000 (  5152 PWs)   bands (ev):

   -20.2612 -20.2612  -8.3389  -8.3389  -8.2989  -8.2989  -6.9968  -6.9968
     2.9728   2.9728   4.0229   4.0229   4.4093   4.4093   6.2211   6.2212

          k = 0.3333 0.1925 0.0000 (  5172 PWs)   bands (ev):

   -18.8060 -18.8060 -11.5072 -11.5072  -7.7421  -7.7421  -6.6562  -6.6562
     3.0472   3.0472   4.9777   4.9777   6.0672   6.0672   6.0865   6.0865

          k = 0.3333 0.2887 0.0000 (  5176 PWs)   bands (ev):

   -18.0138 -18.0138 -12.5099 -12.5099  -8.5376  -8.5376  -5.7836  -5.7836
     1.8380   1.8380   6.0808   6.0809   6.6724   6.6724   7.1763   7.1763

          k = 0.3333 0.3849 0.0000 (  5170 PWs)   bands (ev):

   -16.9349 -16.9349 -13.2782 -13.2782 -10.0231 -10.0231  -4.6337  -4.6337
     0.6245   0.6245   7.6298   7.6298   8.3766   8.3766   8.5133   8.5133

          k = 0.3333 0.4811 0.0000 (  5188 PWs)   bands (ev):

   -15.6305 -15.6305 -13.7976 -13.7976 -11.6893 -11.6893  -3.3004  -3.3004
    -0.6045  -0.6045   8.8294   8.8294   9.5159   9.5159  10.5028  10.5028

          k = 0.3333 0.5774 0.0000 (  5220 PWs)   bands (ev):

   -14.3776 -14.3776 -14.3754 -14.3754 -12.6842 -12.6842  -1.9174  -1.9174
    -1.9174  -1.9174   8.4934   8.4934  11.1094  11.1094  11.1134  11.1134

          k = 0.3333 0.6736 0.0000 (  5188 PWs)   bands (ev):

   -15.6305 -15.6305 -13.7976 -13.7976 -11.6893 -11.6893  -3.3004  -3.3004
    -0.6045  -0.6045   8.8294   8.8294   9.5159   9.5159  10.5028  10.5029

          k = 0.3333-0.3849 0.0000 (  5170 PWs)   bands (ev):

   -16.9349 -16.9349 -13.2783 -13.2783 -10.0231 -10.0231  -4.6337  -4.6337
     0.6245   0.6245   7.6298   7.6298   8.3766   8.3766   8.5133   8.5133

          k = 0.3333-0.2887 0.0000 (  5176 PWs)   bands (ev):

   -18.0138 -18.0138 -12.5099 -12.5099  -8.5376  -8.5376  -5.7836  -5.7836
     1.8380   1.8380   6.0809   6.0809   6.6724   6.6724   7.1763   7.1763

          k = 0.3333-0.1925 0.0000 (  5172 PWs)   bands (ev):

   -18.8060 -18.8060 -11.5072 -11.5072  -7.7421  -7.7421  -6.6562  -6.6562
     3.0472   3.0472   4.9776   4.9777   6.0672   6.0672   6.0865   6.0865

          k = 0.3333-0.0962 0.0000 (  5168 PWs)   bands (ev):

   -19.2881 -19.2881 -10.3746 -10.3746  -7.8948  -7.8948  -7.1976  -7.1976
     4.0904   4.0904   4.3174   4.3174   5.4025   5.4025   5.7913   5.7913

          k = 0.3333-0.0000 0.0000 (  5152 PWs)   bands (ev):

   -19.4498 -19.4498  -9.6047  -9.6047  -8.3906  -8.3906  -7.3807  -7.3807
     4.0960   4.0960   4.5658   4.5658   5.1450   5.1451   5.5633   5.5633

          k = 0.3333 0.0962 0.0000 (  5168 PWs)   bands (ev):

   -19.2881 -19.2881 -10.3746 -10.3746  -7.8948  -7.8948  -7.1976  -7.1976
     4.0904   4.0904   4.3174   4.3174   5.4025   5.4025   5.7913   5.7913

          k = 0.4167 0.2406 0.0000 (  5182 PWs)   bands (ev):

   -17.3897 -17.3897 -13.6260 -13.6260  -8.2237  -8.2237  -5.1942  -5.1942
     0.8565   0.8565   5.8354   5.8354   7.0090   7.0090   8.0877   8.0877

          k = 0.4167 0.3368 0.0000 (  5180 PWs)   bands (ev):

   -16.4955 -16.4955 -14.4901 -14.4901  -8.8702  -8.8702  -4.4332  -4.4332
     0.0173   0.0173   6.4946   6.4946   8.3106   8.3106   9.3156   9.3156

          k = 0.4167 0.4330 0.0000 (  5200 PWs)   bands (ev):

   -15.6184 -15.6184 -14.7980 -14.7980 -10.2063 -10.2063  -3.7106  -3.7106
    -0.4775  -0.4775   8.2846   8.2846   9.6579   9.6580   9.8998   9.9000

          k = 0.4167 0.5292 0.0000 (  5188 PWs)   bands (ev):

   -15.6305 -15.6305 -13.7976 -13.7976 -11.6893 -11.6893  -3.3004  -3.3004
    -0.6045  -0.6045   8.8294   8.8294   9.5159   9.5159  10.5028  10.5028

          k = 0.4167 0.6255 0.0000 (  5188 PWs)   bands (ev):

   -15.6305 -15.6305 -13.7976 -13.7976 -11.6893 -11.6893  -3.3004  -3.3004
    -0.6045  -0.6045   8.8294   8.8294   9.5159   9.5159  10.5028  10.5028

          k = 0.4167 0.7217 0.0000 (  5200 PWs)   bands (ev):

   -15.6184 -15.6184 -14.7980 -14.7980 -10.2063 -10.2063  -3.7106  -3.7106
    -0.4775  -0.4775   8.2846   8.2846   9.6579   9.6579   9.8998   9.8999

          k = 0.4167-0.3368 0.0000 (  5180 PWs)   bands (ev):

   -16.4955 -16.4955 -14.4901 -14.4901  -8.8702  -8.8702  -4.4332  -4.4332
     0.0173   0.0173   6.4946   6.4946   8.3106   8.3106   9.3156   9.3156

          k = 0.4167-0.2406 0.0000 (  5182 PWs)   bands (ev):

   -17.3897 -17.3897 -13.6260 -13.6260  -8.2237  -8.2237  -5.1942  -5.1942
     0.8565   0.8565   5.8354   5.8354   7.0090   7.0090   8.0877   8.0877

          k = 0.4167-0.1443 0.0000 (  5176 PWs)   bands (ev):

   -18.0138 -18.0138 -12.5099 -12.5099  -8.5376  -8.5376  -5.7836  -5.7836
     1.8380   1.8380   6.0809   6.0809   6.6724   6.6724   7.1763   7.1763

          k = 0.4167-0.0481 0.0000 (  5165 PWs)   bands (ev):

   -18.3312 -18.3312 -11.3390 -11.3390  -9.4529  -9.4529  -6.0982  -6.0982
     2.5822   2.5822   5.6576   5.6576   6.6833   6.6833   7.1762   7.1762

          k = 0.4167 0.0481 0.0000 (  5165 PWs)   bands (ev):

   -18.3312 -18.3312 -11.3390 -11.3390  -9.4529  -9.4529  -6.0982  -6.0982
     2.5822   2.5822   5.6576   5.6576   6.6833   6.6833   7.1762   7.1762

          k = 0.4167 0.1443 0.0000 (  5176 PWs)   bands (ev):

   -18.0138 -18.0138 -12.5099 -12.5099  -8.5376  -8.5376  -5.7836  -5.7836
     1.8380   1.8380   6.0808   6.0809   6.6724   6.6724   7.1763   7.1763

          k =-0.5000-0.2887 0.0000 (  5192 PWs)   bands (ev):

   -16.0342 -16.0342 -15.2238 -15.2238  -8.3890  -8.3890  -4.3183  -4.3183
    -0.2787  -0.2787   5.7681   5.7681   9.3479   9.3479   9.4395   9.4395

          k =-0.5000-0.1925 0.0000 (  5180 PWs)   bands (ev):

   -16.4955 -16.4955 -14.4901 -14.4901  -8.8702  -8.8702  -4.4332  -4.4332
     0.0173   0.0173   6.4946   6.4946   8.3106   8.3106   9.3156   9.3156

          k =-0.5000-0.0962 0.0000 (  5170 PWs)   bands (ev):

   -16.9349 -16.9349 -13.2782 -13.2782 -10.0231 -10.0231  -4.6337  -4.6337
     0.6245   0.6245   7.6298   7.6298   8.3766   8.3766   8.5133   8.5133

          k =-0.5000 0.0000 0.0000 (  5174 PWs)   bands (ev):

   -17.0878 -17.0878 -12.3364 -12.3364 -10.9871 -10.9871  -4.7229  -4.7229
     0.9463   0.9463   7.4171   7.4171   8.1884   8.1884   9.0162   9.0162

          k =-0.5000 0.0962 0.0000 (  5170 PWs)   bands (ev):

   -16.9349 -16.9349 -13.2782 -13.2782 -10.0231 -10.0231  -4.6337  -4.6337
     0.6245   0.6245   7.6298   7.6298   8.3766   8.3766   8.5133   8.5133

          k =-0.5000 0.1925 0.0000 (  5180 PWs)   bands (ev):

   -16.4955 -16.4955 -14.4901 -14.4901  -8.8702  -8.8702  -4.4332  -4.4332
     0.0173   0.0173   6.4946   6.4946   8.3106   8.3106   9.3156   9.3156

          k =-0.5000-0.8660 0.0000 (  5192 PWs)   bands (ev):

   -16.0342 -16.0342 -15.2238 -15.2238  -8.3890  -8.3890  -4.3183  -4.3183
    -0.2787  -0.2787   5.7681   5.7681   9.3479   9.3479   9.4395   9.4395

     the Fermi energy is  -1.917372 ev

!    total energy              =     -35.63607344 Ry
     total all-electron energy =      -151.245364 Ry
     estimated scf accuracy    <          5.4E-09 Ry
     smearing contrib. (-TS)   =      -0.00003134 Ry
     internal energy E=F+TS    =     -35.63604210 Ry

     The total energy is F=E-TS. E is the sum of the following terms:
     one-electron contribution =    -158.66132681 Ry
     hartree contribution      =      80.93876960 Ry
     xc contribution           =      -8.28327325 Ry
     ewald contribution        =      62.46262411 Ry
     one-center paw contrib.   =     -12.09283575 Ry

     convergence has been achieved in  13 iterations

     negative rho (up, down):  1.323E-05 0.000E+00

     Forces acting on atoms (cartesian axes, Ry/au):

     atom    1 type  1   force =     0.00000406    0.00000087    0.00000090
     atom    2 type  1   force =    -0.00000406   -0.00000087   -0.00000090

     Total force =     0.000006     Total SCF correction =     0.000026
     SCF correction compared to forces is large: reduce conv_thr to get better values


     Computing stress (Cartesian axis) and pressure


     negative rho (up, down):  1.323E-05 0.000E+00
          total   stress  (Ry/bohr**3)                   (kbar)     P=        0.10
   0.00000117   0.00000001   0.00000000            0.17        0.00        0.00
   0.00000001   0.00000117   0.00000000            0.00        0.17        0.00
   0.00000000   0.00000000  -0.00000035            0.00        0.00       -0.05


     Writing all to output data dir ./tmp/graphene.save/ :
     XML data file, charge density, pseudopotentials, collected wavefunctions

     init_run     :      7.78s CPU      7.99s WALL (       1 calls)
     electrons    :    325.65s CPU    329.31s WALL (       1 calls)
     forces       :      2.39s CPU      2.48s WALL (       1 calls)
     stress       :      9.03s CPU      9.30s WALL (       1 calls)

     Called by init_run:
     wfcinit      :      6.38s CPU      6.46s WALL (       1 calls)
     potinit      :      0.39s CPU      0.42s WALL (       1 calls)
     hinit0       :      0.73s CPU      0.75s WALL (       1 calls)

     Called by electrons:
     c_bands      :    291.07s CPU    292.48s WALL (      13 calls)
     sum_band     :     30.64s CPU     31.85s WALL (      13 calls)
     v_of_rho     :      0.25s CPU      0.26s WALL (      14 calls)
     newd         :      2.87s CPU      3.94s WALL (      14 calls)
     PAW_pot      :      0.16s CPU      0.16s WALL (      14 calls)
     mix_rho      :      0.56s CPU      0.57s WALL (      13 calls)

     Called by c_bands:
     init_us_2    :      1.69s CPU      1.70s WALL (    2146 calls)
     cegterg      :    284.76s CPU    286.15s WALL (     962 calls)

     Called by *egterg:
     cdiaghg      :      3.61s CPU      3.63s WALL (    3775 calls)
     h_psi        :    169.67s CPU    170.42s WALL (    3849 calls)
     s_psi        :     18.71s CPU     18.78s WALL (    3849 calls)
     g_psi        :      0.85s CPU      0.85s WALL (    2813 calls)

     Called by h_psi:
     h_psi:calbec :     18.46s CPU     18.47s WALL (    3849 calls)
     vloc_psi     :    131.71s CPU    132.05s WALL (    3849 calls)
     add_vuspsi   :     18.76s CPU     18.77s WALL (    3849 calls)

     General routines
     calbec       :     32.30s CPU     32.32s WALL (    6069 calls)
     fft          :      1.19s CPU      1.19s WALL (     249 calls)
     ffts         :      0.37s CPU      0.37s WALL (     108 calls)
     fftw         :     84.61s CPU     84.80s WALL (  216560 calls)
     interpolate  :      0.54s CPU      0.54s WALL (      56 calls)


     PWSCF        :   5m45.09s CPU   5m49.45s WALL


   This run was terminated on:  11:39:25  29Oct2025            

=------------------------------------------------------------------------------=
   JOB DONE.
=------------------------------------------------------------------------------=
