
     Program PWSCF v.7.4.1 starts on 29Oct2025 at 11:43: 1 

     This program is part of the open-source Quantum ESPRESSO suite
     for quantum simulation of materials; please cite
         "P. Giannozzi et al., J. Phys.:Condens. Matter 21 395502 (2009);
         "P. Giannozzi et al., J. Phys.:Condens. Matter 29 465901 (2017);
         "P. Giannozzi et al., J. Chem. Phys. 152 154105 (2020);
          URL http://www.quantum-espresso.org", 
     in publications or presentations arising from this work. More details at
     http://www.quantum-espresso.org/quote

     Serial version
     6410 MiB available memory on the printing compute node when the environment starts

     Reading input from grap_SOC_nscf.in

     Current dimensions of program PWSCF are:
     Max number of different atomic species (ntypx) = 10
     Max number of k-points (npk) =  40000
     Max angular momentum in pseudopotentials (lmaxx) =  4
     Message from routine input:
     WARNING: "startingwfc" set to random may spoil restart
     file C.rel-pz-n-kjpaw_psl.0.1.UPF: wavefunction(s)  2P 2P renormalized


     G-vector sticks info
     --------------------
     sticks:   dense  smooth     PW     G-vecs:    dense   smooth      PW
     Sum        1039     421    139               163611    41503    8097

     Using Slab Decomposition



     bravais-lattice index     =            0
     lattice parameter (alat)  =       4.6223  a.u.
     unit-cell volume          =     522.6524 (a.u.)^3
     number of atoms/cell      =            2
     number of atomic types    =            1
     number of electrons       =         8.00
     number of Kohn-Sham states=           16
     kinetic-energy cutoff     =      70.0000  Ry
     charge density cutoff     =     700.0000  Ry
     Exchange-correlation= SLA  PZ   NOGX NOGC
                           (   1   1   0   0   0   0   0)
     Non magnetic calculation with spin-orbit


     celldm(1)=   4.622345  celldm(2)=   0.000000  celldm(3)=   0.000000
     celldm(4)=   0.000000  celldm(5)=   0.000000  celldm(6)=   0.000000

     crystal axes: (cart. coord. in units of alat)
               a(1) = (   1.000000  -0.000000   0.000000 )  
               a(2) = (  -0.500000   0.866025   0.000000 )  
               a(3) = (  -0.000000  -0.000000   6.110762 )  

     reciprocal axes: (cart. coord. in units 2 pi/alat)
               b(1) = (  1.000000  0.577350  0.000000 )  
               b(2) = (  0.000000  1.154701  0.000000 )  
               b(3) = ( -0.000000 -0.000000  0.163646 )  


     PseudoPot. # 1 for C  read from file:
     ../../../pseudos/C.rel-pz-n-kjpaw_psl.0.1.UPF
     MD5 check sum: 9b227004301b41f0f491a5e582f66be3
     Pseudo is Projector augmented-wave + core cor, Zval =  4.0
     Generated using "atomic" code by A. Dal Corso  v.5.0.2 svn rev. 9415
     Shape of augmentation charge: BESSEL
     Using radial grid of 1073 points,  6 beta functions with: 
                l(1) =   0
                l(2) =   0
                l(3) =   1
                l(4) =   1
                l(5) =   1
                l(6) =   1
     Q(r) pseudized with 0 coefficients 


     atomic species   valence    mass     pseudopotential
     C                 4.00    12.01100     C ( 1.00)

     No symmetry found



   Cartesian axes

     site n.     atom                  positions (alat units)
         1        C      tau(   1) = (  -0.0000000  -0.0000000  -0.0000000  )
         2        C      tau(   2) = (  -0.0000000   0.5773503   0.0000000  )

     number of k points= 11252  Gaussian smearing, width (Ry)=  0.0020

     Number of k-points >= 100: set verbosity='high' to print them.

     Dense  grid:   163611 G-vectors     FFT dimensions: (  40,  40, 240)

     Smooth grid:    41503 G-vectors     FFT dimensions: (  25,  25, 160)

     Estimated max dynamical RAM per process >     396.33 MB

     Atomic positions and unit cell read from directory:
     ./tmp/graphene.save/


     The potential is recalculated from file :
     ./tmp/graphene.save/charge-density


     negative rho (up, down):  1.323E-05 0.000E+00
     Starting wfcs are random

     Band Structure Calculation
     Davidson diagonalization with overlap
     c_bands:  2 eigenvalues not converged
     c_bands:  2 eigenvalues not converged
     c_bands:  1 eigenvalues not converged
     c_bands:  1 eigenvalues not converged
     c_bands:  2 eigenvalues not converged
     c_bands:  1 eigenvalues not converged

     ethr =  1.25E-10,  avg # of iterations = 28.7

     total cpu time spent up to now is    31295.5 secs

     End of band structure calculation

     Number of k-points >= 100: set verbosity='high' to print the bands.

     the Fermi energy is  -1.916970 ev
     (compare with:  -1.917372 eV, computed in scf)

     Writing all to output data dir ./tmp/graphene.save/ :
     XML data file, pseudopotentials, collected wavefunctions

     init_run     :      5.38s CPU      5.56s WALL (       1 calls)
     electrons    :  30896.26s CPU  31289.78s WALL (       1 calls)

     Called by init_run:
     wfcinit      :      0.00s CPU      0.00s WALL (       1 calls)
     potinit      :      0.38s CPU      0.40s WALL (       1 calls)
     hinit0       :      0.76s CPU      0.77s WALL (       1 calls)

     Called by electrons:
     c_bands      :  30896.24s CPU  31289.75s WALL (       1 calls)
     v_of_rho     :      0.02s CPU      0.03s WALL (       1 calls)
     newd         :      0.22s CPU      0.29s WALL (       1 calls)
     PAW_pot      :      0.01s CPU      0.01s WALL (       1 calls)

     Called by c_bands:
     init_us_2    :      8.69s CPU     10.58s WALL (   11252 calls)
     cegterg      :  29904.09s CPU  30283.13s WALL (   21525 calls)

     Called by *egterg:
     cdiaghg      :    564.82s CPU    565.35s WALL (  334369 calls)
     h_psi        :  13351.66s CPU  13455.52s WALL (  355894 calls)
     s_psi        :   1458.73s CPU   1469.87s WALL (  355894 calls)
     g_psi        :     90.48s CPU     90.68s WALL (  323117 calls)

     Called by h_psi:
     h_psi:calbec :   1449.57s CPU   1450.64s WALL (  355894 calls)
     vloc_psi     :  10352.71s CPU  10384.54s WALL (  355894 calls)
     add_vuspsi   :   1471.17s CPU   1471.93s WALL (  355894 calls)

     General routines
     calbec       :   1448.78s CPU   1449.92s WALL (  355894 calls)
     fft          :      0.54s CPU      0.55s WALL (      12 calls)
     ffts         :      0.31s CPU      0.31s WALL (       4 calls)
     fftw         :   5764.50s CPU   5777.29s WALL (14487712 calls)
     interpolate  :      0.33s CPU      0.33s WALL (       4 calls)
     davcio       :      2.37s CPU     90.78s WALL (   22504 calls)


     PWSCF        :      8h35m CPU      8h43m WALL


   This run was terminated on:  20:26:56  29Oct2025            

=------------------------------------------------------------------------------=
   JOB DONE.
=------------------------------------------------------------------------------=
