
     Program PWSCF v.7.4.1 starts on  1Oct2025 at  7:35: 0 

     This program is part of the open-source Quantum ESPRESSO suite
     for quantum simulation of materials; please cite
         "P. Giannozzi et al., J. Phys.:Condens. Matter 21 395502 (2009);
         "P. Giannozzi et al., J. Phys.:Condens. Matter 29 465901 (2017);
         "P. Giannozzi et al., J. Chem. Phys. 152 154105 (2020);
          URL http://www.quantum-espresso.org", 
     in publications or presentations arising from this work. More details at
     http://www.quantum-espresso.org/quote

     Serial version
     17319 MiB available memory on the printing compute node when the environment starts

     Reading input from graphene_scf.in

     Current dimensions of program PWSCF are:
     Max number of different atomic species (ntypx) = 10
     Max number of k-points (npk) =  40000
     Max angular momentum in pseudopotentials (lmaxx) =  4
     file C.pbe-n-kjpaw_psl.1.0.0.UPF: wavefunction(s)  2S 2P renormalized
     Message from routine setup:
     using ibrav=0 with symmetry is DISCOURAGED, use correct ibrav instead


     G-vector sticks info
     --------------------
     sticks:   dense  smooth     PW     G-vecs:    dense   smooth      PW
     Sum        1039     421    121               166325    42211    7091

     Using Slab Decomposition



     bravais-lattice index     =            0
     lattice parameter (alat)  =       4.6540  a.u.
     unit-cell volume          =     531.7080 (a.u.)^3
     number of atoms/cell      =            2
     number of atomic types    =            1
     number of electrons       =         8.00
     number of Kohn-Sham states=            8
     kinetic-energy cutoff     =      70.0000  Ry
     charge density cutoff     =     700.0000  Ry
     scf convergence threshold =      1.0E-08
     mixing beta               =       0.7000
     number of iterations used =            8  plain     mixing
     Exchange-correlation= SLA  PW   PBX  PBC
                           (   1   4   3   4   0   0   0)

     celldm(1)=   4.653998  celldm(2)=   0.000000  celldm(3)=   0.000000
     celldm(4)=   0.000000  celldm(5)=   0.000000  celldm(6)=   0.000000

     crystal axes: (cart. coord. in units of alat)
               a(1) = (   1.000000   0.000000   0.000000 )  
               a(2) = (  -0.500000   0.866025   0.000000 )  
               a(3) = (   0.000000   0.000000   6.090654 )  

     reciprocal axes: (cart. coord. in units 2 pi/alat)
               b(1) = (  1.000000  0.577350 -0.000000 )  
               b(2) = (  0.000000  1.154701  0.000000 )  
               b(3) = (  0.000000 -0.000000  0.164186 )  


     PseudoPot. # 1 for C  read from file:
     ../../../../pseudos/C.pbe-n-kjpaw_psl.1.0.0.UPF
     MD5 check sum: 5d2aebdfa2cae82b50a7e79e9516da0f
     Pseudo is Projector augmented-wave + core cor, Zval =  4.0
     Generated using "atomic" code by A. Dal Corso  v.5.1
     Shape of augmentation charge: PSQ
     Using radial grid of 1073 points,  4 beta functions with: 
                l(1) =   0
                l(2) =   0
                l(3) =   1
                l(4) =   1
     Q(r) pseudized with 0 coefficients 


     atomic species   valence    mass     pseudopotential
     C                 4.00    12.01070     C ( 1.00)

     24 Sym. Ops., with inversion, found (12 have fractional translation)



   Cartesian axes

     site n.     atom                  positions (alat units)
         1        C      tau(   1) = (   0.0000000   0.0000000   0.0000000  )
         2        C      tau(   2) = (   0.0000000   0.5773503   0.0000000  )

     number of k points=     3  Gaussian smearing, width (Ry)=  0.0100
                       cart. coord. in units 2pi/alat
        k(    1) = (   0.0000000   0.0000000   0.0000000), wk =   0.2222222
        k(    2) = (   0.0000000   0.3849002   0.0000000), wk =   1.3333333
        k(    3) = (   0.3333333   0.5773503   0.0000000), wk =   0.4444444

     Dense  grid:   166325 G-vectors     FFT dimensions: (  45,  45, 240)

     Smooth grid:    42211 G-vectors     FFT dimensions: (  27,  27, 160)

     Estimated max dynamical RAM per process >     232.94 MB

     Initial potential from superposition of free atoms

     starting charge       7.9999, renormalised to       8.0000

     negative rho (up, down):  2.230E-05 0.000E+00
     Starting wfcs are    8 randomized atomic wfcs

     total cpu time spent up to now is        3.0 secs

     Self-consistent Calculation

     iteration #  1     ecut=    70.00 Ry     beta= 0.70
     Davidson diagonalization with overlap
     ethr =  1.00E-02,  avg # of iterations =  8.0

     negative rho (up, down):  2.099E-05 0.000E+00

     total cpu time spent up to now is        4.6 secs

     total energy              =     -36.81963520 Ry
     estimated scf accuracy    <       0.20156816 Ry

     iteration #  2     ecut=    70.00 Ry     beta= 0.70
     Davidson diagonalization with overlap
     ethr =  2.52E-03,  avg # of iterations =  2.3

     negative rho (up, down):  2.874E-05 0.000E+00

     total cpu time spent up to now is        5.6 secs

     total energy              =     -36.84790967 Ry
     estimated scf accuracy    <       0.00224824 Ry

     iteration #  3     ecut=    70.00 Ry     beta= 0.70
     Davidson diagonalization with overlap
     ethr =  2.81E-05,  avg # of iterations =  9.0

     negative rho (up, down):  3.462E-05 0.000E+00

     total cpu time spent up to now is        7.0 secs

     total energy              =     -36.84815426 Ry
     estimated scf accuracy    <       0.00018461 Ry

     iteration #  4     ecut=    70.00 Ry     beta= 0.70
     Davidson diagonalization with overlap
     ethr =  2.31E-06,  avg # of iterations =  2.7

     negative rho (up, down):  3.522E-05 0.000E+00

     total cpu time spent up to now is        8.2 secs

     total energy              =     -36.84817410 Ry
     estimated scf accuracy    <       0.00000320 Ry

     iteration #  5     ecut=    70.00 Ry     beta= 0.70
     Davidson diagonalization with overlap
     ethr =  4.00E-08,  avg # of iterations =  2.7

     negative rho (up, down):  3.533E-05 0.000E+00

     total cpu time spent up to now is        9.8 secs

     total energy              =     -36.84817577 Ry
     estimated scf accuracy    <       0.00000011 Ry

     iteration #  6     ecut=    70.00 Ry     beta= 0.70
     Davidson diagonalization with overlap
     ethr =  1.36E-09,  avg # of iterations =  2.7

     negative rho (up, down):  3.535E-05 0.000E+00

     total cpu time spent up to now is       11.0 secs

     End of self-consistent calculation

          k = 0.0000 0.0000 0.0000 (  5283 PWs)   bands (ev):

   -21.2316  -9.3358  -4.7076  -4.7076   1.5167   2.4132   2.8462   4.7441

          k = 0.0000 0.3849 0.0000 (  5255 PWs)   bands (ev):

   -18.6413 -11.3223  -7.4673  -6.3269   3.2486   5.0767   6.0279   6.0788

          k = 0.3333 0.5774 0.0000 (  5268 PWs)   bands (ev):

   -14.2870 -14.2870 -12.2700  -1.6776  -1.6776   8.9053  11.2164  11.2164

     the Fermi energy is    -1.6776 ev

!    total energy              =     -36.84817580 Ry
     total all-electron energy =      -152.376371 Ry
     estimated scf accuracy    <          5.1E-09 Ry
     smearing contrib. (-TS)   =      -0.00250751 Ry
     internal energy E=F+TS    =     -36.84566830 Ry

     The total energy is F=E-TS. E is the sum of the following terms:
     one-electron contribution =    -157.17690860 Ry
     hartree contribution      =      80.24571852 Ry
     xc contribution           =      -9.28713346 Ry
     ewald contribution        =      61.70343446 Ry
     one-center paw contrib.   =     -12.33077922 Ry

     convergence has been achieved in   6 iterations

     negative rho (up, down):  3.535E-05 0.000E+00

     Forces acting on atoms (cartesian axes, Ry/au):

     atom    1 type  1   force =     0.00000000   -0.00000000    0.00000000
     atom    2 type  1   force =     0.00000000    0.00000000    0.00000000

     Total force =     0.000000     Total SCF correction =     0.000000


     Computing stress (Cartesian axis) and pressure


     negative rho (up, down):  3.535E-05 0.000E+00
          total   stress  (Ry/bohr**3)                   (kbar)     P=        9.59
   0.00009842   0.00000000   0.00000000           14.48        0.00        0.00
   0.00000000   0.00009842   0.00000000            0.00       14.48        0.00
   0.00000000  -0.00000000  -0.00000126            0.00       -0.00       -0.19


     Writing all to output data dir ./tmp/graphene.save/ :
     XML data file, charge density, pseudopotentials, collected wavefunctions

     init_run     :      2.20s CPU      2.74s WALL (       1 calls)
     electrons    :      8.91s CPU      7.99s WALL (       1 calls)
     forces       :      0.48s CPU      0.58s WALL (       1 calls)
     stress       :      1.69s CPU      1.82s WALL (       1 calls)

     Called by init_run:
     wfcinit      :      0.35s CPU      0.43s WALL (       1 calls)
     potinit      :      0.81s CPU      1.06s WALL (       1 calls)
     hinit0       :      0.88s CPU      0.99s WALL (       1 calls)

     Called by electrons:
     c_bands      :      3.97s CPU      3.22s WALL (       6 calls)
     sum_band     :      2.18s CPU      1.44s WALL (       6 calls)
     v_of_rho     :      1.44s CPU      1.74s WALL (       7 calls)
     newd         :      0.79s CPU      1.22s WALL (       7 calls)
     PAW_pot      :      0.71s CPU      0.73s WALL (       7 calls)
     mix_rho      :      0.11s CPU      0.11s WALL (       6 calls)

     Called by c_bands:
     init_us_2    :      0.07s CPU      0.05s WALL (      45 calls)
     cegterg      :      3.87s CPU      3.16s WALL (      18 calls)

     Called by *egterg:
     cdiaghg      :      0.03s CPU      0.02s WALL (     100 calls)
     h_psi        :      3.82s CPU      3.22s WALL (     103 calls)
     s_psi        :      0.07s CPU      0.14s WALL (     103 calls)
     g_psi        :      0.02s CPU      0.01s WALL (      82 calls)

     Called by h_psi:
     h_psi:calbec :      0.04s CPU      0.03s WALL (     103 calls)
     vloc_psi     :      3.49s CPU      2.64s WALL (     103 calls)
     add_vuspsi   :      0.27s CPU      0.55s WALL (     103 calls)

     General routines
     calbec       :      0.07s CPU      0.05s WALL (     172 calls)
     fft          :      1.62s CPU      1.69s WALL (     114 calls)
     ffts         :      0.42s CPU      0.47s WALL (      13 calls)
     fftw         :      2.85s CPU      2.19s WALL (    1078 calls)
     interpolate  :      0.49s CPU      0.55s WALL (       7 calls)


     PWSCF        :     13.44s CPU     13.42s WALL


   This run was terminated on:   7:35:13   1Oct2025            

=------------------------------------------------------------------------------=
   JOB DONE.
=------------------------------------------------------------------------------=
