
     Program PWSCF v.7.4.1 starts on 14Oct2025 at 23:30:20 

     This program is part of the open-source Quantum ESPRESSO suite
     for quantum simulation of materials; please cite
         "P. Giannozzi et al., J. Phys.:Condens. Matter 21 395502 (2009);
         "P. Giannozzi et al., J. Phys.:Condens. Matter 29 465901 (2017);
         "P. Giannozzi et al., J. Chem. Phys. 152 154105 (2020);
          URL http://www.quantum-espresso.org", 
     in publications or presentations arising from this work. More details at
     http://www.quantum-espresso.org/quote

     Serial version
     330 MiB available memory on the printing compute node when the environment starts

     Reading input from grap_SOC_scf.in

     Current dimensions of program PWSCF are:
     Max number of different atomic species (ntypx) = 10
     Max number of k-points (npk) =  40000
     Max angular momentum in pseudopotentials (lmaxx) =  4
     file C.rel-pbe-n-kjpaw.UPF: wavefunction(s)  2P 2P renormalized


     G-vector sticks info
     --------------------
     sticks:   dense  smooth     PW     G-vecs:    dense   smooth      PW
     Sum        1045     421    139               166859    42343    8205

     Using Slab Decomposition



     bravais-lattice index     =            0
     lattice parameter (alat)  =       4.6624  a.u.
     unit-cell volume          =     533.6317 (a.u.)^3
     number of atoms/cell      =            2
     number of atomic types    =            1
     number of electrons       =         8.00
     number of Kohn-Sham states=           16
     kinetic-energy cutoff     =      70.0000  Ry
     charge density cutoff     =     700.0000  Ry
     scf convergence threshold =      1.0E-08
     mixing beta               =       0.5000
     number of iterations used =            8  plain     mixing
     Exchange-correlation= SLA  PW   PBX  PBC
                           (   1   4   3   4   0   0   0)
     Non magnetic calculation with spin-orbit


     celldm(1)=   4.662410  celldm(2)=   0.000000  celldm(3)=   0.000000
     celldm(4)=   0.000000  celldm(5)=   0.000000  celldm(6)=   0.000000

     crystal axes: (cart. coord. in units of alat)
               a(1) = (   1.000000   0.000000  -0.000000 )  
               a(2) = (  -0.500000   0.866025   0.000000 )  
               a(3) = (  -0.000000   0.000000   6.079666 )  

     reciprocal axes: (cart. coord. in units 2 pi/alat)
               b(1) = (  1.000000  0.577350  0.000000 )  
               b(2) = ( -0.000000  1.154701 -0.000000 )  
               b(3) = (  0.000000  0.000000  0.164483 )  


     PseudoPot. # 1 for C  read from file:
     ../../../pseudos/C.rel-pbe-n-kjpaw.UPF
     MD5 check sum: 8ca7f8d5b29b973b07b5aad864045a33
     Pseudo is Projector augmented-wave + core cor, Zval =  4.0
     Generated using "atomic" code by A. Dal Corso  (Quantum ESPRESSO distribution)
     Shape of augmentation charge: BESSEL
     Using radial grid of 1073 points,  6 beta functions with: 
                l(1) =   0
                l(2) =   0
                l(3) =   1
                l(4) =   1
                l(5) =   1
                l(6) =   1
     Q(r) pseudized with 0 coefficients 


     atomic species   valence    mass     pseudopotential
     C                 4.00    12.01100     C ( 1.00)

     No symmetry found



   Cartesian axes

     site n.     atom                  positions (alat units)
         1        C      tau(   1) = (   0.0000000   0.0000000   0.0000000  )
         2        C      tau(   2) = (   0.0000000   0.5773503   0.0000000  )

     number of k points=    74  Gaussian smearing, width (Ry)=  0.0020
                       cart. coord. in units 2pi/alat
        k(    1) = (   0.0000000   0.0000000   0.0000000), wk =   0.0069444
        k(    2) = (   0.0000000   0.0962250   0.0000000), wk =   0.0138889
        k(    3) = (   0.0000000   0.1924501   0.0000000), wk =   0.0138889
        k(    4) = (   0.0000000   0.2886751   0.0000000), wk =   0.0138889
        k(    5) = (   0.0000000   0.3849002   0.0000000), wk =   0.0138889
        k(    6) = (   0.0000000   0.4811252   0.0000000), wk =   0.0138889
        k(    7) = (   0.0000000  -0.5773503   0.0000000), wk =   0.0069444
        k(    8) = (   0.0833333   0.0481125   0.0000000), wk =   0.0138889
        k(    9) = (   0.0833333   0.1443376   0.0000000), wk =   0.0138889
        k(   10) = (   0.0833333   0.2405626   0.0000000), wk =   0.0138889
        k(   11) = (   0.0833333   0.3367877   0.0000000), wk =   0.0138889
        k(   12) = (   0.0833333   0.4330127   0.0000000), wk =   0.0138889
        k(   13) = (   0.0833333   0.5292377   0.0000000), wk =   0.0138889
        k(   14) = (   0.0833333  -0.5292377   0.0000000), wk =   0.0138889
        k(   15) = (   0.0833333  -0.4330127   0.0000000), wk =   0.0138889
        k(   16) = (   0.0833333  -0.3367877   0.0000000), wk =   0.0138889
        k(   17) = (   0.0833333  -0.2405626   0.0000000), wk =   0.0138889
        k(   18) = (   0.0833333  -0.1443376   0.0000000), wk =   0.0138889
        k(   19) = (   0.0833333  -0.0481125   0.0000000), wk =   0.0138889
        k(   20) = (   0.1666667   0.0962250   0.0000000), wk =   0.0138889
        k(   21) = (   0.1666667   0.1924501   0.0000000), wk =   0.0138889
        k(   22) = (   0.1666667   0.2886751   0.0000000), wk =   0.0138889
        k(   23) = (   0.1666667   0.3849002   0.0000000), wk =   0.0138889
        k(   24) = (   0.1666667   0.4811252   0.0000000), wk =   0.0138889
        k(   25) = (   0.1666667   0.5773503   0.0000000), wk =   0.0138889
        k(   26) = (   0.1666667  -0.4811252   0.0000000), wk =   0.0138889
        k(   27) = (   0.1666667  -0.3849002   0.0000000), wk =   0.0138889
        k(   28) = (   0.1666667  -0.2886751   0.0000000), wk =   0.0138889
        k(   29) = (   0.1666667  -0.1924501   0.0000000), wk =   0.0138889
        k(   30) = (   0.1666667  -0.0962250   0.0000000), wk =   0.0138889
        k(   31) = (   0.1666667  -0.0000000   0.0000000), wk =   0.0138889
        k(   32) = (   0.2500000   0.1443376   0.0000000), wk =   0.0138889
        k(   33) = (   0.2500000   0.2405626   0.0000000), wk =   0.0138889
        k(   34) = (   0.2500000   0.3367877   0.0000000), wk =   0.0138889
        k(   35) = (   0.2500000   0.4330127   0.0000000), wk =   0.0138889
        k(   36) = (   0.2500000   0.5292377   0.0000000), wk =   0.0138889
        k(   37) = (   0.2500000   0.6254628   0.0000000), wk =   0.0138889
        k(   38) = (   0.2500000  -0.4330127   0.0000000), wk =   0.0138889
        k(   39) = (   0.2500000  -0.3367877   0.0000000), wk =   0.0138889
        k(   40) = (   0.2500000  -0.2405626   0.0000000), wk =   0.0138889
        k(   41) = (   0.2500000  -0.1443376   0.0000000), wk =   0.0138889
        k(   42) = (   0.2500000  -0.0481125   0.0000000), wk =   0.0138889
        k(   43) = (   0.2500000   0.0481125   0.0000000), wk =   0.0138889
        k(   44) = (   0.3333333   0.1924501   0.0000000), wk =   0.0138889
        k(   45) = (   0.3333333   0.2886751   0.0000000), wk =   0.0138889
        k(   46) = (   0.3333333   0.3849002   0.0000000), wk =   0.0138889
        k(   47) = (   0.3333333   0.4811252   0.0000000), wk =   0.0138889
        k(   48) = (   0.3333333   0.5773503   0.0000000), wk =   0.0138889
        k(   49) = (   0.3333333   0.6735753   0.0000000), wk =   0.0138889
        k(   50) = (   0.3333333  -0.3849002   0.0000000), wk =   0.0138889
        k(   51) = (   0.3333333  -0.2886751   0.0000000), wk =   0.0138889
        k(   52) = (   0.3333333  -0.1924501   0.0000000), wk =   0.0138889
        k(   53) = (   0.3333333  -0.0962250   0.0000000), wk =   0.0138889
        k(   54) = (   0.3333333   0.0000000   0.0000000), wk =   0.0138889
        k(   55) = (   0.3333333   0.0962250   0.0000000), wk =   0.0138889
        k(   56) = (   0.4166667   0.2405626   0.0000000), wk =   0.0138889
        k(   57) = (   0.4166667   0.3367877   0.0000000), wk =   0.0138889
        k(   58) = (   0.4166667   0.4330127   0.0000000), wk =   0.0138889
        k(   59) = (   0.4166667   0.5292377   0.0000000), wk =   0.0138889
        k(   60) = (   0.4166667   0.6254628   0.0000000), wk =   0.0138889
        k(   61) = (   0.4166667   0.7216878   0.0000000), wk =   0.0138889
        k(   62) = (   0.4166667  -0.3367877   0.0000000), wk =   0.0138889
        k(   63) = (   0.4166667  -0.2405626   0.0000000), wk =   0.0138889
        k(   64) = (   0.4166667  -0.1443376   0.0000000), wk =   0.0138889
        k(   65) = (   0.4166667  -0.0481125   0.0000000), wk =   0.0138889
        k(   66) = (   0.4166667   0.0481125   0.0000000), wk =   0.0138889
        k(   67) = (   0.4166667   0.1443376   0.0000000), wk =   0.0138889
        k(   68) = (  -0.5000000  -0.2886751   0.0000000), wk =   0.0069444
        k(   69) = (  -0.5000000  -0.1924501   0.0000000), wk =   0.0138889
        k(   70) = (  -0.5000000  -0.0962250   0.0000000), wk =   0.0138889
        k(   71) = (  -0.5000000   0.0000000   0.0000000), wk =   0.0138889
        k(   72) = (  -0.5000000   0.0962250   0.0000000), wk =   0.0138889
        k(   73) = (  -0.5000000   0.1924501   0.0000000), wk =   0.0138889
        k(   74) = (  -0.5000000  -0.8660254   0.0000000), wk =   0.0069444

     Dense  grid:   166859 G-vectors     FFT dimensions: (  40,  40, 240)

     Smooth grid:    42343 G-vectors     FFT dimensions: (  25,  25, 160)

     Estimated max dynamical RAM per process >     798.94 MB

     Initial potential from superposition of free atoms

     starting charge       7.9999, renormalised to       8.0000

     negative rho (up, down):  2.781E-05 0.000E+00
     Starting wfcs are random

     total cpu time spent up to now is        9.8 secs

     Self-consistent Calculation

     iteration #  1     ecut=    70.00 Ry     beta= 0.50
     Davidson diagonalization with overlap
     ethr =  1.00E-02,  avg # of iterations =  8.8

     negative rho (up, down):  3.916E-06 0.000E+00

     total cpu time spent up to now is      105.0 secs

     total energy              =     -36.87682613 Ry
     estimated scf accuracy    <       0.20213640 Ry

     iteration #  2     ecut=    70.00 Ry     beta= 0.50
     Davidson diagonalization with overlap
     ethr =  2.53E-03,  avg # of iterations =  1.0

     negative rho (up, down):  2.314E-06 0.000E+00

     total cpu time spent up to now is      123.0 secs

     total energy              =     -36.86649090 Ry
     estimated scf accuracy    <       0.03122890 Ry

     iteration #  3     ecut=    70.00 Ry     beta= 0.50
     Davidson diagonalization with overlap
     ethr =  3.90E-04,  avg # of iterations =  5.9

     negative rho (up, down):  2.505E-07 0.000E+00

     total cpu time spent up to now is      163.2 secs

     total energy              =     -36.89118010 Ry
     estimated scf accuracy    <       0.00989879 Ry

     iteration #  4     ecut=    70.00 Ry     beta= 0.50
     Davidson diagonalization with overlap
     ethr =  1.24E-04,  avg # of iterations =  1.1

     negative rho (up, down):  4.629E-05 0.000E+00

     total cpu time spent up to now is      181.3 secs

     total energy              =     -36.88696495 Ry
     estimated scf accuracy    <       0.00662132 Ry

     iteration #  5     ecut=    70.00 Ry     beta= 0.50
     Davidson diagonalization with overlap
     ethr =  8.28E-05,  avg # of iterations =  4.6

     negative rho (up, down):  4.823E-06 0.000E+00

     total cpu time spent up to now is      213.0 secs

     total energy              =     -36.88817021 Ry
     estimated scf accuracy    <       0.00442090 Ry

     iteration #  6     ecut=    70.00 Ry     beta= 0.50
     Davidson diagonalization with overlap
     ethr =  5.53E-05,  avg # of iterations =  1.3

     negative rho (up, down):  2.779E-06 0.000E+00

     total cpu time spent up to now is      231.9 secs

     total energy              =     -36.88839768 Ry
     estimated scf accuracy    <       0.00023576 Ry

     iteration #  7     ecut=    70.00 Ry     beta= 0.50
     Davidson diagonalization with overlap
     ethr =  2.95E-06,  avg # of iterations =  5.3

     negative rho (up, down):  3.451E-06 0.000E+00

     total cpu time spent up to now is      274.0 secs

     total energy              =     -36.88890615 Ry
     estimated scf accuracy    <       0.00001420 Ry

     iteration #  8     ecut=    70.00 Ry     beta= 0.50
     Davidson diagonalization with overlap
     ethr =  1.77E-07,  avg # of iterations =  1.1

     negative rho (up, down):  7.657E-06 0.000E+00

     total cpu time spent up to now is      292.1 secs

     total energy              =     -36.88890131 Ry
     estimated scf accuracy    <       0.00000916 Ry

     iteration #  9     ecut=    70.00 Ry     beta= 0.50
     Davidson diagonalization with overlap
     ethr =  1.15E-07,  avg # of iterations =  3.9

     negative rho (up, down):  8.783E-06 0.000E+00

     total cpu time spent up to now is      318.2 secs

     total energy              =     -36.88890512 Ry
     estimated scf accuracy    <       0.00000541 Ry

     iteration # 10     ecut=    70.00 Ry     beta= 0.50
     Davidson diagonalization with overlap
     ethr =  6.77E-08,  avg # of iterations =  1.4

     negative rho (up, down):  6.838E-06 0.000E+00

     total cpu time spent up to now is      337.6 secs

     total energy              =     -36.88890265 Ry
     estimated scf accuracy    <       0.00000437 Ry

     iteration # 11     ecut=    70.00 Ry     beta= 0.50
     Davidson diagonalization with overlap
     ethr =  5.46E-08,  avg # of iterations =  1.2

     negative rho (up, down):  6.826E-06 0.000E+00

     total cpu time spent up to now is      356.8 secs

     total energy              =     -36.88890305 Ry
     estimated scf accuracy    <       0.00000007 Ry

     iteration # 12     ecut=    70.00 Ry     beta= 0.50
     Davidson diagonalization with overlap
     ethr =  9.21E-10,  avg # of iterations =  4.7

     negative rho (up, down):  6.864E-06 0.000E+00

     total cpu time spent up to now is      391.9 secs

     total energy              =     -36.88890371 Ry
     estimated scf accuracy    <       0.00000019 Ry

     iteration # 13     ecut=    70.00 Ry     beta= 0.50
     Davidson diagonalization with overlap
     ethr =  9.21E-10,  avg # of iterations =  1.0

     negative rho (up, down):  7.106E-06 0.000E+00

     total cpu time spent up to now is      410.8 secs

     total energy              =     -36.88890361 Ry
     estimated scf accuracy    <       0.00000019 Ry

     iteration # 14     ecut=    70.00 Ry     beta= 0.50
     Davidson diagonalization with overlap
     ethr =  9.21E-10,  avg # of iterations =  2.5

     negative rho (up, down):  7.060E-06 0.000E+00

     total cpu time spent up to now is      431.1 secs

     total energy              =     -36.88890361 Ry
     estimated scf accuracy    <       0.00000002 Ry

     iteration # 15     ecut=    70.00 Ry     beta= 0.50
     Davidson diagonalization with overlap
     ethr =  2.02E-10,  avg # of iterations =  4.0

     negative rho (up, down):  7.074E-06 0.000E+00

     total cpu time spent up to now is      460.4 secs

     End of self-consistent calculation

          k = 0.0000 0.0000 0.0000 (  5307 PWs)   bands (ev):

   -21.2376 -21.2376  -9.3330  -9.3330  -4.7875  -4.7875  -4.7782  -4.7782
     1.5193   1.5193   2.4163   2.4163   2.8580   2.8580   4.7527   4.7527

          k = 0.0000 0.0962 0.0000 (  5285 PWs)   bands (ev):

   -21.0738 -21.0738  -9.1374  -9.1374  -5.4327  -5.4327  -5.1201  -5.1201
     1.7420   1.7420   2.6409   2.6409   3.0846   3.0846   4.9757   4.9757

          k = 0.0000 0.1925 0.0000 (  5253 PWs)   bands (ev):

   -20.5844 -20.5844  -8.5558  -8.5558  -7.0683  -7.0683  -5.9102  -5.9102
     2.4102   2.4102   3.3131   3.3131   3.7645   3.7645   5.6416   5.6416

          k = 0.0000 0.2887 0.0000 (  5269 PWs)   bands (ev):

   -19.7750 -19.7750  -9.1640  -9.1640  -7.6074  -7.6074  -6.7874  -6.7874
     3.5216   3.5216   4.4131   4.4131   4.8964   4.8964   5.5230   5.5230

          k = 0.0000 0.3849 0.0000 (  5285 PWs)   bands (ev):

   -18.6578 -18.6578 -11.3645 -11.3645  -7.5188  -7.5188  -6.3423  -6.3423
     3.1774   3.1774   5.0640   5.0640   5.9628   5.9628   6.0160   6.0160

          k = 0.0000 0.4811 0.0000 (  5290 PWs)   bands (ev):

   -17.2643 -17.2643 -13.4616 -13.4616  -7.9904  -7.9904  -4.9234  -4.9234
     1.0475   1.0475   5.7075   5.7075   7.0719   7.0719   7.9988   7.9988

          k = 0.0000-0.5774 0.0000 (  5288 PWs)   bands (ev):

   -16.0065 -16.0065 -14.9618 -14.9618  -8.1523  -8.1523  -4.0812  -4.0812
    -0.0473  -0.0473   5.6281   5.6281   9.3726   9.3726   9.5235   9.5235

          k = 0.0833 0.0481 0.0000 (  5285 PWs)   bands (ev):

   -21.0738 -21.0738  -9.1374  -9.1374  -5.4327  -5.4327  -5.1201  -5.1201
     1.7420   1.7420   2.6409   2.6409   3.0846   3.0846   4.9757   4.9757

          k = 0.0833 0.1443 0.0000 (  5269 PWs)   bands (ev):

   -20.7472 -20.7472  -8.7487  -8.7487  -6.4653  -6.4653  -5.7956  -5.7956
     2.1877   2.1877   3.0894   3.0894   3.5380   3.5380   5.4207   5.4207

          k = 0.0833 0.2406 0.0000 (  5261 PWs)   bands (ev):

   -20.0978 -20.0978  -8.1730  -8.1730  -7.9825  -7.9825  -6.7911  -6.7911
     3.0783   3.0783   3.9824   3.9824   4.4448   4.4448   6.2642   6.2643

          k = 0.0833 0.3368 0.0000 (  5275 PWs)   bands (ev):

   -19.1343 -19.1343 -10.2433 -10.2433  -7.6752  -7.6752  -6.8693  -6.8693
     4.1870   4.1870   4.4097   4.4097   5.3430   5.3430   5.8021   5.8021

          k = 0.0833 0.4330 0.0000 (  5284 PWs)   bands (ev):

   -17.8758 -17.8758 -12.3633 -12.3633  -8.3086  -8.3086  -5.4933  -5.4933
     1.9920   1.9920   6.1514   6.1514   6.5658   6.5658   7.0998   7.0998

          k = 0.0833 0.5292 0.0000 (  5302 PWs)   bands (ev):

   -16.3997 -16.3997 -14.3008 -14.3008  -8.6362  -8.6362  -4.1875  -4.1875
     0.2279   0.2279   6.3661   6.3661   8.3687   8.3687   9.2472   9.2472

          k = 0.0833-0.5292 0.0000 (  5302 PWs)   bands (ev):

   -16.3997 -16.3997 -14.3008 -14.3008  -8.6362  -8.6362  -4.1875  -4.1875
     0.2279   0.2279   6.3661   6.3661   8.3687   8.3687   9.2472   9.2472

          k = 0.0833-0.4330 0.0000 (  5284 PWs)   bands (ev):

   -17.8758 -17.8758 -12.3633 -12.3633  -8.3086  -8.3086  -5.4933  -5.4933
     1.9920   1.9920   6.1514   6.1514   6.5658   6.5658   7.0998   7.0998

          k = 0.0833-0.3368 0.0000 (  5275 PWs)   bands (ev):

   -19.1343 -19.1343 -10.2433 -10.2433  -7.6752  -7.6752  -6.8693  -6.8693
     4.1870   4.1870   4.4097   4.4097   5.3430   5.3430   5.8021   5.8021

          k = 0.0833-0.2406 0.0000 (  5261 PWs)   bands (ev):

   -20.0978 -20.0978  -8.1730  -8.1730  -7.9825  -7.9825  -6.7911  -6.7911
     3.0783   3.0783   3.9824   3.9824   4.4448   4.4448   6.2642   6.2643

          k = 0.0833-0.1443 0.0000 (  5269 PWs)   bands (ev):

   -20.7472 -20.7472  -8.7487  -8.7487  -6.4653  -6.4653  -5.7956  -5.7956
     2.1877   2.1877   3.0894   3.0894   3.5380   3.5380   5.4207   5.4207

          k = 0.0833-0.0481 0.0000 (  5285 PWs)   bands (ev):

   -21.0738 -21.0738  -9.1374  -9.1374  -5.4327  -5.4327  -5.1201  -5.1201
     1.7420   1.7420   2.6409   2.6409   3.0846   3.0846   4.9757   4.9757

          k = 0.1667 0.0962 0.0000 (  5253 PWs)   bands (ev):

   -20.5844 -20.5844  -8.5558  -8.5558  -7.0683  -7.0683  -5.9102  -5.9102
     2.4102   2.4102   3.3131   3.3131   3.7645   3.7645   5.6416   5.6416

          k = 0.1667 0.1925 0.0000 (  5261 PWs)   bands (ev):

   -20.0978 -20.0978  -8.1730  -8.1730  -7.9825  -7.9825  -6.7911  -6.7911
     3.0783   3.0783   3.9824   3.9824   4.4448   4.4448   6.2643   6.2645

          k = 0.1667 0.2887 0.0000 (  5288 PWs)   bands (ev):

   -19.2943 -19.2943  -9.5026  -9.5026  -8.1498  -8.1498  -7.0476  -7.0476
     4.1899   4.1899   4.6420   4.6420   5.0918   5.0918   5.5784   5.5784

          k = 0.1667 0.3849 0.0000 (  5285 PWs)   bands (ev):

   -18.1879 -18.1879 -11.2276 -11.2276  -9.2043  -9.2043  -5.7978  -5.7978
     2.6988   2.6988   5.7370   5.7370   6.6213   6.6213   7.1624   7.1624

          k = 0.1667 0.4811 0.0000 (  5283 PWs)   bands (ev):

   -16.8143 -16.8143 -13.1351 -13.1351  -9.7796  -9.7796  -4.3747  -4.3747
     0.7913   0.7913   7.6917   7.6917   8.2800   8.2800   8.4893   8.4893

          k = 0.1667 0.5774 0.0000 (  5264 PWs)   bands (ev):

   -15.5852 -15.5852 -14.5644 -14.5644  -9.9642  -9.9642  -3.4845  -3.4845
    -0.2740  -0.2740   8.1729   8.1729   9.8750   9.8750   9.9335   9.9335

          k = 0.1667-0.4811 0.0000 (  5283 PWs)   bands (ev):

   -16.8143 -16.8143 -13.1351 -13.1351  -9.7796  -9.7796  -4.3747  -4.3747
     0.7913   0.7913   7.6917   7.6917   8.2800   8.2800   8.4893   8.4893

          k = 0.1667-0.3849 0.0000 (  5285 PWs)   bands (ev):

   -18.1879 -18.1879 -11.2276 -11.2276  -9.2043  -9.2043  -5.7978  -5.7978
     2.6988   2.6988   5.7370   5.7370   6.6213   6.6213   7.1624   7.1624

          k = 0.1667-0.2887 0.0000 (  5288 PWs)   bands (ev):

   -19.2943 -19.2943  -9.5026  -9.5026  -8.1498  -8.1498  -7.0476  -7.0476
     4.1899   4.1899   4.6420   4.6420   5.0918   5.0918   5.5784   5.5784

          k = 0.1667-0.1925 0.0000 (  5261 PWs)   bands (ev):

   -20.0978 -20.0978  -8.1730  -8.1730  -7.9825  -7.9825  -6.7911  -6.7911
     3.0783   3.0783   3.9824   3.9824   4.4448   4.4448   6.2643   6.2644

          k = 0.1667-0.0962 0.0000 (  5253 PWs)   bands (ev):

   -20.5844 -20.5844  -8.5558  -8.5558  -7.0683  -7.0683  -5.9102  -5.9102
     2.4102   2.4102   3.3131   3.3131   3.7645   3.7645   5.6416   5.6416

          k = 0.1667-0.0000 0.0000 (  5269 PWs)   bands (ev):

   -20.7472 -20.7472  -8.7487  -8.7487  -6.4653  -6.4653  -5.7956  -5.7956
     2.1877   2.1877   3.0894   3.0894   3.5380   3.5380   5.4207   5.4207

          k = 0.2500 0.1443 0.0000 (  5269 PWs)   bands (ev):

   -19.7750 -19.7750  -9.1640  -9.1640  -7.6074  -7.6074  -6.7874  -6.7874
     3.5216   3.5216   4.4131   4.4131   4.8964   4.8964   5.5230   5.5230

          k = 0.2500 0.2406 0.0000 (  5275 PWs)   bands (ev):

   -19.1343 -19.1343 -10.2433 -10.2433  -7.6752  -7.6752  -6.8693  -6.8693
     4.1870   4.1870   4.4097   4.4097   5.3430   5.3430   5.8021   5.8021

          k = 0.2500 0.3368 0.0000 (  5285 PWs)   bands (ev):

   -18.1879 -18.1879 -11.2276 -11.2276  -9.2043  -9.2043  -5.7978  -5.7978
     2.6988   2.6988   5.7370   5.7370   6.6213   6.6213   7.1624   7.1624

          k = 0.2500 0.4330 0.0000 (  5268 PWs)   bands (ev):

   -16.9616 -16.9616 -12.2636 -12.2636 -10.6836 -10.6836  -4.4585  -4.4585
     1.0879   1.0879   7.4838   7.4838   8.1981   8.1981   8.9684   8.9684

          k = 0.2500 0.5292 0.0000 (  5282 PWs)   bands (ev):

   -15.5423 -15.5423 -13.6818 -13.6818 -11.3905 -11.3905  -3.0764  -3.0764
    -0.4286  -0.4286   9.1407   9.1407   9.5746   9.5746  10.4411  10.4411

          k = 0.2500 0.6255 0.0000 (  5282 PWs)   bands (ev):

   -15.5423 -15.5423 -13.6818 -13.6818 -11.3905 -11.3905  -3.0764  -3.0764
    -0.4286  -0.4286   9.1407   9.1407   9.5746   9.5746  10.4411  10.4411

          k = 0.2500-0.4330 0.0000 (  5268 PWs)   bands (ev):

   -16.9616 -16.9616 -12.2636 -12.2636 -10.6836 -10.6836  -4.4585  -4.4585
     1.0879   1.0879   7.4838   7.4838   8.1981   8.1981   8.9684   8.9684

          k = 0.2500-0.3368 0.0000 (  5285 PWs)   bands (ev):

   -18.1879 -18.1879 -11.2276 -11.2276  -9.2043  -9.2043  -5.7978  -5.7978
     2.6988   2.6988   5.7370   5.7370   6.6213   6.6213   7.1624   7.1624

          k = 0.2500-0.2406 0.0000 (  5275 PWs)   bands (ev):

   -19.1343 -19.1343 -10.2433 -10.2433  -7.6752  -7.6752  -6.8693  -6.8693
     4.1870   4.1870   4.4097   4.4097   5.3430   5.3430   5.8021   5.8021

          k = 0.2500-0.1443 0.0000 (  5269 PWs)   bands (ev):

   -19.7750 -19.7750  -9.1640  -9.1640  -7.6074  -7.6074  -6.7874  -6.7874
     3.5216   3.5216   4.4131   4.4131   4.8964   4.8964   5.5230   5.5230

          k = 0.2500-0.0481 0.0000 (  5261 PWs)   bands (ev):

   -20.0978 -20.0978  -8.1730  -8.1730  -7.9825  -7.9825  -6.7911  -6.7911
     3.0783   3.0783   3.9824   3.9824   4.4448   4.4448   6.2643   6.2644

          k = 0.2500 0.0481 0.0000 (  5261 PWs)   bands (ev):

   -20.0978 -20.0978  -8.1730  -8.1730  -7.9825  -7.9825  -6.7911  -6.7911
     3.0783   3.0783   3.9824   3.9824   4.4448   4.4448   6.2642   6.2644

          k = 0.3333 0.1925 0.0000 (  5285 PWs)   bands (ev):

   -18.6578 -18.6578 -11.3645 -11.3645  -7.5188  -7.5188  -6.3423  -6.3423
     3.1774   3.1774   5.0640   5.0640   5.9628   5.9628   6.0160   6.0160

          k = 0.3333 0.2887 0.0000 (  5284 PWs)   bands (ev):

   -17.8758 -17.8758 -12.3633 -12.3633  -8.3086  -8.3086  -5.4933  -5.4933
     1.9920   1.9920   6.1514   6.1514   6.5658   6.5658   7.0998   7.0998

          k = 0.3333 0.3849 0.0000 (  5283 PWs)   bands (ev):

   -16.8143 -16.8143 -13.1351 -13.1351  -9.7796  -9.7796  -4.3747  -4.3747
     0.7913   0.7913   7.6917   7.6917   8.2800   8.2800   8.4893   8.4893

          k = 0.3333 0.4811 0.0000 (  5282 PWs)   bands (ev):

   -15.5423 -15.5423 -13.6818 -13.6818 -11.3905 -11.3905  -3.0764  -3.0764
    -0.4286  -0.4286   9.1407   9.1407   9.5746   9.5746  10.4411  10.4411

          k = 0.3333 0.5774 0.0000 (  5292 PWs)   bands (ev):

   -14.3286 -14.3286 -14.3265 -14.3265 -12.2808 -12.2808  -1.7237  -1.7237
    -1.7237  -1.7237   8.8792   8.8792  11.1359  11.1359  11.1400  11.1400

          k = 0.3333 0.6736 0.0000 (  5282 PWs)   bands (ev):

   -15.5423 -15.5423 -13.6818 -13.6818 -11.3905 -11.3905  -3.0764  -3.0764
    -0.4286  -0.4286   9.1407   9.1407   9.5746   9.5746  10.4411  10.4411

          k = 0.3333-0.3849 0.0000 (  5283 PWs)   bands (ev):

   -16.8143 -16.8143 -13.1351 -13.1351  -9.7796  -9.7796  -4.3747  -4.3747
     0.7913   0.7913   7.6917   7.6917   8.2800   8.2800   8.4893   8.4893

          k = 0.3333-0.2887 0.0000 (  5284 PWs)   bands (ev):

   -17.8758 -17.8758 -12.3633 -12.3633  -8.3086  -8.3086  -5.4933  -5.4933
     1.9920   1.9920   6.1514   6.1514   6.5658   6.5658   7.0998   7.0998

          k = 0.3333-0.1925 0.0000 (  5285 PWs)   bands (ev):

   -18.6578 -18.6578 -11.3645 -11.3645  -7.5188  -7.5188  -6.3423  -6.3423
     3.1774   3.1774   5.0640   5.0640   5.9628   5.9628   6.0160   6.0160

          k = 0.3333-0.0962 0.0000 (  5275 PWs)   bands (ev):

   -19.1343 -19.1343 -10.2433 -10.2433  -7.6752  -7.6752  -6.8693  -6.8693
     4.1870   4.1870   4.4097   4.4097   5.3430   5.3430   5.8021   5.8021

          k = 0.3333 0.0000 0.0000 (  5288 PWs)   bands (ev):

   -19.2943 -19.2943  -9.5026  -9.5026  -8.1498  -8.1498  -7.0476  -7.0476
     4.1899   4.1899   4.6420   4.6420   5.0918   5.0918   5.5784   5.5784

          k = 0.3333 0.0962 0.0000 (  5275 PWs)   bands (ev):

   -19.1343 -19.1343 -10.2433 -10.2433  -7.6752  -7.6752  -6.8693  -6.8693
     4.1870   4.1870   4.4097   4.4097   5.3430   5.3430   5.8021   5.8021

          k = 0.4167 0.2406 0.0000 (  5290 PWs)   bands (ev):

   -17.2643 -17.2643 -13.4616 -13.4616  -7.9904  -7.9904  -4.9234  -4.9234
     1.0475   1.0475   5.7075   5.7075   7.0719   7.0719   7.9988   7.9988

          k = 0.4167 0.3368 0.0000 (  5302 PWs)   bands (ev):

   -16.3997 -16.3997 -14.3008 -14.3008  -8.6362  -8.6362  -4.1875  -4.1875
     0.2279   0.2279   6.3661   6.3661   8.3687   8.3687   9.2472   9.2472

          k = 0.4167 0.4330 0.0000 (  5264 PWs)   bands (ev):

   -15.5852 -15.5852 -14.5644 -14.5644  -9.9642  -9.9642  -3.4845  -3.4845
    -0.2740  -0.2740   8.1729   8.1729   9.8750   9.8750   9.9335   9.9335

          k = 0.4167 0.5292 0.0000 (  5282 PWs)   bands (ev):

   -15.5423 -15.5423 -13.6818 -13.6818 -11.3905 -11.3905  -3.0764  -3.0764
    -0.4286  -0.4286   9.1407   9.1407   9.5746   9.5746  10.4411  10.4411

          k = 0.4167 0.6255 0.0000 (  5282 PWs)   bands (ev):

   -15.5423 -15.5423 -13.6818 -13.6818 -11.3905 -11.3905  -3.0764  -3.0764
    -0.4286  -0.4286   9.1407   9.1407   9.5746   9.5746  10.4411  10.4411

          k = 0.4167 0.7217 0.0000 (  5264 PWs)   bands (ev):

   -15.5852 -15.5852 -14.5644 -14.5644  -9.9642  -9.9642  -3.4845  -3.4845
    -0.2740  -0.2740   8.1729   8.1729   9.8750   9.8750   9.9335   9.9335

          k = 0.4167-0.3368 0.0000 (  5302 PWs)   bands (ev):

   -16.3997 -16.3997 -14.3008 -14.3008  -8.6362  -8.6362  -4.1875  -4.1875
     0.2279   0.2279   6.3661   6.3661   8.3687   8.3687   9.2472   9.2472

          k = 0.4167-0.2406 0.0000 (  5290 PWs)   bands (ev):

   -17.2643 -17.2643 -13.4616 -13.4616  -7.9904  -7.9904  -4.9234  -4.9234
     1.0475   1.0475   5.7075   5.7075   7.0719   7.0719   7.9988   7.9988

          k = 0.4167-0.1443 0.0000 (  5284 PWs)   bands (ev):

   -17.8758 -17.8758 -12.3633 -12.3633  -8.3086  -8.3086  -5.4933  -5.4933
     1.9920   1.9920   6.1514   6.1514   6.5658   6.5658   7.0998   7.0998

          k = 0.4167-0.0481 0.0000 (  5285 PWs)   bands (ev):

   -18.1879 -18.1879 -11.2276 -11.2276  -9.2043  -9.2043  -5.7978  -5.7978
     2.6988   2.6988   5.7370   5.7370   6.6213   6.6213   7.1624   7.1624

          k = 0.4167 0.0481 0.0000 (  5285 PWs)   bands (ev):

   -18.1879 -18.1879 -11.2276 -11.2276  -9.2043  -9.2043  -5.7978  -5.7978
     2.6988   2.6988   5.7370   5.7370   6.6213   6.6213   7.1624   7.1624

          k = 0.4167 0.1443 0.0000 (  5284 PWs)   bands (ev):

   -17.8758 -17.8758 -12.3633 -12.3633  -8.3086  -8.3086  -5.4933  -5.4933
     1.9920   1.9920   6.1514   6.1514   6.5658   6.5658   7.0998   7.0998

          k =-0.5000-0.2887 0.0000 (  5288 PWs)   bands (ev):

   -16.0065 -16.0065 -14.9618 -14.9618  -8.1523  -8.1523  -4.0812  -4.0812
    -0.0473  -0.0473   5.6281   5.6281   9.3726   9.3726   9.5235   9.5235

          k =-0.5000-0.1925 0.0000 (  5302 PWs)   bands (ev):

   -16.3997 -16.3997 -14.3008 -14.3008  -8.6362  -8.6362  -4.1875  -4.1875
     0.2279   0.2279   6.3661   6.3661   8.3687   8.3687   9.2472   9.2472

          k =-0.5000-0.0962 0.0000 (  5283 PWs)   bands (ev):

   -16.8143 -16.8143 -13.1351 -13.1351  -9.7796  -9.7796  -4.3747  -4.3747
     0.7913   0.7913   7.6917   7.6917   8.2800   8.2800   8.4893   8.4893

          k =-0.5000 0.0000 0.0000 (  5268 PWs)   bands (ev):

   -16.9616 -16.9616 -12.2636 -12.2636 -10.6836 -10.6836  -4.4585  -4.4585
     1.0879   1.0879   7.4838   7.4838   8.1981   8.1981   8.9684   8.9684

          k =-0.5000 0.0962 0.0000 (  5283 PWs)   bands (ev):

   -16.8143 -16.8143 -13.1351 -13.1351  -9.7796  -9.7796  -4.3747  -4.3747
     0.7913   0.7913   7.6917   7.6917   8.2800   8.2800   8.4893   8.4893

          k =-0.5000 0.1925 0.0000 (  5302 PWs)   bands (ev):

   -16.3997 -16.3997 -14.3008 -14.3008  -8.6362  -8.6362  -4.1875  -4.1875
     0.2279   0.2279   6.3661   6.3661   8.3687   8.3687   9.2472   9.2472

          k =-0.5000-0.8660 0.0000 (  5288 PWs)   bands (ev):

   -16.0065 -16.0065 -14.9618 -14.9618  -8.1523  -8.1523  -4.0812  -4.0812
    -0.0473  -0.0473   5.6281   5.6281   9.3726   9.3726   9.5235   9.5235

     the Fermi energy is    -1.7237 ev

!    total energy              =     -36.88890362 Ry
     total all-electron energy =      -152.417195 Ry
     estimated scf accuracy    <          3.5E-10 Ry
     smearing contrib. (-TS)   =      -0.00003134 Ry
     internal energy E=F+TS    =     -36.88887228 Ry

     The total energy is F=E-TS. E is the sum of the following terms:
     one-electron contribution =    -156.62343973 Ry
     hartree contribution      =      79.91862253 Ry
     xc contribution           =      -8.28627084 Ry
     ewald contribution        =      61.40972547 Ry
     one-center paw contrib.   =     -13.30750972 Ry

     convergence has been achieved in  15 iterations

     negative rho (up, down):  7.074E-06 0.000E+00

     Forces acting on atoms (cartesian axes, Ry/au):

     atom    1 type  1   force =     0.00000008    0.00000002   -0.00000005
     atom    2 type  1   force =    -0.00000008   -0.00000002    0.00000005

     Total force =     0.000000     Total SCF correction =     0.000004
     SCF correction compared to forces is large: reduce conv_thr to get better values


     Computing stress (Cartesian axis) and pressure


     negative rho (up, down):  7.074E-06 0.000E+00
          total   stress  (Ry/bohr**3)                   (kbar)     P=       -0.87
  -0.00000843   0.00000000  -0.00000000           -1.24        0.00       -0.00
   0.00000000  -0.00000843  -0.00000000            0.00       -1.24       -0.00
  -0.00000000  -0.00000000  -0.00000092           -0.00       -0.00       -0.13


     Writing all to output data dir ./tmp/graphene.save/ :
     XML data file, charge density, pseudopotentials, collected wavefunctions

     init_run     :      9.24s CPU      9.58s WALL (       1 calls)
     electrons    :    446.12s CPU    450.63s WALL (       1 calls)
     forces       :      2.71s CPU      2.81s WALL (       1 calls)
     stress       :      9.94s CPU     10.22s WALL (       1 calls)

     Called by init_run:
     wfcinit      :      7.64s CPU      7.75s WALL (       1 calls)
     potinit      :      0.54s CPU      0.61s WALL (       1 calls)
     hinit0       :      0.77s CPU      0.81s WALL (       1 calls)

     Called by electrons:
     c_bands      :    396.84s CPU    398.46s WALL (      15 calls)
     sum_band     :     42.35s CPU     43.90s WALL (      15 calls)
     v_of_rho     :      1.51s CPU      1.55s WALL (      16 calls)
     newd         :      3.63s CPU      5.01s WALL (      16 calls)
     PAW_pot      :      0.95s CPU      0.98s WALL (      16 calls)
     mix_rho      :      0.79s CPU      0.80s WALL (      15 calls)

     Called by c_bands:
     init_us_2    :      2.16s CPU      2.18s WALL (    2442 calls)
     cegterg      :    388.79s CPU    390.38s WALL (    1110 calls)

     Called by *egterg:
     cdiaghg      :      4.46s CPU      4.48s WALL (    4644 calls)
     h_psi        :    237.12s CPU    238.09s WALL (    4718 calls)
     s_psi        :     24.27s CPU     24.34s WALL (    4718 calls)
     g_psi        :      1.15s CPU      1.15s WALL (    3534 calls)

     Called by h_psi:
     h_psi:calbec :     23.87s CPU     23.91s WALL (    4718 calls)
     vloc_psi     :    187.95s CPU    188.46s WALL (    4718 calls)
     add_vuspsi   :     24.27s CPU     24.29s WALL (    4718 calls)

     General routines
     calbec       :     39.92s CPU     39.96s WALL (    7086 calls)
     fft          :      1.82s CPU      1.84s WALL (     414 calls)
     ffts         :      0.39s CPU      0.39s WALL (     124 calls)
     fftw         :    110.75s CPU    110.99s WALL (  255680 calls)
     interpolate  :      0.63s CPU      0.63s WALL (      64 calls)


     PWSCF        :   7m48.16s CPU   7m53.56s WALL


   This run was terminated on:  23:38:13  14Oct2025            

=------------------------------------------------------------------------------=
   JOB DONE.
=------------------------------------------------------------------------------=
