
     Program PWSCF v.7.4.1 starts on 20Jan2026 at 23:22:19 

     This program is part of the open-source Quantum ESPRESSO suite
     for quantum simulation of materials; please cite
         "P. Giannozzi et al., J. Phys.:Condens. Matter 21 395502 (2009);
         "P. Giannozzi et al., J. Phys.:Condens. Matter 29 465901 (2017);
         "P. Giannozzi et al., J. Chem. Phys. 152 154105 (2020);
          URL http://www.quantum-espresso.org", 
     in publications or presentations arising from this work. More details at
     http://www.quantum-espresso.org/quote

     Parallel version (MPI), running on    20 processors

     MPI processes distributed on     1 nodes
     123347 MiB available memory on the printing compute node when the environment starts
 
     Reading input from grap_SOC_scf.in

     Current dimensions of program PWSCF are:
     Max number of different atomic species (ntypx) = 10
     Max number of k-points (npk) =  40000
     Max angular momentum in pseudopotentials (lmaxx) =  4
     file C.rel-pbe-n-kjpaw_psl.0.1.UPF: wavefunction(s)  2P 2P renormalized
 
     R & G space division:  proc/nbgrp/npool/nimage =      20
     Subspace diagonalization in iterative solution of the eigenvalue problem:
     a serial algorithm will be used

 
     Parallelization info
     --------------------
     sticks:   dense  smooth     PW     G-vecs:    dense   smooth      PW
     Min          52      21      6                 8339     2113     392
     Max          57      22      7                 8350     2140     425
     Sum        1045     421    139               166859    42343    8205
 
     Using Slab Decomposition
 


     bravais-lattice index     =            0
     lattice parameter (alat)  =       4.6624  a.u.
     unit-cell volume          =     533.6317 (a.u.)^3
     number of atoms/cell      =            2
     number of atomic types    =            1
     number of electrons       =         8.00
     number of Kohn-Sham states=           16
     kinetic-energy cutoff     =      70.0000  Ry
     charge density cutoff     =     700.0000  Ry
     scf convergence threshold =      1.0E-08
     mixing beta               =       0.1000
     number of iterations used =            8  plain     mixing
     Exchange-correlation= SLA  PW   PBX  PBC
                           (   1   4   3   4   0   0   0)
     Non magnetic calculation with spin-orbit


     celldm(1)=   4.662410  celldm(2)=   0.000000  celldm(3)=   0.000000
     celldm(4)=   0.000000  celldm(5)=   0.000000  celldm(6)=   0.000000

     crystal axes: (cart. coord. in units of alat)
               a(1) = (   1.000000   0.000000   0.000000 )  
               a(2) = (  -0.500000   0.866025   0.000000 )  
               a(3) = (   0.000000   0.000000   6.079666 )  

     reciprocal axes: (cart. coord. in units 2 pi/alat)
               b(1) = (  1.000000  0.577350  0.000000 )  
               b(2) = (  0.000000  1.154701  0.000000 )  
               b(3) = (  0.000000  0.000000  0.164483 )  


     PseudoPot. # 1 for C  read from file:
     ../../PP_C/C.rel-pbe-n-kjpaw_psl.0.1.UPF
     MD5 check sum: 5ef0b8f55ac4be3c3db5d31256eeff6b
     Pseudo is Projector augmented-wave + core cor, Zval =  4.0
     Generated using &quot;atomic&quot; code by A. Dal Corso  v.6.3
     Shape of augmentation charge: BESSEL
     Using radial grid of 1073 points,  6 beta functions with: 
                l(1) =   0
                l(2) =   0
                l(3) =   1
                l(4) =   1
                l(5) =   1
                l(6) =   1
     Q(r) pseudized with 0 coefficients 


     atomic species   valence    mass     pseudopotential
     C                 4.00    12.01100     C ( 1.00)

     No symmetry found



   Cartesian axes

     site n.     atom                  positions (alat units)
         1        C      tau(   1) = (   0.0000000   0.0000000   0.0000000  )
         2        C      tau(   2) = (   0.0000000   0.5773503   0.0000000  )

     number of k points=    74  Gaussian smearing, width (Ry)=  0.0020
                       cart. coord. in units 2pi/alat
        k(    1) = (   0.0000000   0.0000000   0.0000000), wk =   0.0069444
        k(    2) = (   0.0000000   0.0962250   0.0000000), wk =   0.0138889
        k(    3) = (   0.0000000   0.1924501   0.0000000), wk =   0.0138889
        k(    4) = (   0.0000000   0.2886751   0.0000000), wk =   0.0138889
        k(    5) = (   0.0000000   0.3849002   0.0000000), wk =   0.0138889
        k(    6) = (   0.0000000   0.4811252   0.0000000), wk =   0.0138889
        k(    7) = (   0.0000000  -0.5773503   0.0000000), wk =   0.0069444
        k(    8) = (   0.0833333   0.0481125   0.0000000), wk =   0.0138889
        k(    9) = (   0.0833333   0.1443376   0.0000000), wk =   0.0138889
        k(   10) = (   0.0833333   0.2405626   0.0000000), wk =   0.0138889
        k(   11) = (   0.0833333   0.3367877   0.0000000), wk =   0.0138889
        k(   12) = (   0.0833333   0.4330127   0.0000000), wk =   0.0138889
        k(   13) = (   0.0833333   0.5292377   0.0000000), wk =   0.0138889
        k(   14) = (   0.0833333  -0.5292377   0.0000000), wk =   0.0138889
        k(   15) = (   0.0833333  -0.4330127   0.0000000), wk =   0.0138889
        k(   16) = (   0.0833333  -0.3367877   0.0000000), wk =   0.0138889
        k(   17) = (   0.0833333  -0.2405626   0.0000000), wk =   0.0138889
        k(   18) = (   0.0833333  -0.1443376   0.0000000), wk =   0.0138889
        k(   19) = (   0.0833333  -0.0481125   0.0000000), wk =   0.0138889
        k(   20) = (   0.1666667   0.0962250   0.0000000), wk =   0.0138889
        k(   21) = (   0.1666667   0.1924501   0.0000000), wk =   0.0138889
        k(   22) = (   0.1666667   0.2886751   0.0000000), wk =   0.0138889
        k(   23) = (   0.1666667   0.3849002   0.0000000), wk =   0.0138889
        k(   24) = (   0.1666667   0.4811252   0.0000000), wk =   0.0138889
        k(   25) = (   0.1666667   0.5773503   0.0000000), wk =   0.0138889
        k(   26) = (   0.1666667  -0.4811252   0.0000000), wk =   0.0138889
        k(   27) = (   0.1666667  -0.3849002   0.0000000), wk =   0.0138889
        k(   28) = (   0.1666667  -0.2886751   0.0000000), wk =   0.0138889
        k(   29) = (   0.1666667  -0.1924501   0.0000000), wk =   0.0138889
        k(   30) = (   0.1666667  -0.0962250   0.0000000), wk =   0.0138889
        k(   31) = (   0.1666667  -0.0000000   0.0000000), wk =   0.0138889
        k(   32) = (   0.2500000   0.1443376   0.0000000), wk =   0.0138889
        k(   33) = (   0.2500000   0.2405626   0.0000000), wk =   0.0138889
        k(   34) = (   0.2500000   0.3367877   0.0000000), wk =   0.0138889
        k(   35) = (   0.2500000   0.4330127   0.0000000), wk =   0.0138889
        k(   36) = (   0.2500000   0.5292377   0.0000000), wk =   0.0138889
        k(   37) = (   0.2500000   0.6254628   0.0000000), wk =   0.0138889
        k(   38) = (   0.2500000  -0.4330127   0.0000000), wk =   0.0138889
        k(   39) = (   0.2500000  -0.3367877   0.0000000), wk =   0.0138889
        k(   40) = (   0.2500000  -0.2405626   0.0000000), wk =   0.0138889
        k(   41) = (   0.2500000  -0.1443376   0.0000000), wk =   0.0138889
        k(   42) = (   0.2500000  -0.0481125   0.0000000), wk =   0.0138889
        k(   43) = (   0.2500000   0.0481125   0.0000000), wk =   0.0138889
        k(   44) = (   0.3333333   0.1924501   0.0000000), wk =   0.0138889
        k(   45) = (   0.3333333   0.2886751   0.0000000), wk =   0.0138889
        k(   46) = (   0.3333333   0.3849002   0.0000000), wk =   0.0138889
        k(   47) = (   0.3333333   0.4811252   0.0000000), wk =   0.0138889
        k(   48) = (   0.3333333   0.5773503   0.0000000), wk =   0.0138889
        k(   49) = (   0.3333333   0.6735753   0.0000000), wk =   0.0138889
        k(   50) = (   0.3333333  -0.3849002   0.0000000), wk =   0.0138889
        k(   51) = (   0.3333333  -0.2886751   0.0000000), wk =   0.0138889
        k(   52) = (   0.3333333  -0.1924501   0.0000000), wk =   0.0138889
        k(   53) = (   0.3333333  -0.0962250   0.0000000), wk =   0.0138889
        k(   54) = (   0.3333333  -0.0000000   0.0000000), wk =   0.0138889
        k(   55) = (   0.3333333   0.0962250   0.0000000), wk =   0.0138889
        k(   56) = (   0.4166667   0.2405626   0.0000000), wk =   0.0138889
        k(   57) = (   0.4166667   0.3367877   0.0000000), wk =   0.0138889
        k(   58) = (   0.4166667   0.4330127   0.0000000), wk =   0.0138889
        k(   59) = (   0.4166667   0.5292377   0.0000000), wk =   0.0138889
        k(   60) = (   0.4166667   0.6254628   0.0000000), wk =   0.0138889
        k(   61) = (   0.4166667   0.7216878   0.0000000), wk =   0.0138889
        k(   62) = (   0.4166667  -0.3367877   0.0000000), wk =   0.0138889
        k(   63) = (   0.4166667  -0.2405626   0.0000000), wk =   0.0138889
        k(   64) = (   0.4166667  -0.1443376   0.0000000), wk =   0.0138889
        k(   65) = (   0.4166667  -0.0481125   0.0000000), wk =   0.0138889
        k(   66) = (   0.4166667   0.0481125   0.0000000), wk =   0.0138889
        k(   67) = (   0.4166667   0.1443376   0.0000000), wk =   0.0138889
        k(   68) = (  -0.5000000  -0.2886751   0.0000000), wk =   0.0069444
        k(   69) = (  -0.5000000  -0.1924501   0.0000000), wk =   0.0138889
        k(   70) = (  -0.5000000  -0.0962250   0.0000000), wk =   0.0138889
        k(   71) = (  -0.5000000   0.0000000   0.0000000), wk =   0.0138889
        k(   72) = (  -0.5000000   0.0962250   0.0000000), wk =   0.0138889
        k(   73) = (  -0.5000000   0.1924501   0.0000000), wk =   0.0138889
        k(   74) = (  -0.5000000  -0.8660254   0.0000000), wk =   0.0069444

     Dense  grid:   166859 G-vectors     FFT dimensions: (  40,  40, 240)

     Smooth grid:    42343 G-vectors     FFT dimensions: (  25,  25, 160)

     Estimated max dynamical RAM per process >      41.12 MB

     Estimated total dynamical RAM >     822.41 MB

     Initial potential from superposition of free atoms

     starting charge       7.9999, renormalised to       8.0000

     negative rho (up, down):  2.781E-05 0.000E+00
     Starting wfcs are random
     Checking if some PAW data can be deallocated... 

     total cpu time spent up to now is        1.0 secs

     per-process dynamical memory:    53.7 Mb

     Self-consistent Calculation

     iteration #  1     ecut=    70.00 Ry     beta= 0.10
     Davidson diagonalization with overlap
     ethr =  1.00E-02,  avg # of iterations =  8.8

     negative rho (up, down):  2.272E-05 0.000E+00

     total cpu time spent up to now is        8.6 secs

     total energy              =     -36.95392073 Ry
     estimated scf accuracy    <       0.20219513 Ry

     iteration #  2     ecut=    70.00 Ry     beta= 0.10
     Davidson diagonalization with overlap
     ethr =  2.53E-03,  avg # of iterations =  1.0

     negative rho (up, down):  1.045E-04 0.000E+00

     total cpu time spent up to now is       10.2 secs

     total energy              =     -36.85265202 Ry
     estimated scf accuracy    <       0.15625939 Ry

     iteration #  3     ecut=    70.00 Ry     beta= 0.10
     Davidson diagonalization with overlap
     ethr =  1.95E-03,  avg # of iterations =  3.6

     negative rho (up, down):  7.833E-05 0.000E+00

     total cpu time spent up to now is       12.3 secs

     total energy              =     -36.87757597 Ry
     estimated scf accuracy    <       0.00288720 Ry

     iteration #  4     ecut=    70.00 Ry     beta= 0.10
     Davidson diagonalization with overlap
     ethr =  3.61E-05,  avg # of iterations =  7.6

     negative rho (up, down):  7.899E-05 0.000E+00

     total cpu time spent up to now is       17.0 secs

     total energy              =     -36.90348808 Ry
     estimated scf accuracy    <       0.00735035 Ry

     iteration #  5     ecut=    70.00 Ry     beta= 0.10
     Davidson diagonalization with overlap
     ethr =  3.61E-05,  avg # of iterations =  4.9

     negative rho (up, down):  1.995E-04 0.000E+00

     total cpu time spent up to now is       19.9 secs

     total energy              =     -36.88772432 Ry
     estimated scf accuracy    <       0.03578813 Ry

     iteration #  6     ecut=    70.00 Ry     beta= 0.10
     Davidson diagonalization with overlap
     ethr =  3.61E-05,  avg # of iterations =  5.6

     negative rho (up, down):  5.564E-04 0.000E+00

     total cpu time spent up to now is       23.4 secs

     total energy              =     -36.88797114 Ry
     estimated scf accuracy    <       0.00352877 Ry

     iteration #  7     ecut=    70.00 Ry     beta= 0.10
     Davidson diagonalization with overlap
     ethr =  3.61E-05,  avg # of iterations =  4.6

     negative rho (up, down):  4.105E-04 0.000E+00

     total cpu time spent up to now is       25.9 secs

     total energy              =     -36.88916898 Ry
     estimated scf accuracy    <       0.00060234 Ry

     iteration #  8     ecut=    70.00 Ry     beta= 0.10
     Davidson diagonalization with overlap
     ethr =  7.53E-06,  avg # of iterations =  4.0

     negative rho (up, down):  3.785E-04 0.000E+00

     total cpu time spent up to now is       28.6 secs

     total energy              =     -36.88927984 Ry
     estimated scf accuracy    <       0.00136645 Ry

     iteration #  9     ecut=    70.00 Ry     beta= 0.10
     Davidson diagonalization with overlap
     ethr =  7.53E-06,  avg # of iterations =  1.1

     negative rho (up, down):  1.992E-04 0.000E+00

     total cpu time spent up to now is       30.2 secs

     total energy              =     -36.88895968 Ry
     estimated scf accuracy    <       0.00095093 Ry

     iteration # 10     ecut=    70.00 Ry     beta= 0.10
     Davidson diagonalization with overlap
     ethr =  7.53E-06,  avg # of iterations =  1.3

     negative rho (up, down):  1.158E-04 0.000E+00

     total cpu time spent up to now is       31.8 secs

     total energy              =     -36.88890001 Ry
     estimated scf accuracy    <       0.00035703 Ry

     iteration # 11     ecut=    70.00 Ry     beta= 0.10
     Davidson diagonalization with overlap
     ethr =  4.46E-06,  avg # of iterations =  3.3

     negative rho (up, down):  9.211E-05 0.000E+00

     total cpu time spent up to now is       33.8 secs

     total energy              =     -36.88887087 Ry
     estimated scf accuracy    <       0.00016717 Ry

     iteration # 12     ecut=    70.00 Ry     beta= 0.10
     Davidson diagonalization with overlap
     ethr =  2.09E-06,  avg # of iterations =  3.9

     negative rho (up, down):  4.150E-05 0.000E+00

     total cpu time spent up to now is       36.0 secs

     total energy              =     -36.88887858 Ry
     estimated scf accuracy    <       0.00003909 Ry

     iteration # 13     ecut=    70.00 Ry     beta= 0.10
     Davidson diagonalization with overlap
     ethr =  4.89E-07,  avg # of iterations =  4.4

     negative rho (up, down):  3.547E-05 0.000E+00

     total cpu time spent up to now is       39.0 secs

     total energy              =     -36.88894391 Ry
     estimated scf accuracy    <       0.00005665 Ry

     iteration # 14     ecut=    70.00 Ry     beta= 0.10
     Davidson diagonalization with overlap
     ethr =  4.89E-07,  avg # of iterations =  1.0

     negative rho (up, down):  3.013E-05 0.000E+00

     total cpu time spent up to now is       40.6 secs

     total energy              =     -36.88894859 Ry
     estimated scf accuracy    <       0.00007015 Ry

     iteration # 15     ecut=    70.00 Ry     beta= 0.10
     Davidson diagonalization with overlap
     ethr =  4.89E-07,  avg # of iterations =  1.0

     negative rho (up, down):  2.841E-05 0.000E+00

     total cpu time spent up to now is       42.2 secs

     total energy              =     -36.88892760 Ry
     estimated scf accuracy    <       0.00008133 Ry

     iteration # 16     ecut=    70.00 Ry     beta= 0.10
     Davidson diagonalization with overlap
     ethr =  4.89E-07,  avg # of iterations =  1.0

     negative rho (up, down):  2.467E-05 0.000E+00

     total cpu time spent up to now is       43.9 secs

     total energy              =     -36.88893845 Ry
     estimated scf accuracy    <       0.00004483 Ry

     iteration # 17     ecut=    70.00 Ry     beta= 0.10
     Davidson diagonalization with overlap
     ethr =  4.89E-07,  avg # of iterations =  1.0

     negative rho (up, down):  2.213E-05 0.000E+00

     total cpu time spent up to now is       45.5 secs

     total energy              =     -36.88893301 Ry
     estimated scf accuracy    <       0.00006308 Ry

     iteration # 18     ecut=    70.00 Ry     beta= 0.10
     Davidson diagonalization with overlap
     ethr =  4.89E-07,  avg # of iterations =  1.0

     negative rho (up, down):  2.367E-05 0.000E+00

     total cpu time spent up to now is       47.1 secs

     total energy              =     -36.88890338 Ry
     estimated scf accuracy    <       0.00005236 Ry

     iteration # 19     ecut=    70.00 Ry     beta= 0.10
     Davidson diagonalization with overlap
     ethr =  4.89E-07,  avg # of iterations =  1.1

     negative rho (up, down):  1.979E-05 0.000E+00

     total cpu time spent up to now is       48.7 secs

     total energy              =     -36.88890419 Ry
     estimated scf accuracy    <       0.00000406 Ry

     iteration # 20     ecut=    70.00 Ry     beta= 0.10
     Davidson diagonalization with overlap
     ethr =  5.08E-08,  avg # of iterations =  4.3

     negative rho (up, down):  1.667E-05 0.000E+00

     total cpu time spent up to now is       51.4 secs

     total energy              =     -36.88891104 Ry
     estimated scf accuracy    <       0.00000085 Ry

     iteration # 21     ecut=    70.00 Ry     beta= 0.10
     Davidson diagonalization with overlap
     ethr =  1.06E-08,  avg # of iterations =  1.0

     negative rho (up, down):  1.464E-05 0.000E+00

     total cpu time spent up to now is       53.0 secs

     total energy              =     -36.88891084 Ry
     estimated scf accuracy    <       0.00000093 Ry

     iteration # 22     ecut=    70.00 Ry     beta= 0.10
     Davidson diagonalization with overlap
     ethr =  1.06E-08,  avg # of iterations =  1.0

     negative rho (up, down):  1.289E-05 0.000E+00

     total cpu time spent up to now is       54.6 secs

     total energy              =     -36.88891051 Ry
     estimated scf accuracy    <       0.00000053 Ry

     iteration # 23     ecut=    70.00 Ry     beta= 0.10
     Davidson diagonalization with overlap
     ethr =  6.68E-09,  avg # of iterations =  2.7

     negative rho (up, down):  1.163E-05 0.000E+00

     total cpu time spent up to now is       56.5 secs

     total energy              =     -36.88891076 Ry
     estimated scf accuracy    <       0.00000003 Ry

     iteration # 24     ecut=    70.00 Ry     beta= 0.10
     Davidson diagonalization with overlap
     ethr =  3.18E-10,  avg # of iterations =  4.5

     negative rho (up, down):  1.220E-05 0.000E+00

     total cpu time spent up to now is       59.4 secs

     total energy              =     -36.88891056 Ry
     estimated scf accuracy    <       0.00000065 Ry

     iteration # 25     ecut=    70.00 Ry     beta= 0.10
     Davidson diagonalization with overlap
     ethr =  3.18E-10,  avg # of iterations =  4.8

     negative rho (up, down):  1.059E-05 0.000E+00

     total cpu time spent up to now is       62.4 secs

     total energy              =     -36.88891066 Ry
     estimated scf accuracy    <       0.00000065 Ry

     iteration # 26     ecut=    70.00 Ry     beta= 0.10
     Davidson diagonalization with overlap
     ethr =  3.18E-10,  avg # of iterations =  3.4

     negative rho (up, down):  9.796E-06 0.000E+00

     total cpu time spent up to now is       64.9 secs

     total energy              =     -36.88891069 Ry
     estimated scf accuracy    <       0.00000007 Ry

     iteration # 27     ecut=    70.00 Ry     beta= 0.10
     Davidson diagonalization with overlap
     ethr =  3.18E-10,  avg # of iterations =  1.0

     negative rho (up, down):  9.127E-06 0.000E+00

     total cpu time spent up to now is       66.5 secs

     total energy              =     -36.88891069 Ry
     estimated scf accuracy    <       0.00000002 Ry

     iteration # 28     ecut=    70.00 Ry     beta= 0.10
     Davidson diagonalization with overlap
     ethr =  2.10E-10,  avg # of iterations =  3.2

     negative rho (up, down):  7.074E-06 0.000E+00

     total cpu time spent up to now is       68.6 secs

     End of self-consistent calculation

          k = 0.0000 0.0000 0.0000 (  5307 PWs)   bands (ev):

   -21.2377 -21.2377  -9.3331  -9.3331  -4.7877  -4.7877  -4.7784  -4.7784
     1.5196   1.5196   2.4169   2.4169   2.8581   2.8581   4.7528   4.7528

          k = 0.0000 0.0962 0.0000 (  5285 PWs)   bands (ev):

   -21.0740 -21.0740  -9.1375  -9.1375  -5.4329  -5.4329  -5.1203  -5.1203
     1.7423   1.7423   2.6414   2.6414   3.0847   3.0847   4.9758   4.9758

          k = 0.0000 0.1925 0.0000 (  5253 PWs)   bands (ev):

   -20.5845 -20.5845  -8.5559  -8.5559  -7.0685  -7.0685  -5.9104  -5.9104
     2.4105   2.4105   3.3136   3.3136   3.7646   3.7646   5.6417   5.6417

          k = 0.0000 0.2887 0.0000 (  5269 PWs)   bands (ev):

   -19.7751 -19.7751  -9.1642  -9.1642  -7.6075  -7.6075  -6.7876  -6.7876
     3.5219   3.5219   4.4136   4.4136   4.8965   4.8965   5.5229   5.5230

          k = 0.0000 0.3849 0.0000 (  5285 PWs)   bands (ev):

   -18.6579 -18.6579 -11.3647 -11.3647  -7.5190  -7.5190  -6.3425  -6.3425
     3.1772   3.1772   5.0643   5.0643   5.9627   5.9628   6.0165   6.0165

          k = 0.0000 0.4811 0.0000 (  5290 PWs)   bands (ev):

   -17.2644 -17.2644 -13.4617 -13.4617  -7.9906  -7.9906  -4.9236  -4.9236
     1.0474   1.0474   5.7073   5.7073   7.0722   7.0722   7.9993   7.9993

          k = 0.0000-0.5774 0.0000 (  5288 PWs)   bands (ev):

   -16.0066 -16.0066 -14.9619 -14.9619  -8.1525  -8.1525  -4.0814  -4.0814
    -0.0475  -0.0475   5.6279   5.6279   9.3729   9.3729   9.5237   9.5237

          k = 0.0833 0.0481 0.0000 (  5285 PWs)   bands (ev):

   -21.0740 -21.0740  -9.1375  -9.1375  -5.4329  -5.4329  -5.1203  -5.1203
     1.7423   1.7423   2.6414   2.6414   3.0847   3.0847   4.9758   4.9758

          k = 0.0833 0.1443 0.0000 (  5269 PWs)   bands (ev):

   -20.7474 -20.7474  -8.7488  -8.7488  -6.4655  -6.4655  -5.7958  -5.7958
     2.1880   2.1880   3.0900   3.0900   3.5381   3.5381   5.4208   5.4208

          k = 0.0833 0.2406 0.0000 (  5261 PWs)   bands (ev):

   -20.0980 -20.0980  -8.1732  -8.1732  -7.9826  -7.9826  -6.7913  -6.7913
     3.0786   3.0786   3.9829   3.9829   4.4448   4.4448   6.2636   6.2639

          k = 0.0833 0.3368 0.0000 (  5275 PWs)   bands (ev):

   -19.1345 -19.1345 -10.2435 -10.2435  -7.6754  -7.6754  -6.8694  -6.8694
     4.1868   4.1868   4.4099   4.4099   5.3435   5.3435   5.8022   5.8022

          k = 0.0833 0.4330 0.0000 (  5284 PWs)   bands (ev):

   -17.8759 -17.8759 -12.3634 -12.3634  -8.3087  -8.3087  -5.4934  -5.4934
     1.9918   1.9918   6.1516   6.1516   6.5657   6.5657   7.1003   7.1003

          k = 0.0833 0.5292 0.0000 (  5302 PWs)   bands (ev):

   -16.3999 -16.3999 -14.3010 -14.3010  -8.6364  -8.6364  -4.1877  -4.1877
     0.2277   0.2277   6.3659   6.3659   8.3690   8.3690   9.2477   9.2477

          k = 0.0833-0.5292 0.0000 (  5302 PWs)   bands (ev):

   -16.3999 -16.3999 -14.3010 -14.3010  -8.6364  -8.6364  -4.1877  -4.1877
     0.2277   0.2277   6.3659   6.3659   8.3690   8.3690   9.2477   9.2477

          k = 0.0833-0.4330 0.0000 (  5284 PWs)   bands (ev):

   -17.8759 -17.8759 -12.3634 -12.3634  -8.3087  -8.3087  -5.4934  -5.4934
     1.9918   1.9918   6.1516   6.1516   6.5657   6.5657   7.1003   7.1003

          k = 0.0833-0.3368 0.0000 (  5275 PWs)   bands (ev):

   -19.1345 -19.1345 -10.2435 -10.2435  -7.6754  -7.6754  -6.8694  -6.8694
     4.1868   4.1868   4.4099   4.4099   5.3435   5.3435   5.8022   5.8022

          k = 0.0833-0.2406 0.0000 (  5261 PWs)   bands (ev):

   -20.0980 -20.0980  -8.1732  -8.1732  -7.9826  -7.9826  -6.7913  -6.7913
     3.0786   3.0786   3.9829   3.9829   4.4448   4.4448   6.2629   6.2629

          k = 0.0833-0.1443 0.0000 (  5269 PWs)   bands (ev):

   -20.7474 -20.7474  -8.7488  -8.7488  -6.4655  -6.4655  -5.7958  -5.7958
     2.1880   2.1880   3.0900   3.0900   3.5381   3.5381   5.4208   5.4208

          k = 0.0833-0.0481 0.0000 (  5285 PWs)   bands (ev):

   -21.0740 -21.0740  -9.1375  -9.1375  -5.4329  -5.4329  -5.1203  -5.1203
     1.7423   1.7423   2.6414   2.6414   3.0847   3.0847   4.9758   4.9758

          k = 0.1667 0.0962 0.0000 (  5253 PWs)   bands (ev):

   -20.5845 -20.5845  -8.5559  -8.5559  -7.0685  -7.0685  -5.9104  -5.9104
     2.4105   2.4105   3.3136   3.3136   3.7646   3.7646   5.6417   5.6417

          k = 0.1667 0.1925 0.0000 (  5261 PWs)   bands (ev):

   -20.0980 -20.0980  -8.1732  -8.1732  -7.9826  -7.9826  -6.7913  -6.7913
     3.0786   3.0786   3.9829   3.9829   4.4448   4.4448   6.2629   6.2631

          k = 0.1667 0.2887 0.0000 (  5288 PWs)   bands (ev):

   -19.2944 -19.2944  -9.5027  -9.5027  -8.1500  -8.1500  -7.0478  -7.0478
     4.1902   4.1902   4.6419   4.6419   5.0923   5.0923   5.5785   5.5785

          k = 0.1667 0.3849 0.0000 (  5285 PWs)   bands (ev):

   -18.1881 -18.1881 -11.2278 -11.2278  -9.2045  -9.2045  -5.7979  -5.7979
     2.6986   2.6986   5.7373   5.7373   6.6218   6.6218   7.1624   7.1624

          k = 0.1667 0.4811 0.0000 (  5283 PWs)   bands (ev):

   -16.8145 -16.8145 -13.1353 -13.1353  -9.7798  -9.7798  -4.3749  -4.3749
     0.7911   0.7911   7.6919   7.6919   8.2799   8.2799   8.4897   8.4897

          k = 0.1667 0.5774 0.0000 (  5264 PWs)   bands (ev):

   -15.5853 -15.5853 -14.5646 -14.5646  -9.9644  -9.9644  -3.4846  -3.4846
    -0.2742  -0.2742   8.1728   8.1728   9.8751   9.8751   9.9337   9.9337

          k = 0.1667-0.4811 0.0000 (  5283 PWs)   bands (ev):

   -16.8145 -16.8145 -13.1353 -13.1353  -9.7798  -9.7798  -4.3749  -4.3749
     0.7911   0.7911   7.6919   7.6919   8.2799   8.2799   8.4897   8.4897

          k = 0.1667-0.3849 0.0000 (  5285 PWs)   bands (ev):

   -18.1881 -18.1881 -11.2278 -11.2278  -9.2045  -9.2045  -5.7979  -5.7979
     2.6986   2.6986   5.7373   5.7373   6.6218   6.6218   7.1624   7.1624

          k = 0.1667-0.2887 0.0000 (  5288 PWs)   bands (ev):

   -19.2944 -19.2944  -9.5027  -9.5027  -8.1500  -8.1500  -7.0478  -7.0478
     4.1902   4.1902   4.6419   4.6419   5.0923   5.0923   5.5785   5.5785

          k = 0.1667-0.1925 0.0000 (  5261 PWs)   bands (ev):

   -20.0980 -20.0980  -8.1732  -8.1732  -7.9826  -7.9826  -6.7913  -6.7913
     3.0786   3.0786   3.9829   3.9829   4.4448   4.4448   6.2629   6.2629

          k = 0.1667-0.0962 0.0000 (  5253 PWs)   bands (ev):

   -20.5845 -20.5845  -8.5559  -8.5559  -7.0685  -7.0685  -5.9104  -5.9104
     2.4105   2.4105   3.3136   3.3136   3.7646   3.7646   5.6417   5.6417

          k = 0.1667-0.0000 0.0000 (  5269 PWs)   bands (ev):

   -20.7474 -20.7474  -8.7488  -8.7488  -6.4655  -6.4655  -5.7958  -5.7958
     2.1880   2.1880   3.0900   3.0900   3.5381   3.5381   5.4208   5.4208

          k = 0.2500 0.1443 0.0000 (  5269 PWs)   bands (ev):

   -19.7751 -19.7751  -9.1642  -9.1642  -7.6075  -7.6075  -6.7876  -6.7876
     3.5219   3.5219   4.4136   4.4136   4.8965   4.8965   5.5229   5.5230

          k = 0.2500 0.2406 0.0000 (  5275 PWs)   bands (ev):

   -19.1345 -19.1345 -10.2435 -10.2435  -7.6754  -7.6754  -6.8694  -6.8694
     4.1868   4.1868   4.4099   4.4099   5.3435   5.3435   5.8022   5.8022

          k = 0.2500 0.3368 0.0000 (  5285 PWs)   bands (ev):

   -18.1881 -18.1881 -11.2278 -11.2278  -9.2045  -9.2045  -5.7979  -5.7979
     2.6986   2.6986   5.7373   5.7373   6.6218   6.6218   7.1624   7.1624

          k = 0.2500 0.4330 0.0000 (  5268 PWs)   bands (ev):

   -16.9617 -16.9617 -12.2637 -12.2637 -10.6838 -10.6838  -4.4587  -4.4587
     1.0877   1.0877   7.4840   7.4840   8.1985   8.1985   8.9684   8.9684

          k = 0.2500 0.5292 0.0000 (  5282 PWs)   bands (ev):

   -15.5425 -15.5425 -13.6820 -13.6820 -11.3907 -11.3907  -3.0765  -3.0765
    -0.4288  -0.4288   9.1408   9.1408   9.5747   9.5747  10.4409  10.4409

          k = 0.2500 0.6255 0.0000 (  5282 PWs)   bands (ev):

   -15.5425 -15.5425 -13.6820 -13.6820 -11.3907 -11.3907  -3.0765  -3.0765
    -0.4288  -0.4288   9.1408   9.1408   9.5747   9.5747  10.4409  10.4409

          k = 0.2500-0.4330 0.0000 (  5268 PWs)   bands (ev):

   -16.9617 -16.9617 -12.2637 -12.2637 -10.6838 -10.6838  -4.4587  -4.4587
     1.0877   1.0877   7.4840   7.4840   8.1985   8.1985   8.9684   8.9684

          k = 0.2500-0.3368 0.0000 (  5285 PWs)   bands (ev):

   -18.1881 -18.1881 -11.2278 -11.2278  -9.2045  -9.2045  -5.7979  -5.7979
     2.6986   2.6986   5.7373   5.7373   6.6218   6.6218   7.1624   7.1624

          k = 0.2500-0.2406 0.0000 (  5275 PWs)   bands (ev):

   -19.1345 -19.1345 -10.2435 -10.2435  -7.6754  -7.6754  -6.8694  -6.8694
     4.1868   4.1868   4.4099   4.4099   5.3435   5.3435   5.8022   5.8022

          k = 0.2500-0.1443 0.0000 (  5269 PWs)   bands (ev):

   -19.7751 -19.7751  -9.1642  -9.1642  -7.6075  -7.6075  -6.7876  -6.7876
     3.5219   3.5219   4.4136   4.4136   4.8965   4.8965   5.5229   5.5229

          k = 0.2500-0.0481 0.0000 (  5261 PWs)   bands (ev):

   -20.0980 -20.0980  -8.1732  -8.1732  -7.9826  -7.9826  -6.7913  -6.7913
     3.0786   3.0786   3.9829   3.9829   4.4448   4.4448   6.2629   6.2630

          k = 0.2500 0.0481 0.0000 (  5261 PWs)   bands (ev):

   -20.0980 -20.0980  -8.1732  -8.1732  -7.9826  -7.9826  -6.7913  -6.7913
     3.0786   3.0786   3.9829   3.9829   4.4448   4.4448   6.2629   6.2629

          k = 0.3333 0.1925 0.0000 (  5285 PWs)   bands (ev):

   -18.6579 -18.6579 -11.3647 -11.3647  -7.5190  -7.5190  -6.3425  -6.3425
     3.1772   3.1772   5.0643   5.0643   5.9628   5.9629   6.0165   6.0165

          k = 0.3333 0.2887 0.0000 (  5284 PWs)   bands (ev):

   -17.8759 -17.8759 -12.3634 -12.3634  -8.3087  -8.3087  -5.4934  -5.4934
     1.9918   1.9918   6.1516   6.1516   6.5657   6.5657   7.1003   7.1003

          k = 0.3333 0.3849 0.0000 (  5283 PWs)   bands (ev):

   -16.8145 -16.8145 -13.1353 -13.1353  -9.7798  -9.7798  -4.3749  -4.3749
     0.7911   0.7911   7.6919   7.6919   8.2799   8.2799   8.4897   8.4897

          k = 0.3333 0.4811 0.0000 (  5282 PWs)   bands (ev):

   -15.5425 -15.5425 -13.6820 -13.6820 -11.3906 -11.3906  -3.0765  -3.0765
    -0.4288  -0.4288   9.1408   9.1408   9.5747   9.5747  10.4409  10.4409

          k = 0.3333 0.5774 0.0000 (  5292 PWs)   bands (ev):

   -14.3288 -14.3288 -14.3267 -14.3267 -12.2810 -12.2810  -1.7239  -1.7239
    -1.7239  -1.7239   8.8792   8.8792  11.1359  11.1359  11.1399  11.1400

          k = 0.3333 0.6736 0.0000 (  5282 PWs)   bands (ev):

   -15.5425 -15.5425 -13.6820 -13.6820 -11.3907 -11.3907  -3.0765  -3.0765
    -0.4288  -0.4288   9.1408   9.1408   9.5747   9.5747  10.4409  10.4409

          k = 0.3333-0.3849 0.0000 (  5283 PWs)   bands (ev):

   -16.8145 -16.8145 -13.1353 -13.1353  -9.7798  -9.7798  -4.3749  -4.3749
     0.7911   0.7911   7.6919   7.6919   8.2799   8.2799   8.4897   8.4897

          k = 0.3333-0.2887 0.0000 (  5284 PWs)   bands (ev):

   -17.8759 -17.8759 -12.3634 -12.3634  -8.3087  -8.3087  -5.4934  -5.4934
     1.9918   1.9918   6.1516   6.1516   6.5657   6.5657   7.1003   7.1003

          k = 0.3333-0.1925 0.0000 (  5285 PWs)   bands (ev):

   -18.6579 -18.6579 -11.3647 -11.3647  -7.5190  -7.5190  -6.3425  -6.3425
     3.1772   3.1772   5.0643   5.0643   5.9627   5.9628   6.0165   6.0165

          k = 0.3333-0.0962 0.0000 (  5275 PWs)   bands (ev):

   -19.1345 -19.1345 -10.2435 -10.2435  -7.6754  -7.6754  -6.8694  -6.8694
     4.1868   4.1868   4.4099   4.4099   5.3435   5.3435   5.8022   5.8022

          k = 0.3333-0.0000 0.0000 (  5288 PWs)   bands (ev):

   -19.2944 -19.2944  -9.5027  -9.5027  -8.1500  -8.1500  -7.0478  -7.0478
     4.1902   4.1902   4.6419   4.6419   5.0923   5.0923   5.5785   5.5785

          k = 0.3333 0.0962 0.0000 (  5275 PWs)   bands (ev):

   -19.1345 -19.1345 -10.2435 -10.2435  -7.6754  -7.6754  -6.8694  -6.8694
     4.1868   4.1868   4.4099   4.4099   5.3435   5.3435   5.8022   5.8022

          k = 0.4167 0.2406 0.0000 (  5290 PWs)   bands (ev):

   -17.2644 -17.2644 -13.4617 -13.4617  -7.9906  -7.9906  -4.9236  -4.9236
     1.0474   1.0474   5.7073   5.7073   7.0722   7.0722   7.9993   7.9993

          k = 0.4167 0.3368 0.0000 (  5302 PWs)   bands (ev):

   -16.3999 -16.3999 -14.3010 -14.3010  -8.6364  -8.6364  -4.1877  -4.1877
     0.2277   0.2277   6.3659   6.3659   8.3690   8.3690   9.2477   9.2477

          k = 0.4167 0.4330 0.0000 (  5264 PWs)   bands (ev):

   -15.5853 -15.5853 -14.5646 -14.5646  -9.9644  -9.9644  -3.4846  -3.4846
    -0.2742  -0.2742   8.1728   8.1728   9.8751   9.8751   9.9337   9.9337

          k = 0.4167 0.5292 0.0000 (  5282 PWs)   bands (ev):

   -15.5425 -15.5425 -13.6820 -13.6820 -11.3907 -11.3907  -3.0765  -3.0765
    -0.4288  -0.4288   9.1408   9.1408   9.5747   9.5747  10.4409  10.4409

          k = 0.4167 0.6255 0.0000 (  5282 PWs)   bands (ev):

   -15.5425 -15.5425 -13.6820 -13.6820 -11.3907 -11.3907  -3.0765  -3.0765
    -0.4288  -0.4288   9.1408   9.1408   9.5747   9.5747  10.4409  10.4409

          k = 0.4167 0.7217 0.0000 (  5264 PWs)   bands (ev):

   -15.5853 -15.5853 -14.5646 -14.5646  -9.9644  -9.9644  -3.4846  -3.4846
    -0.2742  -0.2742   8.1728   8.1728   9.8751   9.8751   9.9337   9.9337

          k = 0.4167-0.3368 0.0000 (  5302 PWs)   bands (ev):

   -16.3999 -16.3999 -14.3010 -14.3010  -8.6364  -8.6364  -4.1877  -4.1877
     0.2277   0.2277   6.3659   6.3659   8.3690   8.3690   9.2477   9.2477

          k = 0.4167-0.2406 0.0000 (  5290 PWs)   bands (ev):

   -17.2644 -17.2644 -13.4617 -13.4617  -7.9906  -7.9906  -4.9236  -4.9236
     1.0473   1.0473   5.7073   5.7073   7.0722   7.0722   7.9993   7.9993

          k = 0.4167-0.1443 0.0000 (  5284 PWs)   bands (ev):

   -17.8759 -17.8759 -12.3634 -12.3634  -8.3087  -8.3087  -5.4934  -5.4934
     1.9918   1.9918   6.1516   6.1516   6.5657   6.5657   7.1003   7.1003

          k = 0.4167-0.0481 0.0000 (  5285 PWs)   bands (ev):

   -18.1881 -18.1881 -11.2278 -11.2278  -9.2045  -9.2045  -5.7979  -5.7979
     2.6986   2.6986   5.7373   5.7373   6.6218   6.6218   7.1624   7.1624

          k = 0.4167 0.0481 0.0000 (  5285 PWs)   bands (ev):

   -18.1881 -18.1881 -11.2278 -11.2278  -9.2045  -9.2045  -5.7979  -5.7979
     2.6986   2.6986   5.7373   5.7373   6.6218   6.6218   7.1624   7.1624

          k = 0.4167 0.1443 0.0000 (  5284 PWs)   bands (ev):

   -17.8759 -17.8759 -12.3634 -12.3634  -8.3087  -8.3087  -5.4934  -5.4934
     1.9918   1.9918   6.1516   6.1516   6.5657   6.5657   7.1003   7.1003

          k =-0.5000-0.2887 0.0000 (  5288 PWs)   bands (ev):

   -16.0066 -16.0066 -14.9619 -14.9619  -8.1525  -8.1525  -4.0814  -4.0814
    -0.0475  -0.0475   5.6279   5.6279   9.3729   9.3729   9.5237   9.5237

          k =-0.5000-0.1925 0.0000 (  5302 PWs)   bands (ev):

   -16.3999 -16.3999 -14.3010 -14.3010  -8.6364  -8.6364  -4.1877  -4.1877
     0.2277   0.2277   6.3659   6.3659   8.3690   8.3690   9.2477   9.2477

          k =-0.5000-0.0962 0.0000 (  5283 PWs)   bands (ev):

   -16.8145 -16.8145 -13.1353 -13.1353  -9.7798  -9.7798  -4.3749  -4.3749
     0.7911   0.7911   7.6919   7.6919   8.2799   8.2799   8.4897   8.4897

          k =-0.5000 0.0000 0.0000 (  5268 PWs)   bands (ev):

   -16.9617 -16.9617 -12.2637 -12.2637 -10.6838 -10.6838  -4.4587  -4.4587
     1.0877   1.0877   7.4840   7.4840   8.1985   8.1985   8.9684   8.9684

          k =-0.5000 0.0962 0.0000 (  5283 PWs)   bands (ev):

   -16.8145 -16.8145 -13.1353 -13.1353  -9.7798  -9.7798  -4.3749  -4.3749
     0.7911   0.7911   7.6919   7.6919   8.2799   8.2799   8.4897   8.4897

          k =-0.5000 0.1925 0.0000 (  5302 PWs)   bands (ev):

   -16.3999 -16.3999 -14.3010 -14.3010  -8.6364  -8.6364  -4.1877  -4.1877
     0.2277   0.2277   6.3659   6.3659   8.3690   8.3690   9.2477   9.2477

          k =-0.5000-0.8660 0.0000 (  5288 PWs)   bands (ev):

   -16.0066 -16.0066 -14.9619 -14.9619  -8.1525  -8.1525  -4.0814  -4.0814
    -0.0475  -0.0475   5.6279   5.6279   9.3729   9.3729   9.5237   9.5237

     the Fermi energy is    -1.72388324 ev

!    total energy              =     -36.88891072 Ry
     total all-electron energy =      -152.417200 Ry
     estimated scf accuracy    <          4.2E-10 Ry
     smearing contrib. (-TS)   =      -0.00003134 Ry
     internal energy E=F+TS    =     -36.88887938 Ry

     The total energy is F=E-TS. E is the sum of the following terms:
     one-electron contribution =    -156.62352291 Ry
     hartree contribution      =      79.91871813 Ry
     xc contribution           =      -8.28628674 Ry
     ewald contribution        =      61.40972547 Ry
     one-center paw contrib.   =     -13.30751333 Ry

     convergence has been achieved in  28 iterations

     negative rho (up, down):  7.074E-06 0.000E+00

     Forces acting on atoms (cartesian axes, Ry/au):

     atom    1 type  1   force =    -0.00000029   -0.00000002   -0.00000002
     atom    2 type  1   force =     0.00000029    0.00000002    0.00000002

     Total force =     0.000000     Total SCF correction =     0.000018
     SCF correction compared to forces is large: reduce conv_thr to get better values


     Computing stress (Cartesian axis) and pressure


     negative rho (up, down):  7.074E-06 0.000E+00
          total   stress  (Ry/bohr**3)                   (kbar)     P=       -0.85
  -0.00000831  -0.00000000  -0.00000000           -1.22       -0.00       -0.00
  -0.00000000  -0.00000831   0.00000000           -0.00       -1.22        0.00
  -0.00000000   0.00000000  -0.00000067           -0.00        0.00       -0.10


     Writing all to output data dir ../tmp/graphene.save/ :
     XML data file, charge density, pseudopotentials, collected wavefunctions
 
     init_run     :      0.71s CPU      0.90s WALL (       1 calls)
     electrons    :     65.00s CPU     67.73s WALL (       1 calls)
     forces       :      0.10s CPU      0.10s WALL (       1 calls)
     stress       :      0.42s CPU      0.42s WALL (       1 calls)

     Called by init_run:
     wfcinit      :      0.61s CPU      0.79s WALL (       1 calls)
     potinit      :      0.03s CPU      0.03s WALL (       1 calls)
     hinit0       :      0.02s CPU      0.02s WALL (       1 calls)

     Called by electrons:
     c_bands      :     55.31s CPU     57.56s WALL (      28 calls)
     sum_band     :      8.48s CPU      8.83s WALL (      28 calls)
     v_of_rho     :      0.26s CPU      0.27s WALL (      29 calls)
     newd         :      0.42s CPU      0.43s WALL (      29 calls)
     PAW_pot      :      0.31s CPU      0.31s WALL (      29 calls)
     mix_rho      :      0.16s CPU      0.16s WALL (      28 calls)

     Called by c_bands:
     init_us_2    :      0.36s CPU      0.38s WALL (    4366 calls)
     cegterg      :     53.70s CPU     55.86s WALL (    2072 calls)

     Called by *egterg:
     cdiaghg      :      7.70s CPU      7.85s WALL (    8431 calls)
     h_psi        :     40.13s CPU     41.98s WALL (    8505 calls)
     s_psi        :      0.95s CPU      1.00s WALL (    8505 calls)
     g_psi        :      0.16s CPU      0.17s WALL (    6359 calls)

     Called by h_psi:
     h_psi:calbec :      1.10s CPU      1.15s WALL (    8505 calls)
     vloc_psi     :     37.82s CPU     39.56s WALL (    8505 calls)
     add_vuspsi   :      0.96s CPU      1.00s WALL (    8505 calls)

     General routines
     calbec       :      1.50s CPU      1.57s WALL (   11835 calls)
     fft          :      0.26s CPU      0.26s WALL (     739 calls)
     ffts         :      0.02s CPU      0.03s WALL (     228 calls)
     fftw         :     33.31s CPU     34.82s WALL (  445988 calls)
     interpolate  :      0.05s CPU      0.05s WALL (     116 calls)
 
     Parallel routines
 
     PWSCF        :   1m 6.50s CPU   1m11.69s WALL

 
   This run was terminated on:  23:23:30  20Jan2026            

=------------------------------------------------------------------------------=
   JOB DONE.
=------------------------------------------------------------------------------=
