
     Program PWSCF v.7.4.1 starts on 29Jan2026 at  2:20:22 

     This program is part of the open-source Quantum ESPRESSO suite
     for quantum simulation of materials; please cite
         "P. Giannozzi et al., J. Phys.:Condens. Matter 21 395502 (2009);
         "P. Giannozzi et al., J. Phys.:Condens. Matter 29 465901 (2017);
         "P. Giannozzi et al., J. Chem. Phys. 152 154105 (2020);
          URL http://www.quantum-espresso.org", 
     in publications or presentations arising from this work. More details at
     http://www.quantum-espresso.org/quote

     Parallel version (MPI), running on    20 processors

     MPI processes distributed on     1 nodes
     124915 MiB available memory on the printing compute node when the environment starts
 
     Reading input from grap_SOC_scf.in

     Current dimensions of program PWSCF are:
     Max number of different atomic species (ntypx) = 10
     Max number of k-points (npk) =  40000
     Max angular momentum in pseudopotentials (lmaxx) =  4
     Presently stress not available with electric field and gates

     file C.rel-pbe-n-kjpaw_psl.1.0.0.UPF: wavefunction(s)  2S 2P 2P renormalized
 
     R & G space division:  proc/nbgrp/npool/nimage =      20
     Subspace diagonalization in iterative solution of the eigenvalue problem:
     a serial algorithm will be used

 
     Parallelization info
     --------------------
     sticks:   dense  smooth     PW     G-vecs:    dense   smooth      PW
     Min          52      21      6                 8339     2113     392
     Max          57      22      7                 8350     2140     425
     Sum        1045     421    139               166859    42343    8205
 
     Using Slab Decomposition
 


     bravais-lattice index     =            0
     lattice parameter (alat)  =       4.6624  a.u.
     unit-cell volume          =     533.6317 (a.u.)^3
     number of atoms/cell      =            2
     number of atomic types    =            1
     number of electrons       =         8.00
     number of Kohn-Sham states=           16
     kinetic-energy cutoff     =      70.0000  Ry
     charge density cutoff     =     700.0000  Ry
     scf convergence threshold =      1.0E-08
     mixing beta               =       0.1000
     number of iterations used =            8  plain     mixing
     Exchange-correlation= SLA  PW   PBX  PBC
                           (   1   4   3   4   0   0   0)
     Non magnetic calculation with spin-orbit


     celldm(1)=   4.662410  celldm(2)=   0.000000  celldm(3)=   0.000000
     celldm(4)=   0.000000  celldm(5)=   0.000000  celldm(6)=   0.000000

     crystal axes: (cart. coord. in units of alat)
               a(1) = (   1.000000   0.000000   0.000000 )  
               a(2) = (  -0.500000   0.866025   0.000000 )  
               a(3) = (   0.000000   0.000000   6.079666 )  

     reciprocal axes: (cart. coord. in units 2 pi/alat)
               b(1) = (  1.000000  0.577350  0.000000 )  
               b(2) = (  0.000000  1.154701  0.000000 )  
               b(3) = (  0.000000  0.000000  0.164483 )  


     PseudoPot. # 1 for C  read from file:
     ../../../PP_C/C.rel-pbe-n-kjpaw_psl.1.0.0.UPF
     MD5 check sum: dd2b8f743de1f3a10095e4114fb28074
     Pseudo is Projector augmented-wave + core cor, Zval =  4.0
     Generated using &quot;atomic&quot; code by A. Dal Corso  v.6.3
     Shape of augmentation charge: PSQ
     Using radial grid of 1073 points,  6 beta functions with: 
                l(1) =   0
                l(2) =   0
                l(3) =   1
                l(4) =   1
                l(5) =   1
                l(6) =   1
     Q(r) pseudized with 0 coefficients 


     atomic species   valence    mass     pseudopotential
     C                 4.00    12.01100     C ( 1.00)

     No symmetry found



   Cartesian axes

     site n.     atom                  positions (alat units)
         1        C      tau(   1) = (   0.0000000   0.0000000   3.0398328  )
         2        C      tau(   2) = (   0.0000000   0.5773503   3.0398328  )

     number of k points=    74  Gaussian smearing, width (Ry)=  0.0020
                       cart. coord. in units 2pi/alat
        k(    1) = (   0.0000000   0.0000000   0.0000000), wk =   0.0069444
        k(    2) = (   0.0000000   0.0962250   0.0000000), wk =   0.0138889
        k(    3) = (   0.0000000   0.1924501   0.0000000), wk =   0.0138889
        k(    4) = (   0.0000000   0.2886751   0.0000000), wk =   0.0138889
        k(    5) = (   0.0000000   0.3849002   0.0000000), wk =   0.0138889
        k(    6) = (   0.0000000   0.4811252   0.0000000), wk =   0.0138889
        k(    7) = (   0.0000000  -0.5773503   0.0000000), wk =   0.0069444
        k(    8) = (   0.0833333   0.0481125   0.0000000), wk =   0.0138889
        k(    9) = (   0.0833333   0.1443376   0.0000000), wk =   0.0138889
        k(   10) = (   0.0833333   0.2405626   0.0000000), wk =   0.0138889
        k(   11) = (   0.0833333   0.3367877   0.0000000), wk =   0.0138889
        k(   12) = (   0.0833333   0.4330127   0.0000000), wk =   0.0138889
        k(   13) = (   0.0833333   0.5292377   0.0000000), wk =   0.0138889
        k(   14) = (   0.0833333  -0.5292377   0.0000000), wk =   0.0138889
        k(   15) = (   0.0833333  -0.4330127   0.0000000), wk =   0.0138889
        k(   16) = (   0.0833333  -0.3367877   0.0000000), wk =   0.0138889
        k(   17) = (   0.0833333  -0.2405626   0.0000000), wk =   0.0138889
        k(   18) = (   0.0833333  -0.1443376   0.0000000), wk =   0.0138889
        k(   19) = (   0.0833333  -0.0481125   0.0000000), wk =   0.0138889
        k(   20) = (   0.1666667   0.0962250   0.0000000), wk =   0.0138889
        k(   21) = (   0.1666667   0.1924501   0.0000000), wk =   0.0138889
        k(   22) = (   0.1666667   0.2886751   0.0000000), wk =   0.0138889
        k(   23) = (   0.1666667   0.3849002   0.0000000), wk =   0.0138889
        k(   24) = (   0.1666667   0.4811252   0.0000000), wk =   0.0138889
        k(   25) = (   0.1666667   0.5773503   0.0000000), wk =   0.0138889
        k(   26) = (   0.1666667  -0.4811252   0.0000000), wk =   0.0138889
        k(   27) = (   0.1666667  -0.3849002   0.0000000), wk =   0.0138889
        k(   28) = (   0.1666667  -0.2886751   0.0000000), wk =   0.0138889
        k(   29) = (   0.1666667  -0.1924501   0.0000000), wk =   0.0138889
        k(   30) = (   0.1666667  -0.0962250   0.0000000), wk =   0.0138889
        k(   31) = (   0.1666667  -0.0000000   0.0000000), wk =   0.0138889
        k(   32) = (   0.2500000   0.1443376   0.0000000), wk =   0.0138889
        k(   33) = (   0.2500000   0.2405626   0.0000000), wk =   0.0138889
        k(   34) = (   0.2500000   0.3367877   0.0000000), wk =   0.0138889
        k(   35) = (   0.2500000   0.4330127   0.0000000), wk =   0.0138889
        k(   36) = (   0.2500000   0.5292377   0.0000000), wk =   0.0138889
        k(   37) = (   0.2500000   0.6254628   0.0000000), wk =   0.0138889
        k(   38) = (   0.2500000  -0.4330127   0.0000000), wk =   0.0138889
        k(   39) = (   0.2500000  -0.3367877   0.0000000), wk =   0.0138889
        k(   40) = (   0.2500000  -0.2405626   0.0000000), wk =   0.0138889
        k(   41) = (   0.2500000  -0.1443376   0.0000000), wk =   0.0138889
        k(   42) = (   0.2500000  -0.0481125   0.0000000), wk =   0.0138889
        k(   43) = (   0.2500000   0.0481125   0.0000000), wk =   0.0138889
        k(   44) = (   0.3333333   0.1924501   0.0000000), wk =   0.0138889
        k(   45) = (   0.3333333   0.2886751   0.0000000), wk =   0.0138889
        k(   46) = (   0.3333333   0.3849002   0.0000000), wk =   0.0138889
        k(   47) = (   0.3333333   0.4811252   0.0000000), wk =   0.0138889
        k(   48) = (   0.3333333   0.5773503   0.0000000), wk =   0.0138889
        k(   49) = (   0.3333333   0.6735753   0.0000000), wk =   0.0138889
        k(   50) = (   0.3333333  -0.3849002   0.0000000), wk =   0.0138889
        k(   51) = (   0.3333333  -0.2886751   0.0000000), wk =   0.0138889
        k(   52) = (   0.3333333  -0.1924501   0.0000000), wk =   0.0138889
        k(   53) = (   0.3333333  -0.0962250   0.0000000), wk =   0.0138889
        k(   54) = (   0.3333333  -0.0000000   0.0000000), wk =   0.0138889
        k(   55) = (   0.3333333   0.0962250   0.0000000), wk =   0.0138889
        k(   56) = (   0.4166667   0.2405626   0.0000000), wk =   0.0138889
        k(   57) = (   0.4166667   0.3367877   0.0000000), wk =   0.0138889
        k(   58) = (   0.4166667   0.4330127   0.0000000), wk =   0.0138889
        k(   59) = (   0.4166667   0.5292377   0.0000000), wk =   0.0138889
        k(   60) = (   0.4166667   0.6254628   0.0000000), wk =   0.0138889
        k(   61) = (   0.4166667   0.7216878   0.0000000), wk =   0.0138889
        k(   62) = (   0.4166667  -0.3367877   0.0000000), wk =   0.0138889
        k(   63) = (   0.4166667  -0.2405626   0.0000000), wk =   0.0138889
        k(   64) = (   0.4166667  -0.1443376   0.0000000), wk =   0.0138889
        k(   65) = (   0.4166667  -0.0481125   0.0000000), wk =   0.0138889
        k(   66) = (   0.4166667   0.0481125   0.0000000), wk =   0.0138889
        k(   67) = (   0.4166667   0.1443376   0.0000000), wk =   0.0138889
        k(   68) = (  -0.5000000  -0.2886751   0.0000000), wk =   0.0069444
        k(   69) = (  -0.5000000  -0.1924501   0.0000000), wk =   0.0138889
        k(   70) = (  -0.5000000  -0.0962250   0.0000000), wk =   0.0138889
        k(   71) = (  -0.5000000   0.0000000   0.0000000), wk =   0.0138889
        k(   72) = (  -0.5000000   0.0962250   0.0000000), wk =   0.0138889
        k(   73) = (  -0.5000000   0.1924501   0.0000000), wk =   0.0138889
        k(   74) = (  -0.5000000  -0.8660254   0.0000000), wk =   0.0069444

     Dense  grid:   166859 G-vectors     FFT dimensions: (  40,  40, 240)

     Smooth grid:    42343 G-vectors     FFT dimensions: (  25,  25, 160)

     Estimated max dynamical RAM per process >      40.42 MB

     Estimated total dynamical RAM >     808.50 MB

     Initial potential from superposition of free atoms

     starting charge       7.9999, renormalised to       8.0000

     negative rho (up, down):  2.223E-05 0.000E+00
 
     Adding external electric field

     Computed dipole along edir(3) : 
        Dipole               -0.0000 Ry au,         -0.0000 Debye
        Dipole field         -0.0000 Ry au, 
 
        E field amplitude [Ha a.u.]:  9.7235E-04
        Potential amp.        0.0524 Ry
        Total length         26.9286 bohr
 
     Starting wfcs are random
     Checking if some PAW data can be deallocated... 

     total cpu time spent up to now is        1.1 secs

     per-process dynamical memory:    53.7 Mb

     Self-consistent Calculation

     iteration #  1     ecut=    70.00 Ry     beta= 0.10
     Davidson diagonalization with overlap
     ethr =  1.00E-02,  avg # of iterations =  8.3

     negative rho (up, down):  2.181E-05 0.000E+00
 
     Adding external electric field

     Computed dipole along edir(3) : 
        Dipole                0.0013 Ry au,          0.0032 Debye
        Dipole field          0.0000 Ry au, 
 
        E field amplitude [Ha a.u.]:  9.7235E-04
        Potential amp.        0.0508 Ry
        Total length         26.9286 bohr
 

     total cpu time spent up to now is        8.5 secs

     total energy              =     -36.95128668 Ry
     estimated scf accuracy    <       0.20288947 Ry

     iteration #  2     ecut=    70.00 Ry     beta= 0.10
     Davidson diagonalization with overlap
     ethr =  2.54E-03,  avg # of iterations =  1.0

     negative rho (up, down):  2.716E-05 0.000E+00
 
     Adding external electric field

     Computed dipole along edir(3) : 
        Dipole                0.0078 Ry au,          0.0198 Debye
        Dipole field          0.0002 Ry au, 
 
        E field amplitude [Ha a.u.]:  9.7235E-04
        Potential amp.        0.0425 Ry
        Total length         26.9286 bohr
 

     total cpu time spent up to now is       10.2 secs

     total energy              =     -36.86216330 Ry
     estimated scf accuracy    <       0.14954076 Ry

     iteration #  3     ecut=    70.00 Ry     beta= 0.10
     Davidson diagonalization with overlap
     ethr =  1.87E-03,  avg # of iterations =  2.6

     negative rho (up, down):  2.701E-05 0.000E+00
 
     Adding external electric field

     Computed dipole along edir(3) : 
        Dipole                0.0060 Ry au,          0.0152 Debye
        Dipole field          0.0001 Ry au, 
 
        E field amplitude [Ha a.u.]:  9.7235E-04
        Potential amp.        0.0448 Ry
        Total length         26.9286 bohr
 

     total cpu time spent up to now is       12.3 secs

     total energy              =     -36.88689799 Ry
     estimated scf accuracy    <       0.00232429 Ry

     iteration #  4     ecut=    70.00 Ry     beta= 0.10
     Davidson diagonalization with overlap
     ethr =  2.91E-05,  avg # of iterations =  6.3

     negative rho (up, down):  3.042E-05 0.000E+00
 
     Adding external electric field

     Computed dipole along edir(3) : 
        Dipole                0.0029 Ry au,          0.0074 Debye
        Dipole field          0.0001 Ry au, 
 
        E field amplitude [Ha a.u.]:  9.7235E-04
        Potential amp.        0.0487 Ry
        Total length         26.9286 bohr
 

     total cpu time spent up to now is       15.9 secs

     total energy              =     -36.88729035 Ry
     estimated scf accuracy    <       0.00145489 Ry

     iteration #  5     ecut=    70.00 Ry     beta= 0.10
     Davidson diagonalization with overlap
     ethr =  1.82E-05,  avg # of iterations =  1.0

     negative rho (up, down):  3.433E-05 0.000E+00
 
     Adding external electric field

     Computed dipole along edir(3) : 
        Dipole                0.0047 Ry au,          0.0120 Debye
        Dipole field          0.0001 Ry au, 
 
        E field amplitude [Ha a.u.]:  9.7235E-04
        Potential amp.        0.0464 Ry
        Total length         26.9286 bohr
 

     total cpu time spent up to now is       17.6 secs

     total energy              =     -36.88732903 Ry
     estimated scf accuracy    <       0.00017208 Ry

     iteration #  6     ecut=    70.00 Ry     beta= 0.10
     Davidson diagonalization with overlap
     ethr =  2.15E-06,  avg # of iterations =  3.8

     negative rho (up, down):  3.291E-05 0.000E+00
 
     Adding external electric field

     Computed dipole along edir(3) : 
        Dipole                0.0054 Ry au,          0.0138 Debye
        Dipole field          0.0001 Ry au, 
 
        E field amplitude [Ha a.u.]:  9.7235E-04
        Potential amp.        0.0455 Ry
        Total length         26.9286 bohr
 

     total cpu time spent up to now is       20.3 secs

     total energy              =     -36.88724726 Ry
     estimated scf accuracy    <       0.00029749 Ry

     iteration #  7     ecut=    70.00 Ry     beta= 0.10
     Davidson diagonalization with overlap
     ethr =  2.15E-06,  avg # of iterations =  2.9

     negative rho (up, down):  3.321E-05 0.000E+00
 
     Adding external electric field

     Computed dipole along edir(3) : 
        Dipole                0.0055 Ry au,          0.0141 Debye
        Dipole field          0.0001 Ry au, 
 
        E field amplitude [Ha a.u.]:  9.7235E-04
        Potential amp.        0.0454 Ry
        Total length         26.9286 bohr
 

     total cpu time spent up to now is       22.7 secs

     total energy              =     -36.88729370 Ry
     estimated scf accuracy    <       0.00000160 Ry

     iteration #  8     ecut=    70.00 Ry     beta= 0.10
     Davidson diagonalization with overlap
     ethr =  2.00E-08,  avg # of iterations =  2.0

     negative rho (up, down):  3.346E-05 0.000E+00
 
     Adding external electric field

     Computed dipole along edir(3) : 
        Dipole                0.0058 Ry au,          0.0148 Debye
        Dipole field          0.0001 Ry au, 
 
        E field amplitude [Ha a.u.]:  9.7235E-04
        Potential amp.        0.0450 Ry
        Total length         26.9286 bohr
 

     total cpu time spent up to now is       24.6 secs

     total energy              =     -36.88729412 Ry
     estimated scf accuracy    <       0.00000107 Ry

     iteration #  9     ecut=    70.00 Ry     beta= 0.10
     Davidson diagonalization with overlap
     ethr =  1.34E-08,  avg # of iterations =  1.0

     negative rho (up, down):  3.383E-05 0.000E+00
 
     Adding external electric field

     Computed dipole along edir(3) : 
        Dipole                0.0057 Ry au,          0.0145 Debye
        Dipole field          0.0001 Ry au, 
 
        E field amplitude [Ha a.u.]:  9.7235E-04
        Potential amp.        0.0451 Ry
        Total length         26.9286 bohr
 

     total cpu time spent up to now is       26.3 secs

     total energy              =     -36.88729421 Ry
     estimated scf accuracy    <       0.00000074 Ry

     iteration # 10     ecut=    70.00 Ry     beta= 0.10
     Davidson diagonalization with overlap
     ethr =  9.25E-09,  avg # of iterations =  1.0

     negative rho (up, down):  3.404E-05 0.000E+00
 
     Adding external electric field

     Computed dipole along edir(3) : 
        Dipole                0.0057 Ry au,          0.0144 Debye
        Dipole field          0.0001 Ry au, 
 
        E field amplitude [Ha a.u.]:  9.7235E-04
        Potential amp.        0.0452 Ry
        Total length         26.9286 bohr
 

     total cpu time spent up to now is       28.0 secs

     total energy              =     -36.88729421 Ry
     estimated scf accuracy    <       0.00000025 Ry

     iteration # 11     ecut=    70.00 Ry     beta= 0.10
     Davidson diagonalization with overlap
     ethr =  3.19E-09,  avg # of iterations =  1.0

     negative rho (up, down):  3.550E-05 0.000E+00
 
     Adding external electric field

     Computed dipole along edir(3) : 
        Dipole                0.0058 Ry au,          0.0147 Debye
        Dipole field          0.0001 Ry au, 
 
        E field amplitude [Ha a.u.]:  9.7235E-04
        Potential amp.        0.0450 Ry
        Total length         26.9286 bohr
 

     total cpu time spent up to now is       29.7 secs

     End of self-consistent calculation

          k = 0.0000 0.0000 0.0000 (  5307 PWs)   bands (ev):

   -21.2234 -21.2234  -9.3198  -9.3198  -4.7662  -4.7662  -4.7570  -4.7570
     1.5185   1.5185   2.4245   2.4245   2.7958   2.7958   4.7582   4.7582

          k = 0.0000 0.0962 0.0000 (  5285 PWs)   bands (ev):

   -21.0596 -21.0596  -9.1241  -9.1241  -5.4123  -5.4123  -5.0995  -5.0995
     1.7414   1.7414   2.6490   2.6490   3.0223   3.0223   4.9812   4.9812

          k = 0.0000 0.1925 0.0000 (  5253 PWs)   bands (ev):

   -20.5701 -20.5701  -8.5422  -8.5422  -7.0497  -7.0497  -5.8911  -5.8911
     2.4102   2.4102   3.3211   3.3212   3.7020   3.7020   5.6471   5.6471

          k = 0.0000 0.2887 0.0000 (  5269 PWs)   bands (ev):

   -19.7606 -19.7606  -9.1472  -9.1472  -7.5933  -7.5933  -6.7701  -6.7701
     3.5225   3.5225   4.4224   4.4225   4.8322   4.8323   5.5420   5.5420

          k = 0.0000 0.3849 0.0000 (  5285 PWs)   bands (ev):

   -18.6434 -18.6434 -11.3491 -11.3491  -7.5029  -7.5029  -6.3276  -6.3276
     3.1970   3.1970   5.0675   5.0676   5.9798   5.9807   6.0393   6.0401

          k = 0.0000 0.4811 0.0000 (  5290 PWs)   bands (ev):

   -17.2497 -17.2497 -13.4471 -13.4471  -7.9755  -7.9755  -4.9081  -4.9081
     1.0673   1.0673   5.7430   5.7430   7.0758   7.0759   8.0078   8.0079

          k = 0.0000-0.5774 0.0000 (  5288 PWs)   bands (ev):

   -15.9910 -15.9910 -14.9484 -14.9484  -8.1377  -8.1377  -4.0658  -4.0658
    -0.0274  -0.0274   5.6635   5.6635   9.3820   9.3820   9.5272   9.5272

          k = 0.0833 0.0481 0.0000 (  5285 PWs)   bands (ev):

   -21.0596 -21.0596  -9.1241  -9.1241  -5.4123  -5.4123  -5.0995  -5.0995
     1.7414   1.7414   2.6490   2.6490   3.0223   3.0223   4.9812   4.9812

          k = 0.0833 0.1443 0.0000 (  5269 PWs)   bands (ev):

   -20.7330 -20.7330  -8.7352  -8.7352  -6.4461  -6.4461  -5.7761  -5.7761
     2.1875   2.1875   3.0975   3.0976   3.4755   3.4756   5.4263   5.4263

          k = 0.0833 0.2406 0.0000 (  5261 PWs)   bands (ev):

   -20.0835 -20.0835  -8.1555  -8.1555  -7.9686  -7.9686  -6.7732  -6.7732
     3.0788   3.0788   3.9907   3.9907   4.3818   4.3818   6.2724   6.2725

          k = 0.0833 0.3368 0.0000 (  5275 PWs)   bands (ev):

   -19.1200 -19.1200 -10.2274 -10.2274  -7.6589  -7.6589  -6.8548  -6.8548
     4.2053   4.2054   4.4125   4.4126   5.3503   5.3504   5.7398   5.7398

          k = 0.0833 0.4330 0.0000 (  5284 PWs)   bands (ev):

   -17.8613 -17.8613 -12.3484 -12.3483  -8.2934  -8.2934  -5.4781  -5.4781
     2.0115   2.0116   6.1580   6.1581   6.5971   6.5972   7.1100   7.1101

          k = 0.0833 0.5292 0.0000 (  5302 PWs)   bands (ev):

   -16.3848 -16.3848 -14.2868 -14.2868  -8.6216  -8.6216  -4.1720  -4.1720
     0.2475   0.2475   6.4016   6.4016   8.3740   8.3741   9.2592   9.2594

          k = 0.0833-0.5292 0.0000 (  5302 PWs)   bands (ev):

   -16.3848 -16.3848 -14.2868 -14.2868  -8.6216  -8.6216  -4.1720  -4.1720
     0.2475   0.2475   6.4016   6.4016   8.3740   8.3741   9.2592   9.2594

          k = 0.0833-0.4330 0.0000 (  5284 PWs)   bands (ev):

   -17.8613 -17.8613 -12.3484 -12.3483  -8.2934  -8.2934  -5.4781  -5.4781
     2.0115   2.0116   6.1580   6.1581   6.5971   6.5972   7.1100   7.1101

          k = 0.0833-0.3368 0.0000 (  5275 PWs)   bands (ev):

   -19.1200 -19.1200 -10.2274 -10.2274  -7.6589  -7.6589  -6.8548  -6.8548
     4.2053   4.2054   4.4125   4.4126   5.3503   5.3504   5.7397   5.7398

          k = 0.0833-0.2406 0.0000 (  5261 PWs)   bands (ev):

   -20.0835 -20.0835  -8.1555  -8.1555  -7.9686  -7.9686  -6.7732  -6.7732
     3.0788   3.0788   3.9907   3.9907   4.3818   4.3818   6.2724   6.2725

          k = 0.0833-0.1443 0.0000 (  5269 PWs)   bands (ev):

   -20.7330 -20.7330  -8.7352  -8.7352  -6.4461  -6.4461  -5.7761  -5.7761
     2.1875   2.1875   3.0975   3.0976   3.4755   3.4756   5.4263   5.4263

          k = 0.0833-0.0481 0.0000 (  5285 PWs)   bands (ev):

   -21.0596 -21.0596  -9.1241  -9.1241  -5.4123  -5.4123  -5.0995  -5.0995
     1.7414   1.7414   2.6490   2.6490   3.0223   3.0223   4.9812   4.9812

          k = 0.1667 0.0962 0.0000 (  5253 PWs)   bands (ev):

   -20.5701 -20.5701  -8.5422  -8.5422  -7.0497  -7.0497  -5.8911  -5.8911
     2.4102   2.4102   3.3211   3.3212   3.7020   3.7020   5.6471   5.6472

          k = 0.1667 0.1925 0.0000 (  5261 PWs)   bands (ev):

   -20.0835 -20.0835  -8.1555  -8.1555  -7.9686  -7.9686  -6.7732  -6.7732
     3.0788   3.0788   3.9907   3.9907   4.3818   4.3818   6.2724   6.2725

          k = 0.1667 0.2887 0.0000 (  5288 PWs)   bands (ev):

   -19.2799 -19.2799  -9.4862  -9.4862  -8.1335  -8.1335  -7.0332  -7.0332
     4.1912   4.1913   4.6609   4.6609   5.1007   5.1008   5.5145   5.5145

          k = 0.1667 0.3849 0.0000 (  5285 PWs)   bands (ev):

   -18.1735 -18.1735 -11.2122 -11.2122  -9.1892  -9.1892  -5.7827  -5.7827
     2.7179   2.7179   5.7397   5.7397   6.6318   6.6319   7.0965   7.0965

          k = 0.1667 0.4811 0.0000 (  5283 PWs)   bands (ev):

   -16.7997 -16.7997 -13.1205 -13.1205  -9.7651  -9.7651  -4.3590  -4.3590
     0.8102   0.8102   7.6972   7.6973   8.3121   8.3123   8.5066   8.5069

          k = 0.1667 0.5774 0.0000 (  5264 PWs)   bands (ev):

   -15.5698 -15.5698 -14.5508 -14.5508  -9.9500  -9.9500  -3.4686  -3.4686
    -0.2551  -0.2551   8.2082   8.2082   9.8837   9.8839   9.9454   9.9455

          k = 0.1667-0.4811 0.0000 (  5283 PWs)   bands (ev):

   -16.7997 -16.7997 -13.1205 -13.1205  -9.7651  -9.7651  -4.3590  -4.3590
     0.8102   0.8102   7.6972   7.6973   8.3120   8.3123   8.5066   8.5069

          k = 0.1667-0.3849 0.0000 (  5285 PWs)   bands (ev):

   -18.1735 -18.1735 -11.2122 -11.2122  -9.1892  -9.1892  -5.7827  -5.7827
     2.7179   2.7179   5.7397   5.7397   6.6318   6.6319   7.0965   7.0965

          k = 0.1667-0.2887 0.0000 (  5288 PWs)   bands (ev):

   -19.2799 -19.2799  -9.4862  -9.4862  -8.1335  -8.1335  -7.0332  -7.0332
     4.1912   4.1913   4.6609   4.6609   5.1007   5.1008   5.5145   5.5145

          k = 0.1667-0.1925 0.0000 (  5261 PWs)   bands (ev):

   -20.0835 -20.0835  -8.1555  -8.1555  -7.9686  -7.9686  -6.7732  -6.7732
     3.0788   3.0788   3.9907   3.9907   4.3818   4.3818   6.2725   6.2725

          k = 0.1667-0.0962 0.0000 (  5253 PWs)   bands (ev):

   -20.5701 -20.5701  -8.5422  -8.5422  -7.0497  -7.0497  -5.8911  -5.8911
     2.4102   2.4102   3.3211   3.3212   3.7020   3.7020   5.6471   5.6472

          k = 0.1667-0.0000 0.0000 (  5269 PWs)   bands (ev):

   -20.7330 -20.7330  -8.7352  -8.7352  -6.4461  -6.4461  -5.7761  -5.7761
     2.1875   2.1875   3.0975   3.0976   3.4755   3.4756   5.4263   5.4263

          k = 0.2500 0.1443 0.0000 (  5269 PWs)   bands (ev):

   -19.7606 -19.7606  -9.1472  -9.1472  -7.5933  -7.5933  -6.7701  -6.7701
     3.5225   3.5225   4.4224   4.4225   4.8322   4.8323   5.5420   5.5420

          k = 0.2500 0.2406 0.0000 (  5275 PWs)   bands (ev):

   -19.1200 -19.1200 -10.2274 -10.2274  -7.6589  -7.6589  -6.8548  -6.8548
     4.2053   4.2054   4.4125   4.4126   5.3503   5.3504   5.7397   5.7398

          k = 0.2500 0.3368 0.0000 (  5285 PWs)   bands (ev):

   -18.1735 -18.1735 -11.2122 -11.2122  -9.1892  -9.1892  -5.7827  -5.7827
     2.7179   2.7179   5.7397   5.7397   6.6318   6.6319   7.0965   7.0965

          k = 0.2500 0.4330 0.0000 (  5268 PWs)   bands (ev):

   -16.9471 -16.9471 -12.2485 -12.2485 -10.6696 -10.6696  -4.4428  -4.4427
     1.1065   1.1065   7.4873   7.4874   8.2159   8.2160   8.8951   8.8952

          k = 0.2500 0.5292 0.0000 (  5282 PWs)   bands (ev):

   -15.5275 -15.5275 -13.6673 -13.6672 -11.3769 -11.3769  -3.0600  -3.0600
    -0.4106  -0.4106   9.1611   9.1612   9.5906   9.5907  10.4726  10.4727

          k = 0.2500 0.6255 0.0000 (  5282 PWs)   bands (ev):

   -15.5275 -15.5275 -13.6673 -13.6672 -11.3769 -11.3769  -3.0600  -3.0600
    -0.4106  -0.4106   9.1611   9.1612   9.5906   9.5907  10.4726  10.4727

          k = 0.2500-0.4330 0.0000 (  5268 PWs)   bands (ev):

   -16.9471 -16.9471 -12.2485 -12.2485 -10.6696 -10.6696  -4.4428  -4.4427
     1.1065   1.1065   7.4873   7.4874   8.2159   8.2160   8.8951   8.8952

          k = 0.2500-0.3368 0.0000 (  5285 PWs)   bands (ev):

   -18.1735 -18.1735 -11.2122 -11.2122  -9.1892  -9.1892  -5.7827  -5.7827
     2.7179   2.7179   5.7397   5.7397   6.6318   6.6319   7.0965   7.0965

          k = 0.2500-0.2406 0.0000 (  5275 PWs)   bands (ev):

   -19.1200 -19.1200 -10.2274 -10.2274  -7.6589  -7.6589  -6.8548  -6.8548
     4.2053   4.2054   4.4125   4.4126   5.3503   5.3504   5.7398   5.7398

          k = 0.2500-0.1443 0.0000 (  5269 PWs)   bands (ev):

   -19.7606 -19.7606  -9.1472  -9.1472  -7.5933  -7.5933  -6.7701  -6.7701
     3.5225   3.5225   4.4224   4.4225   4.8322   4.8323   5.5420   5.5420

          k = 0.2500-0.0481 0.0000 (  5261 PWs)   bands (ev):

   -20.0835 -20.0835  -8.1555  -8.1555  -7.9686  -7.9686  -6.7732  -6.7732
     3.0788   3.0788   3.9907   3.9907   4.3818   4.3818   6.2724   6.2725

          k = 0.2500 0.0481 0.0000 (  5261 PWs)   bands (ev):

   -20.0835 -20.0835  -8.1555  -8.1555  -7.9686  -7.9686  -6.7732  -6.7732
     3.0788   3.0788   3.9907   3.9907   4.3818   4.3818   6.2724   6.2725

          k = 0.3333 0.1925 0.0000 (  5285 PWs)   bands (ev):

   -18.6434 -18.6434 -11.3491 -11.3491  -7.5029  -7.5029  -6.3276  -6.3276
     3.1970   3.1970   5.0675   5.0676   5.9798   5.9807   6.0393   6.0401

          k = 0.3333 0.2887 0.0000 (  5284 PWs)   bands (ev):

   -17.8613 -17.8613 -12.3484 -12.3483  -8.2934  -8.2934  -5.4781  -5.4781
     2.0115   2.0116   6.1580   6.1581   6.5971   6.5972   7.1100   7.1101

          k = 0.3333 0.3849 0.0000 (  5283 PWs)   bands (ev):

   -16.7997 -16.7997 -13.1205 -13.1205  -9.7651  -9.7651  -4.3590  -4.3590
     0.8102   0.8102   7.6972   7.6973   8.3120   8.3123   8.5066   8.5069

          k = 0.3333 0.4811 0.0000 (  5282 PWs)   bands (ev):

   -15.5275 -15.5275 -13.6672 -13.6672 -11.3769 -11.3769  -3.0600  -3.0600
    -0.4106  -0.4106   9.1611   9.1612   9.5906   9.5907  10.4726  10.4727

          k = 0.3333 0.5774 0.0000 (  5292 PWs)   bands (ev):

   -14.3136 -14.3135 -14.3115 -14.3115 -12.2682 -12.2682  -1.7066  -1.7066
    -1.7066  -1.7066   8.9065   8.9065  11.1579  11.1580  11.1620  11.1620

          k = 0.3333 0.6736 0.0000 (  5282 PWs)   bands (ev):

   -15.5275 -15.5275 -13.6673 -13.6672 -11.3769 -11.3769  -3.0600  -3.0600
    -0.4106  -0.4106   9.1611   9.1612   9.5906   9.5907  10.4726  10.4727

          k = 0.3333-0.3849 0.0000 (  5283 PWs)   bands (ev):

   -16.7997 -16.7997 -13.1205 -13.1205  -9.7651  -9.7651  -4.3590  -4.3590
     0.8102   0.8102   7.6972   7.6973   8.3120   8.3123   8.5066   8.5069

          k = 0.3333-0.2887 0.0000 (  5284 PWs)   bands (ev):

   -17.8613 -17.8613 -12.3484 -12.3483  -8.2934  -8.2934  -5.4781  -5.4781
     2.0115   2.0116   6.1580   6.1581   6.5971   6.5972   7.1100   7.1101

          k = 0.3333-0.1925 0.0000 (  5285 PWs)   bands (ev):

   -18.6434 -18.6434 -11.3491 -11.3491  -7.5029  -7.5029  -6.3276  -6.3276
     3.1970   3.1970   5.0675   5.0676   5.9798   5.9807   6.0393   6.0401

          k = 0.3333-0.0962 0.0000 (  5275 PWs)   bands (ev):

   -19.1200 -19.1200 -10.2274 -10.2274  -7.6589  -7.6589  -6.8548  -6.8548
     4.2053   4.2054   4.4125   4.4126   5.3503   5.3504   5.7397   5.7398

          k = 0.3333-0.0000 0.0000 (  5288 PWs)   bands (ev):

   -19.2799 -19.2799  -9.4862  -9.4862  -8.1335  -8.1335  -7.0332  -7.0332
     4.1912   4.1913   4.6609   4.6609   5.1007   5.1008   5.5145   5.5145

          k = 0.3333 0.0962 0.0000 (  5275 PWs)   bands (ev):

   -19.1200 -19.1200 -10.2274 -10.2274  -7.6589  -7.6589  -6.8548  -6.8548
     4.2053   4.2054   4.4125   4.4126   5.3503   5.3504   5.7397   5.7398

          k = 0.4167 0.2406 0.0000 (  5290 PWs)   bands (ev):

   -17.2497 -17.2497 -13.4471 -13.4471  -7.9755  -7.9755  -4.9081  -4.9081
     1.0673   1.0673   5.7430   5.7430   7.0758   7.0759   8.0077   8.0079

          k = 0.4167 0.3368 0.0000 (  5302 PWs)   bands (ev):

   -16.3848 -16.3848 -14.2868 -14.2868  -8.6216  -8.6216  -4.1720  -4.1720
     0.2475   0.2475   6.4016   6.4016   8.3740   8.3741   9.2592   9.2594

          k = 0.4167 0.4330 0.0000 (  5264 PWs)   bands (ev):

   -15.5698 -15.5698 -14.5508 -14.5508  -9.9500  -9.9500  -3.4686  -3.4686
    -0.2551  -0.2551   8.2082   8.2082   9.8838   9.8838   9.9454   9.9455

          k = 0.4167 0.5292 0.0000 (  5282 PWs)   bands (ev):

   -15.5275 -15.5275 -13.6672 -13.6672 -11.3769 -11.3769  -3.0600  -3.0600
    -0.4106  -0.4106   9.1611   9.1612   9.5906   9.5907  10.4726  10.4727

          k = 0.4167 0.6255 0.0000 (  5282 PWs)   bands (ev):

   -15.5275 -15.5275 -13.6673 -13.6672 -11.3769 -11.3769  -3.0600  -3.0600
    -0.4106  -0.4106   9.1611   9.1612   9.5906   9.5907  10.4726  10.4727

          k = 0.4167 0.7217 0.0000 (  5264 PWs)   bands (ev):

   -15.5698 -15.5698 -14.5508 -14.5508  -9.9500  -9.9500  -3.4686  -3.4686
    -0.2551  -0.2551   8.2082   8.2082   9.8837   9.8838   9.9454   9.9455

          k = 0.4167-0.3368 0.0000 (  5302 PWs)   bands (ev):

   -16.3848 -16.3848 -14.2868 -14.2868  -8.6216  -8.6216  -4.1720  -4.1720
     0.2475   0.2475   6.4016   6.4016   8.3740   8.3741   9.2592   9.2594

          k = 0.4167-0.2406 0.0000 (  5290 PWs)   bands (ev):

   -17.2497 -17.2497 -13.4471 -13.4471  -7.9755  -7.9755  -4.9081  -4.9081
     1.0673   1.0673   5.7430   5.7430   7.0758   7.0759   8.0077   8.0079

          k = 0.4167-0.1443 0.0000 (  5284 PWs)   bands (ev):

   -17.8613 -17.8613 -12.3484 -12.3483  -8.2934  -8.2934  -5.4781  -5.4781
     2.0115   2.0116   6.1580   6.1581   6.5971   6.5972   7.1100   7.1101

          k = 0.4167-0.0481 0.0000 (  5285 PWs)   bands (ev):

   -18.1735 -18.1735 -11.2122 -11.2122  -9.1892  -9.1892  -5.7827  -5.7827
     2.7179   2.7179   5.7397   5.7397   6.6318   6.6319   7.0965   7.0965

          k = 0.4167 0.0481 0.0000 (  5285 PWs)   bands (ev):

   -18.1735 -18.1735 -11.2122 -11.2122  -9.1892  -9.1892  -5.7827  -5.7827
     2.7179   2.7179   5.7397   5.7397   6.6318   6.6319   7.0965   7.0965

          k = 0.4167 0.1443 0.0000 (  5284 PWs)   bands (ev):

   -17.8613 -17.8613 -12.3484 -12.3483  -8.2934  -8.2934  -5.4781  -5.4781
     2.0115   2.0116   6.1580   6.1581   6.5971   6.5972   7.1100   7.1101

          k =-0.5000-0.2887 0.0000 (  5288 PWs)   bands (ev):

   -15.9910 -15.9910 -14.9484 -14.9484  -8.1377  -8.1377  -4.0658  -4.0658
    -0.0274  -0.0274   5.6635   5.6635   9.3820   9.3820   9.5272   9.5272

          k =-0.5000-0.1925 0.0000 (  5302 PWs)   bands (ev):

   -16.3848 -16.3848 -14.2868 -14.2868  -8.6216  -8.6216  -4.1720  -4.1720
     0.2475   0.2475   6.4016   6.4016   8.3740   8.3741   9.2592   9.2594

          k =-0.5000-0.0962 0.0000 (  5283 PWs)   bands (ev):

   -16.7997 -16.7997 -13.1205 -13.1205  -9.7651  -9.7651  -4.3590  -4.3590
     0.8102   0.8102   7.6972   7.6973   8.3120   8.3123   8.5066   8.5069

          k =-0.5000 0.0000 0.0000 (  5268 PWs)   bands (ev):

   -16.9471 -16.9471 -12.2485 -12.2485 -10.6696 -10.6696  -4.4428  -4.4427
     1.1065   1.1065   7.4873   7.4874   8.2159   8.2160   8.8951   8.8952

          k =-0.5000 0.0962 0.0000 (  5283 PWs)   bands (ev):

   -16.7997 -16.7997 -13.1205 -13.1205  -9.7651  -9.7651  -4.3590  -4.3590
     0.8102   0.8102   7.6972   7.6973   8.3120   8.3123   8.5066   8.5069

          k =-0.5000 0.1925 0.0000 (  5302 PWs)   bands (ev):

   -16.3848 -16.3848 -14.2868 -14.2868  -8.6216  -8.6216  -4.1720  -4.1720
     0.2475   0.2475   6.4016   6.4016   8.3740   8.3741   9.2592   9.2594

          k =-0.5000-0.8660 0.0000 (  5288 PWs)   bands (ev):

   -15.9910 -15.9910 -14.9484 -14.9484  -8.1377  -8.1377  -4.0658  -4.0658
    -0.0274  -0.0274   5.6635   5.6635   9.3820   9.3820   9.5272   9.5272

     the Fermi energy is    -1.70660784 ev

!    total energy              =     -36.88729425 Ry
     total all-electron energy =      -152.415567 Ry
     estimated scf accuracy    <          3.3E-09 Ry
     smearing contrib. (-TS)   =      -0.00003134 Ry
     internal energy E=F+TS    =     -36.88726291 Ry

     The total energy is F=E-TS. E is the sum of the following terms:
     one-electron contribution =    -156.61865251 Ry
     hartree contribution      =      79.92805705 Ry
     xc contribution           =      -9.27208237 Ry
     ewald contribution        =      61.40972547 Ry
     electric field correction =      -0.00001046 Ry
     one-center paw contrib.   =     -12.33430010 Ry

     convergence has been achieved in  11 iterations

     negative rho (up, down):  3.550E-05 0.000E+00

     Forces acting on atoms (cartesian axes, Ry/au):

     atom    1 type  1   force =    -0.00000042   -0.00000002   -0.00000056
     atom    2 type  1   force =     0.00000042    0.00000002    0.00000056

     Total force =     0.000001     Total SCF correction =     0.000134
     SCF correction compared to forces is large: reduce conv_thr to get better values

     Writing all to output data dir ../tmp/graphene.save/ :
     XML data file, charge density, pseudopotentials, collected wavefunctions
 
     init_run     :      0.71s CPU      0.88s WALL (       1 calls)
     electrons    :     27.41s CPU     28.67s WALL (       1 calls)
     forces       :      0.11s CPU      0.11s WALL (       1 calls)

     Called by init_run:
     wfcinit      :      0.61s CPU      0.70s WALL (       1 calls)
     potinit      :      0.03s CPU      0.06s WALL (       1 calls)
     hinit0       :      0.02s CPU      0.05s WALL (       1 calls)

     Called by electrons:
     c_bands      :     23.42s CPU     24.40s WALL (      11 calls)
     sum_band     :      3.45s CPU      3.60s WALL (      11 calls)
     v_of_rho     :      0.13s CPU      0.15s WALL (      12 calls)
     newd         :      0.21s CPU      0.22s WALL (      12 calls)
     PAW_pot      :      0.13s CPU      0.14s WALL (      12 calls)
     mix_rho      :      0.07s CPU      0.08s WALL (      11 calls)

     Called by c_bands:
     init_us_2    :      0.15s CPU      0.16s WALL (    1776 calls)
     cegterg      :     22.77s CPU     23.71s WALL (     814 calls)

     Called by *egterg:
     cdiaghg      :      3.37s CPU      3.48s WALL (    3107 calls)
     h_psi        :     17.13s CPU     17.96s WALL (    3181 calls)
     s_psi        :      0.38s CPU      0.40s WALL (    3181 calls)
     g_psi        :      0.07s CPU      0.07s WALL (    2293 calls)

     Called by h_psi:
     h_psi:calbec :      0.48s CPU      0.51s WALL (    3181 calls)
     vloc_psi     :     16.12s CPU     16.89s WALL (    3181 calls)
     add_vuspsi   :      0.40s CPU      0.42s WALL (    3181 calls)

     General routines
     calbec       :      0.62s CPU      0.65s WALL (    4291 calls)
     fft          :      0.15s CPU      0.18s WALL (     297 calls)
     ffts         :      0.01s CPU      0.02s WALL (      92 calls)
     fftw         :     13.95s CPU     14.61s WALL (  180760 calls)
     interpolate  :      0.02s CPU      0.04s WALL (      48 calls)
 
     Parallel routines
 
     PWSCF        :     28.55s CPU     32.28s WALL

 
   This run was terminated on:   2:20:54  29Jan2026            

=------------------------------------------------------------------------------=
   JOB DONE.
=------------------------------------------------------------------------------=
