
     Program PWSCF v.7.4.1 starts on 31Dec2025 at  4: 7:15 

     This program is part of the open-source Quantum ESPRESSO suite
     for quantum simulation of materials; please cite
         "P. Giannozzi et al., J. Phys.:Condens. Matter 21 395502 (2009);
         "P. Giannozzi et al., J. Phys.:Condens. Matter 29 465901 (2017);
         "P. Giannozzi et al., J. Chem. Phys. 152 154105 (2020);
          URL http://www.quantum-espresso.org", 
     in publications or presentations arising from this work. More details at
     http://www.quantum-espresso.org/quote

     Parallel version (MPI), running on    20 processors

     MPI processes distributed on     1 nodes
     119495 MiB available memory on the printing compute node when the environment starts
 
     Reading input from grap_nscf.in

     Current dimensions of program PWSCF are:
     Max number of different atomic species (ntypx) = 10
     Max number of k-points (npk) =  40000
     Max angular momentum in pseudopotentials (lmaxx) =  4
     Message from routine input:
     WARNING: "startingwfc" set to random may spoil restart
     file C.pz-n-kjpaw-LDA.UPF: wavefunction(s)  2P renormalized
     Message from routine setup:
     using ibrav=0 with symmetry is DISCOURAGED, use correct ibrav instead
 
     R & G space division:  proc/nbgrp/npool/nimage =      20
     Subspace diagonalization in iterative solution of the eigenvalue problem:
     a serial algorithm will be used

 
     Parallelization info
     --------------------
     sticks:   dense  smooth     PW     G-vecs:    dense   smooth      PW
     Min          51      21      6                 8167     2071     346
     Max          52      22      7                 8192     2088     373
     Sum        1039     421    121               163611    41503    7019
 
     Using Slab Decomposition
 


     bravais-lattice index     =            0
     lattice parameter (alat)  =       4.6223  a.u.
     unit-cell volume          =     522.6524 (a.u.)^3
     number of atoms/cell      =            2
     number of atomic types    =            1
     number of electrons       =         8.00
     number of Kohn-Sham states=            8
     kinetic-energy cutoff     =      70.0000  Ry
     charge density cutoff     =     700.0000  Ry
     Exchange-correlation= SLA  PZ   NOGX NOGC
                           (   1   1   0   0   0   0   0)

     celldm(1)=   4.622345  celldm(2)=   0.000000  celldm(3)=   0.000000
     celldm(4)=   0.000000  celldm(5)=   0.000000  celldm(6)=   0.000000

     crystal axes: (cart. coord. in units of alat)
               a(1) = (   1.000000   0.000000   0.000000 )  
               a(2) = (  -0.500000   0.866025   0.000000 )  
               a(3) = (   0.000000   0.000000   6.110762 )  

     reciprocal axes: (cart. coord. in units 2 pi/alat)
               b(1) = (  1.000000  0.577350  0.000000 )  
               b(2) = (  0.000000  1.154701  0.000000 )  
               b(3) = (  0.000000  0.000000  0.163646 )  


     PseudoPot. # 1 for C  read from file:
     ../../PP_C/C.pz-n-kjpaw-LDA.UPF
     MD5 check sum: f9b5071a06eb8a1f9ad661a58cdfa26d
     Pseudo is Projector augmented-wave + core cor, Zval =  4.0
     Generated using "atomic" code by A. Dal Corso  (Quantum ESPRESSO distribution)
     Shape of augmentation charge: BESSEL
     Using radial grid of 1073 points,  4 beta functions with: 
                l(1) =   0
                l(2) =   0
                l(3) =   1
                l(4) =   1
     Q(r) pseudized with 0 coefficients 


     atomic species   valence    mass     pseudopotential
     C                 4.00    12.01100     C ( 1.00)

     24 Sym. Ops., with inversion, found (12 have fractional translation)


                                    s                        frac. trans.

      isym =  1     identity                                     

 cryst.   s( 1) = (     1          0          0      )
                  (     0          1          0      )
                  (     0          0          1      )

 cart.    s( 1) = (  1.0000000  0.0000000  0.0000000 )
                  (  0.0000000  1.0000000  0.0000000 )
                  (  0.0000000  0.0000000  1.0000000 )


      isym =  2     180 deg rotation - cart. axis [0,0,1]        

 cryst.   s( 2) = (    -1          0          0      )    f =( -0.3333334 )
                  (     0         -1          0      )       (  0.3333333 )
                  (     0          0          1      )       (  0.0000000 )

 cart.    s( 2) = ( -1.0000000 -0.0000000  0.0000000 )    f =( -0.5000000 )
                  (  0.0000000 -1.0000000  0.0000000 )       (  0.2886751 )
                  (  0.0000000  0.0000000  1.0000000 )       (  0.0000000 )


      isym =  3     180 deg rotation - cart. axis [0,1,0]        

 cryst.   s( 3) = (    -1          0          0      )
                  (     1          1          0      )
                  (     0          0         -1      )

 cart.    s( 3) = ( -1.0000000  0.0000000  0.0000000 )
                  (  0.0000000  1.0000000  0.0000000 )
                  (  0.0000000  0.0000000 -1.0000000 )


      isym =  4     180 deg rotation - cart. axis [1,0,0]        

 cryst.   s( 4) = (     1          0          0      )    f =( -0.3333334 )
                  (    -1         -1          0      )       (  0.3333333 )
                  (     0          0         -1      )       (  0.0000000 )

 cart.    s( 4) = (  1.0000000 -0.0000000  0.0000000 )    f =( -0.5000000 )
                  (  0.0000000 -1.0000000  0.0000000 )       (  0.2886751 )
                  (  0.0000000  0.0000000 -1.0000000 )       (  0.0000000 )


      isym =  5      60 deg rotation - cryst. axis [0,0,1]       

 cryst.   s( 5) = (     1          1          0      )    f =( -0.3333334 )
                  (    -1          0          0      )       (  0.3333334 )
                  (     0          0          1      )       (  0.0000000 )

 cart.    s( 5) = (  0.5000000 -0.8660254  0.0000000 )    f =( -0.5000000 )
                  (  0.8660254  0.5000000  0.0000000 )       (  0.2886751 )
                  (  0.0000000  0.0000000  1.0000000 )       (  0.0000000 )


      isym =  6      60 deg rotation - cryst. axis [0,0,-1]      

 cryst.   s( 6) = (     0         -1          0      )    f =( -0.3333333 )
                  (     1          1          0      )       (  0.3333334 )
                  (     0          0          1      )       (  0.0000000 )

 cart.    s( 6) = (  0.5000000  0.8660254  0.0000000 )    f =( -0.5000000 )
                  ( -0.8660254  0.5000000  0.0000000 )       (  0.2886752 )
                  (  0.0000000  0.0000000  1.0000000 )       (  0.0000000 )


      isym =  7     120 deg rotation - cryst. axis [0,0,1]       

 cryst.   s( 7) = (     0          1          0      )
                  (    -1         -1          0      )
                  (     0          0          1      )

 cart.    s( 7) = ( -0.5000000 -0.8660254  0.0000000 )
                  (  0.8660254 -0.5000000  0.0000000 )
                  (  0.0000000  0.0000000  1.0000000 )


      isym =  8     120 deg rotation - cryst. axis [0,0,-1]      

 cryst.   s( 8) = (    -1         -1          0      )
                  (     1          0          0      )
                  (     0          0          1      )

 cart.    s( 8) = ( -0.5000000  0.8660254  0.0000000 )
                  ( -0.8660254 -0.5000000  0.0000000 )
                  (  0.0000000  0.0000000  1.0000000 )


      isym =  9     180 deg rotation - cryst. axis [1,-1,0]      

 cryst.   s( 9) = (     0         -1          0      )
                  (    -1          0          0      )
                  (     0          0         -1      )

 cart.    s( 9) = (  0.5000000 -0.8660254  0.0000000 )
                  ( -0.8660254 -0.5000000  0.0000000 )
                  (  0.0000000  0.0000000 -1.0000000 )


      isym = 10     180 deg rotation - cryst. axis [2,1,0]       

 cryst.   s(10) = (     1          1          0      )
                  (     0         -1          0      )
                  (     0          0         -1      )

 cart.    s(10) = (  0.5000000  0.8660254  0.0000000 )
                  (  0.8660254 -0.5000000  0.0000000 )
                  (  0.0000000  0.0000000 -1.0000000 )


      isym = 11     180 deg rotation - cryst. axis [0,1,0]       

 cryst.   s(11) = (    -1         -1          0      )    f =( -0.3333334 )
                  (     0          1          0      )       (  0.3333334 )
                  (     0          0         -1      )       (  0.0000000 )

 cart.    s(11) = ( -0.5000000 -0.8660254  0.0000000 )    f =( -0.5000000 )
                  ( -0.8660254  0.5000000  0.0000000 )       (  0.2886752 )
                  (  0.0000000  0.0000000 -1.0000000 )       (  0.0000000 )


      isym = 12     180 deg rotation - cryst. axis [1,1,0]       

 cryst.   s(12) = (     0          1          0      )    f =( -0.3333333 )
                  (     1          0          0      )       (  0.3333334 )
                  (     0          0         -1      )       (  0.0000000 )

 cart.    s(12) = ( -0.5000000  0.8660254  0.0000000 )    f =( -0.5000000 )
                  (  0.8660254  0.5000000  0.0000000 )       (  0.2886751 )
                  (  0.0000000  0.0000000 -1.0000000 )       (  0.0000000 )


      isym = 13     inversion                                    

 cryst.   s(13) = (    -1          0          0      )    f =( -0.3333334 )
                  (     0         -1          0      )       (  0.3333333 )
                  (     0          0         -1      )       (  0.0000000 )

 cart.    s(13) = ( -1.0000000 -0.0000000  0.0000000 )    f =( -0.5000000 )
                  (  0.0000000 -1.0000000  0.0000000 )       (  0.2886751 )
                  (  0.0000000  0.0000000 -1.0000000 )       (  0.0000000 )


      isym = 14     inv. 180 deg rotation - cart. axis [0,0,1]   

 cryst.   s(14) = (     1          0          0      )
                  (     0          1          0      )
                  (     0          0         -1      )

 cart.    s(14) = (  1.0000000  0.0000000  0.0000000 )
                  (  0.0000000  1.0000000  0.0000000 )
                  (  0.0000000  0.0000000 -1.0000000 )


      isym = 15     inv. 180 deg rotation - cart. axis [0,1,0]   

 cryst.   s(15) = (     1          0          0      )    f =( -0.3333334 )
                  (    -1         -1          0      )       (  0.3333333 )
                  (     0          0          1      )       (  0.0000000 )

 cart.    s(15) = (  1.0000000 -0.0000000  0.0000000 )    f =( -0.5000000 )
                  (  0.0000000 -1.0000000  0.0000000 )       (  0.2886751 )
                  (  0.0000000  0.0000000  1.0000000 )       (  0.0000000 )


      isym = 16     inv. 180 deg rotation - cart. axis [1,0,0]   

 cryst.   s(16) = (    -1          0          0      )
                  (     1          1          0      )
                  (     0          0          1      )

 cart.    s(16) = ( -1.0000000  0.0000000  0.0000000 )
                  (  0.0000000  1.0000000  0.0000000 )
                  (  0.0000000  0.0000000  1.0000000 )


      isym = 17     inv.  60 deg rotation - cryst. axis [0,0,1]  

 cryst.   s(17) = (    -1         -1          0      )
                  (     1          0          0      )
                  (     0          0         -1      )

 cart.    s(17) = ( -0.5000000  0.8660254  0.0000000 )
                  ( -0.8660254 -0.5000000  0.0000000 )
                  (  0.0000000  0.0000000 -1.0000000 )


      isym = 18     inv.  60 deg rotation - cryst. axis [0,0,-1] 

 cryst.   s(18) = (     0          1          0      )
                  (    -1         -1          0      )
                  (     0          0         -1      )

 cart.    s(18) = ( -0.5000000 -0.8660254  0.0000000 )
                  (  0.8660254 -0.5000000  0.0000000 )
                  (  0.0000000  0.0000000 -1.0000000 )


      isym = 19     inv. 120 deg rotation - cryst. axis [0,0,1]  

 cryst.   s(19) = (     0         -1          0      )    f =( -0.3333333 )
                  (     1          1          0      )       (  0.3333334 )
                  (     0          0         -1      )       (  0.0000000 )

 cart.    s(19) = (  0.5000000  0.8660254  0.0000000 )    f =( -0.5000000 )
                  ( -0.8660254  0.5000000  0.0000000 )       (  0.2886752 )
                  (  0.0000000  0.0000000 -1.0000000 )       (  0.0000000 )


      isym = 20     inv. 120 deg rotation - cryst. axis [0,0,-1] 

 cryst.   s(20) = (     1          1          0      )    f =( -0.3333334 )
                  (    -1          0          0      )       (  0.3333334 )
                  (     0          0         -1      )       (  0.0000000 )

 cart.    s(20) = (  0.5000000 -0.8660254  0.0000000 )    f =( -0.5000000 )
                  (  0.8660254  0.5000000  0.0000000 )       (  0.2886751 )
                  (  0.0000000  0.0000000 -1.0000000 )       (  0.0000000 )


      isym = 21     inv. 180 deg rotation - cryst. axis [1,-1,0] 

 cryst.   s(21) = (     0          1          0      )    f =( -0.3333333 )
                  (     1          0          0      )       (  0.3333334 )
                  (     0          0          1      )       (  0.0000000 )

 cart.    s(21) = ( -0.5000000  0.8660254  0.0000000 )    f =( -0.5000000 )
                  (  0.8660254  0.5000000  0.0000000 )       (  0.2886751 )
                  (  0.0000000  0.0000000  1.0000000 )       (  0.0000000 )


      isym = 22     inv. 180 deg rotation - cryst. axis [2,1,0]  

 cryst.   s(22) = (    -1         -1          0      )    f =( -0.3333334 )
                  (     0          1          0      )       (  0.3333334 )
                  (     0          0          1      )       (  0.0000000 )

 cart.    s(22) = ( -0.5000000 -0.8660254  0.0000000 )    f =( -0.5000000 )
                  ( -0.8660254  0.5000000  0.0000000 )       (  0.2886752 )
                  (  0.0000000  0.0000000  1.0000000 )       (  0.0000000 )


      isym = 23     inv. 180 deg rotation - cryst. axis [0,1,0]  

 cryst.   s(23) = (     1          1          0      )
                  (     0         -1          0      )
                  (     0          0          1      )

 cart.    s(23) = (  0.5000000  0.8660254  0.0000000 )
                  (  0.8660254 -0.5000000  0.0000000 )
                  (  0.0000000  0.0000000  1.0000000 )


      isym = 24     inv. 180 deg rotation - cryst. axis [1,1,0]  

 cryst.   s(24) = (     0         -1          0      )
                  (    -1          0          0      )
                  (     0          0          1      )

 cart.    s(24) = (  0.5000000 -0.8660254  0.0000000 )
                  ( -0.8660254 -0.5000000  0.0000000 )
                  (  0.0000000  0.0000000  1.0000000 )


   Cartesian axes

     site n.     atom                  positions (alat units)
         1        C      tau(   1) = (   0.0000000   0.0000000   0.0000000  )
         2        C      tau(   2) = (   0.0000000   0.5773503   0.0000000  )

   Crystallographic axes

     site n.     atom                  positions (cryst. coord.)
         1        C      tau(   1) = (  0.0000000  0.0000000  0.0000000  )
         2        C      tau(   2) = (  0.3333334  0.6666667  0.0000000  )

     number of k points=  1951  Gaussian smearing, width (Ry)=  0.0020
                       cart. coord. in units 2pi/alat
        k(    1) = (   0.0000000   0.0000000   0.0000000), wk =   0.0000889
        k(    2) = (   0.0000000   0.0076980   0.0000000), wk =   0.0005333
        k(    3) = (   0.0000000   0.0153960   0.0000000), wk =   0.0005333
        k(    4) = (   0.0000000   0.0230940   0.0000000), wk =   0.0005333
        k(    5) = (   0.0000000   0.0307920   0.0000000), wk =   0.0005333
        k(    6) = (   0.0000000   0.0384900   0.0000000), wk =   0.0005333
        k(    7) = (   0.0000000   0.0461880   0.0000000), wk =   0.0005333
        k(    8) = (   0.0000000   0.0538860   0.0000000), wk =   0.0005333
        k(    9) = (   0.0000000   0.0615840   0.0000000), wk =   0.0005333
        k(   10) = (   0.0000000   0.0692820   0.0000000), wk =   0.0005333
        k(   11) = (   0.0000000   0.0769800   0.0000000), wk =   0.0005333
        k(   12) = (   0.0000000   0.0846780   0.0000000), wk =   0.0005333
        k(   13) = (   0.0000000   0.0923760   0.0000000), wk =   0.0005333
        k(   14) = (   0.0000000   0.1000740   0.0000000), wk =   0.0005333
        k(   15) = (   0.0000000   0.1077721   0.0000000), wk =   0.0005333
        k(   16) = (   0.0000000   0.1154701   0.0000000), wk =   0.0005333
        k(   17) = (   0.0000000   0.1231681   0.0000000), wk =   0.0005333
        k(   18) = (   0.0000000   0.1308661   0.0000000), wk =   0.0005333
        k(   19) = (   0.0000000   0.1385641   0.0000000), wk =   0.0005333
        k(   20) = (   0.0000000   0.1462621   0.0000000), wk =   0.0005333
        k(   21) = (   0.0000000   0.1539601   0.0000000), wk =   0.0005333
        k(   22) = (   0.0000000   0.1616581   0.0000000), wk =   0.0005333
        k(   23) = (   0.0000000   0.1693561   0.0000000), wk =   0.0005333
        k(   24) = (   0.0000000   0.1770541   0.0000000), wk =   0.0005333
        k(   25) = (   0.0000000   0.1847521   0.0000000), wk =   0.0005333
        k(   26) = (   0.0000000   0.1924501   0.0000000), wk =   0.0005333
        k(   27) = (   0.0000000   0.2001481   0.0000000), wk =   0.0005333
        k(   28) = (   0.0000000   0.2078461   0.0000000), wk =   0.0005333
        k(   29) = (   0.0000000   0.2155441   0.0000000), wk =   0.0005333
        k(   30) = (   0.0000000   0.2232421   0.0000000), wk =   0.0005333
        k(   31) = (   0.0000000   0.2309401   0.0000000), wk =   0.0005333
        k(   32) = (   0.0000000   0.2386381   0.0000000), wk =   0.0005333
        k(   33) = (   0.0000000   0.2463361   0.0000000), wk =   0.0005333
        k(   34) = (   0.0000000   0.2540341   0.0000000), wk =   0.0005333
        k(   35) = (   0.0000000   0.2617321   0.0000000), wk =   0.0005333
        k(   36) = (   0.0000000   0.2694301   0.0000000), wk =   0.0005333
        k(   37) = (   0.0000000   0.2771281   0.0000000), wk =   0.0005333
        k(   38) = (   0.0000000   0.2848261   0.0000000), wk =   0.0005333
        k(   39) = (   0.0000000   0.2925241   0.0000000), wk =   0.0005333
        k(   40) = (   0.0000000   0.3002221   0.0000000), wk =   0.0005333
        k(   41) = (   0.0000000   0.3079201   0.0000000), wk =   0.0005333
        k(   42) = (   0.0000000   0.3156181   0.0000000), wk =   0.0005333
        k(   43) = (   0.0000000   0.3233162   0.0000000), wk =   0.0005333
        k(   44) = (   0.0000000   0.3310142   0.0000000), wk =   0.0005333
        k(   45) = (   0.0000000   0.3387122   0.0000000), wk =   0.0005333
        k(   46) = (   0.0000000   0.3464102   0.0000000), wk =   0.0005333
        k(   47) = (   0.0000000   0.3541082   0.0000000), wk =   0.0005333
        k(   48) = (   0.0000000   0.3618062   0.0000000), wk =   0.0005333
        k(   49) = (   0.0000000   0.3695042   0.0000000), wk =   0.0005333
        k(   50) = (   0.0000000   0.3772022   0.0000000), wk =   0.0005333
        k(   51) = (   0.0000000   0.3849002   0.0000000), wk =   0.0005333
        k(   52) = (   0.0000000   0.3925982   0.0000000), wk =   0.0005333
        k(   53) = (   0.0000000   0.4002962   0.0000000), wk =   0.0005333
        k(   54) = (   0.0000000   0.4079942   0.0000000), wk =   0.0005333
        k(   55) = (   0.0000000   0.4156922   0.0000000), wk =   0.0005333
        k(   56) = (   0.0000000   0.4233902   0.0000000), wk =   0.0005333
        k(   57) = (   0.0000000   0.4310882   0.0000000), wk =   0.0005333
        k(   58) = (   0.0000000   0.4387862   0.0000000), wk =   0.0005333
        k(   59) = (   0.0000000   0.4464842   0.0000000), wk =   0.0005333
        k(   60) = (   0.0000000   0.4541822   0.0000000), wk =   0.0005333
        k(   61) = (   0.0000000   0.4618802   0.0000000), wk =   0.0005333
        k(   62) = (   0.0000000   0.4695782   0.0000000), wk =   0.0005333
        k(   63) = (   0.0000000   0.4772762   0.0000000), wk =   0.0005333
        k(   64) = (   0.0000000   0.4849742   0.0000000), wk =   0.0005333
        k(   65) = (   0.0000000   0.4926722   0.0000000), wk =   0.0005333
        k(   66) = (   0.0000000   0.5003702   0.0000000), wk =   0.0005333
        k(   67) = (   0.0000000   0.5080682   0.0000000), wk =   0.0005333
        k(   68) = (   0.0000000   0.5157662   0.0000000), wk =   0.0005333
        k(   69) = (   0.0000000   0.5234642   0.0000000), wk =   0.0005333
        k(   70) = (   0.0000000   0.5311622   0.0000000), wk =   0.0005333
        k(   71) = (   0.0000000   0.5388603   0.0000000), wk =   0.0005333
        k(   72) = (   0.0000000   0.5465583   0.0000000), wk =   0.0005333
        k(   73) = (   0.0000000   0.5542563   0.0000000), wk =   0.0005333
        k(   74) = (   0.0000000   0.5619543   0.0000000), wk =   0.0005333
        k(   75) = (   0.0000000   0.5696523   0.0000000), wk =   0.0005333
        k(   76) = (   0.0000000  -0.5773503   0.0000000), wk =   0.0002667
        k(   77) = (   0.0066667   0.0115470   0.0000000), wk =   0.0005333
        k(   78) = (   0.0066667   0.0192450   0.0000000), wk =   0.0010667
        k(   79) = (   0.0066667   0.0269430   0.0000000), wk =   0.0010667
        k(   80) = (   0.0066667   0.0346410   0.0000000), wk =   0.0010667
        k(   81) = (   0.0066667   0.0423390   0.0000000), wk =   0.0010667
        k(   82) = (   0.0066667   0.0500370   0.0000000), wk =   0.0010667
        k(   83) = (   0.0066667   0.0577350   0.0000000), wk =   0.0010667
        k(   84) = (   0.0066667   0.0654330   0.0000000), wk =   0.0010667
        k(   85) = (   0.0066667   0.0731310   0.0000000), wk =   0.0010667
        k(   86) = (   0.0066667   0.0808290   0.0000000), wk =   0.0010667
        k(   87) = (   0.0066667   0.0885270   0.0000000), wk =   0.0010667
        k(   88) = (   0.0066667   0.0962250   0.0000000), wk =   0.0010667
        k(   89) = (   0.0066667   0.1039230   0.0000000), wk =   0.0010667
        k(   90) = (   0.0066667   0.1116211   0.0000000), wk =   0.0010667
        k(   91) = (   0.0066667   0.1193191   0.0000000), wk =   0.0010667
        k(   92) = (   0.0066667   0.1270171   0.0000000), wk =   0.0010667
        k(   93) = (   0.0066667   0.1347151   0.0000000), wk =   0.0010667
        k(   94) = (   0.0066667   0.1424131   0.0000000), wk =   0.0010667
        k(   95) = (   0.0066667   0.1501111   0.0000000), wk =   0.0010667
        k(   96) = (   0.0066667   0.1578091   0.0000000), wk =   0.0010667
        k(   97) = (   0.0066667   0.1655071   0.0000000), wk =   0.0010667
        k(   98) = (   0.0066667   0.1732051   0.0000000), wk =   0.0010667
        k(   99) = (   0.0066667   0.1809031   0.0000000), wk =   0.0010667
        k(  100) = (   0.0066667   0.1886011   0.0000000), wk =   0.0010667
        k(  101) = (   0.0066667   0.1962991   0.0000000), wk =   0.0010667
        k(  102) = (   0.0066667   0.2039971   0.0000000), wk =   0.0010667
        k(  103) = (   0.0066667   0.2116951   0.0000000), wk =   0.0010667
        k(  104) = (   0.0066667   0.2193931   0.0000000), wk =   0.0010667
        k(  105) = (   0.0066667   0.2270911   0.0000000), wk =   0.0010667
        k(  106) = (   0.0066667   0.2347891   0.0000000), wk =   0.0010667
        k(  107) = (   0.0066667   0.2424871   0.0000000), wk =   0.0010667
        k(  108) = (   0.0066667   0.2501851   0.0000000), wk =   0.0010667
        k(  109) = (   0.0066667   0.2578831   0.0000000), wk =   0.0010667
        k(  110) = (   0.0066667   0.2655811   0.0000000), wk =   0.0010667
        k(  111) = (   0.0066667   0.2732791   0.0000000), wk =   0.0010667
        k(  112) = (   0.0066667   0.2809771   0.0000000), wk =   0.0010667
        k(  113) = (   0.0066667   0.2886751   0.0000000), wk =   0.0010667
        k(  114) = (   0.0066667   0.2963731   0.0000000), wk =   0.0010667
        k(  115) = (   0.0066667   0.3040711   0.0000000), wk =   0.0010667
        k(  116) = (   0.0066667   0.3117691   0.0000000), wk =   0.0010667
        k(  117) = (   0.0066667   0.3194671   0.0000000), wk =   0.0010667
        k(  118) = (   0.0066667   0.3271652   0.0000000), wk =   0.0010667
        k(  119) = (   0.0066667   0.3348632   0.0000000), wk =   0.0010667
        k(  120) = (   0.0066667   0.3425612   0.0000000), wk =   0.0010667
        k(  121) = (   0.0066667   0.3502592   0.0000000), wk =   0.0010667
        k(  122) = (   0.0066667   0.3579572   0.0000000), wk =   0.0010667
        k(  123) = (   0.0066667   0.3656552   0.0000000), wk =   0.0010667
        k(  124) = (   0.0066667   0.3733532   0.0000000), wk =   0.0010667
        k(  125) = (   0.0066667   0.3810512   0.0000000), wk =   0.0010667
        k(  126) = (   0.0066667   0.3887492   0.0000000), wk =   0.0010667
        k(  127) = (   0.0066667   0.3964472   0.0000000), wk =   0.0010667
        k(  128) = (   0.0066667   0.4041452   0.0000000), wk =   0.0010667
        k(  129) = (   0.0066667   0.4118432   0.0000000), wk =   0.0010667
        k(  130) = (   0.0066667   0.4195412   0.0000000), wk =   0.0010667
        k(  131) = (   0.0066667   0.4272392   0.0000000), wk =   0.0010667
        k(  132) = (   0.0066667   0.4349372   0.0000000), wk =   0.0010667
        k(  133) = (   0.0066667   0.4426352   0.0000000), wk =   0.0010667
        k(  134) = (   0.0066667   0.4503332   0.0000000), wk =   0.0010667
        k(  135) = (   0.0066667   0.4580312   0.0000000), wk =   0.0010667
        k(  136) = (   0.0066667   0.4657292   0.0000000), wk =   0.0010667
        k(  137) = (   0.0066667   0.4734272   0.0000000), wk =   0.0010667
        k(  138) = (   0.0066667   0.4811252   0.0000000), wk =   0.0010667
        k(  139) = (   0.0066667   0.4888232   0.0000000), wk =   0.0010667
        k(  140) = (   0.0066667   0.4965212   0.0000000), wk =   0.0010667
        k(  141) = (   0.0066667   0.5042192   0.0000000), wk =   0.0010667
        k(  142) = (   0.0066667   0.5119172   0.0000000), wk =   0.0010667
        k(  143) = (   0.0066667   0.5196152   0.0000000), wk =   0.0010667
        k(  144) = (   0.0066667   0.5273132   0.0000000), wk =   0.0010667
        k(  145) = (   0.0066667   0.5350112   0.0000000), wk =   0.0010667
        k(  146) = (   0.0066667   0.5427093   0.0000000), wk =   0.0010667
        k(  147) = (   0.0066667   0.5504073   0.0000000), wk =   0.0010667
        k(  148) = (   0.0066667   0.5581053   0.0000000), wk =   0.0010667
        k(  149) = (   0.0066667   0.5658033   0.0000000), wk =   0.0010667
        k(  150) = (   0.0066667   0.5735013   0.0000000), wk =   0.0010667
        k(  151) = (   0.0133333   0.0230940   0.0000000), wk =   0.0005333
        k(  152) = (   0.0133333   0.0307920   0.0000000), wk =   0.0010667
        k(  153) = (   0.0133333   0.0384900   0.0000000), wk =   0.0010667
        k(  154) = (   0.0133333   0.0461880   0.0000000), wk =   0.0010667
        k(  155) = (   0.0133333   0.0538860   0.0000000), wk =   0.0010667
        k(  156) = (   0.0133333   0.0615840   0.0000000), wk =   0.0010667
        k(  157) = (   0.0133333   0.0692820   0.0000000), wk =   0.0010667
        k(  158) = (   0.0133333   0.0769800   0.0000000), wk =   0.0010667
        k(  159) = (   0.0133333   0.0846780   0.0000000), wk =   0.0010667
        k(  160) = (   0.0133333   0.0923760   0.0000000), wk =   0.0010667
        k(  161) = (   0.0133333   0.1000740   0.0000000), wk =   0.0010667
        k(  162) = (   0.0133333   0.1077721   0.0000000), wk =   0.0010667
        k(  163) = (   0.0133333   0.1154701   0.0000000), wk =   0.0010667
        k(  164) = (   0.0133333   0.1231681   0.0000000), wk =   0.0010667
        k(  165) = (   0.0133333   0.1308661   0.0000000), wk =   0.0010667
        k(  166) = (   0.0133333   0.1385641   0.0000000), wk =   0.0010667
        k(  167) = (   0.0133333   0.1462621   0.0000000), wk =   0.0010667
        k(  168) = (   0.0133333   0.1539601   0.0000000), wk =   0.0010667
        k(  169) = (   0.0133333   0.1616581   0.0000000), wk =   0.0010667
        k(  170) = (   0.0133333   0.1693561   0.0000000), wk =   0.0010667
        k(  171) = (   0.0133333   0.1770541   0.0000000), wk =   0.0010667
        k(  172) = (   0.0133333   0.1847521   0.0000000), wk =   0.0010667
        k(  173) = (   0.0133333   0.1924501   0.0000000), wk =   0.0010667
        k(  174) = (   0.0133333   0.2001481   0.0000000), wk =   0.0010667
        k(  175) = (   0.0133333   0.2078461   0.0000000), wk =   0.0010667
        k(  176) = (   0.0133333   0.2155441   0.0000000), wk =   0.0010667
        k(  177) = (   0.0133333   0.2232421   0.0000000), wk =   0.0010667
        k(  178) = (   0.0133333   0.2309401   0.0000000), wk =   0.0010667
        k(  179) = (   0.0133333   0.2386381   0.0000000), wk =   0.0010667
        k(  180) = (   0.0133333   0.2463361   0.0000000), wk =   0.0010667
        k(  181) = (   0.0133333   0.2540341   0.0000000), wk =   0.0010667
        k(  182) = (   0.0133333   0.2617321   0.0000000), wk =   0.0010667
        k(  183) = (   0.0133333   0.2694301   0.0000000), wk =   0.0010667
        k(  184) = (   0.0133333   0.2771281   0.0000000), wk =   0.0010667
        k(  185) = (   0.0133333   0.2848261   0.0000000), wk =   0.0010667
        k(  186) = (   0.0133333   0.2925241   0.0000000), wk =   0.0010667
        k(  187) = (   0.0133333   0.3002221   0.0000000), wk =   0.0010667
        k(  188) = (   0.0133333   0.3079201   0.0000000), wk =   0.0010667
        k(  189) = (   0.0133333   0.3156181   0.0000000), wk =   0.0010667
        k(  190) = (   0.0133333   0.3233162   0.0000000), wk =   0.0010667
        k(  191) = (   0.0133333   0.3310142   0.0000000), wk =   0.0010667
        k(  192) = (   0.0133333   0.3387122   0.0000000), wk =   0.0010667
        k(  193) = (   0.0133333   0.3464102   0.0000000), wk =   0.0010667
        k(  194) = (   0.0133333   0.3541082   0.0000000), wk =   0.0010667
        k(  195) = (   0.0133333   0.3618062   0.0000000), wk =   0.0010667
        k(  196) = (   0.0133333   0.3695042   0.0000000), wk =   0.0010667
        k(  197) = (   0.0133333   0.3772022   0.0000000), wk =   0.0010667
        k(  198) = (   0.0133333   0.3849002   0.0000000), wk =   0.0010667
        k(  199) = (   0.0133333   0.3925982   0.0000000), wk =   0.0010667
        k(  200) = (   0.0133333   0.4002962   0.0000000), wk =   0.0010667
        k(  201) = (   0.0133333   0.4079942   0.0000000), wk =   0.0010667
        k(  202) = (   0.0133333   0.4156922   0.0000000), wk =   0.0010667
        k(  203) = (   0.0133333   0.4233902   0.0000000), wk =   0.0010667
        k(  204) = (   0.0133333   0.4310882   0.0000000), wk =   0.0010667
        k(  205) = (   0.0133333   0.4387862   0.0000000), wk =   0.0010667
        k(  206) = (   0.0133333   0.4464842   0.0000000), wk =   0.0010667
        k(  207) = (   0.0133333   0.4541822   0.0000000), wk =   0.0010667
        k(  208) = (   0.0133333   0.4618802   0.0000000), wk =   0.0010667
        k(  209) = (   0.0133333   0.4695782   0.0000000), wk =   0.0010667
        k(  210) = (   0.0133333   0.4772762   0.0000000), wk =   0.0010667
        k(  211) = (   0.0133333   0.4849742   0.0000000), wk =   0.0010667
        k(  212) = (   0.0133333   0.4926722   0.0000000), wk =   0.0010667
        k(  213) = (   0.0133333   0.5003702   0.0000000), wk =   0.0010667
        k(  214) = (   0.0133333   0.5080682   0.0000000), wk =   0.0010667
        k(  215) = (   0.0133333   0.5157662   0.0000000), wk =   0.0010667
        k(  216) = (   0.0133333   0.5234642   0.0000000), wk =   0.0010667
        k(  217) = (   0.0133333   0.5311622   0.0000000), wk =   0.0010667
        k(  218) = (   0.0133333   0.5388603   0.0000000), wk =   0.0010667
        k(  219) = (   0.0133333   0.5465583   0.0000000), wk =   0.0010667
        k(  220) = (   0.0133333   0.5542563   0.0000000), wk =   0.0010667
        k(  221) = (   0.0133333   0.5619543   0.0000000), wk =   0.0010667
        k(  222) = (   0.0133333   0.5696523   0.0000000), wk =   0.0010667
        k(  223) = (   0.0133333   0.5773503   0.0000000), wk =   0.0005333
        k(  224) = (   0.0200000   0.0346410   0.0000000), wk =   0.0005333
        k(  225) = (   0.0200000   0.0423390   0.0000000), wk =   0.0010667
        k(  226) = (   0.0200000   0.0500370   0.0000000), wk =   0.0010667
        k(  227) = (   0.0200000   0.0577350   0.0000000), wk =   0.0010667
        k(  228) = (   0.0200000   0.0654330   0.0000000), wk =   0.0010667
        k(  229) = (   0.0200000   0.0731310   0.0000000), wk =   0.0010667
        k(  230) = (   0.0200000   0.0808290   0.0000000), wk =   0.0010667
        k(  231) = (   0.0200000   0.0885270   0.0000000), wk =   0.0010667
        k(  232) = (   0.0200000   0.0962250   0.0000000), wk =   0.0010667
        k(  233) = (   0.0200000   0.1039230   0.0000000), wk =   0.0010667
        k(  234) = (   0.0200000   0.1116211   0.0000000), wk =   0.0010667
        k(  235) = (   0.0200000   0.1193191   0.0000000), wk =   0.0010667
        k(  236) = (   0.0200000   0.1270171   0.0000000), wk =   0.0010667
        k(  237) = (   0.0200000   0.1347151   0.0000000), wk =   0.0010667
        k(  238) = (   0.0200000   0.1424131   0.0000000), wk =   0.0010667
        k(  239) = (   0.0200000   0.1501111   0.0000000), wk =   0.0010667
        k(  240) = (   0.0200000   0.1578091   0.0000000), wk =   0.0010667
        k(  241) = (   0.0200000   0.1655071   0.0000000), wk =   0.0010667
        k(  242) = (   0.0200000   0.1732051   0.0000000), wk =   0.0010667
        k(  243) = (   0.0200000   0.1809031   0.0000000), wk =   0.0010667
        k(  244) = (   0.0200000   0.1886011   0.0000000), wk =   0.0010667
        k(  245) = (   0.0200000   0.1962991   0.0000000), wk =   0.0010667
        k(  246) = (   0.0200000   0.2039971   0.0000000), wk =   0.0010667
        k(  247) = (   0.0200000   0.2116951   0.0000000), wk =   0.0010667
        k(  248) = (   0.0200000   0.2193931   0.0000000), wk =   0.0010667
        k(  249) = (   0.0200000   0.2270911   0.0000000), wk =   0.0010667
        k(  250) = (   0.0200000   0.2347891   0.0000000), wk =   0.0010667
        k(  251) = (   0.0200000   0.2424871   0.0000000), wk =   0.0010667
        k(  252) = (   0.0200000   0.2501851   0.0000000), wk =   0.0010667
        k(  253) = (   0.0200000   0.2578831   0.0000000), wk =   0.0010667
        k(  254) = (   0.0200000   0.2655811   0.0000000), wk =   0.0010667
        k(  255) = (   0.0200000   0.2732791   0.0000000), wk =   0.0010667
        k(  256) = (   0.0200000   0.2809771   0.0000000), wk =   0.0010667
        k(  257) = (   0.0200000   0.2886751   0.0000000), wk =   0.0010667
        k(  258) = (   0.0200000   0.2963731   0.0000000), wk =   0.0010667
        k(  259) = (   0.0200000   0.3040711   0.0000000), wk =   0.0010667
        k(  260) = (   0.0200000   0.3117691   0.0000000), wk =   0.0010667
        k(  261) = (   0.0200000   0.3194671   0.0000000), wk =   0.0010667
        k(  262) = (   0.0200000   0.3271652   0.0000000), wk =   0.0010667
        k(  263) = (   0.0200000   0.3348632   0.0000000), wk =   0.0010667
        k(  264) = (   0.0200000   0.3425612   0.0000000), wk =   0.0010667
        k(  265) = (   0.0200000   0.3502592   0.0000000), wk =   0.0010667
        k(  266) = (   0.0200000   0.3579572   0.0000000), wk =   0.0010667
        k(  267) = (   0.0200000   0.3656552   0.0000000), wk =   0.0010667
        k(  268) = (   0.0200000   0.3733532   0.0000000), wk =   0.0010667
        k(  269) = (   0.0200000   0.3810512   0.0000000), wk =   0.0010667
        k(  270) = (   0.0200000   0.3887492   0.0000000), wk =   0.0010667
        k(  271) = (   0.0200000   0.3964472   0.0000000), wk =   0.0010667
        k(  272) = (   0.0200000   0.4041452   0.0000000), wk =   0.0010667
        k(  273) = (   0.0200000   0.4118432   0.0000000), wk =   0.0010667
        k(  274) = (   0.0200000   0.4195412   0.0000000), wk =   0.0010667
        k(  275) = (   0.0200000   0.4272392   0.0000000), wk =   0.0010667
        k(  276) = (   0.0200000   0.4349372   0.0000000), wk =   0.0010667
        k(  277) = (   0.0200000   0.4426352   0.0000000), wk =   0.0010667
        k(  278) = (   0.0200000   0.4503332   0.0000000), wk =   0.0010667
        k(  279) = (   0.0200000   0.4580312   0.0000000), wk =   0.0010667
        k(  280) = (   0.0200000   0.4657292   0.0000000), wk =   0.0010667
        k(  281) = (   0.0200000   0.4734272   0.0000000), wk =   0.0010667
        k(  282) = (   0.0200000   0.4811252   0.0000000), wk =   0.0010667
        k(  283) = (   0.0200000   0.4888232   0.0000000), wk =   0.0010667
        k(  284) = (   0.0200000   0.4965212   0.0000000), wk =   0.0010667
        k(  285) = (   0.0200000   0.5042192   0.0000000), wk =   0.0010667
        k(  286) = (   0.0200000   0.5119172   0.0000000), wk =   0.0010667
        k(  287) = (   0.0200000   0.5196152   0.0000000), wk =   0.0010667
        k(  288) = (   0.0200000   0.5273132   0.0000000), wk =   0.0010667
        k(  289) = (   0.0200000   0.5350112   0.0000000), wk =   0.0010667
        k(  290) = (   0.0200000   0.5427093   0.0000000), wk =   0.0010667
        k(  291) = (   0.0200000   0.5504073   0.0000000), wk =   0.0010667
        k(  292) = (   0.0200000   0.5581053   0.0000000), wk =   0.0010667
        k(  293) = (   0.0200000   0.5658033   0.0000000), wk =   0.0010667
        k(  294) = (   0.0200000   0.5735013   0.0000000), wk =   0.0010667
        k(  295) = (   0.0266667   0.0461880   0.0000000), wk =   0.0005333
        k(  296) = (   0.0266667   0.0538860   0.0000000), wk =   0.0010667
        k(  297) = (   0.0266667   0.0615840   0.0000000), wk =   0.0010667
        k(  298) = (   0.0266667   0.0692820   0.0000000), wk =   0.0010667
        k(  299) = (   0.0266667   0.0769800   0.0000000), wk =   0.0010667
        k(  300) = (   0.0266667   0.0846780   0.0000000), wk =   0.0010667
        k(  301) = (   0.0266667   0.0923760   0.0000000), wk =   0.0010667
        k(  302) = (   0.0266667   0.1000740   0.0000000), wk =   0.0010667
        k(  303) = (   0.0266667   0.1077721   0.0000000), wk =   0.0010667
        k(  304) = (   0.0266667   0.1154701   0.0000000), wk =   0.0010667
        k(  305) = (   0.0266667   0.1231681   0.0000000), wk =   0.0010667
        k(  306) = (   0.0266667   0.1308661   0.0000000), wk =   0.0010667
        k(  307) = (   0.0266667   0.1385641   0.0000000), wk =   0.0010667
        k(  308) = (   0.0266667   0.1462621   0.0000000), wk =   0.0010667
        k(  309) = (   0.0266667   0.1539601   0.0000000), wk =   0.0010667
        k(  310) = (   0.0266667   0.1616581   0.0000000), wk =   0.0010667
        k(  311) = (   0.0266667   0.1693561   0.0000000), wk =   0.0010667
        k(  312) = (   0.0266667   0.1770541   0.0000000), wk =   0.0010667
        k(  313) = (   0.0266667   0.1847521   0.0000000), wk =   0.0010667
        k(  314) = (   0.0266667   0.1924501   0.0000000), wk =   0.0010667
        k(  315) = (   0.0266667   0.2001481   0.0000000), wk =   0.0010667
        k(  316) = (   0.0266667   0.2078461   0.0000000), wk =   0.0010667
        k(  317) = (   0.0266667   0.2155441   0.0000000), wk =   0.0010667
        k(  318) = (   0.0266667   0.2232421   0.0000000), wk =   0.0010667
        k(  319) = (   0.0266667   0.2309401   0.0000000), wk =   0.0010667
        k(  320) = (   0.0266667   0.2386381   0.0000000), wk =   0.0010667
        k(  321) = (   0.0266667   0.2463361   0.0000000), wk =   0.0010667
        k(  322) = (   0.0266667   0.2540341   0.0000000), wk =   0.0010667
        k(  323) = (   0.0266667   0.2617321   0.0000000), wk =   0.0010667
        k(  324) = (   0.0266667   0.2694301   0.0000000), wk =   0.0010667
        k(  325) = (   0.0266667   0.2771281   0.0000000), wk =   0.0010667
        k(  326) = (   0.0266667   0.2848261   0.0000000), wk =   0.0010667
        k(  327) = (   0.0266667   0.2925241   0.0000000), wk =   0.0010667
        k(  328) = (   0.0266667   0.3002221   0.0000000), wk =   0.0010667
        k(  329) = (   0.0266667   0.3079201   0.0000000), wk =   0.0010667
        k(  330) = (   0.0266667   0.3156181   0.0000000), wk =   0.0010667
        k(  331) = (   0.0266667   0.3233162   0.0000000), wk =   0.0010667
        k(  332) = (   0.0266667   0.3310142   0.0000000), wk =   0.0010667
        k(  333) = (   0.0266667   0.3387122   0.0000000), wk =   0.0010667
        k(  334) = (   0.0266667   0.3464102   0.0000000), wk =   0.0010667
        k(  335) = (   0.0266667   0.3541082   0.0000000), wk =   0.0010667
        k(  336) = (   0.0266667   0.3618062   0.0000000), wk =   0.0010667
        k(  337) = (   0.0266667   0.3695042   0.0000000), wk =   0.0010667
        k(  338) = (   0.0266667   0.3772022   0.0000000), wk =   0.0010667
        k(  339) = (   0.0266667   0.3849002   0.0000000), wk =   0.0010667
        k(  340) = (   0.0266667   0.3925982   0.0000000), wk =   0.0010667
        k(  341) = (   0.0266667   0.4002962   0.0000000), wk =   0.0010667
        k(  342) = (   0.0266667   0.4079942   0.0000000), wk =   0.0010667
        k(  343) = (   0.0266667   0.4156922   0.0000000), wk =   0.0010667
        k(  344) = (   0.0266667   0.4233902   0.0000000), wk =   0.0010667
        k(  345) = (   0.0266667   0.4310882   0.0000000), wk =   0.0010667
        k(  346) = (   0.0266667   0.4387862   0.0000000), wk =   0.0010667
        k(  347) = (   0.0266667   0.4464842   0.0000000), wk =   0.0010667
        k(  348) = (   0.0266667   0.4541822   0.0000000), wk =   0.0010667
        k(  349) = (   0.0266667   0.4618802   0.0000000), wk =   0.0010667
        k(  350) = (   0.0266667   0.4695782   0.0000000), wk =   0.0010667
        k(  351) = (   0.0266667   0.4772762   0.0000000), wk =   0.0010667
        k(  352) = (   0.0266667   0.4849742   0.0000000), wk =   0.0010667
        k(  353) = (   0.0266667   0.4926722   0.0000000), wk =   0.0010667
        k(  354) = (   0.0266667   0.5003702   0.0000000), wk =   0.0010667
        k(  355) = (   0.0266667   0.5080682   0.0000000), wk =   0.0010667
        k(  356) = (   0.0266667   0.5157662   0.0000000), wk =   0.0010667
        k(  357) = (   0.0266667   0.5234642   0.0000000), wk =   0.0010667
        k(  358) = (   0.0266667   0.5311622   0.0000000), wk =   0.0010667
        k(  359) = (   0.0266667   0.5388603   0.0000000), wk =   0.0010667
        k(  360) = (   0.0266667   0.5465583   0.0000000), wk =   0.0010667
        k(  361) = (   0.0266667   0.5542563   0.0000000), wk =   0.0010667
        k(  362) = (   0.0266667   0.5619543   0.0000000), wk =   0.0010667
        k(  363) = (   0.0266667   0.5696523   0.0000000), wk =   0.0010667
        k(  364) = (   0.0266667   0.5773503   0.0000000), wk =   0.0005333
        k(  365) = (   0.0333333   0.0577350   0.0000000), wk =   0.0005333
        k(  366) = (   0.0333333   0.0654330   0.0000000), wk =   0.0010667
        k(  367) = (   0.0333333   0.0731310   0.0000000), wk =   0.0010667
        k(  368) = (   0.0333333   0.0808290   0.0000000), wk =   0.0010667
        k(  369) = (   0.0333333   0.0885270   0.0000000), wk =   0.0010667
        k(  370) = (   0.0333333   0.0962250   0.0000000), wk =   0.0010667
        k(  371) = (   0.0333333   0.1039230   0.0000000), wk =   0.0010667
        k(  372) = (   0.0333333   0.1116211   0.0000000), wk =   0.0010667
        k(  373) = (   0.0333333   0.1193191   0.0000000), wk =   0.0010667
        k(  374) = (   0.0333333   0.1270171   0.0000000), wk =   0.0010667
        k(  375) = (   0.0333333   0.1347151   0.0000000), wk =   0.0010667
        k(  376) = (   0.0333333   0.1424131   0.0000000), wk =   0.0010667
        k(  377) = (   0.0333333   0.1501111   0.0000000), wk =   0.0010667
        k(  378) = (   0.0333333   0.1578091   0.0000000), wk =   0.0010667
        k(  379) = (   0.0333333   0.1655071   0.0000000), wk =   0.0010667
        k(  380) = (   0.0333333   0.1732051   0.0000000), wk =   0.0010667
        k(  381) = (   0.0333333   0.1809031   0.0000000), wk =   0.0010667
        k(  382) = (   0.0333333   0.1886011   0.0000000), wk =   0.0010667
        k(  383) = (   0.0333333   0.1962991   0.0000000), wk =   0.0010667
        k(  384) = (   0.0333333   0.2039971   0.0000000), wk =   0.0010667
        k(  385) = (   0.0333333   0.2116951   0.0000000), wk =   0.0010667
        k(  386) = (   0.0333333   0.2193931   0.0000000), wk =   0.0010667
        k(  387) = (   0.0333333   0.2270911   0.0000000), wk =   0.0010667
        k(  388) = (   0.0333333   0.2347891   0.0000000), wk =   0.0010667
        k(  389) = (   0.0333333   0.2424871   0.0000000), wk =   0.0010667
        k(  390) = (   0.0333333   0.2501851   0.0000000), wk =   0.0010667
        k(  391) = (   0.0333333   0.2578831   0.0000000), wk =   0.0010667
        k(  392) = (   0.0333333   0.2655811   0.0000000), wk =   0.0010667
        k(  393) = (   0.0333333   0.2732791   0.0000000), wk =   0.0010667
        k(  394) = (   0.0333333   0.2809771   0.0000000), wk =   0.0010667
        k(  395) = (   0.0333333   0.2886751   0.0000000), wk =   0.0010667
        k(  396) = (   0.0333333   0.2963731   0.0000000), wk =   0.0010667
        k(  397) = (   0.0333333   0.3040711   0.0000000), wk =   0.0010667
        k(  398) = (   0.0333333   0.3117691   0.0000000), wk =   0.0010667
        k(  399) = (   0.0333333   0.3194671   0.0000000), wk =   0.0010667
        k(  400) = (   0.0333333   0.3271652   0.0000000), wk =   0.0010667
        k(  401) = (   0.0333333   0.3348632   0.0000000), wk =   0.0010667
        k(  402) = (   0.0333333   0.3425612   0.0000000), wk =   0.0010667
        k(  403) = (   0.0333333   0.3502592   0.0000000), wk =   0.0010667
        k(  404) = (   0.0333333   0.3579572   0.0000000), wk =   0.0010667
        k(  405) = (   0.0333333   0.3656552   0.0000000), wk =   0.0010667
        k(  406) = (   0.0333333   0.3733532   0.0000000), wk =   0.0010667
        k(  407) = (   0.0333333   0.3810512   0.0000000), wk =   0.0010667
        k(  408) = (   0.0333333   0.3887492   0.0000000), wk =   0.0010667
        k(  409) = (   0.0333333   0.3964472   0.0000000), wk =   0.0010667
        k(  410) = (   0.0333333   0.4041452   0.0000000), wk =   0.0010667
        k(  411) = (   0.0333333   0.4118432   0.0000000), wk =   0.0010667
        k(  412) = (   0.0333333   0.4195412   0.0000000), wk =   0.0010667
        k(  413) = (   0.0333333   0.4272392   0.0000000), wk =   0.0010667
        k(  414) = (   0.0333333   0.4349372   0.0000000), wk =   0.0010667
        k(  415) = (   0.0333333   0.4426352   0.0000000), wk =   0.0010667
        k(  416) = (   0.0333333   0.4503332   0.0000000), wk =   0.0010667
        k(  417) = (   0.0333333   0.4580312   0.0000000), wk =   0.0010667
        k(  418) = (   0.0333333   0.4657292   0.0000000), wk =   0.0010667
        k(  419) = (   0.0333333   0.4734272   0.0000000), wk =   0.0010667
        k(  420) = (   0.0333333   0.4811252   0.0000000), wk =   0.0010667
        k(  421) = (   0.0333333   0.4888232   0.0000000), wk =   0.0010667
        k(  422) = (   0.0333333   0.4965212   0.0000000), wk =   0.0010667
        k(  423) = (   0.0333333   0.5042192   0.0000000), wk =   0.0010667
        k(  424) = (   0.0333333   0.5119172   0.0000000), wk =   0.0010667
        k(  425) = (   0.0333333   0.5196152   0.0000000), wk =   0.0010667
        k(  426) = (   0.0333333   0.5273132   0.0000000), wk =   0.0010667
        k(  427) = (   0.0333333   0.5350112   0.0000000), wk =   0.0010667
        k(  428) = (   0.0333333   0.5427093   0.0000000), wk =   0.0010667
        k(  429) = (   0.0333333   0.5504073   0.0000000), wk =   0.0010667
        k(  430) = (   0.0333333   0.5581053   0.0000000), wk =   0.0010667
        k(  431) = (   0.0333333   0.5658033   0.0000000), wk =   0.0010667
        k(  432) = (   0.0333333   0.5735013   0.0000000), wk =   0.0010667
        k(  433) = (   0.0400000   0.0692820   0.0000000), wk =   0.0005333
        k(  434) = (   0.0400000   0.0769800   0.0000000), wk =   0.0010667
        k(  435) = (   0.0400000   0.0846780   0.0000000), wk =   0.0010667
        k(  436) = (   0.0400000   0.0923760   0.0000000), wk =   0.0010667
        k(  437) = (   0.0400000   0.1000740   0.0000000), wk =   0.0010667
        k(  438) = (   0.0400000   0.1077721   0.0000000), wk =   0.0010667
        k(  439) = (   0.0400000   0.1154701   0.0000000), wk =   0.0010667
        k(  440) = (   0.0400000   0.1231681   0.0000000), wk =   0.0010667
        k(  441) = (   0.0400000   0.1308661   0.0000000), wk =   0.0010667
        k(  442) = (   0.0400000   0.1385641   0.0000000), wk =   0.0010667
        k(  443) = (   0.0400000   0.1462621   0.0000000), wk =   0.0010667
        k(  444) = (   0.0400000   0.1539601   0.0000000), wk =   0.0010667
        k(  445) = (   0.0400000   0.1616581   0.0000000), wk =   0.0010667
        k(  446) = (   0.0400000   0.1693561   0.0000000), wk =   0.0010667
        k(  447) = (   0.0400000   0.1770541   0.0000000), wk =   0.0010667
        k(  448) = (   0.0400000   0.1847521   0.0000000), wk =   0.0010667
        k(  449) = (   0.0400000   0.1924501   0.0000000), wk =   0.0010667
        k(  450) = (   0.0400000   0.2001481   0.0000000), wk =   0.0010667
        k(  451) = (   0.0400000   0.2078461   0.0000000), wk =   0.0010667
        k(  452) = (   0.0400000   0.2155441   0.0000000), wk =   0.0010667
        k(  453) = (   0.0400000   0.2232421   0.0000000), wk =   0.0010667
        k(  454) = (   0.0400000   0.2309401   0.0000000), wk =   0.0010667
        k(  455) = (   0.0400000   0.2386381   0.0000000), wk =   0.0010667
        k(  456) = (   0.0400000   0.2463361   0.0000000), wk =   0.0010667
        k(  457) = (   0.0400000   0.2540341   0.0000000), wk =   0.0010667
        k(  458) = (   0.0400000   0.2617321   0.0000000), wk =   0.0010667
        k(  459) = (   0.0400000   0.2694301   0.0000000), wk =   0.0010667
        k(  460) = (   0.0400000   0.2771281   0.0000000), wk =   0.0010667
        k(  461) = (   0.0400000   0.2848261   0.0000000), wk =   0.0010667
        k(  462) = (   0.0400000   0.2925241   0.0000000), wk =   0.0010667
        k(  463) = (   0.0400000   0.3002221   0.0000000), wk =   0.0010667
        k(  464) = (   0.0400000   0.3079201   0.0000000), wk =   0.0010667
        k(  465) = (   0.0400000   0.3156181   0.0000000), wk =   0.0010667
        k(  466) = (   0.0400000   0.3233162   0.0000000), wk =   0.0010667
        k(  467) = (   0.0400000   0.3310142   0.0000000), wk =   0.0010667
        k(  468) = (   0.0400000   0.3387122   0.0000000), wk =   0.0010667
        k(  469) = (   0.0400000   0.3464102   0.0000000), wk =   0.0010667
        k(  470) = (   0.0400000   0.3541082   0.0000000), wk =   0.0010667
        k(  471) = (   0.0400000   0.3618062   0.0000000), wk =   0.0010667
        k(  472) = (   0.0400000   0.3695042   0.0000000), wk =   0.0010667
        k(  473) = (   0.0400000   0.3772022   0.0000000), wk =   0.0010667
        k(  474) = (   0.0400000   0.3849002   0.0000000), wk =   0.0010667
        k(  475) = (   0.0400000   0.3925982   0.0000000), wk =   0.0010667
        k(  476) = (   0.0400000   0.4002962   0.0000000), wk =   0.0010667
        k(  477) = (   0.0400000   0.4079942   0.0000000), wk =   0.0010667
        k(  478) = (   0.0400000   0.4156922   0.0000000), wk =   0.0010667
        k(  479) = (   0.0400000   0.4233902   0.0000000), wk =   0.0010667
        k(  480) = (   0.0400000   0.4310882   0.0000000), wk =   0.0010667
        k(  481) = (   0.0400000   0.4387862   0.0000000), wk =   0.0010667
        k(  482) = (   0.0400000   0.4464842   0.0000000), wk =   0.0010667
        k(  483) = (   0.0400000   0.4541822   0.0000000), wk =   0.0010667
        k(  484) = (   0.0400000   0.4618802   0.0000000), wk =   0.0010667
        k(  485) = (   0.0400000   0.4695782   0.0000000), wk =   0.0010667
        k(  486) = (   0.0400000   0.4772762   0.0000000), wk =   0.0010667
        k(  487) = (   0.0400000   0.4849742   0.0000000), wk =   0.0010667
        k(  488) = (   0.0400000   0.4926722   0.0000000), wk =   0.0010667
        k(  489) = (   0.0400000   0.5003702   0.0000000), wk =   0.0010667
        k(  490) = (   0.0400000   0.5080682   0.0000000), wk =   0.0010667
        k(  491) = (   0.0400000   0.5157662   0.0000000), wk =   0.0010667
        k(  492) = (   0.0400000   0.5234642   0.0000000), wk =   0.0010667
        k(  493) = (   0.0400000   0.5311622   0.0000000), wk =   0.0010667
        k(  494) = (   0.0400000   0.5388603   0.0000000), wk =   0.0010667
        k(  495) = (   0.0400000   0.5465583   0.0000000), wk =   0.0010667
        k(  496) = (   0.0400000   0.5542563   0.0000000), wk =   0.0010667
        k(  497) = (   0.0400000   0.5619543   0.0000000), wk =   0.0010667
        k(  498) = (   0.0400000   0.5696523   0.0000000), wk =   0.0010667
        k(  499) = (   0.0400000   0.5773503   0.0000000), wk =   0.0005333
        k(  500) = (   0.0466667   0.0808290   0.0000000), wk =   0.0005333
        k(  501) = (   0.0466667   0.0885270   0.0000000), wk =   0.0010667
        k(  502) = (   0.0466667   0.0962250   0.0000000), wk =   0.0010667
        k(  503) = (   0.0466667   0.1039230   0.0000000), wk =   0.0010667
        k(  504) = (   0.0466667   0.1116211   0.0000000), wk =   0.0010667
        k(  505) = (   0.0466667   0.1193191   0.0000000), wk =   0.0010667
        k(  506) = (   0.0466667   0.1270171   0.0000000), wk =   0.0010667
        k(  507) = (   0.0466667   0.1347151   0.0000000), wk =   0.0010667
        k(  508) = (   0.0466667   0.1424131   0.0000000), wk =   0.0010667
        k(  509) = (   0.0466667   0.1501111   0.0000000), wk =   0.0010667
        k(  510) = (   0.0466667   0.1578091   0.0000000), wk =   0.0010667
        k(  511) = (   0.0466667   0.1655071   0.0000000), wk =   0.0010667
        k(  512) = (   0.0466667   0.1732051   0.0000000), wk =   0.0010667
        k(  513) = (   0.0466667   0.1809031   0.0000000), wk =   0.0010667
        k(  514) = (   0.0466667   0.1886011   0.0000000), wk =   0.0010667
        k(  515) = (   0.0466667   0.1962991   0.0000000), wk =   0.0010667
        k(  516) = (   0.0466667   0.2039971   0.0000000), wk =   0.0010667
        k(  517) = (   0.0466667   0.2116951   0.0000000), wk =   0.0010667
        k(  518) = (   0.0466667   0.2193931   0.0000000), wk =   0.0010667
        k(  519) = (   0.0466667   0.2270911   0.0000000), wk =   0.0010667
        k(  520) = (   0.0466667   0.2347891   0.0000000), wk =   0.0010667
        k(  521) = (   0.0466667   0.2424871   0.0000000), wk =   0.0010667
        k(  522) = (   0.0466667   0.2501851   0.0000000), wk =   0.0010667
        k(  523) = (   0.0466667   0.2578831   0.0000000), wk =   0.0010667
        k(  524) = (   0.0466667   0.2655811   0.0000000), wk =   0.0010667
        k(  525) = (   0.0466667   0.2732791   0.0000000), wk =   0.0010667
        k(  526) = (   0.0466667   0.2809771   0.0000000), wk =   0.0010667
        k(  527) = (   0.0466667   0.2886751   0.0000000), wk =   0.0010667
        k(  528) = (   0.0466667   0.2963731   0.0000000), wk =   0.0010667
        k(  529) = (   0.0466667   0.3040711   0.0000000), wk =   0.0010667
        k(  530) = (   0.0466667   0.3117691   0.0000000), wk =   0.0010667
        k(  531) = (   0.0466667   0.3194671   0.0000000), wk =   0.0010667
        k(  532) = (   0.0466667   0.3271652   0.0000000), wk =   0.0010667
        k(  533) = (   0.0466667   0.3348632   0.0000000), wk =   0.0010667
        k(  534) = (   0.0466667   0.3425612   0.0000000), wk =   0.0010667
        k(  535) = (   0.0466667   0.3502592   0.0000000), wk =   0.0010667
        k(  536) = (   0.0466667   0.3579572   0.0000000), wk =   0.0010667
        k(  537) = (   0.0466667   0.3656552   0.0000000), wk =   0.0010667
        k(  538) = (   0.0466667   0.3733532   0.0000000), wk =   0.0010667
        k(  539) = (   0.0466667   0.3810512   0.0000000), wk =   0.0010667
        k(  540) = (   0.0466667   0.3887492   0.0000000), wk =   0.0010667
        k(  541) = (   0.0466667   0.3964472   0.0000000), wk =   0.0010667
        k(  542) = (   0.0466667   0.4041452   0.0000000), wk =   0.0010667
        k(  543) = (   0.0466667   0.4118432   0.0000000), wk =   0.0010667
        k(  544) = (   0.0466667   0.4195412   0.0000000), wk =   0.0010667
        k(  545) = (   0.0466667   0.4272392   0.0000000), wk =   0.0010667
        k(  546) = (   0.0466667   0.4349372   0.0000000), wk =   0.0010667
        k(  547) = (   0.0466667   0.4426352   0.0000000), wk =   0.0010667
        k(  548) = (   0.0466667   0.4503332   0.0000000), wk =   0.0010667
        k(  549) = (   0.0466667   0.4580312   0.0000000), wk =   0.0010667
        k(  550) = (   0.0466667   0.4657292   0.0000000), wk =   0.0010667
        k(  551) = (   0.0466667   0.4734272   0.0000000), wk =   0.0010667
        k(  552) = (   0.0466667   0.4811252   0.0000000), wk =   0.0010667
        k(  553) = (   0.0466667   0.4888232   0.0000000), wk =   0.0010667
        k(  554) = (   0.0466667   0.4965212   0.0000000), wk =   0.0010667
        k(  555) = (   0.0466667   0.5042192   0.0000000), wk =   0.0010667
        k(  556) = (   0.0466667   0.5119172   0.0000000), wk =   0.0010667
        k(  557) = (   0.0466667   0.5196152   0.0000000), wk =   0.0010667
        k(  558) = (   0.0466667   0.5273132   0.0000000), wk =   0.0010667
        k(  559) = (   0.0466667   0.5350112   0.0000000), wk =   0.0010667
        k(  560) = (   0.0466667   0.5427093   0.0000000), wk =   0.0010667
        k(  561) = (   0.0466667   0.5504073   0.0000000), wk =   0.0010667
        k(  562) = (   0.0466667   0.5581053   0.0000000), wk =   0.0010667
        k(  563) = (   0.0466667   0.5658033   0.0000000), wk =   0.0010667
        k(  564) = (   0.0466667   0.5735013   0.0000000), wk =   0.0010667
        k(  565) = (   0.0533333   0.0923760   0.0000000), wk =   0.0005333
        k(  566) = (   0.0533333   0.1000740   0.0000000), wk =   0.0010667
        k(  567) = (   0.0533333   0.1077721   0.0000000), wk =   0.0010667
        k(  568) = (   0.0533333   0.1154701   0.0000000), wk =   0.0010667
        k(  569) = (   0.0533333   0.1231681   0.0000000), wk =   0.0010667
        k(  570) = (   0.0533333   0.1308661   0.0000000), wk =   0.0010667
        k(  571) = (   0.0533333   0.1385641   0.0000000), wk =   0.0010667
        k(  572) = (   0.0533333   0.1462621   0.0000000), wk =   0.0010667
        k(  573) = (   0.0533333   0.1539601   0.0000000), wk =   0.0010667
        k(  574) = (   0.0533333   0.1616581   0.0000000), wk =   0.0010667
        k(  575) = (   0.0533333   0.1693561   0.0000000), wk =   0.0010667
        k(  576) = (   0.0533333   0.1770541   0.0000000), wk =   0.0010667
        k(  577) = (   0.0533333   0.1847521   0.0000000), wk =   0.0010667
        k(  578) = (   0.0533333   0.1924501   0.0000000), wk =   0.0010667
        k(  579) = (   0.0533333   0.2001481   0.0000000), wk =   0.0010667
        k(  580) = (   0.0533333   0.2078461   0.0000000), wk =   0.0010667
        k(  581) = (   0.0533333   0.2155441   0.0000000), wk =   0.0010667
        k(  582) = (   0.0533333   0.2232421   0.0000000), wk =   0.0010667
        k(  583) = (   0.0533333   0.2309401   0.0000000), wk =   0.0010667
        k(  584) = (   0.0533333   0.2386381   0.0000000), wk =   0.0010667
        k(  585) = (   0.0533333   0.2463361   0.0000000), wk =   0.0010667
        k(  586) = (   0.0533333   0.2540341   0.0000000), wk =   0.0010667
        k(  587) = (   0.0533333   0.2617321   0.0000000), wk =   0.0010667
        k(  588) = (   0.0533333   0.2694301   0.0000000), wk =   0.0010667
        k(  589) = (   0.0533333   0.2771281   0.0000000), wk =   0.0010667
        k(  590) = (   0.0533333   0.2848261   0.0000000), wk =   0.0010667
        k(  591) = (   0.0533333   0.2925241   0.0000000), wk =   0.0010667
        k(  592) = (   0.0533333   0.3002221   0.0000000), wk =   0.0010667
        k(  593) = (   0.0533333   0.3079201   0.0000000), wk =   0.0010667
        k(  594) = (   0.0533333   0.3156181   0.0000000), wk =   0.0010667
        k(  595) = (   0.0533333   0.3233162   0.0000000), wk =   0.0010667
        k(  596) = (   0.0533333   0.3310142   0.0000000), wk =   0.0010667
        k(  597) = (   0.0533333   0.3387122   0.0000000), wk =   0.0010667
        k(  598) = (   0.0533333   0.3464102   0.0000000), wk =   0.0010667
        k(  599) = (   0.0533333   0.3541082   0.0000000), wk =   0.0010667
        k(  600) = (   0.0533333   0.3618062   0.0000000), wk =   0.0010667
        k(  601) = (   0.0533333   0.3695042   0.0000000), wk =   0.0010667
        k(  602) = (   0.0533333   0.3772022   0.0000000), wk =   0.0010667
        k(  603) = (   0.0533333   0.3849002   0.0000000), wk =   0.0010667
        k(  604) = (   0.0533333   0.3925982   0.0000000), wk =   0.0010667
        k(  605) = (   0.0533333   0.4002962   0.0000000), wk =   0.0010667
        k(  606) = (   0.0533333   0.4079942   0.0000000), wk =   0.0010667
        k(  607) = (   0.0533333   0.4156922   0.0000000), wk =   0.0010667
        k(  608) = (   0.0533333   0.4233902   0.0000000), wk =   0.0010667
        k(  609) = (   0.0533333   0.4310882   0.0000000), wk =   0.0010667
        k(  610) = (   0.0533333   0.4387862   0.0000000), wk =   0.0010667
        k(  611) = (   0.0533333   0.4464842   0.0000000), wk =   0.0010667
        k(  612) = (   0.0533333   0.4541822   0.0000000), wk =   0.0010667
        k(  613) = (   0.0533333   0.4618802   0.0000000), wk =   0.0010667
        k(  614) = (   0.0533333   0.4695782   0.0000000), wk =   0.0010667
        k(  615) = (   0.0533333   0.4772762   0.0000000), wk =   0.0010667
        k(  616) = (   0.0533333   0.4849742   0.0000000), wk =   0.0010667
        k(  617) = (   0.0533333   0.4926722   0.0000000), wk =   0.0010667
        k(  618) = (   0.0533333   0.5003702   0.0000000), wk =   0.0010667
        k(  619) = (   0.0533333   0.5080682   0.0000000), wk =   0.0010667
        k(  620) = (   0.0533333   0.5157662   0.0000000), wk =   0.0010667
        k(  621) = (   0.0533333   0.5234642   0.0000000), wk =   0.0010667
        k(  622) = (   0.0533333   0.5311622   0.0000000), wk =   0.0010667
        k(  623) = (   0.0533333   0.5388603   0.0000000), wk =   0.0010667
        k(  624) = (   0.0533333   0.5465583   0.0000000), wk =   0.0010667
        k(  625) = (   0.0533333   0.5542563   0.0000000), wk =   0.0010667
        k(  626) = (   0.0533333   0.5619543   0.0000000), wk =   0.0010667
        k(  627) = (   0.0533333   0.5696523   0.0000000), wk =   0.0010667
        k(  628) = (   0.0533333   0.5773503   0.0000000), wk =   0.0005333
        k(  629) = (   0.0600000   0.1039230   0.0000000), wk =   0.0005333
        k(  630) = (   0.0600000   0.1116211   0.0000000), wk =   0.0010667
        k(  631) = (   0.0600000   0.1193191   0.0000000), wk =   0.0010667
        k(  632) = (   0.0600000   0.1270171   0.0000000), wk =   0.0010667
        k(  633) = (   0.0600000   0.1347151   0.0000000), wk =   0.0010667
        k(  634) = (   0.0600000   0.1424131   0.0000000), wk =   0.0010667
        k(  635) = (   0.0600000   0.1501111   0.0000000), wk =   0.0010667
        k(  636) = (   0.0600000   0.1578091   0.0000000), wk =   0.0010667
        k(  637) = (   0.0600000   0.1655071   0.0000000), wk =   0.0010667
        k(  638) = (   0.0600000   0.1732051   0.0000000), wk =   0.0010667
        k(  639) = (   0.0600000   0.1809031   0.0000000), wk =   0.0010667
        k(  640) = (   0.0600000   0.1886011   0.0000000), wk =   0.0010667
        k(  641) = (   0.0600000   0.1962991   0.0000000), wk =   0.0010667
        k(  642) = (   0.0600000   0.2039971   0.0000000), wk =   0.0010667
        k(  643) = (   0.0600000   0.2116951   0.0000000), wk =   0.0010667
        k(  644) = (   0.0600000   0.2193931   0.0000000), wk =   0.0010667
        k(  645) = (   0.0600000   0.2270911   0.0000000), wk =   0.0010667
        k(  646) = (   0.0600000   0.2347891   0.0000000), wk =   0.0010667
        k(  647) = (   0.0600000   0.2424871   0.0000000), wk =   0.0010667
        k(  648) = (   0.0600000   0.2501851   0.0000000), wk =   0.0010667
        k(  649) = (   0.0600000   0.2578831   0.0000000), wk =   0.0010667
        k(  650) = (   0.0600000   0.2655811   0.0000000), wk =   0.0010667
        k(  651) = (   0.0600000   0.2732791   0.0000000), wk =   0.0010667
        k(  652) = (   0.0600000   0.2809771   0.0000000), wk =   0.0010667
        k(  653) = (   0.0600000   0.2886751   0.0000000), wk =   0.0010667
        k(  654) = (   0.0600000   0.2963731   0.0000000), wk =   0.0010667
        k(  655) = (   0.0600000   0.3040711   0.0000000), wk =   0.0010667
        k(  656) = (   0.0600000   0.3117691   0.0000000), wk =   0.0010667
        k(  657) = (   0.0600000   0.3194671   0.0000000), wk =   0.0010667
        k(  658) = (   0.0600000   0.3271652   0.0000000), wk =   0.0010667
        k(  659) = (   0.0600000   0.3348632   0.0000000), wk =   0.0010667
        k(  660) = (   0.0600000   0.3425612   0.0000000), wk =   0.0010667
        k(  661) = (   0.0600000   0.3502592   0.0000000), wk =   0.0010667
        k(  662) = (   0.0600000   0.3579572   0.0000000), wk =   0.0010667
        k(  663) = (   0.0600000   0.3656552   0.0000000), wk =   0.0010667
        k(  664) = (   0.0600000   0.3733532   0.0000000), wk =   0.0010667
        k(  665) = (   0.0600000   0.3810512   0.0000000), wk =   0.0010667
        k(  666) = (   0.0600000   0.3887492   0.0000000), wk =   0.0010667
        k(  667) = (   0.0600000   0.3964472   0.0000000), wk =   0.0010667
        k(  668) = (   0.0600000   0.4041452   0.0000000), wk =   0.0010667
        k(  669) = (   0.0600000   0.4118432   0.0000000), wk =   0.0010667
        k(  670) = (   0.0600000   0.4195412   0.0000000), wk =   0.0010667
        k(  671) = (   0.0600000   0.4272392   0.0000000), wk =   0.0010667
        k(  672) = (   0.0600000   0.4349372   0.0000000), wk =   0.0010667
        k(  673) = (   0.0600000   0.4426352   0.0000000), wk =   0.0010667
        k(  674) = (   0.0600000   0.4503332   0.0000000), wk =   0.0010667
        k(  675) = (   0.0600000   0.4580312   0.0000000), wk =   0.0010667
        k(  676) = (   0.0600000   0.4657292   0.0000000), wk =   0.0010667
        k(  677) = (   0.0600000   0.4734272   0.0000000), wk =   0.0010667
        k(  678) = (   0.0600000   0.4811252   0.0000000), wk =   0.0010667
        k(  679) = (   0.0600000   0.4888232   0.0000000), wk =   0.0010667
        k(  680) = (   0.0600000   0.4965212   0.0000000), wk =   0.0010667
        k(  681) = (   0.0600000   0.5042192   0.0000000), wk =   0.0010667
        k(  682) = (   0.0600000   0.5119172   0.0000000), wk =   0.0010667
        k(  683) = (   0.0600000   0.5196152   0.0000000), wk =   0.0010667
        k(  684) = (   0.0600000   0.5273132   0.0000000), wk =   0.0010667
        k(  685) = (   0.0600000   0.5350112   0.0000000), wk =   0.0010667
        k(  686) = (   0.0600000   0.5427093   0.0000000), wk =   0.0010667
        k(  687) = (   0.0600000   0.5504073   0.0000000), wk =   0.0010667
        k(  688) = (   0.0600000   0.5581053   0.0000000), wk =   0.0010667
        k(  689) = (   0.0600000   0.5658033   0.0000000), wk =   0.0010667
        k(  690) = (   0.0600000   0.5735013   0.0000000), wk =   0.0010667
        k(  691) = (   0.0666667   0.1154701   0.0000000), wk =   0.0005333
        k(  692) = (   0.0666667   0.1231681   0.0000000), wk =   0.0010667
        k(  693) = (   0.0666667   0.1308661   0.0000000), wk =   0.0010667
        k(  694) = (   0.0666667   0.1385641   0.0000000), wk =   0.0010667
        k(  695) = (   0.0666667   0.1462621   0.0000000), wk =   0.0010667
        k(  696) = (   0.0666667   0.1539601   0.0000000), wk =   0.0010667
        k(  697) = (   0.0666667   0.1616581   0.0000000), wk =   0.0010667
        k(  698) = (   0.0666667   0.1693561   0.0000000), wk =   0.0010667
        k(  699) = (   0.0666667   0.1770541   0.0000000), wk =   0.0010667
        k(  700) = (   0.0666667   0.1847521   0.0000000), wk =   0.0010667
        k(  701) = (   0.0666667   0.1924501   0.0000000), wk =   0.0010667
        k(  702) = (   0.0666667   0.2001481   0.0000000), wk =   0.0010667
        k(  703) = (   0.0666667   0.2078461   0.0000000), wk =   0.0010667
        k(  704) = (   0.0666667   0.2155441   0.0000000), wk =   0.0010667
        k(  705) = (   0.0666667   0.2232421   0.0000000), wk =   0.0010667
        k(  706) = (   0.0666667   0.2309401   0.0000000), wk =   0.0010667
        k(  707) = (   0.0666667   0.2386381   0.0000000), wk =   0.0010667
        k(  708) = (   0.0666667   0.2463361   0.0000000), wk =   0.0010667
        k(  709) = (   0.0666667   0.2540341   0.0000000), wk =   0.0010667
        k(  710) = (   0.0666667   0.2617321   0.0000000), wk =   0.0010667
        k(  711) = (   0.0666667   0.2694301   0.0000000), wk =   0.0010667
        k(  712) = (   0.0666667   0.2771281   0.0000000), wk =   0.0010667
        k(  713) = (   0.0666667   0.2848261   0.0000000), wk =   0.0010667
        k(  714) = (   0.0666667   0.2925241   0.0000000), wk =   0.0010667
        k(  715) = (   0.0666667   0.3002221   0.0000000), wk =   0.0010667
        k(  716) = (   0.0666667   0.3079201   0.0000000), wk =   0.0010667
        k(  717) = (   0.0666667   0.3156181   0.0000000), wk =   0.0010667
        k(  718) = (   0.0666667   0.3233162   0.0000000), wk =   0.0010667
        k(  719) = (   0.0666667   0.3310142   0.0000000), wk =   0.0010667
        k(  720) = (   0.0666667   0.3387122   0.0000000), wk =   0.0010667
        k(  721) = (   0.0666667   0.3464102   0.0000000), wk =   0.0010667
        k(  722) = (   0.0666667   0.3541082   0.0000000), wk =   0.0010667
        k(  723) = (   0.0666667   0.3618062   0.0000000), wk =   0.0010667
        k(  724) = (   0.0666667   0.3695042   0.0000000), wk =   0.0010667
        k(  725) = (   0.0666667   0.3772022   0.0000000), wk =   0.0010667
        k(  726) = (   0.0666667   0.3849002   0.0000000), wk =   0.0010667
        k(  727) = (   0.0666667   0.3925982   0.0000000), wk =   0.0010667
        k(  728) = (   0.0666667   0.4002962   0.0000000), wk =   0.0010667
        k(  729) = (   0.0666667   0.4079942   0.0000000), wk =   0.0010667
        k(  730) = (   0.0666667   0.4156922   0.0000000), wk =   0.0010667
        k(  731) = (   0.0666667   0.4233902   0.0000000), wk =   0.0010667
        k(  732) = (   0.0666667   0.4310882   0.0000000), wk =   0.0010667
        k(  733) = (   0.0666667   0.4387862   0.0000000), wk =   0.0010667
        k(  734) = (   0.0666667   0.4464842   0.0000000), wk =   0.0010667
        k(  735) = (   0.0666667   0.4541822   0.0000000), wk =   0.0010667
        k(  736) = (   0.0666667   0.4618802   0.0000000), wk =   0.0010667
        k(  737) = (   0.0666667   0.4695782   0.0000000), wk =   0.0010667
        k(  738) = (   0.0666667   0.4772762   0.0000000), wk =   0.0010667
        k(  739) = (   0.0666667   0.4849742   0.0000000), wk =   0.0010667
        k(  740) = (   0.0666667   0.4926722   0.0000000), wk =   0.0010667
        k(  741) = (   0.0666667   0.5003702   0.0000000), wk =   0.0010667
        k(  742) = (   0.0666667   0.5080682   0.0000000), wk =   0.0010667
        k(  743) = (   0.0666667   0.5157662   0.0000000), wk =   0.0010667
        k(  744) = (   0.0666667   0.5234642   0.0000000), wk =   0.0010667
        k(  745) = (   0.0666667   0.5311622   0.0000000), wk =   0.0010667
        k(  746) = (   0.0666667   0.5388603   0.0000000), wk =   0.0010667
        k(  747) = (   0.0666667   0.5465583   0.0000000), wk =   0.0010667
        k(  748) = (   0.0666667   0.5542563   0.0000000), wk =   0.0010667
        k(  749) = (   0.0666667   0.5619543   0.0000000), wk =   0.0010667
        k(  750) = (   0.0666667   0.5696523   0.0000000), wk =   0.0010667
        k(  751) = (   0.0666667   0.5773503   0.0000000), wk =   0.0005333
        k(  752) = (   0.0733333   0.1270171   0.0000000), wk =   0.0005333
        k(  753) = (   0.0733333   0.1347151   0.0000000), wk =   0.0010667
        k(  754) = (   0.0733333   0.1424131   0.0000000), wk =   0.0010667
        k(  755) = (   0.0733333   0.1501111   0.0000000), wk =   0.0010667
        k(  756) = (   0.0733333   0.1578091   0.0000000), wk =   0.0010667
        k(  757) = (   0.0733333   0.1655071   0.0000000), wk =   0.0010667
        k(  758) = (   0.0733333   0.1732051   0.0000000), wk =   0.0010667
        k(  759) = (   0.0733333   0.1809031   0.0000000), wk =   0.0010667
        k(  760) = (   0.0733333   0.1886011   0.0000000), wk =   0.0010667
        k(  761) = (   0.0733333   0.1962991   0.0000000), wk =   0.0010667
        k(  762) = (   0.0733333   0.2039971   0.0000000), wk =   0.0010667
        k(  763) = (   0.0733333   0.2116951   0.0000000), wk =   0.0010667
        k(  764) = (   0.0733333   0.2193931   0.0000000), wk =   0.0010667
        k(  765) = (   0.0733333   0.2270911   0.0000000), wk =   0.0010667
        k(  766) = (   0.0733333   0.2347891   0.0000000), wk =   0.0010667
        k(  767) = (   0.0733333   0.2424871   0.0000000), wk =   0.0010667
        k(  768) = (   0.0733333   0.2501851   0.0000000), wk =   0.0010667
        k(  769) = (   0.0733333   0.2578831   0.0000000), wk =   0.0010667
        k(  770) = (   0.0733333   0.2655811   0.0000000), wk =   0.0010667
        k(  771) = (   0.0733333   0.2732791   0.0000000), wk =   0.0010667
        k(  772) = (   0.0733333   0.2809771   0.0000000), wk =   0.0010667
        k(  773) = (   0.0733333   0.2886751   0.0000000), wk =   0.0010667
        k(  774) = (   0.0733333   0.2963731   0.0000000), wk =   0.0010667
        k(  775) = (   0.0733333   0.3040711   0.0000000), wk =   0.0010667
        k(  776) = (   0.0733333   0.3117691   0.0000000), wk =   0.0010667
        k(  777) = (   0.0733333   0.3194671   0.0000000), wk =   0.0010667
        k(  778) = (   0.0733333   0.3271652   0.0000000), wk =   0.0010667
        k(  779) = (   0.0733333   0.3348632   0.0000000), wk =   0.0010667
        k(  780) = (   0.0733333   0.3425612   0.0000000), wk =   0.0010667
        k(  781) = (   0.0733333   0.3502592   0.0000000), wk =   0.0010667
        k(  782) = (   0.0733333   0.3579572   0.0000000), wk =   0.0010667
        k(  783) = (   0.0733333   0.3656552   0.0000000), wk =   0.0010667
        k(  784) = (   0.0733333   0.3733532   0.0000000), wk =   0.0010667
        k(  785) = (   0.0733333   0.3810512   0.0000000), wk =   0.0010667
        k(  786) = (   0.0733333   0.3887492   0.0000000), wk =   0.0010667
        k(  787) = (   0.0733333   0.3964472   0.0000000), wk =   0.0010667
        k(  788) = (   0.0733333   0.4041452   0.0000000), wk =   0.0010667
        k(  789) = (   0.0733333   0.4118432   0.0000000), wk =   0.0010667
        k(  790) = (   0.0733333   0.4195412   0.0000000), wk =   0.0010667
        k(  791) = (   0.0733333   0.4272392   0.0000000), wk =   0.0010667
        k(  792) = (   0.0733333   0.4349372   0.0000000), wk =   0.0010667
        k(  793) = (   0.0733333   0.4426352   0.0000000), wk =   0.0010667
        k(  794) = (   0.0733333   0.4503332   0.0000000), wk =   0.0010667
        k(  795) = (   0.0733333   0.4580312   0.0000000), wk =   0.0010667
        k(  796) = (   0.0733333   0.4657292   0.0000000), wk =   0.0010667
        k(  797) = (   0.0733333   0.4734272   0.0000000), wk =   0.0010667
        k(  798) = (   0.0733333   0.4811252   0.0000000), wk =   0.0010667
        k(  799) = (   0.0733333   0.4888232   0.0000000), wk =   0.0010667
        k(  800) = (   0.0733333   0.4965212   0.0000000), wk =   0.0010667
        k(  801) = (   0.0733333   0.5042192   0.0000000), wk =   0.0010667
        k(  802) = (   0.0733333   0.5119172   0.0000000), wk =   0.0010667
        k(  803) = (   0.0733333   0.5196152   0.0000000), wk =   0.0010667
        k(  804) = (   0.0733333   0.5273132   0.0000000), wk =   0.0010667
        k(  805) = (   0.0733333   0.5350112   0.0000000), wk =   0.0010667
        k(  806) = (   0.0733333   0.5427093   0.0000000), wk =   0.0010667
        k(  807) = (   0.0733333   0.5504073   0.0000000), wk =   0.0010667
        k(  808) = (   0.0733333   0.5581053   0.0000000), wk =   0.0010667
        k(  809) = (   0.0733333   0.5658033   0.0000000), wk =   0.0010667
        k(  810) = (   0.0733333   0.5735013   0.0000000), wk =   0.0010667
        k(  811) = (   0.0800000   0.1385641   0.0000000), wk =   0.0005333
        k(  812) = (   0.0800000   0.1462621   0.0000000), wk =   0.0010667
        k(  813) = (   0.0800000   0.1539601   0.0000000), wk =   0.0010667
        k(  814) = (   0.0800000   0.1616581   0.0000000), wk =   0.0010667
        k(  815) = (   0.0800000   0.1693561   0.0000000), wk =   0.0010667
        k(  816) = (   0.0800000   0.1770541   0.0000000), wk =   0.0010667
        k(  817) = (   0.0800000   0.1847521   0.0000000), wk =   0.0010667
        k(  818) = (   0.0800000   0.1924501   0.0000000), wk =   0.0010667
        k(  819) = (   0.0800000   0.2001481   0.0000000), wk =   0.0010667
        k(  820) = (   0.0800000   0.2078461   0.0000000), wk =   0.0010667
        k(  821) = (   0.0800000   0.2155441   0.0000000), wk =   0.0010667
        k(  822) = (   0.0800000   0.2232421   0.0000000), wk =   0.0010667
        k(  823) = (   0.0800000   0.2309401   0.0000000), wk =   0.0010667
        k(  824) = (   0.0800000   0.2386381   0.0000000), wk =   0.0010667
        k(  825) = (   0.0800000   0.2463361   0.0000000), wk =   0.0010667
        k(  826) = (   0.0800000   0.2540341   0.0000000), wk =   0.0010667
        k(  827) = (   0.0800000   0.2617321   0.0000000), wk =   0.0010667
        k(  828) = (   0.0800000   0.2694301   0.0000000), wk =   0.0010667
        k(  829) = (   0.0800000   0.2771281   0.0000000), wk =   0.0010667
        k(  830) = (   0.0800000   0.2848261   0.0000000), wk =   0.0010667
        k(  831) = (   0.0800000   0.2925241   0.0000000), wk =   0.0010667
        k(  832) = (   0.0800000   0.3002221   0.0000000), wk =   0.0010667
        k(  833) = (   0.0800000   0.3079201   0.0000000), wk =   0.0010667
        k(  834) = (   0.0800000   0.3156181   0.0000000), wk =   0.0010667
        k(  835) = (   0.0800000   0.3233162   0.0000000), wk =   0.0010667
        k(  836) = (   0.0800000   0.3310142   0.0000000), wk =   0.0010667
        k(  837) = (   0.0800000   0.3387122   0.0000000), wk =   0.0010667
        k(  838) = (   0.0800000   0.3464102   0.0000000), wk =   0.0010667
        k(  839) = (   0.0800000   0.3541082   0.0000000), wk =   0.0010667
        k(  840) = (   0.0800000   0.3618062   0.0000000), wk =   0.0010667
        k(  841) = (   0.0800000   0.3695042   0.0000000), wk =   0.0010667
        k(  842) = (   0.0800000   0.3772022   0.0000000), wk =   0.0010667
        k(  843) = (   0.0800000   0.3849002   0.0000000), wk =   0.0010667
        k(  844) = (   0.0800000   0.3925982   0.0000000), wk =   0.0010667
        k(  845) = (   0.0800000   0.4002962   0.0000000), wk =   0.0010667
        k(  846) = (   0.0800000   0.4079942   0.0000000), wk =   0.0010667
        k(  847) = (   0.0800000   0.4156922   0.0000000), wk =   0.0010667
        k(  848) = (   0.0800000   0.4233902   0.0000000), wk =   0.0010667
        k(  849) = (   0.0800000   0.4310882   0.0000000), wk =   0.0010667
        k(  850) = (   0.0800000   0.4387862   0.0000000), wk =   0.0010667
        k(  851) = (   0.0800000   0.4464842   0.0000000), wk =   0.0010667
        k(  852) = (   0.0800000   0.4541822   0.0000000), wk =   0.0010667
        k(  853) = (   0.0800000   0.4618802   0.0000000), wk =   0.0010667
        k(  854) = (   0.0800000   0.4695782   0.0000000), wk =   0.0010667
        k(  855) = (   0.0800000   0.4772762   0.0000000), wk =   0.0010667
        k(  856) = (   0.0800000   0.4849742   0.0000000), wk =   0.0010667
        k(  857) = (   0.0800000   0.4926722   0.0000000), wk =   0.0010667
        k(  858) = (   0.0800000   0.5003702   0.0000000), wk =   0.0010667
        k(  859) = (   0.0800000   0.5080682   0.0000000), wk =   0.0010667
        k(  860) = (   0.0800000   0.5157662   0.0000000), wk =   0.0010667
        k(  861) = (   0.0800000   0.5234642   0.0000000), wk =   0.0010667
        k(  862) = (   0.0800000   0.5311622   0.0000000), wk =   0.0010667
        k(  863) = (   0.0800000   0.5388603   0.0000000), wk =   0.0010667
        k(  864) = (   0.0800000   0.5465583   0.0000000), wk =   0.0010667
        k(  865) = (   0.0800000   0.5542563   0.0000000), wk =   0.0010667
        k(  866) = (   0.0800000   0.5619543   0.0000000), wk =   0.0010667
        k(  867) = (   0.0800000   0.5696523   0.0000000), wk =   0.0010667
        k(  868) = (   0.0800000   0.5773503   0.0000000), wk =   0.0005333
        k(  869) = (   0.0866667   0.1501111   0.0000000), wk =   0.0005333
        k(  870) = (   0.0866667   0.1578091   0.0000000), wk =   0.0010667
        k(  871) = (   0.0866667   0.1655071   0.0000000), wk =   0.0010667
        k(  872) = (   0.0866667   0.1732051   0.0000000), wk =   0.0010667
        k(  873) = (   0.0866667   0.1809031   0.0000000), wk =   0.0010667
        k(  874) = (   0.0866667   0.1886011   0.0000000), wk =   0.0010667
        k(  875) = (   0.0866667   0.1962991   0.0000000), wk =   0.0010667
        k(  876) = (   0.0866667   0.2039971   0.0000000), wk =   0.0010667
        k(  877) = (   0.0866667   0.2116951   0.0000000), wk =   0.0010667
        k(  878) = (   0.0866667   0.2193931   0.0000000), wk =   0.0010667
        k(  879) = (   0.0866667   0.2270911   0.0000000), wk =   0.0010667
        k(  880) = (   0.0866667   0.2347891   0.0000000), wk =   0.0010667
        k(  881) = (   0.0866667   0.2424871   0.0000000), wk =   0.0010667
        k(  882) = (   0.0866667   0.2501851   0.0000000), wk =   0.0010667
        k(  883) = (   0.0866667   0.2578831   0.0000000), wk =   0.0010667
        k(  884) = (   0.0866667   0.2655811   0.0000000), wk =   0.0010667
        k(  885) = (   0.0866667   0.2732791   0.0000000), wk =   0.0010667
        k(  886) = (   0.0866667   0.2809771   0.0000000), wk =   0.0010667
        k(  887) = (   0.0866667   0.2886751   0.0000000), wk =   0.0010667
        k(  888) = (   0.0866667   0.2963731   0.0000000), wk =   0.0010667
        k(  889) = (   0.0866667   0.3040711   0.0000000), wk =   0.0010667
        k(  890) = (   0.0866667   0.3117691   0.0000000), wk =   0.0010667
        k(  891) = (   0.0866667   0.3194671   0.0000000), wk =   0.0010667
        k(  892) = (   0.0866667   0.3271652   0.0000000), wk =   0.0010667
        k(  893) = (   0.0866667   0.3348632   0.0000000), wk =   0.0010667
        k(  894) = (   0.0866667   0.3425612   0.0000000), wk =   0.0010667
        k(  895) = (   0.0866667   0.3502592   0.0000000), wk =   0.0010667
        k(  896) = (   0.0866667   0.3579572   0.0000000), wk =   0.0010667
        k(  897) = (   0.0866667   0.3656552   0.0000000), wk =   0.0010667
        k(  898) = (   0.0866667   0.3733532   0.0000000), wk =   0.0010667
        k(  899) = (   0.0866667   0.3810512   0.0000000), wk =   0.0010667
        k(  900) = (   0.0866667   0.3887492   0.0000000), wk =   0.0010667
        k(  901) = (   0.0866667   0.3964472   0.0000000), wk =   0.0010667
        k(  902) = (   0.0866667   0.4041452   0.0000000), wk =   0.0010667
        k(  903) = (   0.0866667   0.4118432   0.0000000), wk =   0.0010667
        k(  904) = (   0.0866667   0.4195412   0.0000000), wk =   0.0010667
        k(  905) = (   0.0866667   0.4272392   0.0000000), wk =   0.0010667
        k(  906) = (   0.0866667   0.4349372   0.0000000), wk =   0.0010667
        k(  907) = (   0.0866667   0.4426352   0.0000000), wk =   0.0010667
        k(  908) = (   0.0866667   0.4503332   0.0000000), wk =   0.0010667
        k(  909) = (   0.0866667   0.4580312   0.0000000), wk =   0.0010667
        k(  910) = (   0.0866667   0.4657292   0.0000000), wk =   0.0010667
        k(  911) = (   0.0866667   0.4734272   0.0000000), wk =   0.0010667
        k(  912) = (   0.0866667   0.4811252   0.0000000), wk =   0.0010667
        k(  913) = (   0.0866667   0.4888232   0.0000000), wk =   0.0010667
        k(  914) = (   0.0866667   0.4965212   0.0000000), wk =   0.0010667
        k(  915) = (   0.0866667   0.5042192   0.0000000), wk =   0.0010667
        k(  916) = (   0.0866667   0.5119172   0.0000000), wk =   0.0010667
        k(  917) = (   0.0866667   0.5196152   0.0000000), wk =   0.0010667
        k(  918) = (   0.0866667   0.5273132   0.0000000), wk =   0.0010667
        k(  919) = (   0.0866667   0.5350112   0.0000000), wk =   0.0010667
        k(  920) = (   0.0866667   0.5427093   0.0000000), wk =   0.0010667
        k(  921) = (   0.0866667   0.5504073   0.0000000), wk =   0.0010667
        k(  922) = (   0.0866667   0.5581053   0.0000000), wk =   0.0010667
        k(  923) = (   0.0866667   0.5658033   0.0000000), wk =   0.0010667
        k(  924) = (   0.0866667   0.5735013   0.0000000), wk =   0.0010667
        k(  925) = (   0.0933333   0.1616581   0.0000000), wk =   0.0005333
        k(  926) = (   0.0933333   0.1693561   0.0000000), wk =   0.0010667
        k(  927) = (   0.0933333   0.1770541   0.0000000), wk =   0.0010667
        k(  928) = (   0.0933333   0.1847521   0.0000000), wk =   0.0010667
        k(  929) = (   0.0933333   0.1924501   0.0000000), wk =   0.0010667
        k(  930) = (   0.0933333   0.2001481   0.0000000), wk =   0.0010667
        k(  931) = (   0.0933333   0.2078461   0.0000000), wk =   0.0010667
        k(  932) = (   0.0933333   0.2155441   0.0000000), wk =   0.0010667
        k(  933) = (   0.0933333   0.2232421   0.0000000), wk =   0.0010667
        k(  934) = (   0.0933333   0.2309401   0.0000000), wk =   0.0010667
        k(  935) = (   0.0933333   0.2386381   0.0000000), wk =   0.0010667
        k(  936) = (   0.0933333   0.2463361   0.0000000), wk =   0.0010667
        k(  937) = (   0.0933333   0.2540341   0.0000000), wk =   0.0010667
        k(  938) = (   0.0933333   0.2617321   0.0000000), wk =   0.0010667
        k(  939) = (   0.0933333   0.2694301   0.0000000), wk =   0.0010667
        k(  940) = (   0.0933333   0.2771281   0.0000000), wk =   0.0010667
        k(  941) = (   0.0933333   0.2848261   0.0000000), wk =   0.0010667
        k(  942) = (   0.0933333   0.2925241   0.0000000), wk =   0.0010667
        k(  943) = (   0.0933333   0.3002221   0.0000000), wk =   0.0010667
        k(  944) = (   0.0933333   0.3079201   0.0000000), wk =   0.0010667
        k(  945) = (   0.0933333   0.3156181   0.0000000), wk =   0.0010667
        k(  946) = (   0.0933333   0.3233162   0.0000000), wk =   0.0010667
        k(  947) = (   0.0933333   0.3310142   0.0000000), wk =   0.0010667
        k(  948) = (   0.0933333   0.3387122   0.0000000), wk =   0.0010667
        k(  949) = (   0.0933333   0.3464102   0.0000000), wk =   0.0010667
        k(  950) = (   0.0933333   0.3541082   0.0000000), wk =   0.0010667
        k(  951) = (   0.0933333   0.3618062   0.0000000), wk =   0.0010667
        k(  952) = (   0.0933333   0.3695042   0.0000000), wk =   0.0010667
        k(  953) = (   0.0933333   0.3772022   0.0000000), wk =   0.0010667
        k(  954) = (   0.0933333   0.3849002   0.0000000), wk =   0.0010667
        k(  955) = (   0.0933333   0.3925982   0.0000000), wk =   0.0010667
        k(  956) = (   0.0933333   0.4002962   0.0000000), wk =   0.0010667
        k(  957) = (   0.0933333   0.4079942   0.0000000), wk =   0.0010667
        k(  958) = (   0.0933333   0.4156922   0.0000000), wk =   0.0010667
        k(  959) = (   0.0933333   0.4233902   0.0000000), wk =   0.0010667
        k(  960) = (   0.0933333   0.4310882   0.0000000), wk =   0.0010667
        k(  961) = (   0.0933333   0.4387862   0.0000000), wk =   0.0010667
        k(  962) = (   0.0933333   0.4464842   0.0000000), wk =   0.0010667
        k(  963) = (   0.0933333   0.4541822   0.0000000), wk =   0.0010667
        k(  964) = (   0.0933333   0.4618802   0.0000000), wk =   0.0010667
        k(  965) = (   0.0933333   0.4695782   0.0000000), wk =   0.0010667
        k(  966) = (   0.0933333   0.4772762   0.0000000), wk =   0.0010667
        k(  967) = (   0.0933333   0.4849742   0.0000000), wk =   0.0010667
        k(  968) = (   0.0933333   0.4926722   0.0000000), wk =   0.0010667
        k(  969) = (   0.0933333   0.5003702   0.0000000), wk =   0.0010667
        k(  970) = (   0.0933333   0.5080682   0.0000000), wk =   0.0010667
        k(  971) = (   0.0933333   0.5157662   0.0000000), wk =   0.0010667
        k(  972) = (   0.0933333   0.5234642   0.0000000), wk =   0.0010667
        k(  973) = (   0.0933333   0.5311622   0.0000000), wk =   0.0010667
        k(  974) = (   0.0933333   0.5388603   0.0000000), wk =   0.0010667
        k(  975) = (   0.0933333   0.5465583   0.0000000), wk =   0.0010667
        k(  976) = (   0.0933333   0.5542563   0.0000000), wk =   0.0010667
        k(  977) = (   0.0933333   0.5619543   0.0000000), wk =   0.0010667
        k(  978) = (   0.0933333   0.5696523   0.0000000), wk =   0.0010667
        k(  979) = (   0.0933333   0.5773503   0.0000000), wk =   0.0005333
        k(  980) = (   0.1000000   0.1732051   0.0000000), wk =   0.0005333
        k(  981) = (   0.1000000   0.1809031   0.0000000), wk =   0.0010667
        k(  982) = (   0.1000000   0.1886011   0.0000000), wk =   0.0010667
        k(  983) = (   0.1000000   0.1962991   0.0000000), wk =   0.0010667
        k(  984) = (   0.1000000   0.2039971   0.0000000), wk =   0.0010667
        k(  985) = (   0.1000000   0.2116951   0.0000000), wk =   0.0010667
        k(  986) = (   0.1000000   0.2193931   0.0000000), wk =   0.0010667
        k(  987) = (   0.1000000   0.2270911   0.0000000), wk =   0.0010667
        k(  988) = (   0.1000000   0.2347891   0.0000000), wk =   0.0010667
        k(  989) = (   0.1000000   0.2424871   0.0000000), wk =   0.0010667
        k(  990) = (   0.1000000   0.2501851   0.0000000), wk =   0.0010667
        k(  991) = (   0.1000000   0.2578831   0.0000000), wk =   0.0010667
        k(  992) = (   0.1000000   0.2655811   0.0000000), wk =   0.0010667
        k(  993) = (   0.1000000   0.2732791   0.0000000), wk =   0.0010667
        k(  994) = (   0.1000000   0.2809771   0.0000000), wk =   0.0010667
        k(  995) = (   0.1000000   0.2886751   0.0000000), wk =   0.0010667
        k(  996) = (   0.1000000   0.2963731   0.0000000), wk =   0.0010667
        k(  997) = (   0.1000000   0.3040711   0.0000000), wk =   0.0010667
        k(  998) = (   0.1000000   0.3117691   0.0000000), wk =   0.0010667
        k(  999) = (   0.1000000   0.3194671   0.0000000), wk =   0.0010667
        k( 1000) = (   0.1000000   0.3271652   0.0000000), wk =   0.0010667
        k( 1001) = (   0.1000000   0.3348632   0.0000000), wk =   0.0010667
        k( 1002) = (   0.1000000   0.3425612   0.0000000), wk =   0.0010667
        k( 1003) = (   0.1000000   0.3502592   0.0000000), wk =   0.0010667
        k( 1004) = (   0.1000000   0.3579572   0.0000000), wk =   0.0010667
        k( 1005) = (   0.1000000   0.3656552   0.0000000), wk =   0.0010667
        k( 1006) = (   0.1000000   0.3733532   0.0000000), wk =   0.0010667
        k( 1007) = (   0.1000000   0.3810512   0.0000000), wk =   0.0010667
        k( 1008) = (   0.1000000   0.3887492   0.0000000), wk =   0.0010667
        k( 1009) = (   0.1000000   0.3964472   0.0000000), wk =   0.0010667
        k( 1010) = (   0.1000000   0.4041452   0.0000000), wk =   0.0010667
        k( 1011) = (   0.1000000   0.4118432   0.0000000), wk =   0.0010667
        k( 1012) = (   0.1000000   0.4195412   0.0000000), wk =   0.0010667
        k( 1013) = (   0.1000000   0.4272392   0.0000000), wk =   0.0010667
        k( 1014) = (   0.1000000   0.4349372   0.0000000), wk =   0.0010667
        k( 1015) = (   0.1000000   0.4426352   0.0000000), wk =   0.0010667
        k( 1016) = (   0.1000000   0.4503332   0.0000000), wk =   0.0010667
        k( 1017) = (   0.1000000   0.4580312   0.0000000), wk =   0.0010667
        k( 1018) = (   0.1000000   0.4657292   0.0000000), wk =   0.0010667
        k( 1019) = (   0.1000000   0.4734272   0.0000000), wk =   0.0010667
        k( 1020) = (   0.1000000   0.4811252   0.0000000), wk =   0.0010667
        k( 1021) = (   0.1000000   0.4888232   0.0000000), wk =   0.0010667
        k( 1022) = (   0.1000000   0.4965212   0.0000000), wk =   0.0010667
        k( 1023) = (   0.1000000   0.5042192   0.0000000), wk =   0.0010667
        k( 1024) = (   0.1000000   0.5119172   0.0000000), wk =   0.0010667
        k( 1025) = (   0.1000000   0.5196152   0.0000000), wk =   0.0010667
        k( 1026) = (   0.1000000   0.5273132   0.0000000), wk =   0.0010667
        k( 1027) = (   0.1000000   0.5350112   0.0000000), wk =   0.0010667
        k( 1028) = (   0.1000000   0.5427093   0.0000000), wk =   0.0010667
        k( 1029) = (   0.1000000   0.5504073   0.0000000), wk =   0.0010667
        k( 1030) = (   0.1000000   0.5581053   0.0000000), wk =   0.0010667
        k( 1031) = (   0.1000000   0.5658033   0.0000000), wk =   0.0010667
        k( 1032) = (   0.1000000   0.5735013   0.0000000), wk =   0.0010667
        k( 1033) = (   0.1066667   0.1847521   0.0000000), wk =   0.0005333
        k( 1034) = (   0.1066667   0.1924501   0.0000000), wk =   0.0010667
        k( 1035) = (   0.1066667   0.2001481   0.0000000), wk =   0.0010667
        k( 1036) = (   0.1066667   0.2078461   0.0000000), wk =   0.0010667
        k( 1037) = (   0.1066667   0.2155441   0.0000000), wk =   0.0010667
        k( 1038) = (   0.1066667   0.2232421   0.0000000), wk =   0.0010667
        k( 1039) = (   0.1066667   0.2309401   0.0000000), wk =   0.0010667
        k( 1040) = (   0.1066667   0.2386381   0.0000000), wk =   0.0010667
        k( 1041) = (   0.1066667   0.2463361   0.0000000), wk =   0.0010667
        k( 1042) = (   0.1066667   0.2540341   0.0000000), wk =   0.0010667
        k( 1043) = (   0.1066667   0.2617321   0.0000000), wk =   0.0010667
        k( 1044) = (   0.1066667   0.2694301   0.0000000), wk =   0.0010667
        k( 1045) = (   0.1066667   0.2771281   0.0000000), wk =   0.0010667
        k( 1046) = (   0.1066667   0.2848261   0.0000000), wk =   0.0010667
        k( 1047) = (   0.1066667   0.2925241   0.0000000), wk =   0.0010667
        k( 1048) = (   0.1066667   0.3002221   0.0000000), wk =   0.0010667
        k( 1049) = (   0.1066667   0.3079201   0.0000000), wk =   0.0010667
        k( 1050) = (   0.1066667   0.3156181   0.0000000), wk =   0.0010667
        k( 1051) = (   0.1066667   0.3233162   0.0000000), wk =   0.0010667
        k( 1052) = (   0.1066667   0.3310142   0.0000000), wk =   0.0010667
        k( 1053) = (   0.1066667   0.3387122   0.0000000), wk =   0.0010667
        k( 1054) = (   0.1066667   0.3464102   0.0000000), wk =   0.0010667
        k( 1055) = (   0.1066667   0.3541082   0.0000000), wk =   0.0010667
        k( 1056) = (   0.1066667   0.3618062   0.0000000), wk =   0.0010667
        k( 1057) = (   0.1066667   0.3695042   0.0000000), wk =   0.0010667
        k( 1058) = (   0.1066667   0.3772022   0.0000000), wk =   0.0010667
        k( 1059) = (   0.1066667   0.3849002   0.0000000), wk =   0.0010667
        k( 1060) = (   0.1066667   0.3925982   0.0000000), wk =   0.0010667
        k( 1061) = (   0.1066667   0.4002962   0.0000000), wk =   0.0010667
        k( 1062) = (   0.1066667   0.4079942   0.0000000), wk =   0.0010667
        k( 1063) = (   0.1066667   0.4156922   0.0000000), wk =   0.0010667
        k( 1064) = (   0.1066667   0.4233902   0.0000000), wk =   0.0010667
        k( 1065) = (   0.1066667   0.4310882   0.0000000), wk =   0.0010667
        k( 1066) = (   0.1066667   0.4387862   0.0000000), wk =   0.0010667
        k( 1067) = (   0.1066667   0.4464842   0.0000000), wk =   0.0010667
        k( 1068) = (   0.1066667   0.4541822   0.0000000), wk =   0.0010667
        k( 1069) = (   0.1066667   0.4618802   0.0000000), wk =   0.0010667
        k( 1070) = (   0.1066667   0.4695782   0.0000000), wk =   0.0010667
        k( 1071) = (   0.1066667   0.4772762   0.0000000), wk =   0.0010667
        k( 1072) = (   0.1066667   0.4849742   0.0000000), wk =   0.0010667
        k( 1073) = (   0.1066667   0.4926722   0.0000000), wk =   0.0010667
        k( 1074) = (   0.1066667   0.5003702   0.0000000), wk =   0.0010667
        k( 1075) = (   0.1066667   0.5080682   0.0000000), wk =   0.0010667
        k( 1076) = (   0.1066667   0.5157662   0.0000000), wk =   0.0010667
        k( 1077) = (   0.1066667   0.5234642   0.0000000), wk =   0.0010667
        k( 1078) = (   0.1066667   0.5311622   0.0000000), wk =   0.0010667
        k( 1079) = (   0.1066667   0.5388603   0.0000000), wk =   0.0010667
        k( 1080) = (   0.1066667   0.5465583   0.0000000), wk =   0.0010667
        k( 1081) = (   0.1066667   0.5542563   0.0000000), wk =   0.0010667
        k( 1082) = (   0.1066667   0.5619543   0.0000000), wk =   0.0010667
        k( 1083) = (   0.1066667   0.5696523   0.0000000), wk =   0.0010667
        k( 1084) = (   0.1066667   0.5773503   0.0000000), wk =   0.0005333
        k( 1085) = (   0.1133333   0.1962991   0.0000000), wk =   0.0005333
        k( 1086) = (   0.1133333   0.2039971   0.0000000), wk =   0.0010667
        k( 1087) = (   0.1133333   0.2116951   0.0000000), wk =   0.0010667
        k( 1088) = (   0.1133333   0.2193931   0.0000000), wk =   0.0010667
        k( 1089) = (   0.1133333   0.2270911   0.0000000), wk =   0.0010667
        k( 1090) = (   0.1133333   0.2347891   0.0000000), wk =   0.0010667
        k( 1091) = (   0.1133333   0.2424871   0.0000000), wk =   0.0010667
        k( 1092) = (   0.1133333   0.2501851   0.0000000), wk =   0.0010667
        k( 1093) = (   0.1133333   0.2578831   0.0000000), wk =   0.0010667
        k( 1094) = (   0.1133333   0.2655811   0.0000000), wk =   0.0010667
        k( 1095) = (   0.1133333   0.2732791   0.0000000), wk =   0.0010667
        k( 1096) = (   0.1133333   0.2809771   0.0000000), wk =   0.0010667
        k( 1097) = (   0.1133333   0.2886751   0.0000000), wk =   0.0010667
        k( 1098) = (   0.1133333   0.2963731   0.0000000), wk =   0.0010667
        k( 1099) = (   0.1133333   0.3040711   0.0000000), wk =   0.0010667
        k( 1100) = (   0.1133333   0.3117691   0.0000000), wk =   0.0010667
        k( 1101) = (   0.1133333   0.3194671   0.0000000), wk =   0.0010667
        k( 1102) = (   0.1133333   0.3271652   0.0000000), wk =   0.0010667
        k( 1103) = (   0.1133333   0.3348632   0.0000000), wk =   0.0010667
        k( 1104) = (   0.1133333   0.3425612   0.0000000), wk =   0.0010667
        k( 1105) = (   0.1133333   0.3502592   0.0000000), wk =   0.0010667
        k( 1106) = (   0.1133333   0.3579572   0.0000000), wk =   0.0010667
        k( 1107) = (   0.1133333   0.3656552   0.0000000), wk =   0.0010667
        k( 1108) = (   0.1133333   0.3733532   0.0000000), wk =   0.0010667
        k( 1109) = (   0.1133333   0.3810512   0.0000000), wk =   0.0010667
        k( 1110) = (   0.1133333   0.3887492   0.0000000), wk =   0.0010667
        k( 1111) = (   0.1133333   0.3964472   0.0000000), wk =   0.0010667
        k( 1112) = (   0.1133333   0.4041452   0.0000000), wk =   0.0010667
        k( 1113) = (   0.1133333   0.4118432   0.0000000), wk =   0.0010667
        k( 1114) = (   0.1133333   0.4195412   0.0000000), wk =   0.0010667
        k( 1115) = (   0.1133333   0.4272392   0.0000000), wk =   0.0010667
        k( 1116) = (   0.1133333   0.4349372   0.0000000), wk =   0.0010667
        k( 1117) = (   0.1133333   0.4426352   0.0000000), wk =   0.0010667
        k( 1118) = (   0.1133333   0.4503332   0.0000000), wk =   0.0010667
        k( 1119) = (   0.1133333   0.4580312   0.0000000), wk =   0.0010667
        k( 1120) = (   0.1133333   0.4657292   0.0000000), wk =   0.0010667
        k( 1121) = (   0.1133333   0.4734272   0.0000000), wk =   0.0010667
        k( 1122) = (   0.1133333   0.4811252   0.0000000), wk =   0.0010667
        k( 1123) = (   0.1133333   0.4888232   0.0000000), wk =   0.0010667
        k( 1124) = (   0.1133333   0.4965212   0.0000000), wk =   0.0010667
        k( 1125) = (   0.1133333   0.5042192   0.0000000), wk =   0.0010667
        k( 1126) = (   0.1133333   0.5119172   0.0000000), wk =   0.0010667
        k( 1127) = (   0.1133333   0.5196152   0.0000000), wk =   0.0010667
        k( 1128) = (   0.1133333   0.5273132   0.0000000), wk =   0.0010667
        k( 1129) = (   0.1133333   0.5350112   0.0000000), wk =   0.0010667
        k( 1130) = (   0.1133333   0.5427093   0.0000000), wk =   0.0010667
        k( 1131) = (   0.1133333   0.5504073   0.0000000), wk =   0.0010667
        k( 1132) = (   0.1133333   0.5581053   0.0000000), wk =   0.0010667
        k( 1133) = (   0.1133333   0.5658033   0.0000000), wk =   0.0010667
        k( 1134) = (   0.1133333   0.5735013   0.0000000), wk =   0.0010667
        k( 1135) = (   0.1200000   0.2078461   0.0000000), wk =   0.0005333
        k( 1136) = (   0.1200000   0.2155441   0.0000000), wk =   0.0010667
        k( 1137) = (   0.1200000   0.2232421   0.0000000), wk =   0.0010667
        k( 1138) = (   0.1200000   0.2309401   0.0000000), wk =   0.0010667
        k( 1139) = (   0.1200000   0.2386381   0.0000000), wk =   0.0010667
        k( 1140) = (   0.1200000   0.2463361   0.0000000), wk =   0.0010667
        k( 1141) = (   0.1200000   0.2540341   0.0000000), wk =   0.0010667
        k( 1142) = (   0.1200000   0.2617321   0.0000000), wk =   0.0010667
        k( 1143) = (   0.1200000   0.2694301   0.0000000), wk =   0.0010667
        k( 1144) = (   0.1200000   0.2771281   0.0000000), wk =   0.0010667
        k( 1145) = (   0.1200000   0.2848261   0.0000000), wk =   0.0010667
        k( 1146) = (   0.1200000   0.2925241   0.0000000), wk =   0.0010667
        k( 1147) = (   0.1200000   0.3002221   0.0000000), wk =   0.0010667
        k( 1148) = (   0.1200000   0.3079201   0.0000000), wk =   0.0010667
        k( 1149) = (   0.1200000   0.3156181   0.0000000), wk =   0.0010667
        k( 1150) = (   0.1200000   0.3233162   0.0000000), wk =   0.0010667
        k( 1151) = (   0.1200000   0.3310142   0.0000000), wk =   0.0010667
        k( 1152) = (   0.1200000   0.3387122   0.0000000), wk =   0.0010667
        k( 1153) = (   0.1200000   0.3464102   0.0000000), wk =   0.0010667
        k( 1154) = (   0.1200000   0.3541082   0.0000000), wk =   0.0010667
        k( 1155) = (   0.1200000   0.3618062   0.0000000), wk =   0.0010667
        k( 1156) = (   0.1200000   0.3695042   0.0000000), wk =   0.0010667
        k( 1157) = (   0.1200000   0.3772022   0.0000000), wk =   0.0010667
        k( 1158) = (   0.1200000   0.3849002   0.0000000), wk =   0.0010667
        k( 1159) = (   0.1200000   0.3925982   0.0000000), wk =   0.0010667
        k( 1160) = (   0.1200000   0.4002962   0.0000000), wk =   0.0010667
        k( 1161) = (   0.1200000   0.4079942   0.0000000), wk =   0.0010667
        k( 1162) = (   0.1200000   0.4156922   0.0000000), wk =   0.0010667
        k( 1163) = (   0.1200000   0.4233902   0.0000000), wk =   0.0010667
        k( 1164) = (   0.1200000   0.4310882   0.0000000), wk =   0.0010667
        k( 1165) = (   0.1200000   0.4387862   0.0000000), wk =   0.0010667
        k( 1166) = (   0.1200000   0.4464842   0.0000000), wk =   0.0010667
        k( 1167) = (   0.1200000   0.4541822   0.0000000), wk =   0.0010667
        k( 1168) = (   0.1200000   0.4618802   0.0000000), wk =   0.0010667
        k( 1169) = (   0.1200000   0.4695782   0.0000000), wk =   0.0010667
        k( 1170) = (   0.1200000   0.4772762   0.0000000), wk =   0.0010667
        k( 1171) = (   0.1200000   0.4849742   0.0000000), wk =   0.0010667
        k( 1172) = (   0.1200000   0.4926722   0.0000000), wk =   0.0010667
        k( 1173) = (   0.1200000   0.5003702   0.0000000), wk =   0.0010667
        k( 1174) = (   0.1200000   0.5080682   0.0000000), wk =   0.0010667
        k( 1175) = (   0.1200000   0.5157662   0.0000000), wk =   0.0010667
        k( 1176) = (   0.1200000   0.5234642   0.0000000), wk =   0.0010667
        k( 1177) = (   0.1200000   0.5311622   0.0000000), wk =   0.0010667
        k( 1178) = (   0.1200000   0.5388603   0.0000000), wk =   0.0010667
        k( 1179) = (   0.1200000   0.5465583   0.0000000), wk =   0.0010667
        k( 1180) = (   0.1200000   0.5542563   0.0000000), wk =   0.0010667
        k( 1181) = (   0.1200000   0.5619543   0.0000000), wk =   0.0010667
        k( 1182) = (   0.1200000   0.5696523   0.0000000), wk =   0.0010667
        k( 1183) = (   0.1200000   0.5773503   0.0000000), wk =   0.0005333
        k( 1184) = (   0.1266667   0.2193931   0.0000000), wk =   0.0005333
        k( 1185) = (   0.1266667   0.2270911   0.0000000), wk =   0.0010667
        k( 1186) = (   0.1266667   0.2347891   0.0000000), wk =   0.0010667
        k( 1187) = (   0.1266667   0.2424871   0.0000000), wk =   0.0010667
        k( 1188) = (   0.1266667   0.2501851   0.0000000), wk =   0.0010667
        k( 1189) = (   0.1266667   0.2578831   0.0000000), wk =   0.0010667
        k( 1190) = (   0.1266667   0.2655811   0.0000000), wk =   0.0010667
        k( 1191) = (   0.1266667   0.2732791   0.0000000), wk =   0.0010667
        k( 1192) = (   0.1266667   0.2809771   0.0000000), wk =   0.0010667
        k( 1193) = (   0.1266667   0.2886751   0.0000000), wk =   0.0010667
        k( 1194) = (   0.1266667   0.2963731   0.0000000), wk =   0.0010667
        k( 1195) = (   0.1266667   0.3040711   0.0000000), wk =   0.0010667
        k( 1196) = (   0.1266667   0.3117691   0.0000000), wk =   0.0010667
        k( 1197) = (   0.1266667   0.3194671   0.0000000), wk =   0.0010667
        k( 1198) = (   0.1266667   0.3271652   0.0000000), wk =   0.0010667
        k( 1199) = (   0.1266667   0.3348632   0.0000000), wk =   0.0010667
        k( 1200) = (   0.1266667   0.3425612   0.0000000), wk =   0.0010667
        k( 1201) = (   0.1266667   0.3502592   0.0000000), wk =   0.0010667
        k( 1202) = (   0.1266667   0.3579572   0.0000000), wk =   0.0010667
        k( 1203) = (   0.1266667   0.3656552   0.0000000), wk =   0.0010667
        k( 1204) = (   0.1266667   0.3733532   0.0000000), wk =   0.0010667
        k( 1205) = (   0.1266667   0.3810512   0.0000000), wk =   0.0010667
        k( 1206) = (   0.1266667   0.3887492   0.0000000), wk =   0.0010667
        k( 1207) = (   0.1266667   0.3964472   0.0000000), wk =   0.0010667
        k( 1208) = (   0.1266667   0.4041452   0.0000000), wk =   0.0010667
        k( 1209) = (   0.1266667   0.4118432   0.0000000), wk =   0.0010667
        k( 1210) = (   0.1266667   0.4195412   0.0000000), wk =   0.0010667
        k( 1211) = (   0.1266667   0.4272392   0.0000000), wk =   0.0010667
        k( 1212) = (   0.1266667   0.4349372   0.0000000), wk =   0.0010667
        k( 1213) = (   0.1266667   0.4426352   0.0000000), wk =   0.0010667
        k( 1214) = (   0.1266667   0.4503332   0.0000000), wk =   0.0010667
        k( 1215) = (   0.1266667   0.4580312   0.0000000), wk =   0.0010667
        k( 1216) = (   0.1266667   0.4657292   0.0000000), wk =   0.0010667
        k( 1217) = (   0.1266667   0.4734272   0.0000000), wk =   0.0010667
        k( 1218) = (   0.1266667   0.4811252   0.0000000), wk =   0.0010667
        k( 1219) = (   0.1266667   0.4888232   0.0000000), wk =   0.0010667
        k( 1220) = (   0.1266667   0.4965212   0.0000000), wk =   0.0010667
        k( 1221) = (   0.1266667   0.5042192   0.0000000), wk =   0.0010667
        k( 1222) = (   0.1266667   0.5119172   0.0000000), wk =   0.0010667
        k( 1223) = (   0.1266667   0.5196152   0.0000000), wk =   0.0010667
        k( 1224) = (   0.1266667   0.5273132   0.0000000), wk =   0.0010667
        k( 1225) = (   0.1266667   0.5350112   0.0000000), wk =   0.0010667
        k( 1226) = (   0.1266667   0.5427093   0.0000000), wk =   0.0010667
        k( 1227) = (   0.1266667   0.5504073   0.0000000), wk =   0.0010667
        k( 1228) = (   0.1266667   0.5581053   0.0000000), wk =   0.0010667
        k( 1229) = (   0.1266667   0.5658033   0.0000000), wk =   0.0010667
        k( 1230) = (   0.1266667   0.5735013   0.0000000), wk =   0.0010667
        k( 1231) = (   0.1333333   0.2309401   0.0000000), wk =   0.0005333
        k( 1232) = (   0.1333333   0.2386381   0.0000000), wk =   0.0010667
        k( 1233) = (   0.1333333   0.2463361   0.0000000), wk =   0.0010667
        k( 1234) = (   0.1333333   0.2540341   0.0000000), wk =   0.0010667
        k( 1235) = (   0.1333333   0.2617321   0.0000000), wk =   0.0010667
        k( 1236) = (   0.1333333   0.2694301   0.0000000), wk =   0.0010667
        k( 1237) = (   0.1333333   0.2771281   0.0000000), wk =   0.0010667
        k( 1238) = (   0.1333333   0.2848261   0.0000000), wk =   0.0010667
        k( 1239) = (   0.1333333   0.2925241   0.0000000), wk =   0.0010667
        k( 1240) = (   0.1333333   0.3002221   0.0000000), wk =   0.0010667
        k( 1241) = (   0.1333333   0.3079201   0.0000000), wk =   0.0010667
        k( 1242) = (   0.1333333   0.3156181   0.0000000), wk =   0.0010667
        k( 1243) = (   0.1333333   0.3233162   0.0000000), wk =   0.0010667
        k( 1244) = (   0.1333333   0.3310142   0.0000000), wk =   0.0010667
        k( 1245) = (   0.1333333   0.3387122   0.0000000), wk =   0.0010667
        k( 1246) = (   0.1333333   0.3464102   0.0000000), wk =   0.0010667
        k( 1247) = (   0.1333333   0.3541082   0.0000000), wk =   0.0010667
        k( 1248) = (   0.1333333   0.3618062   0.0000000), wk =   0.0010667
        k( 1249) = (   0.1333333   0.3695042   0.0000000), wk =   0.0010667
        k( 1250) = (   0.1333333   0.3772022   0.0000000), wk =   0.0010667
        k( 1251) = (   0.1333333   0.3849002   0.0000000), wk =   0.0010667
        k( 1252) = (   0.1333333   0.3925982   0.0000000), wk =   0.0010667
        k( 1253) = (   0.1333333   0.4002962   0.0000000), wk =   0.0010667
        k( 1254) = (   0.1333333   0.4079942   0.0000000), wk =   0.0010667
        k( 1255) = (   0.1333333   0.4156922   0.0000000), wk =   0.0010667
        k( 1256) = (   0.1333333   0.4233902   0.0000000), wk =   0.0010667
        k( 1257) = (   0.1333333   0.4310882   0.0000000), wk =   0.0010667
        k( 1258) = (   0.1333333   0.4387862   0.0000000), wk =   0.0010667
        k( 1259) = (   0.1333333   0.4464842   0.0000000), wk =   0.0010667
        k( 1260) = (   0.1333333   0.4541822   0.0000000), wk =   0.0010667
        k( 1261) = (   0.1333333   0.4618802   0.0000000), wk =   0.0010667
        k( 1262) = (   0.1333333   0.4695782   0.0000000), wk =   0.0010667
        k( 1263) = (   0.1333333   0.4772762   0.0000000), wk =   0.0010667
        k( 1264) = (   0.1333333   0.4849742   0.0000000), wk =   0.0010667
        k( 1265) = (   0.1333333   0.4926722   0.0000000), wk =   0.0010667
        k( 1266) = (   0.1333333   0.5003702   0.0000000), wk =   0.0010667
        k( 1267) = (   0.1333333   0.5080682   0.0000000), wk =   0.0010667
        k( 1268) = (   0.1333333   0.5157662   0.0000000), wk =   0.0010667
        k( 1269) = (   0.1333333   0.5234642   0.0000000), wk =   0.0010667
        k( 1270) = (   0.1333333   0.5311622   0.0000000), wk =   0.0010667
        k( 1271) = (   0.1333333   0.5388603   0.0000000), wk =   0.0010667
        k( 1272) = (   0.1333333   0.5465583   0.0000000), wk =   0.0010667
        k( 1273) = (   0.1333333   0.5542563   0.0000000), wk =   0.0010667
        k( 1274) = (   0.1333333   0.5619543   0.0000000), wk =   0.0010667
        k( 1275) = (   0.1333333   0.5696523   0.0000000), wk =   0.0010667
        k( 1276) = (   0.1333333   0.5773503   0.0000000), wk =   0.0005333
        k( 1277) = (   0.1400000   0.2424871   0.0000000), wk =   0.0005333
        k( 1278) = (   0.1400000   0.2501851   0.0000000), wk =   0.0010667
        k( 1279) = (   0.1400000   0.2578831   0.0000000), wk =   0.0010667
        k( 1280) = (   0.1400000   0.2655811   0.0000000), wk =   0.0010667
        k( 1281) = (   0.1400000   0.2732791   0.0000000), wk =   0.0010667
        k( 1282) = (   0.1400000   0.2809771   0.0000000), wk =   0.0010667
        k( 1283) = (   0.1400000   0.2886751   0.0000000), wk =   0.0010667
        k( 1284) = (   0.1400000   0.2963731   0.0000000), wk =   0.0010667
        k( 1285) = (   0.1400000   0.3040711   0.0000000), wk =   0.0010667
        k( 1286) = (   0.1400000   0.3117691   0.0000000), wk =   0.0010667
        k( 1287) = (   0.1400000   0.3194671   0.0000000), wk =   0.0010667
        k( 1288) = (   0.1400000   0.3271652   0.0000000), wk =   0.0010667
        k( 1289) = (   0.1400000   0.3348632   0.0000000), wk =   0.0010667
        k( 1290) = (   0.1400000   0.3425612   0.0000000), wk =   0.0010667
        k( 1291) = (   0.1400000   0.3502592   0.0000000), wk =   0.0010667
        k( 1292) = (   0.1400000   0.3579572   0.0000000), wk =   0.0010667
        k( 1293) = (   0.1400000   0.3656552   0.0000000), wk =   0.0010667
        k( 1294) = (   0.1400000   0.3733532   0.0000000), wk =   0.0010667
        k( 1295) = (   0.1400000   0.3810512   0.0000000), wk =   0.0010667
        k( 1296) = (   0.1400000   0.3887492   0.0000000), wk =   0.0010667
        k( 1297) = (   0.1400000   0.3964472   0.0000000), wk =   0.0010667
        k( 1298) = (   0.1400000   0.4041452   0.0000000), wk =   0.0010667
        k( 1299) = (   0.1400000   0.4118432   0.0000000), wk =   0.0010667
        k( 1300) = (   0.1400000   0.4195412   0.0000000), wk =   0.0010667
        k( 1301) = (   0.1400000   0.4272392   0.0000000), wk =   0.0010667
        k( 1302) = (   0.1400000   0.4349372   0.0000000), wk =   0.0010667
        k( 1303) = (   0.1400000   0.4426352   0.0000000), wk =   0.0010667
        k( 1304) = (   0.1400000   0.4503332   0.0000000), wk =   0.0010667
        k( 1305) = (   0.1400000   0.4580312   0.0000000), wk =   0.0010667
        k( 1306) = (   0.1400000   0.4657292   0.0000000), wk =   0.0010667
        k( 1307) = (   0.1400000   0.4734272   0.0000000), wk =   0.0010667
        k( 1308) = (   0.1400000   0.4811252   0.0000000), wk =   0.0010667
        k( 1309) = (   0.1400000   0.4888232   0.0000000), wk =   0.0010667
        k( 1310) = (   0.1400000   0.4965212   0.0000000), wk =   0.0010667
        k( 1311) = (   0.1400000   0.5042192   0.0000000), wk =   0.0010667
        k( 1312) = (   0.1400000   0.5119172   0.0000000), wk =   0.0010667
        k( 1313) = (   0.1400000   0.5196152   0.0000000), wk =   0.0010667
        k( 1314) = (   0.1400000   0.5273132   0.0000000), wk =   0.0010667
        k( 1315) = (   0.1400000   0.5350112   0.0000000), wk =   0.0010667
        k( 1316) = (   0.1400000   0.5427093   0.0000000), wk =   0.0010667
        k( 1317) = (   0.1400000   0.5504073   0.0000000), wk =   0.0010667
        k( 1318) = (   0.1400000   0.5581053   0.0000000), wk =   0.0010667
        k( 1319) = (   0.1400000   0.5658033   0.0000000), wk =   0.0010667
        k( 1320) = (   0.1400000   0.5735013   0.0000000), wk =   0.0010667
        k( 1321) = (   0.1466667   0.2540341   0.0000000), wk =   0.0005333
        k( 1322) = (   0.1466667   0.2617321   0.0000000), wk =   0.0010667
        k( 1323) = (   0.1466667   0.2694301   0.0000000), wk =   0.0010667
        k( 1324) = (   0.1466667   0.2771281   0.0000000), wk =   0.0010667
        k( 1325) = (   0.1466667   0.2848261   0.0000000), wk =   0.0010667
        k( 1326) = (   0.1466667   0.2925241   0.0000000), wk =   0.0010667
        k( 1327) = (   0.1466667   0.3002221   0.0000000), wk =   0.0010667
        k( 1328) = (   0.1466667   0.3079201   0.0000000), wk =   0.0010667
        k( 1329) = (   0.1466667   0.3156181   0.0000000), wk =   0.0010667
        k( 1330) = (   0.1466667   0.3233162   0.0000000), wk =   0.0010667
        k( 1331) = (   0.1466667   0.3310142   0.0000000), wk =   0.0010667
        k( 1332) = (   0.1466667   0.3387122   0.0000000), wk =   0.0010667
        k( 1333) = (   0.1466667   0.3464102   0.0000000), wk =   0.0010667
        k( 1334) = (   0.1466667   0.3541082   0.0000000), wk =   0.0010667
        k( 1335) = (   0.1466667   0.3618062   0.0000000), wk =   0.0010667
        k( 1336) = (   0.1466667   0.3695042   0.0000000), wk =   0.0010667
        k( 1337) = (   0.1466667   0.3772022   0.0000000), wk =   0.0010667
        k( 1338) = (   0.1466667   0.3849002   0.0000000), wk =   0.0010667
        k( 1339) = (   0.1466667   0.3925982   0.0000000), wk =   0.0010667
        k( 1340) = (   0.1466667   0.4002962   0.0000000), wk =   0.0010667
        k( 1341) = (   0.1466667   0.4079942   0.0000000), wk =   0.0010667
        k( 1342) = (   0.1466667   0.4156922   0.0000000), wk =   0.0010667
        k( 1343) = (   0.1466667   0.4233902   0.0000000), wk =   0.0010667
        k( 1344) = (   0.1466667   0.4310882   0.0000000), wk =   0.0010667
        k( 1345) = (   0.1466667   0.4387862   0.0000000), wk =   0.0010667
        k( 1346) = (   0.1466667   0.4464842   0.0000000), wk =   0.0010667
        k( 1347) = (   0.1466667   0.4541822   0.0000000), wk =   0.0010667
        k( 1348) = (   0.1466667   0.4618802   0.0000000), wk =   0.0010667
        k( 1349) = (   0.1466667   0.4695782   0.0000000), wk =   0.0010667
        k( 1350) = (   0.1466667   0.4772762   0.0000000), wk =   0.0010667
        k( 1351) = (   0.1466667   0.4849742   0.0000000), wk =   0.0010667
        k( 1352) = (   0.1466667   0.4926722   0.0000000), wk =   0.0010667
        k( 1353) = (   0.1466667   0.5003702   0.0000000), wk =   0.0010667
        k( 1354) = (   0.1466667   0.5080682   0.0000000), wk =   0.0010667
        k( 1355) = (   0.1466667   0.5157662   0.0000000), wk =   0.0010667
        k( 1356) = (   0.1466667   0.5234642   0.0000000), wk =   0.0010667
        k( 1357) = (   0.1466667   0.5311622   0.0000000), wk =   0.0010667
        k( 1358) = (   0.1466667   0.5388603   0.0000000), wk =   0.0010667
        k( 1359) = (   0.1466667   0.5465583   0.0000000), wk =   0.0010667
        k( 1360) = (   0.1466667   0.5542563   0.0000000), wk =   0.0010667
        k( 1361) = (   0.1466667   0.5619543   0.0000000), wk =   0.0010667
        k( 1362) = (   0.1466667   0.5696523   0.0000000), wk =   0.0010667
        k( 1363) = (   0.1466667   0.5773503   0.0000000), wk =   0.0005333
        k( 1364) = (   0.1533333   0.2655811   0.0000000), wk =   0.0005333
        k( 1365) = (   0.1533333   0.2732791   0.0000000), wk =   0.0010667
        k( 1366) = (   0.1533333   0.2809771   0.0000000), wk =   0.0010667
        k( 1367) = (   0.1533333   0.2886751   0.0000000), wk =   0.0010667
        k( 1368) = (   0.1533333   0.2963731   0.0000000), wk =   0.0010667
        k( 1369) = (   0.1533333   0.3040711   0.0000000), wk =   0.0010667
        k( 1370) = (   0.1533333   0.3117691   0.0000000), wk =   0.0010667
        k( 1371) = (   0.1533333   0.3194671   0.0000000), wk =   0.0010667
        k( 1372) = (   0.1533333   0.3271652   0.0000000), wk =   0.0010667
        k( 1373) = (   0.1533333   0.3348632   0.0000000), wk =   0.0010667
        k( 1374) = (   0.1533333   0.3425612   0.0000000), wk =   0.0010667
        k( 1375) = (   0.1533333   0.3502592   0.0000000), wk =   0.0010667
        k( 1376) = (   0.1533333   0.3579572   0.0000000), wk =   0.0010667
        k( 1377) = (   0.1533333   0.3656552   0.0000000), wk =   0.0010667
        k( 1378) = (   0.1533333   0.3733532   0.0000000), wk =   0.0010667
        k( 1379) = (   0.1533333   0.3810512   0.0000000), wk =   0.0010667
        k( 1380) = (   0.1533333   0.3887492   0.0000000), wk =   0.0010667
        k( 1381) = (   0.1533333   0.3964472   0.0000000), wk =   0.0010667
        k( 1382) = (   0.1533333   0.4041452   0.0000000), wk =   0.0010667
        k( 1383) = (   0.1533333   0.4118432   0.0000000), wk =   0.0010667
        k( 1384) = (   0.1533333   0.4195412   0.0000000), wk =   0.0010667
        k( 1385) = (   0.1533333   0.4272392   0.0000000), wk =   0.0010667
        k( 1386) = (   0.1533333   0.4349372   0.0000000), wk =   0.0010667
        k( 1387) = (   0.1533333   0.4426352   0.0000000), wk =   0.0010667
        k( 1388) = (   0.1533333   0.4503332   0.0000000), wk =   0.0010667
        k( 1389) = (   0.1533333   0.4580312   0.0000000), wk =   0.0010667
        k( 1390) = (   0.1533333   0.4657292   0.0000000), wk =   0.0010667
        k( 1391) = (   0.1533333   0.4734272   0.0000000), wk =   0.0010667
        k( 1392) = (   0.1533333   0.4811252   0.0000000), wk =   0.0010667
        k( 1393) = (   0.1533333   0.4888232   0.0000000), wk =   0.0010667
        k( 1394) = (   0.1533333   0.4965212   0.0000000), wk =   0.0010667
        k( 1395) = (   0.1533333   0.5042192   0.0000000), wk =   0.0010667
        k( 1396) = (   0.1533333   0.5119172   0.0000000), wk =   0.0010667
        k( 1397) = (   0.1533333   0.5196152   0.0000000), wk =   0.0010667
        k( 1398) = (   0.1533333   0.5273132   0.0000000), wk =   0.0010667
        k( 1399) = (   0.1533333   0.5350112   0.0000000), wk =   0.0010667
        k( 1400) = (   0.1533333   0.5427093   0.0000000), wk =   0.0010667
        k( 1401) = (   0.1533333   0.5504073   0.0000000), wk =   0.0010667
        k( 1402) = (   0.1533333   0.5581053   0.0000000), wk =   0.0010667
        k( 1403) = (   0.1533333   0.5658033   0.0000000), wk =   0.0010667
        k( 1404) = (   0.1533333   0.5735013   0.0000000), wk =   0.0010667
        k( 1405) = (   0.1600000   0.2771281   0.0000000), wk =   0.0005333
        k( 1406) = (   0.1600000   0.2848261   0.0000000), wk =   0.0010667
        k( 1407) = (   0.1600000   0.2925241   0.0000000), wk =   0.0010667
        k( 1408) = (   0.1600000   0.3002221   0.0000000), wk =   0.0010667
        k( 1409) = (   0.1600000   0.3079201   0.0000000), wk =   0.0010667
        k( 1410) = (   0.1600000   0.3156181   0.0000000), wk =   0.0010667
        k( 1411) = (   0.1600000   0.3233162   0.0000000), wk =   0.0010667
        k( 1412) = (   0.1600000   0.3310142   0.0000000), wk =   0.0010667
        k( 1413) = (   0.1600000   0.3387122   0.0000000), wk =   0.0010667
        k( 1414) = (   0.1600000   0.3464102   0.0000000), wk =   0.0010667
        k( 1415) = (   0.1600000   0.3541082   0.0000000), wk =   0.0010667
        k( 1416) = (   0.1600000   0.3618062   0.0000000), wk =   0.0010667
        k( 1417) = (   0.1600000   0.3695042   0.0000000), wk =   0.0010667
        k( 1418) = (   0.1600000   0.3772022   0.0000000), wk =   0.0010667
        k( 1419) = (   0.1600000   0.3849002   0.0000000), wk =   0.0010667
        k( 1420) = (   0.1600000   0.3925982   0.0000000), wk =   0.0010667
        k( 1421) = (   0.1600000   0.4002962   0.0000000), wk =   0.0010667
        k( 1422) = (   0.1600000   0.4079942   0.0000000), wk =   0.0010667
        k( 1423) = (   0.1600000   0.4156922   0.0000000), wk =   0.0010667
        k( 1424) = (   0.1600000   0.4233902   0.0000000), wk =   0.0010667
        k( 1425) = (   0.1600000   0.4310882   0.0000000), wk =   0.0010667
        k( 1426) = (   0.1600000   0.4387862   0.0000000), wk =   0.0010667
        k( 1427) = (   0.1600000   0.4464842   0.0000000), wk =   0.0010667
        k( 1428) = (   0.1600000   0.4541822   0.0000000), wk =   0.0010667
        k( 1429) = (   0.1600000   0.4618802   0.0000000), wk =   0.0010667
        k( 1430) = (   0.1600000   0.4695782   0.0000000), wk =   0.0010667
        k( 1431) = (   0.1600000   0.4772762   0.0000000), wk =   0.0010667
        k( 1432) = (   0.1600000   0.4849742   0.0000000), wk =   0.0010667
        k( 1433) = (   0.1600000   0.4926722   0.0000000), wk =   0.0010667
        k( 1434) = (   0.1600000   0.5003702   0.0000000), wk =   0.0010667
        k( 1435) = (   0.1600000   0.5080682   0.0000000), wk =   0.0010667
        k( 1436) = (   0.1600000   0.5157662   0.0000000), wk =   0.0010667
        k( 1437) = (   0.1600000   0.5234642   0.0000000), wk =   0.0010667
        k( 1438) = (   0.1600000   0.5311622   0.0000000), wk =   0.0010667
        k( 1439) = (   0.1600000   0.5388603   0.0000000), wk =   0.0010667
        k( 1440) = (   0.1600000   0.5465583   0.0000000), wk =   0.0010667
        k( 1441) = (   0.1600000   0.5542563   0.0000000), wk =   0.0010667
        k( 1442) = (   0.1600000   0.5619543   0.0000000), wk =   0.0010667
        k( 1443) = (   0.1600000   0.5696523   0.0000000), wk =   0.0010667
        k( 1444) = (   0.1600000   0.5773503   0.0000000), wk =   0.0005333
        k( 1445) = (   0.1666667   0.2886751   0.0000000), wk =   0.0005333
        k( 1446) = (   0.1666667   0.2963731   0.0000000), wk =   0.0010667
        k( 1447) = (   0.1666667   0.3040711   0.0000000), wk =   0.0010667
        k( 1448) = (   0.1666667   0.3117691   0.0000000), wk =   0.0010667
        k( 1449) = (   0.1666667   0.3194671   0.0000000), wk =   0.0010667
        k( 1450) = (   0.1666667   0.3271652   0.0000000), wk =   0.0010667
        k( 1451) = (   0.1666667   0.3348632   0.0000000), wk =   0.0010667
        k( 1452) = (   0.1666667   0.3425612   0.0000000), wk =   0.0010667
        k( 1453) = (   0.1666667   0.3502592   0.0000000), wk =   0.0010667
        k( 1454) = (   0.1666667   0.3579572   0.0000000), wk =   0.0010667
        k( 1455) = (   0.1666667   0.3656552   0.0000000), wk =   0.0010667
        k( 1456) = (   0.1666667   0.3733532   0.0000000), wk =   0.0010667
        k( 1457) = (   0.1666667   0.3810512   0.0000000), wk =   0.0010667
        k( 1458) = (   0.1666667   0.3887492   0.0000000), wk =   0.0010667
        k( 1459) = (   0.1666667   0.3964472   0.0000000), wk =   0.0010667
        k( 1460) = (   0.1666667   0.4041452   0.0000000), wk =   0.0010667
        k( 1461) = (   0.1666667   0.4118432   0.0000000), wk =   0.0010667
        k( 1462) = (   0.1666667   0.4195412   0.0000000), wk =   0.0010667
        k( 1463) = (   0.1666667   0.4272392   0.0000000), wk =   0.0010667
        k( 1464) = (   0.1666667   0.4349372   0.0000000), wk =   0.0010667
        k( 1465) = (   0.1666667   0.4426352   0.0000000), wk =   0.0010667
        k( 1466) = (   0.1666667   0.4503332   0.0000000), wk =   0.0010667
        k( 1467) = (   0.1666667   0.4580312   0.0000000), wk =   0.0010667
        k( 1468) = (   0.1666667   0.4657292   0.0000000), wk =   0.0010667
        k( 1469) = (   0.1666667   0.4734272   0.0000000), wk =   0.0010667
        k( 1470) = (   0.1666667   0.4811252   0.0000000), wk =   0.0010667
        k( 1471) = (   0.1666667   0.4888232   0.0000000), wk =   0.0010667
        k( 1472) = (   0.1666667   0.4965212   0.0000000), wk =   0.0010667
        k( 1473) = (   0.1666667   0.5042192   0.0000000), wk =   0.0010667
        k( 1474) = (   0.1666667   0.5119172   0.0000000), wk =   0.0010667
        k( 1475) = (   0.1666667   0.5196152   0.0000000), wk =   0.0010667
        k( 1476) = (   0.1666667   0.5273132   0.0000000), wk =   0.0010667
        k( 1477) = (   0.1666667   0.5350112   0.0000000), wk =   0.0010667
        k( 1478) = (   0.1666667   0.5427093   0.0000000), wk =   0.0010667
        k( 1479) = (   0.1666667   0.5504073   0.0000000), wk =   0.0010667
        k( 1480) = (   0.1666667   0.5581053   0.0000000), wk =   0.0010667
        k( 1481) = (   0.1666667   0.5658033   0.0000000), wk =   0.0010667
        k( 1482) = (   0.1666667   0.5735013   0.0000000), wk =   0.0010667
        k( 1483) = (   0.1733333   0.3002221   0.0000000), wk =   0.0005333
        k( 1484) = (   0.1733333   0.3079201   0.0000000), wk =   0.0010667
        k( 1485) = (   0.1733333   0.3156181   0.0000000), wk =   0.0010667
        k( 1486) = (   0.1733333   0.3233162   0.0000000), wk =   0.0010667
        k( 1487) = (   0.1733333   0.3310142   0.0000000), wk =   0.0010667
        k( 1488) = (   0.1733333   0.3387122   0.0000000), wk =   0.0010667
        k( 1489) = (   0.1733333   0.3464102   0.0000000), wk =   0.0010667
        k( 1490) = (   0.1733333   0.3541082   0.0000000), wk =   0.0010667
        k( 1491) = (   0.1733333   0.3618062   0.0000000), wk =   0.0010667
        k( 1492) = (   0.1733333   0.3695042   0.0000000), wk =   0.0010667
        k( 1493) = (   0.1733333   0.3772022   0.0000000), wk =   0.0010667
        k( 1494) = (   0.1733333   0.3849002   0.0000000), wk =   0.0010667
        k( 1495) = (   0.1733333   0.3925982   0.0000000), wk =   0.0010667
        k( 1496) = (   0.1733333   0.4002962   0.0000000), wk =   0.0010667
        k( 1497) = (   0.1733333   0.4079942   0.0000000), wk =   0.0010667
        k( 1498) = (   0.1733333   0.4156922   0.0000000), wk =   0.0010667
        k( 1499) = (   0.1733333   0.4233902   0.0000000), wk =   0.0010667
        k( 1500) = (   0.1733333   0.4310882   0.0000000), wk =   0.0010667
        k( 1501) = (   0.1733333   0.4387862   0.0000000), wk =   0.0010667
        k( 1502) = (   0.1733333   0.4464842   0.0000000), wk =   0.0010667
        k( 1503) = (   0.1733333   0.4541822   0.0000000), wk =   0.0010667
        k( 1504) = (   0.1733333   0.4618802   0.0000000), wk =   0.0010667
        k( 1505) = (   0.1733333   0.4695782   0.0000000), wk =   0.0010667
        k( 1506) = (   0.1733333   0.4772762   0.0000000), wk =   0.0010667
        k( 1507) = (   0.1733333   0.4849742   0.0000000), wk =   0.0010667
        k( 1508) = (   0.1733333   0.4926722   0.0000000), wk =   0.0010667
        k( 1509) = (   0.1733333   0.5003702   0.0000000), wk =   0.0010667
        k( 1510) = (   0.1733333   0.5080682   0.0000000), wk =   0.0010667
        k( 1511) = (   0.1733333   0.5157662   0.0000000), wk =   0.0010667
        k( 1512) = (   0.1733333   0.5234642   0.0000000), wk =   0.0010667
        k( 1513) = (   0.1733333   0.5311622   0.0000000), wk =   0.0010667
        k( 1514) = (   0.1733333   0.5388603   0.0000000), wk =   0.0010667
        k( 1515) = (   0.1733333   0.5465583   0.0000000), wk =   0.0010667
        k( 1516) = (   0.1733333   0.5542563   0.0000000), wk =   0.0010667
        k( 1517) = (   0.1733333   0.5619543   0.0000000), wk =   0.0010667
        k( 1518) = (   0.1733333   0.5696523   0.0000000), wk =   0.0010667
        k( 1519) = (   0.1733333   0.5773503   0.0000000), wk =   0.0005333
        k( 1520) = (   0.1800000   0.3117691   0.0000000), wk =   0.0005333
        k( 1521) = (   0.1800000   0.3194671   0.0000000), wk =   0.0010667
        k( 1522) = (   0.1800000   0.3271652   0.0000000), wk =   0.0010667
        k( 1523) = (   0.1800000   0.3348632   0.0000000), wk =   0.0010667
        k( 1524) = (   0.1800000   0.3425612   0.0000000), wk =   0.0010667
        k( 1525) = (   0.1800000   0.3502592   0.0000000), wk =   0.0010667
        k( 1526) = (   0.1800000   0.3579572   0.0000000), wk =   0.0010667
        k( 1527) = (   0.1800000   0.3656552   0.0000000), wk =   0.0010667
        k( 1528) = (   0.1800000   0.3733532   0.0000000), wk =   0.0010667
        k( 1529) = (   0.1800000   0.3810512   0.0000000), wk =   0.0010667
        k( 1530) = (   0.1800000   0.3887492   0.0000000), wk =   0.0010667
        k( 1531) = (   0.1800000   0.3964472   0.0000000), wk =   0.0010667
        k( 1532) = (   0.1800000   0.4041452   0.0000000), wk =   0.0010667
        k( 1533) = (   0.1800000   0.4118432   0.0000000), wk =   0.0010667
        k( 1534) = (   0.1800000   0.4195412   0.0000000), wk =   0.0010667
        k( 1535) = (   0.1800000   0.4272392   0.0000000), wk =   0.0010667
        k( 1536) = (   0.1800000   0.4349372   0.0000000), wk =   0.0010667
        k( 1537) = (   0.1800000   0.4426352   0.0000000), wk =   0.0010667
        k( 1538) = (   0.1800000   0.4503332   0.0000000), wk =   0.0010667
        k( 1539) = (   0.1800000   0.4580312   0.0000000), wk =   0.0010667
        k( 1540) = (   0.1800000   0.4657292   0.0000000), wk =   0.0010667
        k( 1541) = (   0.1800000   0.4734272   0.0000000), wk =   0.0010667
        k( 1542) = (   0.1800000   0.4811252   0.0000000), wk =   0.0010667
        k( 1543) = (   0.1800000   0.4888232   0.0000000), wk =   0.0010667
        k( 1544) = (   0.1800000   0.4965212   0.0000000), wk =   0.0010667
        k( 1545) = (   0.1800000   0.5042192   0.0000000), wk =   0.0010667
        k( 1546) = (   0.1800000   0.5119172   0.0000000), wk =   0.0010667
        k( 1547) = (   0.1800000   0.5196152   0.0000000), wk =   0.0010667
        k( 1548) = (   0.1800000   0.5273132   0.0000000), wk =   0.0010667
        k( 1549) = (   0.1800000   0.5350112   0.0000000), wk =   0.0010667
        k( 1550) = (   0.1800000   0.5427093   0.0000000), wk =   0.0010667
        k( 1551) = (   0.1800000   0.5504073   0.0000000), wk =   0.0010667
        k( 1552) = (   0.1800000   0.5581053   0.0000000), wk =   0.0010667
        k( 1553) = (   0.1800000   0.5658033   0.0000000), wk =   0.0010667
        k( 1554) = (   0.1800000   0.5735013   0.0000000), wk =   0.0010667
        k( 1555) = (   0.1866667   0.3233162   0.0000000), wk =   0.0005333
        k( 1556) = (   0.1866667   0.3310142   0.0000000), wk =   0.0010667
        k( 1557) = (   0.1866667   0.3387122   0.0000000), wk =   0.0010667
        k( 1558) = (   0.1866667   0.3464102   0.0000000), wk =   0.0010667
        k( 1559) = (   0.1866667   0.3541082   0.0000000), wk =   0.0010667
        k( 1560) = (   0.1866667   0.3618062   0.0000000), wk =   0.0010667
        k( 1561) = (   0.1866667   0.3695042   0.0000000), wk =   0.0010667
        k( 1562) = (   0.1866667   0.3772022   0.0000000), wk =   0.0010667
        k( 1563) = (   0.1866667   0.3849002   0.0000000), wk =   0.0010667
        k( 1564) = (   0.1866667   0.3925982   0.0000000), wk =   0.0010667
        k( 1565) = (   0.1866667   0.4002962   0.0000000), wk =   0.0010667
        k( 1566) = (   0.1866667   0.4079942   0.0000000), wk =   0.0010667
        k( 1567) = (   0.1866667   0.4156922   0.0000000), wk =   0.0010667
        k( 1568) = (   0.1866667   0.4233902   0.0000000), wk =   0.0010667
        k( 1569) = (   0.1866667   0.4310882   0.0000000), wk =   0.0010667
        k( 1570) = (   0.1866667   0.4387862   0.0000000), wk =   0.0010667
        k( 1571) = (   0.1866667   0.4464842   0.0000000), wk =   0.0010667
        k( 1572) = (   0.1866667   0.4541822   0.0000000), wk =   0.0010667
        k( 1573) = (   0.1866667   0.4618802   0.0000000), wk =   0.0010667
        k( 1574) = (   0.1866667   0.4695782   0.0000000), wk =   0.0010667
        k( 1575) = (   0.1866667   0.4772762   0.0000000), wk =   0.0010667
        k( 1576) = (   0.1866667   0.4849742   0.0000000), wk =   0.0010667
        k( 1577) = (   0.1866667   0.4926722   0.0000000), wk =   0.0010667
        k( 1578) = (   0.1866667   0.5003702   0.0000000), wk =   0.0010667
        k( 1579) = (   0.1866667   0.5080682   0.0000000), wk =   0.0010667
        k( 1580) = (   0.1866667   0.5157662   0.0000000), wk =   0.0010667
        k( 1581) = (   0.1866667   0.5234642   0.0000000), wk =   0.0010667
        k( 1582) = (   0.1866667   0.5311622   0.0000000), wk =   0.0010667
        k( 1583) = (   0.1866667   0.5388603   0.0000000), wk =   0.0010667
        k( 1584) = (   0.1866667   0.5465583   0.0000000), wk =   0.0010667
        k( 1585) = (   0.1866667   0.5542563   0.0000000), wk =   0.0010667
        k( 1586) = (   0.1866667   0.5619543   0.0000000), wk =   0.0010667
        k( 1587) = (   0.1866667   0.5696523   0.0000000), wk =   0.0010667
        k( 1588) = (   0.1866667   0.5773503   0.0000000), wk =   0.0005333
        k( 1589) = (   0.1933333   0.3348632   0.0000000), wk =   0.0005333
        k( 1590) = (   0.1933333   0.3425612   0.0000000), wk =   0.0010667
        k( 1591) = (   0.1933333   0.3502592   0.0000000), wk =   0.0010667
        k( 1592) = (   0.1933333   0.3579572   0.0000000), wk =   0.0010667
        k( 1593) = (   0.1933333   0.3656552   0.0000000), wk =   0.0010667
        k( 1594) = (   0.1933333   0.3733532   0.0000000), wk =   0.0010667
        k( 1595) = (   0.1933333   0.3810512   0.0000000), wk =   0.0010667
        k( 1596) = (   0.1933333   0.3887492   0.0000000), wk =   0.0010667
        k( 1597) = (   0.1933333   0.3964472   0.0000000), wk =   0.0010667
        k( 1598) = (   0.1933333   0.4041452   0.0000000), wk =   0.0010667
        k( 1599) = (   0.1933333   0.4118432   0.0000000), wk =   0.0010667
        k( 1600) = (   0.1933333   0.4195412   0.0000000), wk =   0.0010667
        k( 1601) = (   0.1933333   0.4272392   0.0000000), wk =   0.0010667
        k( 1602) = (   0.1933333   0.4349372   0.0000000), wk =   0.0010667
        k( 1603) = (   0.1933333   0.4426352   0.0000000), wk =   0.0010667
        k( 1604) = (   0.1933333   0.4503332   0.0000000), wk =   0.0010667
        k( 1605) = (   0.1933333   0.4580312   0.0000000), wk =   0.0010667
        k( 1606) = (   0.1933333   0.4657292   0.0000000), wk =   0.0010667
        k( 1607) = (   0.1933333   0.4734272   0.0000000), wk =   0.0010667
        k( 1608) = (   0.1933333   0.4811252   0.0000000), wk =   0.0010667
        k( 1609) = (   0.1933333   0.4888232   0.0000000), wk =   0.0010667
        k( 1610) = (   0.1933333   0.4965212   0.0000000), wk =   0.0010667
        k( 1611) = (   0.1933333   0.5042192   0.0000000), wk =   0.0010667
        k( 1612) = (   0.1933333   0.5119172   0.0000000), wk =   0.0010667
        k( 1613) = (   0.1933333   0.5196152   0.0000000), wk =   0.0010667
        k( 1614) = (   0.1933333   0.5273132   0.0000000), wk =   0.0010667
        k( 1615) = (   0.1933333   0.5350112   0.0000000), wk =   0.0010667
        k( 1616) = (   0.1933333   0.5427093   0.0000000), wk =   0.0010667
        k( 1617) = (   0.1933333   0.5504073   0.0000000), wk =   0.0010667
        k( 1618) = (   0.1933333   0.5581053   0.0000000), wk =   0.0010667
        k( 1619) = (   0.1933333   0.5658033   0.0000000), wk =   0.0010667
        k( 1620) = (   0.1933333   0.5735013   0.0000000), wk =   0.0010667
        k( 1621) = (   0.2000000   0.3464102   0.0000000), wk =   0.0005333
        k( 1622) = (   0.2000000   0.3541082   0.0000000), wk =   0.0010667
        k( 1623) = (   0.2000000   0.3618062   0.0000000), wk =   0.0010667
        k( 1624) = (   0.2000000   0.3695042   0.0000000), wk =   0.0010667
        k( 1625) = (   0.2000000   0.3772022   0.0000000), wk =   0.0010667
        k( 1626) = (   0.2000000   0.3849002   0.0000000), wk =   0.0010667
        k( 1627) = (   0.2000000   0.3925982   0.0000000), wk =   0.0010667
        k( 1628) = (   0.2000000   0.4002962   0.0000000), wk =   0.0010667
        k( 1629) = (   0.2000000   0.4079942   0.0000000), wk =   0.0010667
        k( 1630) = (   0.2000000   0.4156922   0.0000000), wk =   0.0010667
        k( 1631) = (   0.2000000   0.4233902   0.0000000), wk =   0.0010667
        k( 1632) = (   0.2000000   0.4310882   0.0000000), wk =   0.0010667
        k( 1633) = (   0.2000000   0.4387862   0.0000000), wk =   0.0010667
        k( 1634) = (   0.2000000   0.4464842   0.0000000), wk =   0.0010667
        k( 1635) = (   0.2000000   0.4541822   0.0000000), wk =   0.0010667
        k( 1636) = (   0.2000000   0.4618802   0.0000000), wk =   0.0010667
        k( 1637) = (   0.2000000   0.4695782   0.0000000), wk =   0.0010667
        k( 1638) = (   0.2000000   0.4772762   0.0000000), wk =   0.0010667
        k( 1639) = (   0.2000000   0.4849742   0.0000000), wk =   0.0010667
        k( 1640) = (   0.2000000   0.4926722   0.0000000), wk =   0.0010667
        k( 1641) = (   0.2000000   0.5003702   0.0000000), wk =   0.0010667
        k( 1642) = (   0.2000000   0.5080682   0.0000000), wk =   0.0010667
        k( 1643) = (   0.2000000   0.5157662   0.0000000), wk =   0.0010667
        k( 1644) = (   0.2000000   0.5234642   0.0000000), wk =   0.0010667
        k( 1645) = (   0.2000000   0.5311622   0.0000000), wk =   0.0010667
        k( 1646) = (   0.2000000   0.5388603   0.0000000), wk =   0.0010667
        k( 1647) = (   0.2000000   0.5465583   0.0000000), wk =   0.0010667
        k( 1648) = (   0.2000000   0.5542563   0.0000000), wk =   0.0010667
        k( 1649) = (   0.2000000   0.5619543   0.0000000), wk =   0.0010667
        k( 1650) = (   0.2000000   0.5696523   0.0000000), wk =   0.0010667
        k( 1651) = (   0.2000000   0.5773503   0.0000000), wk =   0.0005333
        k( 1652) = (   0.2066667   0.3579572   0.0000000), wk =   0.0005333
        k( 1653) = (   0.2066667   0.3656552   0.0000000), wk =   0.0010667
        k( 1654) = (   0.2066667   0.3733532   0.0000000), wk =   0.0010667
        k( 1655) = (   0.2066667   0.3810512   0.0000000), wk =   0.0010667
        k( 1656) = (   0.2066667   0.3887492   0.0000000), wk =   0.0010667
        k( 1657) = (   0.2066667   0.3964472   0.0000000), wk =   0.0010667
        k( 1658) = (   0.2066667   0.4041452   0.0000000), wk =   0.0010667
        k( 1659) = (   0.2066667   0.4118432   0.0000000), wk =   0.0010667
        k( 1660) = (   0.2066667   0.4195412   0.0000000), wk =   0.0010667
        k( 1661) = (   0.2066667   0.4272392   0.0000000), wk =   0.0010667
        k( 1662) = (   0.2066667   0.4349372   0.0000000), wk =   0.0010667
        k( 1663) = (   0.2066667   0.4426352   0.0000000), wk =   0.0010667
        k( 1664) = (   0.2066667   0.4503332   0.0000000), wk =   0.0010667
        k( 1665) = (   0.2066667   0.4580312   0.0000000), wk =   0.0010667
        k( 1666) = (   0.2066667   0.4657292   0.0000000), wk =   0.0010667
        k( 1667) = (   0.2066667   0.4734272   0.0000000), wk =   0.0010667
        k( 1668) = (   0.2066667   0.4811252   0.0000000), wk =   0.0010667
        k( 1669) = (   0.2066667   0.4888232   0.0000000), wk =   0.0010667
        k( 1670) = (   0.2066667   0.4965212   0.0000000), wk =   0.0010667
        k( 1671) = (   0.2066667   0.5042192   0.0000000), wk =   0.0010667
        k( 1672) = (   0.2066667   0.5119172   0.0000000), wk =   0.0010667
        k( 1673) = (   0.2066667   0.5196152   0.0000000), wk =   0.0010667
        k( 1674) = (   0.2066667   0.5273132   0.0000000), wk =   0.0010667
        k( 1675) = (   0.2066667   0.5350112   0.0000000), wk =   0.0010667
        k( 1676) = (   0.2066667   0.5427093   0.0000000), wk =   0.0010667
        k( 1677) = (   0.2066667   0.5504073   0.0000000), wk =   0.0010667
        k( 1678) = (   0.2066667   0.5581053   0.0000000), wk =   0.0010667
        k( 1679) = (   0.2066667   0.5658033   0.0000000), wk =   0.0010667
        k( 1680) = (   0.2066667   0.5735013   0.0000000), wk =   0.0010667
        k( 1681) = (   0.2133333   0.3695042   0.0000000), wk =   0.0005333
        k( 1682) = (   0.2133333   0.3772022   0.0000000), wk =   0.0010667
        k( 1683) = (   0.2133333   0.3849002   0.0000000), wk =   0.0010667
        k( 1684) = (   0.2133333   0.3925982   0.0000000), wk =   0.0010667
        k( 1685) = (   0.2133333   0.4002962   0.0000000), wk =   0.0010667
        k( 1686) = (   0.2133333   0.4079942   0.0000000), wk =   0.0010667
        k( 1687) = (   0.2133333   0.4156922   0.0000000), wk =   0.0010667
        k( 1688) = (   0.2133333   0.4233902   0.0000000), wk =   0.0010667
        k( 1689) = (   0.2133333   0.4310882   0.0000000), wk =   0.0010667
        k( 1690) = (   0.2133333   0.4387862   0.0000000), wk =   0.0010667
        k( 1691) = (   0.2133333   0.4464842   0.0000000), wk =   0.0010667
        k( 1692) = (   0.2133333   0.4541822   0.0000000), wk =   0.0010667
        k( 1693) = (   0.2133333   0.4618802   0.0000000), wk =   0.0010667
        k( 1694) = (   0.2133333   0.4695782   0.0000000), wk =   0.0010667
        k( 1695) = (   0.2133333   0.4772762   0.0000000), wk =   0.0010667
        k( 1696) = (   0.2133333   0.4849742   0.0000000), wk =   0.0010667
        k( 1697) = (   0.2133333   0.4926722   0.0000000), wk =   0.0010667
        k( 1698) = (   0.2133333   0.5003702   0.0000000), wk =   0.0010667
        k( 1699) = (   0.2133333   0.5080682   0.0000000), wk =   0.0010667
        k( 1700) = (   0.2133333   0.5157662   0.0000000), wk =   0.0010667
        k( 1701) = (   0.2133333   0.5234642   0.0000000), wk =   0.0010667
        k( 1702) = (   0.2133333   0.5311622   0.0000000), wk =   0.0010667
        k( 1703) = (   0.2133333   0.5388603   0.0000000), wk =   0.0010667
        k( 1704) = (   0.2133333   0.5465583   0.0000000), wk =   0.0010667
        k( 1705) = (   0.2133333   0.5542563   0.0000000), wk =   0.0010667
        k( 1706) = (   0.2133333   0.5619543   0.0000000), wk =   0.0010667
        k( 1707) = (   0.2133333   0.5696523   0.0000000), wk =   0.0010667
        k( 1708) = (   0.2133333   0.5773503   0.0000000), wk =   0.0005333
        k( 1709) = (   0.2200000   0.3810512   0.0000000), wk =   0.0005333
        k( 1710) = (   0.2200000   0.3887492   0.0000000), wk =   0.0010667
        k( 1711) = (   0.2200000   0.3964472   0.0000000), wk =   0.0010667
        k( 1712) = (   0.2200000   0.4041452   0.0000000), wk =   0.0010667
        k( 1713) = (   0.2200000   0.4118432   0.0000000), wk =   0.0010667
        k( 1714) = (   0.2200000   0.4195412   0.0000000), wk =   0.0010667
        k( 1715) = (   0.2200000   0.4272392   0.0000000), wk =   0.0010667
        k( 1716) = (   0.2200000   0.4349372   0.0000000), wk =   0.0010667
        k( 1717) = (   0.2200000   0.4426352   0.0000000), wk =   0.0010667
        k( 1718) = (   0.2200000   0.4503332   0.0000000), wk =   0.0010667
        k( 1719) = (   0.2200000   0.4580312   0.0000000), wk =   0.0010667
        k( 1720) = (   0.2200000   0.4657292   0.0000000), wk =   0.0010667
        k( 1721) = (   0.2200000   0.4734272   0.0000000), wk =   0.0010667
        k( 1722) = (   0.2200000   0.4811252   0.0000000), wk =   0.0010667
        k( 1723) = (   0.2200000   0.4888232   0.0000000), wk =   0.0010667
        k( 1724) = (   0.2200000   0.4965212   0.0000000), wk =   0.0010667
        k( 1725) = (   0.2200000   0.5042192   0.0000000), wk =   0.0010667
        k( 1726) = (   0.2200000   0.5119172   0.0000000), wk =   0.0010667
        k( 1727) = (   0.2200000   0.5196152   0.0000000), wk =   0.0010667
        k( 1728) = (   0.2200000   0.5273132   0.0000000), wk =   0.0010667
        k( 1729) = (   0.2200000   0.5350112   0.0000000), wk =   0.0010667
        k( 1730) = (   0.2200000   0.5427093   0.0000000), wk =   0.0010667
        k( 1731) = (   0.2200000   0.5504073   0.0000000), wk =   0.0010667
        k( 1732) = (   0.2200000   0.5581053   0.0000000), wk =   0.0010667
        k( 1733) = (   0.2200000   0.5658033   0.0000000), wk =   0.0010667
        k( 1734) = (   0.2200000   0.5735013   0.0000000), wk =   0.0010667
        k( 1735) = (   0.2266667   0.3925982   0.0000000), wk =   0.0005333
        k( 1736) = (   0.2266667   0.4002962   0.0000000), wk =   0.0010667
        k( 1737) = (   0.2266667   0.4079942   0.0000000), wk =   0.0010667
        k( 1738) = (   0.2266667   0.4156922   0.0000000), wk =   0.0010667
        k( 1739) = (   0.2266667   0.4233902   0.0000000), wk =   0.0010667
        k( 1740) = (   0.2266667   0.4310882   0.0000000), wk =   0.0010667
        k( 1741) = (   0.2266667   0.4387862   0.0000000), wk =   0.0010667
        k( 1742) = (   0.2266667   0.4464842   0.0000000), wk =   0.0010667
        k( 1743) = (   0.2266667   0.4541822   0.0000000), wk =   0.0010667
        k( 1744) = (   0.2266667   0.4618802   0.0000000), wk =   0.0010667
        k( 1745) = (   0.2266667   0.4695782   0.0000000), wk =   0.0010667
        k( 1746) = (   0.2266667   0.4772762   0.0000000), wk =   0.0010667
        k( 1747) = (   0.2266667   0.4849742   0.0000000), wk =   0.0010667
        k( 1748) = (   0.2266667   0.4926722   0.0000000), wk =   0.0010667
        k( 1749) = (   0.2266667   0.5003702   0.0000000), wk =   0.0010667
        k( 1750) = (   0.2266667   0.5080682   0.0000000), wk =   0.0010667
        k( 1751) = (   0.2266667   0.5157662   0.0000000), wk =   0.0010667
        k( 1752) = (   0.2266667   0.5234642   0.0000000), wk =   0.0010667
        k( 1753) = (   0.2266667   0.5311622   0.0000000), wk =   0.0010667
        k( 1754) = (   0.2266667   0.5388603   0.0000000), wk =   0.0010667
        k( 1755) = (   0.2266667   0.5465583   0.0000000), wk =   0.0010667
        k( 1756) = (   0.2266667   0.5542563   0.0000000), wk =   0.0010667
        k( 1757) = (   0.2266667   0.5619543   0.0000000), wk =   0.0010667
        k( 1758) = (   0.2266667   0.5696523   0.0000000), wk =   0.0010667
        k( 1759) = (   0.2266667   0.5773503   0.0000000), wk =   0.0005333
        k( 1760) = (   0.2333333   0.4041452   0.0000000), wk =   0.0005333
        k( 1761) = (   0.2333333   0.4118432   0.0000000), wk =   0.0010667
        k( 1762) = (   0.2333333   0.4195412   0.0000000), wk =   0.0010667
        k( 1763) = (   0.2333333   0.4272392   0.0000000), wk =   0.0010667
        k( 1764) = (   0.2333333   0.4349372   0.0000000), wk =   0.0010667
        k( 1765) = (   0.2333333   0.4426352   0.0000000), wk =   0.0010667
        k( 1766) = (   0.2333333   0.4503332   0.0000000), wk =   0.0010667
        k( 1767) = (   0.2333333   0.4580312   0.0000000), wk =   0.0010667
        k( 1768) = (   0.2333333   0.4657292   0.0000000), wk =   0.0010667
        k( 1769) = (   0.2333333   0.4734272   0.0000000), wk =   0.0010667
        k( 1770) = (   0.2333333   0.4811252   0.0000000), wk =   0.0010667
        k( 1771) = (   0.2333333   0.4888232   0.0000000), wk =   0.0010667
        k( 1772) = (   0.2333333   0.4965212   0.0000000), wk =   0.0010667
        k( 1773) = (   0.2333333   0.5042192   0.0000000), wk =   0.0010667
        k( 1774) = (   0.2333333   0.5119172   0.0000000), wk =   0.0010667
        k( 1775) = (   0.2333333   0.5196152   0.0000000), wk =   0.0010667
        k( 1776) = (   0.2333333   0.5273132   0.0000000), wk =   0.0010667
        k( 1777) = (   0.2333333   0.5350112   0.0000000), wk =   0.0010667
        k( 1778) = (   0.2333333   0.5427093   0.0000000), wk =   0.0010667
        k( 1779) = (   0.2333333   0.5504073   0.0000000), wk =   0.0010667
        k( 1780) = (   0.2333333   0.5581053   0.0000000), wk =   0.0010667
        k( 1781) = (   0.2333333   0.5658033   0.0000000), wk =   0.0010667
        k( 1782) = (   0.2333333   0.5735013   0.0000000), wk =   0.0010667
        k( 1783) = (   0.2400000   0.4156922   0.0000000), wk =   0.0005333
        k( 1784) = (   0.2400000   0.4233902   0.0000000), wk =   0.0010667
        k( 1785) = (   0.2400000   0.4310882   0.0000000), wk =   0.0010667
        k( 1786) = (   0.2400000   0.4387862   0.0000000), wk =   0.0010667
        k( 1787) = (   0.2400000   0.4464842   0.0000000), wk =   0.0010667
        k( 1788) = (   0.2400000   0.4541822   0.0000000), wk =   0.0010667
        k( 1789) = (   0.2400000   0.4618802   0.0000000), wk =   0.0010667
        k( 1790) = (   0.2400000   0.4695782   0.0000000), wk =   0.0010667
        k( 1791) = (   0.2400000   0.4772762   0.0000000), wk =   0.0010667
        k( 1792) = (   0.2400000   0.4849742   0.0000000), wk =   0.0010667
        k( 1793) = (   0.2400000   0.4926722   0.0000000), wk =   0.0010667
        k( 1794) = (   0.2400000   0.5003702   0.0000000), wk =   0.0010667
        k( 1795) = (   0.2400000   0.5080682   0.0000000), wk =   0.0010667
        k( 1796) = (   0.2400000   0.5157662   0.0000000), wk =   0.0010667
        k( 1797) = (   0.2400000   0.5234642   0.0000000), wk =   0.0010667
        k( 1798) = (   0.2400000   0.5311622   0.0000000), wk =   0.0010667
        k( 1799) = (   0.2400000   0.5388603   0.0000000), wk =   0.0010667
        k( 1800) = (   0.2400000   0.5465583   0.0000000), wk =   0.0010667
        k( 1801) = (   0.2400000   0.5542563   0.0000000), wk =   0.0010667
        k( 1802) = (   0.2400000   0.5619543   0.0000000), wk =   0.0010667
        k( 1803) = (   0.2400000   0.5696523   0.0000000), wk =   0.0010667
        k( 1804) = (   0.2400000   0.5773503   0.0000000), wk =   0.0005333
        k( 1805) = (   0.2466667   0.4272392   0.0000000), wk =   0.0005333
        k( 1806) = (   0.2466667   0.4349372   0.0000000), wk =   0.0010667
        k( 1807) = (   0.2466667   0.4426352   0.0000000), wk =   0.0010667
        k( 1808) = (   0.2466667   0.4503332   0.0000000), wk =   0.0010667
        k( 1809) = (   0.2466667   0.4580312   0.0000000), wk =   0.0010667
        k( 1810) = (   0.2466667   0.4657292   0.0000000), wk =   0.0010667
        k( 1811) = (   0.2466667   0.4734272   0.0000000), wk =   0.0010667
        k( 1812) = (   0.2466667   0.4811252   0.0000000), wk =   0.0010667
        k( 1813) = (   0.2466667   0.4888232   0.0000000), wk =   0.0010667
        k( 1814) = (   0.2466667   0.4965212   0.0000000), wk =   0.0010667
        k( 1815) = (   0.2466667   0.5042192   0.0000000), wk =   0.0010667
        k( 1816) = (   0.2466667   0.5119172   0.0000000), wk =   0.0010667
        k( 1817) = (   0.2466667   0.5196152   0.0000000), wk =   0.0010667
        k( 1818) = (   0.2466667   0.5273132   0.0000000), wk =   0.0010667
        k( 1819) = (   0.2466667   0.5350112   0.0000000), wk =   0.0010667
        k( 1820) = (   0.2466667   0.5427093   0.0000000), wk =   0.0010667
        k( 1821) = (   0.2466667   0.5504073   0.0000000), wk =   0.0010667
        k( 1822) = (   0.2466667   0.5581053   0.0000000), wk =   0.0010667
        k( 1823) = (   0.2466667   0.5658033   0.0000000), wk =   0.0010667
        k( 1824) = (   0.2466667   0.5735013   0.0000000), wk =   0.0010667
        k( 1825) = (   0.2533333   0.4387862   0.0000000), wk =   0.0005333
        k( 1826) = (   0.2533333   0.4464842   0.0000000), wk =   0.0010667
        k( 1827) = (   0.2533333   0.4541822   0.0000000), wk =   0.0010667
        k( 1828) = (   0.2533333   0.4618802   0.0000000), wk =   0.0010667
        k( 1829) = (   0.2533333   0.4695782   0.0000000), wk =   0.0010667
        k( 1830) = (   0.2533333   0.4772762   0.0000000), wk =   0.0010667
        k( 1831) = (   0.2533333   0.4849742   0.0000000), wk =   0.0010667
        k( 1832) = (   0.2533333   0.4926722   0.0000000), wk =   0.0010667
        k( 1833) = (   0.2533333   0.5003702   0.0000000), wk =   0.0010667
        k( 1834) = (   0.2533333   0.5080682   0.0000000), wk =   0.0010667
        k( 1835) = (   0.2533333   0.5157662   0.0000000), wk =   0.0010667
        k( 1836) = (   0.2533333   0.5234642   0.0000000), wk =   0.0010667
        k( 1837) = (   0.2533333   0.5311622   0.0000000), wk =   0.0010667
        k( 1838) = (   0.2533333   0.5388603   0.0000000), wk =   0.0010667
        k( 1839) = (   0.2533333   0.5465583   0.0000000), wk =   0.0010667
        k( 1840) = (   0.2533333   0.5542563   0.0000000), wk =   0.0010667
        k( 1841) = (   0.2533333   0.5619543   0.0000000), wk =   0.0010667
        k( 1842) = (   0.2533333   0.5696523   0.0000000), wk =   0.0010667
        k( 1843) = (   0.2533333   0.5773503   0.0000000), wk =   0.0005333
        k( 1844) = (   0.2600000   0.4503332   0.0000000), wk =   0.0005333
        k( 1845) = (   0.2600000   0.4580312   0.0000000), wk =   0.0010667
        k( 1846) = (   0.2600000   0.4657292   0.0000000), wk =   0.0010667
        k( 1847) = (   0.2600000   0.4734272   0.0000000), wk =   0.0010667
        k( 1848) = (   0.2600000   0.4811252   0.0000000), wk =   0.0010667
        k( 1849) = (   0.2600000   0.4888232   0.0000000), wk =   0.0010667
        k( 1850) = (   0.2600000   0.4965212   0.0000000), wk =   0.0010667
        k( 1851) = (   0.2600000   0.5042192   0.0000000), wk =   0.0010667
        k( 1852) = (   0.2600000   0.5119172   0.0000000), wk =   0.0010667
        k( 1853) = (   0.2600000   0.5196152   0.0000000), wk =   0.0010667
        k( 1854) = (   0.2600000   0.5273132   0.0000000), wk =   0.0010667
        k( 1855) = (   0.2600000   0.5350112   0.0000000), wk =   0.0010667
        k( 1856) = (   0.2600000   0.5427093   0.0000000), wk =   0.0010667
        k( 1857) = (   0.2600000   0.5504073   0.0000000), wk =   0.0010667
        k( 1858) = (   0.2600000   0.5581053   0.0000000), wk =   0.0010667
        k( 1859) = (   0.2600000   0.5658033   0.0000000), wk =   0.0010667
        k( 1860) = (   0.2600000   0.5735013   0.0000000), wk =   0.0010667
        k( 1861) = (   0.2666667   0.4618802   0.0000000), wk =   0.0005333
        k( 1862) = (   0.2666667   0.4695782   0.0000000), wk =   0.0010667
        k( 1863) = (   0.2666667   0.4772762   0.0000000), wk =   0.0010667
        k( 1864) = (   0.2666667   0.4849742   0.0000000), wk =   0.0010667
        k( 1865) = (   0.2666667   0.4926722   0.0000000), wk =   0.0010667
        k( 1866) = (   0.2666667   0.5003702   0.0000000), wk =   0.0010667
        k( 1867) = (   0.2666667   0.5080682   0.0000000), wk =   0.0010667
        k( 1868) = (   0.2666667   0.5157662   0.0000000), wk =   0.0010667
        k( 1869) = (   0.2666667   0.5234642   0.0000000), wk =   0.0010667
        k( 1870) = (   0.2666667   0.5311622   0.0000000), wk =   0.0010667
        k( 1871) = (   0.2666667   0.5388603   0.0000000), wk =   0.0010667
        k( 1872) = (   0.2666667   0.5465583   0.0000000), wk =   0.0010667
        k( 1873) = (   0.2666667   0.5542563   0.0000000), wk =   0.0010667
        k( 1874) = (   0.2666667   0.5619543   0.0000000), wk =   0.0010667
        k( 1875) = (   0.2666667   0.5696523   0.0000000), wk =   0.0010667
        k( 1876) = (   0.2666667   0.5773503   0.0000000), wk =   0.0005333
        k( 1877) = (   0.2733333   0.4734272   0.0000000), wk =   0.0005333
        k( 1878) = (   0.2733333   0.4811252   0.0000000), wk =   0.0010667
        k( 1879) = (   0.2733333   0.4888232   0.0000000), wk =   0.0010667
        k( 1880) = (   0.2733333   0.4965212   0.0000000), wk =   0.0010667
        k( 1881) = (   0.2733333   0.5042192   0.0000000), wk =   0.0010667
        k( 1882) = (   0.2733333   0.5119172   0.0000000), wk =   0.0010667
        k( 1883) = (   0.2733333   0.5196152   0.0000000), wk =   0.0010667
        k( 1884) = (   0.2733333   0.5273132   0.0000000), wk =   0.0010667
        k( 1885) = (   0.2733333   0.5350112   0.0000000), wk =   0.0010667
        k( 1886) = (   0.2733333   0.5427093   0.0000000), wk =   0.0010667
        k( 1887) = (   0.2733333   0.5504073   0.0000000), wk =   0.0010667
        k( 1888) = (   0.2733333   0.5581053   0.0000000), wk =   0.0010667
        k( 1889) = (   0.2733333   0.5658033   0.0000000), wk =   0.0010667
        k( 1890) = (   0.2733333   0.5735013   0.0000000), wk =   0.0010667
        k( 1891) = (   0.2800000   0.4849742   0.0000000), wk =   0.0005333
        k( 1892) = (   0.2800000   0.4926722   0.0000000), wk =   0.0010667
        k( 1893) = (   0.2800000   0.5003702   0.0000000), wk =   0.0010667
        k( 1894) = (   0.2800000   0.5080682   0.0000000), wk =   0.0010667
        k( 1895) = (   0.2800000   0.5157662   0.0000000), wk =   0.0010667
        k( 1896) = (   0.2800000   0.5234642   0.0000000), wk =   0.0010667
        k( 1897) = (   0.2800000   0.5311622   0.0000000), wk =   0.0010667
        k( 1898) = (   0.2800000   0.5388603   0.0000000), wk =   0.0010667
        k( 1899) = (   0.2800000   0.5465583   0.0000000), wk =   0.0010667
        k( 1900) = (   0.2800000   0.5542563   0.0000000), wk =   0.0010667
        k( 1901) = (   0.2800000   0.5619543   0.0000000), wk =   0.0010667
        k( 1902) = (   0.2800000   0.5696523   0.0000000), wk =   0.0010667
        k( 1903) = (   0.2800000   0.5773503   0.0000000), wk =   0.0005333
        k( 1904) = (   0.2866667   0.4965212   0.0000000), wk =   0.0005333
        k( 1905) = (   0.2866667   0.5042192   0.0000000), wk =   0.0010667
        k( 1906) = (   0.2866667   0.5119172   0.0000000), wk =   0.0010667
        k( 1907) = (   0.2866667   0.5196152   0.0000000), wk =   0.0010667
        k( 1908) = (   0.2866667   0.5273132   0.0000000), wk =   0.0010667
        k( 1909) = (   0.2866667   0.5350112   0.0000000), wk =   0.0010667
        k( 1910) = (   0.2866667   0.5427093   0.0000000), wk =   0.0010667
        k( 1911) = (   0.2866667   0.5504073   0.0000000), wk =   0.0010667
        k( 1912) = (   0.2866667   0.5581053   0.0000000), wk =   0.0010667
        k( 1913) = (   0.2866667   0.5658033   0.0000000), wk =   0.0010667
        k( 1914) = (   0.2866667   0.5735013   0.0000000), wk =   0.0010667
        k( 1915) = (   0.2933333   0.5080682   0.0000000), wk =   0.0005333
        k( 1916) = (   0.2933333   0.5157662   0.0000000), wk =   0.0010667
        k( 1917) = (   0.2933333   0.5234642   0.0000000), wk =   0.0010667
        k( 1918) = (   0.2933333   0.5311622   0.0000000), wk =   0.0010667
        k( 1919) = (   0.2933333   0.5388603   0.0000000), wk =   0.0010667
        k( 1920) = (   0.2933333   0.5465583   0.0000000), wk =   0.0010667
        k( 1921) = (   0.2933333   0.5542563   0.0000000), wk =   0.0010667
        k( 1922) = (   0.2933333   0.5619543   0.0000000), wk =   0.0010667
        k( 1923) = (   0.2933333   0.5696523   0.0000000), wk =   0.0010667
        k( 1924) = (   0.2933333   0.5773503   0.0000000), wk =   0.0005333
        k( 1925) = (   0.3000000   0.5196152   0.0000000), wk =   0.0005333
        k( 1926) = (   0.3000000   0.5273132   0.0000000), wk =   0.0010667
        k( 1927) = (   0.3000000   0.5350112   0.0000000), wk =   0.0010667
        k( 1928) = (   0.3000000   0.5427093   0.0000000), wk =   0.0010667
        k( 1929) = (   0.3000000   0.5504073   0.0000000), wk =   0.0010667
        k( 1930) = (   0.3000000   0.5581053   0.0000000), wk =   0.0010667
        k( 1931) = (   0.3000000   0.5658033   0.0000000), wk =   0.0010667
        k( 1932) = (   0.3000000   0.5735013   0.0000000), wk =   0.0010667
        k( 1933) = (   0.3066667   0.5311622   0.0000000), wk =   0.0005333
        k( 1934) = (   0.3066667   0.5388603   0.0000000), wk =   0.0010667
        k( 1935) = (   0.3066667   0.5465583   0.0000000), wk =   0.0010667
        k( 1936) = (   0.3066667   0.5542563   0.0000000), wk =   0.0010667
        k( 1937) = (   0.3066667   0.5619543   0.0000000), wk =   0.0010667
        k( 1938) = (   0.3066667   0.5696523   0.0000000), wk =   0.0010667
        k( 1939) = (   0.3066667   0.5773503   0.0000000), wk =   0.0005333
        k( 1940) = (   0.3133333   0.5427093   0.0000000), wk =   0.0005333
        k( 1941) = (   0.3133333   0.5504073   0.0000000), wk =   0.0010667
        k( 1942) = (   0.3133333   0.5581053   0.0000000), wk =   0.0010667
        k( 1943) = (   0.3133333   0.5658033   0.0000000), wk =   0.0010667
        k( 1944) = (   0.3133333   0.5735013   0.0000000), wk =   0.0010667
        k( 1945) = (   0.3200000   0.5542563   0.0000000), wk =   0.0005333
        k( 1946) = (   0.3200000   0.5619543   0.0000000), wk =   0.0010667
        k( 1947) = (   0.3200000   0.5696523   0.0000000), wk =   0.0010667
        k( 1948) = (   0.3200000   0.5773503   0.0000000), wk =   0.0005333
        k( 1949) = (   0.3266667   0.5658033   0.0000000), wk =   0.0005333
        k( 1950) = (   0.3266667   0.5735013   0.0000000), wk =   0.0010667
        k( 1951) = (   0.3333333   0.5773503   0.0000000), wk =   0.0001778

                       cryst. coord.
        k(    1) = (   0.0000000   0.0000000   0.0000000), wk =   0.0000889
        k(    2) = (   0.0000000   0.0066667   0.0000000), wk =   0.0005333
        k(    3) = (   0.0000000   0.0133333   0.0000000), wk =   0.0005333
        k(    4) = (   0.0000000   0.0200000   0.0000000), wk =   0.0005333
        k(    5) = (   0.0000000   0.0266667   0.0000000), wk =   0.0005333
        k(    6) = (   0.0000000   0.0333333   0.0000000), wk =   0.0005333
        k(    7) = (   0.0000000   0.0400000   0.0000000), wk =   0.0005333
        k(    8) = (   0.0000000   0.0466667   0.0000000), wk =   0.0005333
        k(    9) = (   0.0000000   0.0533333   0.0000000), wk =   0.0005333
        k(   10) = (   0.0000000   0.0600000   0.0000000), wk =   0.0005333
        k(   11) = (   0.0000000   0.0666667   0.0000000), wk =   0.0005333
        k(   12) = (   0.0000000   0.0733333   0.0000000), wk =   0.0005333
        k(   13) = (   0.0000000   0.0800000   0.0000000), wk =   0.0005333
        k(   14) = (   0.0000000   0.0866667   0.0000000), wk =   0.0005333
        k(   15) = (   0.0000000   0.0933333   0.0000000), wk =   0.0005333
        k(   16) = (   0.0000000   0.1000000   0.0000000), wk =   0.0005333
        k(   17) = (   0.0000000   0.1066667   0.0000000), wk =   0.0005333
        k(   18) = (   0.0000000   0.1133333   0.0000000), wk =   0.0005333
        k(   19) = (   0.0000000   0.1200000   0.0000000), wk =   0.0005333
        k(   20) = (   0.0000000   0.1266667   0.0000000), wk =   0.0005333
        k(   21) = (   0.0000000   0.1333333   0.0000000), wk =   0.0005333
        k(   22) = (   0.0000000   0.1400000   0.0000000), wk =   0.0005333
        k(   23) = (   0.0000000   0.1466667   0.0000000), wk =   0.0005333
        k(   24) = (   0.0000000   0.1533333   0.0000000), wk =   0.0005333
        k(   25) = (   0.0000000   0.1600000   0.0000000), wk =   0.0005333
        k(   26) = (   0.0000000   0.1666667   0.0000000), wk =   0.0005333
        k(   27) = (   0.0000000   0.1733333   0.0000000), wk =   0.0005333
        k(   28) = (   0.0000000   0.1800000   0.0000000), wk =   0.0005333
        k(   29) = (   0.0000000   0.1866667   0.0000000), wk =   0.0005333
        k(   30) = (   0.0000000   0.1933333   0.0000000), wk =   0.0005333
        k(   31) = (   0.0000000   0.2000000   0.0000000), wk =   0.0005333
        k(   32) = (   0.0000000   0.2066667   0.0000000), wk =   0.0005333
        k(   33) = (   0.0000000   0.2133333   0.0000000), wk =   0.0005333
        k(   34) = (   0.0000000   0.2200000   0.0000000), wk =   0.0005333
        k(   35) = (   0.0000000   0.2266667   0.0000000), wk =   0.0005333
        k(   36) = (   0.0000000   0.2333333   0.0000000), wk =   0.0005333
        k(   37) = (   0.0000000   0.2400000   0.0000000), wk =   0.0005333
        k(   38) = (   0.0000000   0.2466667   0.0000000), wk =   0.0005333
        k(   39) = (   0.0000000   0.2533333   0.0000000), wk =   0.0005333
        k(   40) = (   0.0000000   0.2600000   0.0000000), wk =   0.0005333
        k(   41) = (   0.0000000   0.2666667   0.0000000), wk =   0.0005333
        k(   42) = (   0.0000000   0.2733333   0.0000000), wk =   0.0005333
        k(   43) = (   0.0000000   0.2800000   0.0000000), wk =   0.0005333
        k(   44) = (   0.0000000   0.2866667   0.0000000), wk =   0.0005333
        k(   45) = (   0.0000000   0.2933333   0.0000000), wk =   0.0005333
        k(   46) = (   0.0000000   0.3000000   0.0000000), wk =   0.0005333
        k(   47) = (   0.0000000   0.3066667   0.0000000), wk =   0.0005333
        k(   48) = (   0.0000000   0.3133333   0.0000000), wk =   0.0005333
        k(   49) = (   0.0000000   0.3200000   0.0000000), wk =   0.0005333
        k(   50) = (   0.0000000   0.3266667   0.0000000), wk =   0.0005333
        k(   51) = (   0.0000000   0.3333333   0.0000000), wk =   0.0005333
        k(   52) = (   0.0000000   0.3400000   0.0000000), wk =   0.0005333
        k(   53) = (   0.0000000   0.3466667   0.0000000), wk =   0.0005333
        k(   54) = (   0.0000000   0.3533333   0.0000000), wk =   0.0005333
        k(   55) = (   0.0000000   0.3600000   0.0000000), wk =   0.0005333
        k(   56) = (   0.0000000   0.3666667   0.0000000), wk =   0.0005333
        k(   57) = (   0.0000000   0.3733333   0.0000000), wk =   0.0005333
        k(   58) = (   0.0000000   0.3800000   0.0000000), wk =   0.0005333
        k(   59) = (   0.0000000   0.3866667   0.0000000), wk =   0.0005333
        k(   60) = (   0.0000000   0.3933333   0.0000000), wk =   0.0005333
        k(   61) = (   0.0000000   0.4000000   0.0000000), wk =   0.0005333
        k(   62) = (   0.0000000   0.4066667   0.0000000), wk =   0.0005333
        k(   63) = (   0.0000000   0.4133333   0.0000000), wk =   0.0005333
        k(   64) = (   0.0000000   0.4200000   0.0000000), wk =   0.0005333
        k(   65) = (   0.0000000   0.4266667   0.0000000), wk =   0.0005333
        k(   66) = (   0.0000000   0.4333333   0.0000000), wk =   0.0005333
        k(   67) = (   0.0000000   0.4400000   0.0000000), wk =   0.0005333
        k(   68) = (   0.0000000   0.4466667   0.0000000), wk =   0.0005333
        k(   69) = (   0.0000000   0.4533333   0.0000000), wk =   0.0005333
        k(   70) = (   0.0000000   0.4600000   0.0000000), wk =   0.0005333
        k(   71) = (   0.0000000   0.4666667   0.0000000), wk =   0.0005333
        k(   72) = (   0.0000000   0.4733333   0.0000000), wk =   0.0005333
        k(   73) = (   0.0000000   0.4800000   0.0000000), wk =   0.0005333
        k(   74) = (   0.0000000   0.4866667   0.0000000), wk =   0.0005333
        k(   75) = (   0.0000000   0.4933333   0.0000000), wk =   0.0005333
        k(   76) = (   0.0000000  -0.5000000   0.0000000), wk =   0.0002667
        k(   77) = (   0.0066667   0.0066667   0.0000000), wk =   0.0005333
        k(   78) = (   0.0066667   0.0133333   0.0000000), wk =   0.0010667
        k(   79) = (   0.0066667   0.0200000   0.0000000), wk =   0.0010667
        k(   80) = (   0.0066667   0.0266667   0.0000000), wk =   0.0010667
        k(   81) = (   0.0066667   0.0333333   0.0000000), wk =   0.0010667
        k(   82) = (   0.0066667   0.0400000   0.0000000), wk =   0.0010667
        k(   83) = (   0.0066667   0.0466667   0.0000000), wk =   0.0010667
        k(   84) = (   0.0066667   0.0533333   0.0000000), wk =   0.0010667
        k(   85) = (   0.0066667   0.0600000   0.0000000), wk =   0.0010667
        k(   86) = (   0.0066667   0.0666667   0.0000000), wk =   0.0010667
        k(   87) = (   0.0066667   0.0733333   0.0000000), wk =   0.0010667
        k(   88) = (   0.0066667   0.0800000   0.0000000), wk =   0.0010667
        k(   89) = (   0.0066667   0.0866667   0.0000000), wk =   0.0010667
        k(   90) = (   0.0066667   0.0933333   0.0000000), wk =   0.0010667
        k(   91) = (   0.0066667   0.1000000   0.0000000), wk =   0.0010667
        k(   92) = (   0.0066667   0.1066667   0.0000000), wk =   0.0010667
        k(   93) = (   0.0066667   0.1133333   0.0000000), wk =   0.0010667
        k(   94) = (   0.0066667   0.1200000   0.0000000), wk =   0.0010667
        k(   95) = (   0.0066667   0.1266667   0.0000000), wk =   0.0010667
        k(   96) = (   0.0066667   0.1333333   0.0000000), wk =   0.0010667
        k(   97) = (   0.0066667   0.1400000   0.0000000), wk =   0.0010667
        k(   98) = (   0.0066667   0.1466667   0.0000000), wk =   0.0010667
        k(   99) = (   0.0066667   0.1533333   0.0000000), wk =   0.0010667
        k(  100) = (   0.0066667   0.1600000   0.0000000), wk =   0.0010667
        k(  101) = (   0.0066667   0.1666667   0.0000000), wk =   0.0010667
        k(  102) = (   0.0066667   0.1733333   0.0000000), wk =   0.0010667
        k(  103) = (   0.0066667   0.1800000   0.0000000), wk =   0.0010667
        k(  104) = (   0.0066667   0.1866667   0.0000000), wk =   0.0010667
        k(  105) = (   0.0066667   0.1933333   0.0000000), wk =   0.0010667
        k(  106) = (   0.0066667   0.2000000   0.0000000), wk =   0.0010667
        k(  107) = (   0.0066667   0.2066667   0.0000000), wk =   0.0010667
        k(  108) = (   0.0066667   0.2133333   0.0000000), wk =   0.0010667
        k(  109) = (   0.0066667   0.2200000   0.0000000), wk =   0.0010667
        k(  110) = (   0.0066667   0.2266667   0.0000000), wk =   0.0010667
        k(  111) = (   0.0066667   0.2333333   0.0000000), wk =   0.0010667
        k(  112) = (   0.0066667   0.2400000   0.0000000), wk =   0.0010667
        k(  113) = (   0.0066667   0.2466667   0.0000000), wk =   0.0010667
        k(  114) = (   0.0066667   0.2533333   0.0000000), wk =   0.0010667
        k(  115) = (   0.0066667   0.2600000   0.0000000), wk =   0.0010667
        k(  116) = (   0.0066667   0.2666667   0.0000000), wk =   0.0010667
        k(  117) = (   0.0066667   0.2733333   0.0000000), wk =   0.0010667
        k(  118) = (   0.0066667   0.2800000   0.0000000), wk =   0.0010667
        k(  119) = (   0.0066667   0.2866667   0.0000000), wk =   0.0010667
        k(  120) = (   0.0066667   0.2933333   0.0000000), wk =   0.0010667
        k(  121) = (   0.0066667   0.3000000   0.0000000), wk =   0.0010667
        k(  122) = (   0.0066667   0.3066667   0.0000000), wk =   0.0010667
        k(  123) = (   0.0066667   0.3133333   0.0000000), wk =   0.0010667
        k(  124) = (   0.0066667   0.3200000   0.0000000), wk =   0.0010667
        k(  125) = (   0.0066667   0.3266667   0.0000000), wk =   0.0010667
        k(  126) = (   0.0066667   0.3333333   0.0000000), wk =   0.0010667
        k(  127) = (   0.0066667   0.3400000   0.0000000), wk =   0.0010667
        k(  128) = (   0.0066667   0.3466667   0.0000000), wk =   0.0010667
        k(  129) = (   0.0066667   0.3533333   0.0000000), wk =   0.0010667
        k(  130) = (   0.0066667   0.3600000   0.0000000), wk =   0.0010667
        k(  131) = (   0.0066667   0.3666667   0.0000000), wk =   0.0010667
        k(  132) = (   0.0066667   0.3733333   0.0000000), wk =   0.0010667
        k(  133) = (   0.0066667   0.3800000   0.0000000), wk =   0.0010667
        k(  134) = (   0.0066667   0.3866667   0.0000000), wk =   0.0010667
        k(  135) = (   0.0066667   0.3933333   0.0000000), wk =   0.0010667
        k(  136) = (   0.0066667   0.4000000   0.0000000), wk =   0.0010667
        k(  137) = (   0.0066667   0.4066667   0.0000000), wk =   0.0010667
        k(  138) = (   0.0066667   0.4133333   0.0000000), wk =   0.0010667
        k(  139) = (   0.0066667   0.4200000   0.0000000), wk =   0.0010667
        k(  140) = (   0.0066667   0.4266667   0.0000000), wk =   0.0010667
        k(  141) = (   0.0066667   0.4333333   0.0000000), wk =   0.0010667
        k(  142) = (   0.0066667   0.4400000   0.0000000), wk =   0.0010667
        k(  143) = (   0.0066667   0.4466667   0.0000000), wk =   0.0010667
        k(  144) = (   0.0066667   0.4533333   0.0000000), wk =   0.0010667
        k(  145) = (   0.0066667   0.4600000   0.0000000), wk =   0.0010667
        k(  146) = (   0.0066667   0.4666667   0.0000000), wk =   0.0010667
        k(  147) = (   0.0066667   0.4733333   0.0000000), wk =   0.0010667
        k(  148) = (   0.0066667   0.4800000   0.0000000), wk =   0.0010667
        k(  149) = (   0.0066667   0.4866667   0.0000000), wk =   0.0010667
        k(  150) = (   0.0066667   0.4933333   0.0000000), wk =   0.0010667
        k(  151) = (   0.0133333   0.0133333   0.0000000), wk =   0.0005333
        k(  152) = (   0.0133333   0.0200000   0.0000000), wk =   0.0010667
        k(  153) = (   0.0133333   0.0266667   0.0000000), wk =   0.0010667
        k(  154) = (   0.0133333   0.0333333   0.0000000), wk =   0.0010667
        k(  155) = (   0.0133333   0.0400000   0.0000000), wk =   0.0010667
        k(  156) = (   0.0133333   0.0466667   0.0000000), wk =   0.0010667
        k(  157) = (   0.0133333   0.0533333   0.0000000), wk =   0.0010667
        k(  158) = (   0.0133333   0.0600000   0.0000000), wk =   0.0010667
        k(  159) = (   0.0133333   0.0666667   0.0000000), wk =   0.0010667
        k(  160) = (   0.0133333   0.0733333   0.0000000), wk =   0.0010667
        k(  161) = (   0.0133333   0.0800000   0.0000000), wk =   0.0010667
        k(  162) = (   0.0133333   0.0866667   0.0000000), wk =   0.0010667
        k(  163) = (   0.0133333   0.0933333   0.0000000), wk =   0.0010667
        k(  164) = (   0.0133333   0.1000000   0.0000000), wk =   0.0010667
        k(  165) = (   0.0133333   0.1066667   0.0000000), wk =   0.0010667
        k(  166) = (   0.0133333   0.1133333   0.0000000), wk =   0.0010667
        k(  167) = (   0.0133333   0.1200000   0.0000000), wk =   0.0010667
        k(  168) = (   0.0133333   0.1266667   0.0000000), wk =   0.0010667
        k(  169) = (   0.0133333   0.1333333   0.0000000), wk =   0.0010667
        k(  170) = (   0.0133333   0.1400000   0.0000000), wk =   0.0010667
        k(  171) = (   0.0133333   0.1466667   0.0000000), wk =   0.0010667
        k(  172) = (   0.0133333   0.1533333   0.0000000), wk =   0.0010667
        k(  173) = (   0.0133333   0.1600000   0.0000000), wk =   0.0010667
        k(  174) = (   0.0133333   0.1666667   0.0000000), wk =   0.0010667
        k(  175) = (   0.0133333   0.1733333   0.0000000), wk =   0.0010667
        k(  176) = (   0.0133333   0.1800000   0.0000000), wk =   0.0010667
        k(  177) = (   0.0133333   0.1866667   0.0000000), wk =   0.0010667
        k(  178) = (   0.0133333   0.1933333   0.0000000), wk =   0.0010667
        k(  179) = (   0.0133333   0.2000000   0.0000000), wk =   0.0010667
        k(  180) = (   0.0133333   0.2066667   0.0000000), wk =   0.0010667
        k(  181) = (   0.0133333   0.2133333   0.0000000), wk =   0.0010667
        k(  182) = (   0.0133333   0.2200000   0.0000000), wk =   0.0010667
        k(  183) = (   0.0133333   0.2266667   0.0000000), wk =   0.0010667
        k(  184) = (   0.0133333   0.2333333   0.0000000), wk =   0.0010667
        k(  185) = (   0.0133333   0.2400000   0.0000000), wk =   0.0010667
        k(  186) = (   0.0133333   0.2466667   0.0000000), wk =   0.0010667
        k(  187) = (   0.0133333   0.2533333   0.0000000), wk =   0.0010667
        k(  188) = (   0.0133333   0.2600000   0.0000000), wk =   0.0010667
        k(  189) = (   0.0133333   0.2666667   0.0000000), wk =   0.0010667
        k(  190) = (   0.0133333   0.2733333   0.0000000), wk =   0.0010667
        k(  191) = (   0.0133333   0.2800000   0.0000000), wk =   0.0010667
        k(  192) = (   0.0133333   0.2866667   0.0000000), wk =   0.0010667
        k(  193) = (   0.0133333   0.2933333   0.0000000), wk =   0.0010667
        k(  194) = (   0.0133333   0.3000000   0.0000000), wk =   0.0010667
        k(  195) = (   0.0133333   0.3066667   0.0000000), wk =   0.0010667
        k(  196) = (   0.0133333   0.3133333   0.0000000), wk =   0.0010667
        k(  197) = (   0.0133333   0.3200000   0.0000000), wk =   0.0010667
        k(  198) = (   0.0133333   0.3266667   0.0000000), wk =   0.0010667
        k(  199) = (   0.0133333   0.3333333   0.0000000), wk =   0.0010667
        k(  200) = (   0.0133333   0.3400000   0.0000000), wk =   0.0010667
        k(  201) = (   0.0133333   0.3466667   0.0000000), wk =   0.0010667
        k(  202) = (   0.0133333   0.3533333   0.0000000), wk =   0.0010667
        k(  203) = (   0.0133333   0.3600000   0.0000000), wk =   0.0010667
        k(  204) = (   0.0133333   0.3666667   0.0000000), wk =   0.0010667
        k(  205) = (   0.0133333   0.3733333   0.0000000), wk =   0.0010667
        k(  206) = (   0.0133333   0.3800000   0.0000000), wk =   0.0010667
        k(  207) = (   0.0133333   0.3866667   0.0000000), wk =   0.0010667
        k(  208) = (   0.0133333   0.3933333   0.0000000), wk =   0.0010667
        k(  209) = (   0.0133333   0.4000000   0.0000000), wk =   0.0010667
        k(  210) = (   0.0133333   0.4066667   0.0000000), wk =   0.0010667
        k(  211) = (   0.0133333   0.4133333   0.0000000), wk =   0.0010667
        k(  212) = (   0.0133333   0.4200000   0.0000000), wk =   0.0010667
        k(  213) = (   0.0133333   0.4266667   0.0000000), wk =   0.0010667
        k(  214) = (   0.0133333   0.4333333   0.0000000), wk =   0.0010667
        k(  215) = (   0.0133333   0.4400000   0.0000000), wk =   0.0010667
        k(  216) = (   0.0133333   0.4466667   0.0000000), wk =   0.0010667
        k(  217) = (   0.0133333   0.4533333   0.0000000), wk =   0.0010667
        k(  218) = (   0.0133333   0.4600000   0.0000000), wk =   0.0010667
        k(  219) = (   0.0133333   0.4666667   0.0000000), wk =   0.0010667
        k(  220) = (   0.0133333   0.4733333   0.0000000), wk =   0.0010667
        k(  221) = (   0.0133333   0.4800000   0.0000000), wk =   0.0010667
        k(  222) = (   0.0133333   0.4866667   0.0000000), wk =   0.0010667
        k(  223) = (   0.0133333   0.4933333   0.0000000), wk =   0.0005333
        k(  224) = (   0.0200000   0.0200000   0.0000000), wk =   0.0005333
        k(  225) = (   0.0200000   0.0266667   0.0000000), wk =   0.0010667
        k(  226) = (   0.0200000   0.0333333   0.0000000), wk =   0.0010667
        k(  227) = (   0.0200000   0.0400000   0.0000000), wk =   0.0010667
        k(  228) = (   0.0200000   0.0466667   0.0000000), wk =   0.0010667
        k(  229) = (   0.0200000   0.0533333   0.0000000), wk =   0.0010667
        k(  230) = (   0.0200000   0.0600000   0.0000000), wk =   0.0010667
        k(  231) = (   0.0200000   0.0666667   0.0000000), wk =   0.0010667
        k(  232) = (   0.0200000   0.0733333   0.0000000), wk =   0.0010667
        k(  233) = (   0.0200000   0.0800000   0.0000000), wk =   0.0010667
        k(  234) = (   0.0200000   0.0866667   0.0000000), wk =   0.0010667
        k(  235) = (   0.0200000   0.0933333   0.0000000), wk =   0.0010667
        k(  236) = (   0.0200000   0.1000000   0.0000000), wk =   0.0010667
        k(  237) = (   0.0200000   0.1066667   0.0000000), wk =   0.0010667
        k(  238) = (   0.0200000   0.1133333   0.0000000), wk =   0.0010667
        k(  239) = (   0.0200000   0.1200000   0.0000000), wk =   0.0010667
        k(  240) = (   0.0200000   0.1266667   0.0000000), wk =   0.0010667
        k(  241) = (   0.0200000   0.1333333   0.0000000), wk =   0.0010667
        k(  242) = (   0.0200000   0.1400000   0.0000000), wk =   0.0010667
        k(  243) = (   0.0200000   0.1466667   0.0000000), wk =   0.0010667
        k(  244) = (   0.0200000   0.1533333   0.0000000), wk =   0.0010667
        k(  245) = (   0.0200000   0.1600000   0.0000000), wk =   0.0010667
        k(  246) = (   0.0200000   0.1666667   0.0000000), wk =   0.0010667
        k(  247) = (   0.0200000   0.1733333   0.0000000), wk =   0.0010667
        k(  248) = (   0.0200000   0.1800000   0.0000000), wk =   0.0010667
        k(  249) = (   0.0200000   0.1866667   0.0000000), wk =   0.0010667
        k(  250) = (   0.0200000   0.1933333   0.0000000), wk =   0.0010667
        k(  251) = (   0.0200000   0.2000000   0.0000000), wk =   0.0010667
        k(  252) = (   0.0200000   0.2066667   0.0000000), wk =   0.0010667
        k(  253) = (   0.0200000   0.2133333   0.0000000), wk =   0.0010667
        k(  254) = (   0.0200000   0.2200000   0.0000000), wk =   0.0010667
        k(  255) = (   0.0200000   0.2266667   0.0000000), wk =   0.0010667
        k(  256) = (   0.0200000   0.2333333   0.0000000), wk =   0.0010667
        k(  257) = (   0.0200000   0.2400000   0.0000000), wk =   0.0010667
        k(  258) = (   0.0200000   0.2466667   0.0000000), wk =   0.0010667
        k(  259) = (   0.0200000   0.2533333   0.0000000), wk =   0.0010667
        k(  260) = (   0.0200000   0.2600000   0.0000000), wk =   0.0010667
        k(  261) = (   0.0200000   0.2666667   0.0000000), wk =   0.0010667
        k(  262) = (   0.0200000   0.2733333   0.0000000), wk =   0.0010667
        k(  263) = (   0.0200000   0.2800000   0.0000000), wk =   0.0010667
        k(  264) = (   0.0200000   0.2866667   0.0000000), wk =   0.0010667
        k(  265) = (   0.0200000   0.2933333   0.0000000), wk =   0.0010667
        k(  266) = (   0.0200000   0.3000000   0.0000000), wk =   0.0010667
        k(  267) = (   0.0200000   0.3066667   0.0000000), wk =   0.0010667
        k(  268) = (   0.0200000   0.3133333   0.0000000), wk =   0.0010667
        k(  269) = (   0.0200000   0.3200000   0.0000000), wk =   0.0010667
        k(  270) = (   0.0200000   0.3266667   0.0000000), wk =   0.0010667
        k(  271) = (   0.0200000   0.3333333   0.0000000), wk =   0.0010667
        k(  272) = (   0.0200000   0.3400000   0.0000000), wk =   0.0010667
        k(  273) = (   0.0200000   0.3466667   0.0000000), wk =   0.0010667
        k(  274) = (   0.0200000   0.3533333   0.0000000), wk =   0.0010667
        k(  275) = (   0.0200000   0.3600000   0.0000000), wk =   0.0010667
        k(  276) = (   0.0200000   0.3666667   0.0000000), wk =   0.0010667
        k(  277) = (   0.0200000   0.3733333   0.0000000), wk =   0.0010667
        k(  278) = (   0.0200000   0.3800000   0.0000000), wk =   0.0010667
        k(  279) = (   0.0200000   0.3866667   0.0000000), wk =   0.0010667
        k(  280) = (   0.0200000   0.3933333   0.0000000), wk =   0.0010667
        k(  281) = (   0.0200000   0.4000000   0.0000000), wk =   0.0010667
        k(  282) = (   0.0200000   0.4066667   0.0000000), wk =   0.0010667
        k(  283) = (   0.0200000   0.4133333   0.0000000), wk =   0.0010667
        k(  284) = (   0.0200000   0.4200000   0.0000000), wk =   0.0010667
        k(  285) = (   0.0200000   0.4266667   0.0000000), wk =   0.0010667
        k(  286) = (   0.0200000   0.4333333   0.0000000), wk =   0.0010667
        k(  287) = (   0.0200000   0.4400000   0.0000000), wk =   0.0010667
        k(  288) = (   0.0200000   0.4466667   0.0000000), wk =   0.0010667
        k(  289) = (   0.0200000   0.4533333   0.0000000), wk =   0.0010667
        k(  290) = (   0.0200000   0.4600000   0.0000000), wk =   0.0010667
        k(  291) = (   0.0200000   0.4666667   0.0000000), wk =   0.0010667
        k(  292) = (   0.0200000   0.4733333   0.0000000), wk =   0.0010667
        k(  293) = (   0.0200000   0.4800000   0.0000000), wk =   0.0010667
        k(  294) = (   0.0200000   0.4866667   0.0000000), wk =   0.0010667
        k(  295) = (   0.0266667   0.0266667   0.0000000), wk =   0.0005333
        k(  296) = (   0.0266667   0.0333333   0.0000000), wk =   0.0010667
        k(  297) = (   0.0266667   0.0400000   0.0000000), wk =   0.0010667
        k(  298) = (   0.0266667   0.0466667   0.0000000), wk =   0.0010667
        k(  299) = (   0.0266667   0.0533333   0.0000000), wk =   0.0010667
        k(  300) = (   0.0266667   0.0600000   0.0000000), wk =   0.0010667
        k(  301) = (   0.0266667   0.0666667   0.0000000), wk =   0.0010667
        k(  302) = (   0.0266667   0.0733333   0.0000000), wk =   0.0010667
        k(  303) = (   0.0266667   0.0800000   0.0000000), wk =   0.0010667
        k(  304) = (   0.0266667   0.0866667   0.0000000), wk =   0.0010667
        k(  305) = (   0.0266667   0.0933333   0.0000000), wk =   0.0010667
        k(  306) = (   0.0266667   0.1000000   0.0000000), wk =   0.0010667
        k(  307) = (   0.0266667   0.1066667   0.0000000), wk =   0.0010667
        k(  308) = (   0.0266667   0.1133333   0.0000000), wk =   0.0010667
        k(  309) = (   0.0266667   0.1200000   0.0000000), wk =   0.0010667
        k(  310) = (   0.0266667   0.1266667   0.0000000), wk =   0.0010667
        k(  311) = (   0.0266667   0.1333333   0.0000000), wk =   0.0010667
        k(  312) = (   0.0266667   0.1400000   0.0000000), wk =   0.0010667
        k(  313) = (   0.0266667   0.1466667   0.0000000), wk =   0.0010667
        k(  314) = (   0.0266667   0.1533333   0.0000000), wk =   0.0010667
        k(  315) = (   0.0266667   0.1600000   0.0000000), wk =   0.0010667
        k(  316) = (   0.0266667   0.1666667   0.0000000), wk =   0.0010667
        k(  317) = (   0.0266667   0.1733333   0.0000000), wk =   0.0010667
        k(  318) = (   0.0266667   0.1800000   0.0000000), wk =   0.0010667
        k(  319) = (   0.0266667   0.1866667   0.0000000), wk =   0.0010667
        k(  320) = (   0.0266667   0.1933333   0.0000000), wk =   0.0010667
        k(  321) = (   0.0266667   0.2000000   0.0000000), wk =   0.0010667
        k(  322) = (   0.0266667   0.2066667   0.0000000), wk =   0.0010667
        k(  323) = (   0.0266667   0.2133333   0.0000000), wk =   0.0010667
        k(  324) = (   0.0266667   0.2200000   0.0000000), wk =   0.0010667
        k(  325) = (   0.0266667   0.2266667   0.0000000), wk =   0.0010667
        k(  326) = (   0.0266667   0.2333333   0.0000000), wk =   0.0010667
        k(  327) = (   0.0266667   0.2400000   0.0000000), wk =   0.0010667
        k(  328) = (   0.0266667   0.2466667   0.0000000), wk =   0.0010667
        k(  329) = (   0.0266667   0.2533333   0.0000000), wk =   0.0010667
        k(  330) = (   0.0266667   0.2600000   0.0000000), wk =   0.0010667
        k(  331) = (   0.0266667   0.2666667   0.0000000), wk =   0.0010667
        k(  332) = (   0.0266667   0.2733333   0.0000000), wk =   0.0010667
        k(  333) = (   0.0266667   0.2800000   0.0000000), wk =   0.0010667
        k(  334) = (   0.0266667   0.2866667   0.0000000), wk =   0.0010667
        k(  335) = (   0.0266667   0.2933333   0.0000000), wk =   0.0010667
        k(  336) = (   0.0266667   0.3000000   0.0000000), wk =   0.0010667
        k(  337) = (   0.0266667   0.3066667   0.0000000), wk =   0.0010667
        k(  338) = (   0.0266667   0.3133333   0.0000000), wk =   0.0010667
        k(  339) = (   0.0266667   0.3200000   0.0000000), wk =   0.0010667
        k(  340) = (   0.0266667   0.3266667   0.0000000), wk =   0.0010667
        k(  341) = (   0.0266667   0.3333333   0.0000000), wk =   0.0010667
        k(  342) = (   0.0266667   0.3400000   0.0000000), wk =   0.0010667
        k(  343) = (   0.0266667   0.3466667   0.0000000), wk =   0.0010667
        k(  344) = (   0.0266667   0.3533333   0.0000000), wk =   0.0010667
        k(  345) = (   0.0266667   0.3600000   0.0000000), wk =   0.0010667
        k(  346) = (   0.0266667   0.3666667   0.0000000), wk =   0.0010667
        k(  347) = (   0.0266667   0.3733333   0.0000000), wk =   0.0010667
        k(  348) = (   0.0266667   0.3800000   0.0000000), wk =   0.0010667
        k(  349) = (   0.0266667   0.3866667   0.0000000), wk =   0.0010667
        k(  350) = (   0.0266667   0.3933333   0.0000000), wk =   0.0010667
        k(  351) = (   0.0266667   0.4000000   0.0000000), wk =   0.0010667
        k(  352) = (   0.0266667   0.4066667   0.0000000), wk =   0.0010667
        k(  353) = (   0.0266667   0.4133333   0.0000000), wk =   0.0010667
        k(  354) = (   0.0266667   0.4200000   0.0000000), wk =   0.0010667
        k(  355) = (   0.0266667   0.4266667   0.0000000), wk =   0.0010667
        k(  356) = (   0.0266667   0.4333333   0.0000000), wk =   0.0010667
        k(  357) = (   0.0266667   0.4400000   0.0000000), wk =   0.0010667
        k(  358) = (   0.0266667   0.4466667   0.0000000), wk =   0.0010667
        k(  359) = (   0.0266667   0.4533333   0.0000000), wk =   0.0010667
        k(  360) = (   0.0266667   0.4600000   0.0000000), wk =   0.0010667
        k(  361) = (   0.0266667   0.4666667   0.0000000), wk =   0.0010667
        k(  362) = (   0.0266667   0.4733333   0.0000000), wk =   0.0010667
        k(  363) = (   0.0266667   0.4800000   0.0000000), wk =   0.0010667
        k(  364) = (   0.0266667   0.4866667   0.0000000), wk =   0.0005333
        k(  365) = (   0.0333333   0.0333333   0.0000000), wk =   0.0005333
        k(  366) = (   0.0333333   0.0400000   0.0000000), wk =   0.0010667
        k(  367) = (   0.0333333   0.0466667   0.0000000), wk =   0.0010667
        k(  368) = (   0.0333333   0.0533333   0.0000000), wk =   0.0010667
        k(  369) = (   0.0333333   0.0600000   0.0000000), wk =   0.0010667
        k(  370) = (   0.0333333   0.0666667   0.0000000), wk =   0.0010667
        k(  371) = (   0.0333333   0.0733333   0.0000000), wk =   0.0010667
        k(  372) = (   0.0333333   0.0800000   0.0000000), wk =   0.0010667
        k(  373) = (   0.0333333   0.0866667   0.0000000), wk =   0.0010667
        k(  374) = (   0.0333333   0.0933333   0.0000000), wk =   0.0010667
        k(  375) = (   0.0333333   0.1000000   0.0000000), wk =   0.0010667
        k(  376) = (   0.0333333   0.1066667   0.0000000), wk =   0.0010667
        k(  377) = (   0.0333333   0.1133333   0.0000000), wk =   0.0010667
        k(  378) = (   0.0333333   0.1200000   0.0000000), wk =   0.0010667
        k(  379) = (   0.0333333   0.1266667   0.0000000), wk =   0.0010667
        k(  380) = (   0.0333333   0.1333333   0.0000000), wk =   0.0010667
        k(  381) = (   0.0333333   0.1400000   0.0000000), wk =   0.0010667
        k(  382) = (   0.0333333   0.1466667   0.0000000), wk =   0.0010667
        k(  383) = (   0.0333333   0.1533333   0.0000000), wk =   0.0010667
        k(  384) = (   0.0333333   0.1600000   0.0000000), wk =   0.0010667
        k(  385) = (   0.0333333   0.1666667   0.0000000), wk =   0.0010667
        k(  386) = (   0.0333333   0.1733333   0.0000000), wk =   0.0010667
        k(  387) = (   0.0333333   0.1800000   0.0000000), wk =   0.0010667
        k(  388) = (   0.0333333   0.1866667   0.0000000), wk =   0.0010667
        k(  389) = (   0.0333333   0.1933333   0.0000000), wk =   0.0010667
        k(  390) = (   0.0333333   0.2000000   0.0000000), wk =   0.0010667
        k(  391) = (   0.0333333   0.2066667   0.0000000), wk =   0.0010667
        k(  392) = (   0.0333333   0.2133333   0.0000000), wk =   0.0010667
        k(  393) = (   0.0333333   0.2200000   0.0000000), wk =   0.0010667
        k(  394) = (   0.0333333   0.2266667   0.0000000), wk =   0.0010667
        k(  395) = (   0.0333333   0.2333333   0.0000000), wk =   0.0010667
        k(  396) = (   0.0333333   0.2400000   0.0000000), wk =   0.0010667
        k(  397) = (   0.0333333   0.2466667   0.0000000), wk =   0.0010667
        k(  398) = (   0.0333333   0.2533333   0.0000000), wk =   0.0010667
        k(  399) = (   0.0333333   0.2600000   0.0000000), wk =   0.0010667
        k(  400) = (   0.0333333   0.2666667   0.0000000), wk =   0.0010667
        k(  401) = (   0.0333333   0.2733333   0.0000000), wk =   0.0010667
        k(  402) = (   0.0333333   0.2800000   0.0000000), wk =   0.0010667
        k(  403) = (   0.0333333   0.2866667   0.0000000), wk =   0.0010667
        k(  404) = (   0.0333333   0.2933333   0.0000000), wk =   0.0010667
        k(  405) = (   0.0333333   0.3000000   0.0000000), wk =   0.0010667
        k(  406) = (   0.0333333   0.3066667   0.0000000), wk =   0.0010667
        k(  407) = (   0.0333333   0.3133333   0.0000000), wk =   0.0010667
        k(  408) = (   0.0333333   0.3200000   0.0000000), wk =   0.0010667
        k(  409) = (   0.0333333   0.3266667   0.0000000), wk =   0.0010667
        k(  410) = (   0.0333333   0.3333333   0.0000000), wk =   0.0010667
        k(  411) = (   0.0333333   0.3400000   0.0000000), wk =   0.0010667
        k(  412) = (   0.0333333   0.3466667   0.0000000), wk =   0.0010667
        k(  413) = (   0.0333333   0.3533333   0.0000000), wk =   0.0010667
        k(  414) = (   0.0333333   0.3600000   0.0000000), wk =   0.0010667
        k(  415) = (   0.0333333   0.3666667   0.0000000), wk =   0.0010667
        k(  416) = (   0.0333333   0.3733333   0.0000000), wk =   0.0010667
        k(  417) = (   0.0333333   0.3800000   0.0000000), wk =   0.0010667
        k(  418) = (   0.0333333   0.3866667   0.0000000), wk =   0.0010667
        k(  419) = (   0.0333333   0.3933333   0.0000000), wk =   0.0010667
        k(  420) = (   0.0333333   0.4000000   0.0000000), wk =   0.0010667
        k(  421) = (   0.0333333   0.4066667   0.0000000), wk =   0.0010667
        k(  422) = (   0.0333333   0.4133333   0.0000000), wk =   0.0010667
        k(  423) = (   0.0333333   0.4200000   0.0000000), wk =   0.0010667
        k(  424) = (   0.0333333   0.4266667   0.0000000), wk =   0.0010667
        k(  425) = (   0.0333333   0.4333333   0.0000000), wk =   0.0010667
        k(  426) = (   0.0333333   0.4400000   0.0000000), wk =   0.0010667
        k(  427) = (   0.0333333   0.4466667   0.0000000), wk =   0.0010667
        k(  428) = (   0.0333333   0.4533333   0.0000000), wk =   0.0010667
        k(  429) = (   0.0333333   0.4600000   0.0000000), wk =   0.0010667
        k(  430) = (   0.0333333   0.4666667   0.0000000), wk =   0.0010667
        k(  431) = (   0.0333333   0.4733333   0.0000000), wk =   0.0010667
        k(  432) = (   0.0333333   0.4800000   0.0000000), wk =   0.0010667
        k(  433) = (   0.0400000   0.0400000   0.0000000), wk =   0.0005333
        k(  434) = (   0.0400000   0.0466667   0.0000000), wk =   0.0010667
        k(  435) = (   0.0400000   0.0533333   0.0000000), wk =   0.0010667
        k(  436) = (   0.0400000   0.0600000   0.0000000), wk =   0.0010667
        k(  437) = (   0.0400000   0.0666667   0.0000000), wk =   0.0010667
        k(  438) = (   0.0400000   0.0733333   0.0000000), wk =   0.0010667
        k(  439) = (   0.0400000   0.0800000   0.0000000), wk =   0.0010667
        k(  440) = (   0.0400000   0.0866667   0.0000000), wk =   0.0010667
        k(  441) = (   0.0400000   0.0933333   0.0000000), wk =   0.0010667
        k(  442) = (   0.0400000   0.1000000   0.0000000), wk =   0.0010667
        k(  443) = (   0.0400000   0.1066667   0.0000000), wk =   0.0010667
        k(  444) = (   0.0400000   0.1133333   0.0000000), wk =   0.0010667
        k(  445) = (   0.0400000   0.1200000   0.0000000), wk =   0.0010667
        k(  446) = (   0.0400000   0.1266667   0.0000000), wk =   0.0010667
        k(  447) = (   0.0400000   0.1333333   0.0000000), wk =   0.0010667
        k(  448) = (   0.0400000   0.1400000   0.0000000), wk =   0.0010667
        k(  449) = (   0.0400000   0.1466667   0.0000000), wk =   0.0010667
        k(  450) = (   0.0400000   0.1533333   0.0000000), wk =   0.0010667
        k(  451) = (   0.0400000   0.1600000   0.0000000), wk =   0.0010667
        k(  452) = (   0.0400000   0.1666667   0.0000000), wk =   0.0010667
        k(  453) = (   0.0400000   0.1733333   0.0000000), wk =   0.0010667
        k(  454) = (   0.0400000   0.1800000   0.0000000), wk =   0.0010667
        k(  455) = (   0.0400000   0.1866667   0.0000000), wk =   0.0010667
        k(  456) = (   0.0400000   0.1933333   0.0000000), wk =   0.0010667
        k(  457) = (   0.0400000   0.2000000   0.0000000), wk =   0.0010667
        k(  458) = (   0.0400000   0.2066667   0.0000000), wk =   0.0010667
        k(  459) = (   0.0400000   0.2133333   0.0000000), wk =   0.0010667
        k(  460) = (   0.0400000   0.2200000   0.0000000), wk =   0.0010667
        k(  461) = (   0.0400000   0.2266667   0.0000000), wk =   0.0010667
        k(  462) = (   0.0400000   0.2333333   0.0000000), wk =   0.0010667
        k(  463) = (   0.0400000   0.2400000   0.0000000), wk =   0.0010667
        k(  464) = (   0.0400000   0.2466667   0.0000000), wk =   0.0010667
        k(  465) = (   0.0400000   0.2533333   0.0000000), wk =   0.0010667
        k(  466) = (   0.0400000   0.2600000   0.0000000), wk =   0.0010667
        k(  467) = (   0.0400000   0.2666667   0.0000000), wk =   0.0010667
        k(  468) = (   0.0400000   0.2733333   0.0000000), wk =   0.0010667
        k(  469) = (   0.0400000   0.2800000   0.0000000), wk =   0.0010667
        k(  470) = (   0.0400000   0.2866667   0.0000000), wk =   0.0010667
        k(  471) = (   0.0400000   0.2933333   0.0000000), wk =   0.0010667
        k(  472) = (   0.0400000   0.3000000   0.0000000), wk =   0.0010667
        k(  473) = (   0.0400000   0.3066667   0.0000000), wk =   0.0010667
        k(  474) = (   0.0400000   0.3133333   0.0000000), wk =   0.0010667
        k(  475) = (   0.0400000   0.3200000   0.0000000), wk =   0.0010667
        k(  476) = (   0.0400000   0.3266667   0.0000000), wk =   0.0010667
        k(  477) = (   0.0400000   0.3333333   0.0000000), wk =   0.0010667
        k(  478) = (   0.0400000   0.3400000   0.0000000), wk =   0.0010667
        k(  479) = (   0.0400000   0.3466667   0.0000000), wk =   0.0010667
        k(  480) = (   0.0400000   0.3533333   0.0000000), wk =   0.0010667
        k(  481) = (   0.0400000   0.3600000   0.0000000), wk =   0.0010667
        k(  482) = (   0.0400000   0.3666667   0.0000000), wk =   0.0010667
        k(  483) = (   0.0400000   0.3733333   0.0000000), wk =   0.0010667
        k(  484) = (   0.0400000   0.3800000   0.0000000), wk =   0.0010667
        k(  485) = (   0.0400000   0.3866667   0.0000000), wk =   0.0010667
        k(  486) = (   0.0400000   0.3933333   0.0000000), wk =   0.0010667
        k(  487) = (   0.0400000   0.4000000   0.0000000), wk =   0.0010667
        k(  488) = (   0.0400000   0.4066667   0.0000000), wk =   0.0010667
        k(  489) = (   0.0400000   0.4133333   0.0000000), wk =   0.0010667
        k(  490) = (   0.0400000   0.4200000   0.0000000), wk =   0.0010667
        k(  491) = (   0.0400000   0.4266667   0.0000000), wk =   0.0010667
        k(  492) = (   0.0400000   0.4333333   0.0000000), wk =   0.0010667
        k(  493) = (   0.0400000   0.4400000   0.0000000), wk =   0.0010667
        k(  494) = (   0.0400000   0.4466667   0.0000000), wk =   0.0010667
        k(  495) = (   0.0400000   0.4533333   0.0000000), wk =   0.0010667
        k(  496) = (   0.0400000   0.4600000   0.0000000), wk =   0.0010667
        k(  497) = (   0.0400000   0.4666667   0.0000000), wk =   0.0010667
        k(  498) = (   0.0400000   0.4733333   0.0000000), wk =   0.0010667
        k(  499) = (   0.0400000   0.4800000   0.0000000), wk =   0.0005333
        k(  500) = (   0.0466667   0.0466667   0.0000000), wk =   0.0005333
        k(  501) = (   0.0466667   0.0533333   0.0000000), wk =   0.0010667
        k(  502) = (   0.0466667   0.0600000   0.0000000), wk =   0.0010667
        k(  503) = (   0.0466667   0.0666667   0.0000000), wk =   0.0010667
        k(  504) = (   0.0466667   0.0733333   0.0000000), wk =   0.0010667
        k(  505) = (   0.0466667   0.0800000   0.0000000), wk =   0.0010667
        k(  506) = (   0.0466667   0.0866667   0.0000000), wk =   0.0010667
        k(  507) = (   0.0466667   0.0933333   0.0000000), wk =   0.0010667
        k(  508) = (   0.0466667   0.1000000   0.0000000), wk =   0.0010667
        k(  509) = (   0.0466667   0.1066667   0.0000000), wk =   0.0010667
        k(  510) = (   0.0466667   0.1133333   0.0000000), wk =   0.0010667
        k(  511) = (   0.0466667   0.1200000   0.0000000), wk =   0.0010667
        k(  512) = (   0.0466667   0.1266667   0.0000000), wk =   0.0010667
        k(  513) = (   0.0466667   0.1333333   0.0000000), wk =   0.0010667
        k(  514) = (   0.0466667   0.1400000   0.0000000), wk =   0.0010667
        k(  515) = (   0.0466667   0.1466667   0.0000000), wk =   0.0010667
        k(  516) = (   0.0466667   0.1533333   0.0000000), wk =   0.0010667
        k(  517) = (   0.0466667   0.1600000   0.0000000), wk =   0.0010667
        k(  518) = (   0.0466667   0.1666667   0.0000000), wk =   0.0010667
        k(  519) = (   0.0466667   0.1733333   0.0000000), wk =   0.0010667
        k(  520) = (   0.0466667   0.1800000   0.0000000), wk =   0.0010667
        k(  521) = (   0.0466667   0.1866667   0.0000000), wk =   0.0010667
        k(  522) = (   0.0466667   0.1933333   0.0000000), wk =   0.0010667
        k(  523) = (   0.0466667   0.2000000   0.0000000), wk =   0.0010667
        k(  524) = (   0.0466667   0.2066667   0.0000000), wk =   0.0010667
        k(  525) = (   0.0466667   0.2133333   0.0000000), wk =   0.0010667
        k(  526) = (   0.0466667   0.2200000   0.0000000), wk =   0.0010667
        k(  527) = (   0.0466667   0.2266667   0.0000000), wk =   0.0010667
        k(  528) = (   0.0466667   0.2333333   0.0000000), wk =   0.0010667
        k(  529) = (   0.0466667   0.2400000   0.0000000), wk =   0.0010667
        k(  530) = (   0.0466667   0.2466667   0.0000000), wk =   0.0010667
        k(  531) = (   0.0466667   0.2533333   0.0000000), wk =   0.0010667
        k(  532) = (   0.0466667   0.2600000   0.0000000), wk =   0.0010667
        k(  533) = (   0.0466667   0.2666667   0.0000000), wk =   0.0010667
        k(  534) = (   0.0466667   0.2733333   0.0000000), wk =   0.0010667
        k(  535) = (   0.0466667   0.2800000   0.0000000), wk =   0.0010667
        k(  536) = (   0.0466667   0.2866667   0.0000000), wk =   0.0010667
        k(  537) = (   0.0466667   0.2933333   0.0000000), wk =   0.0010667
        k(  538) = (   0.0466667   0.3000000   0.0000000), wk =   0.0010667
        k(  539) = (   0.0466667   0.3066667   0.0000000), wk =   0.0010667
        k(  540) = (   0.0466667   0.3133333   0.0000000), wk =   0.0010667
        k(  541) = (   0.0466667   0.3200000   0.0000000), wk =   0.0010667
        k(  542) = (   0.0466667   0.3266667   0.0000000), wk =   0.0010667
        k(  543) = (   0.0466667   0.3333333   0.0000000), wk =   0.0010667
        k(  544) = (   0.0466667   0.3400000   0.0000000), wk =   0.0010667
        k(  545) = (   0.0466667   0.3466667   0.0000000), wk =   0.0010667
        k(  546) = (   0.0466667   0.3533333   0.0000000), wk =   0.0010667
        k(  547) = (   0.0466667   0.3600000   0.0000000), wk =   0.0010667
        k(  548) = (   0.0466667   0.3666667   0.0000000), wk =   0.0010667
        k(  549) = (   0.0466667   0.3733333   0.0000000), wk =   0.0010667
        k(  550) = (   0.0466667   0.3800000   0.0000000), wk =   0.0010667
        k(  551) = (   0.0466667   0.3866667   0.0000000), wk =   0.0010667
        k(  552) = (   0.0466667   0.3933333   0.0000000), wk =   0.0010667
        k(  553) = (   0.0466667   0.4000000   0.0000000), wk =   0.0010667
        k(  554) = (   0.0466667   0.4066667   0.0000000), wk =   0.0010667
        k(  555) = (   0.0466667   0.4133333   0.0000000), wk =   0.0010667
        k(  556) = (   0.0466667   0.4200000   0.0000000), wk =   0.0010667
        k(  557) = (   0.0466667   0.4266667   0.0000000), wk =   0.0010667
        k(  558) = (   0.0466667   0.4333333   0.0000000), wk =   0.0010667
        k(  559) = (   0.0466667   0.4400000   0.0000000), wk =   0.0010667
        k(  560) = (   0.0466667   0.4466667   0.0000000), wk =   0.0010667
        k(  561) = (   0.0466667   0.4533333   0.0000000), wk =   0.0010667
        k(  562) = (   0.0466667   0.4600000   0.0000000), wk =   0.0010667
        k(  563) = (   0.0466667   0.4666667   0.0000000), wk =   0.0010667
        k(  564) = (   0.0466667   0.4733333   0.0000000), wk =   0.0010667
        k(  565) = (   0.0533333   0.0533333   0.0000000), wk =   0.0005333
        k(  566) = (   0.0533333   0.0600000   0.0000000), wk =   0.0010667
        k(  567) = (   0.0533333   0.0666667   0.0000000), wk =   0.0010667
        k(  568) = (   0.0533333   0.0733333   0.0000000), wk =   0.0010667
        k(  569) = (   0.0533333   0.0800000   0.0000000), wk =   0.0010667
        k(  570) = (   0.0533333   0.0866667   0.0000000), wk =   0.0010667
        k(  571) = (   0.0533333   0.0933333   0.0000000), wk =   0.0010667
        k(  572) = (   0.0533333   0.1000000   0.0000000), wk =   0.0010667
        k(  573) = (   0.0533333   0.1066667   0.0000000), wk =   0.0010667
        k(  574) = (   0.0533333   0.1133333   0.0000000), wk =   0.0010667
        k(  575) = (   0.0533333   0.1200000   0.0000000), wk =   0.0010667
        k(  576) = (   0.0533333   0.1266667   0.0000000), wk =   0.0010667
        k(  577) = (   0.0533333   0.1333333   0.0000000), wk =   0.0010667
        k(  578) = (   0.0533333   0.1400000   0.0000000), wk =   0.0010667
        k(  579) = (   0.0533333   0.1466667   0.0000000), wk =   0.0010667
        k(  580) = (   0.0533333   0.1533333   0.0000000), wk =   0.0010667
        k(  581) = (   0.0533333   0.1600000   0.0000000), wk =   0.0010667
        k(  582) = (   0.0533333   0.1666667   0.0000000), wk =   0.0010667
        k(  583) = (   0.0533333   0.1733333   0.0000000), wk =   0.0010667
        k(  584) = (   0.0533333   0.1800000   0.0000000), wk =   0.0010667
        k(  585) = (   0.0533333   0.1866667   0.0000000), wk =   0.0010667
        k(  586) = (   0.0533333   0.1933333   0.0000000), wk =   0.0010667
        k(  587) = (   0.0533333   0.2000000   0.0000000), wk =   0.0010667
        k(  588) = (   0.0533333   0.2066667   0.0000000), wk =   0.0010667
        k(  589) = (   0.0533333   0.2133333   0.0000000), wk =   0.0010667
        k(  590) = (   0.0533333   0.2200000   0.0000000), wk =   0.0010667
        k(  591) = (   0.0533333   0.2266667   0.0000000), wk =   0.0010667
        k(  592) = (   0.0533333   0.2333333   0.0000000), wk =   0.0010667
        k(  593) = (   0.0533333   0.2400000   0.0000000), wk =   0.0010667
        k(  594) = (   0.0533333   0.2466667   0.0000000), wk =   0.0010667
        k(  595) = (   0.0533333   0.2533333   0.0000000), wk =   0.0010667
        k(  596) = (   0.0533333   0.2600000   0.0000000), wk =   0.0010667
        k(  597) = (   0.0533333   0.2666667   0.0000000), wk =   0.0010667
        k(  598) = (   0.0533333   0.2733333   0.0000000), wk =   0.0010667
        k(  599) = (   0.0533333   0.2800000   0.0000000), wk =   0.0010667
        k(  600) = (   0.0533333   0.2866667   0.0000000), wk =   0.0010667
        k(  601) = (   0.0533333   0.2933333   0.0000000), wk =   0.0010667
        k(  602) = (   0.0533333   0.3000000   0.0000000), wk =   0.0010667
        k(  603) = (   0.0533333   0.3066667   0.0000000), wk =   0.0010667
        k(  604) = (   0.0533333   0.3133333   0.0000000), wk =   0.0010667
        k(  605) = (   0.0533333   0.3200000   0.0000000), wk =   0.0010667
        k(  606) = (   0.0533333   0.3266667   0.0000000), wk =   0.0010667
        k(  607) = (   0.0533333   0.3333333   0.0000000), wk =   0.0010667
        k(  608) = (   0.0533333   0.3400000   0.0000000), wk =   0.0010667
        k(  609) = (   0.0533333   0.3466667   0.0000000), wk =   0.0010667
        k(  610) = (   0.0533333   0.3533333   0.0000000), wk =   0.0010667
        k(  611) = (   0.0533333   0.3600000   0.0000000), wk =   0.0010667
        k(  612) = (   0.0533333   0.3666667   0.0000000), wk =   0.0010667
        k(  613) = (   0.0533333   0.3733333   0.0000000), wk =   0.0010667
        k(  614) = (   0.0533333   0.3800000   0.0000000), wk =   0.0010667
        k(  615) = (   0.0533333   0.3866667   0.0000000), wk =   0.0010667
        k(  616) = (   0.0533333   0.3933333   0.0000000), wk =   0.0010667
        k(  617) = (   0.0533333   0.4000000   0.0000000), wk =   0.0010667
        k(  618) = (   0.0533333   0.4066667   0.0000000), wk =   0.0010667
        k(  619) = (   0.0533333   0.4133333   0.0000000), wk =   0.0010667
        k(  620) = (   0.0533333   0.4200000   0.0000000), wk =   0.0010667
        k(  621) = (   0.0533333   0.4266667   0.0000000), wk =   0.0010667
        k(  622) = (   0.0533333   0.4333333   0.0000000), wk =   0.0010667
        k(  623) = (   0.0533333   0.4400000   0.0000000), wk =   0.0010667
        k(  624) = (   0.0533333   0.4466667   0.0000000), wk =   0.0010667
        k(  625) = (   0.0533333   0.4533333   0.0000000), wk =   0.0010667
        k(  626) = (   0.0533333   0.4600000   0.0000000), wk =   0.0010667
        k(  627) = (   0.0533333   0.4666667   0.0000000), wk =   0.0010667
        k(  628) = (   0.0533333   0.4733333   0.0000000), wk =   0.0005333
        k(  629) = (   0.0600000   0.0600000   0.0000000), wk =   0.0005333
        k(  630) = (   0.0600000   0.0666667   0.0000000), wk =   0.0010667
        k(  631) = (   0.0600000   0.0733333   0.0000000), wk =   0.0010667
        k(  632) = (   0.0600000   0.0800000   0.0000000), wk =   0.0010667
        k(  633) = (   0.0600000   0.0866667   0.0000000), wk =   0.0010667
        k(  634) = (   0.0600000   0.0933333   0.0000000), wk =   0.0010667
        k(  635) = (   0.0600000   0.1000000   0.0000000), wk =   0.0010667
        k(  636) = (   0.0600000   0.1066667   0.0000000), wk =   0.0010667
        k(  637) = (   0.0600000   0.1133333   0.0000000), wk =   0.0010667
        k(  638) = (   0.0600000   0.1200000   0.0000000), wk =   0.0010667
        k(  639) = (   0.0600000   0.1266667   0.0000000), wk =   0.0010667
        k(  640) = (   0.0600000   0.1333333   0.0000000), wk =   0.0010667
        k(  641) = (   0.0600000   0.1400000   0.0000000), wk =   0.0010667
        k(  642) = (   0.0600000   0.1466667   0.0000000), wk =   0.0010667
        k(  643) = (   0.0600000   0.1533333   0.0000000), wk =   0.0010667
        k(  644) = (   0.0600000   0.1600000   0.0000000), wk =   0.0010667
        k(  645) = (   0.0600000   0.1666667   0.0000000), wk =   0.0010667
        k(  646) = (   0.0600000   0.1733333   0.0000000), wk =   0.0010667
        k(  647) = (   0.0600000   0.1800000   0.0000000), wk =   0.0010667
        k(  648) = (   0.0600000   0.1866667   0.0000000), wk =   0.0010667
        k(  649) = (   0.0600000   0.1933333   0.0000000), wk =   0.0010667
        k(  650) = (   0.0600000   0.2000000   0.0000000), wk =   0.0010667
        k(  651) = (   0.0600000   0.2066667   0.0000000), wk =   0.0010667
        k(  652) = (   0.0600000   0.2133333   0.0000000), wk =   0.0010667
        k(  653) = (   0.0600000   0.2200000   0.0000000), wk =   0.0010667
        k(  654) = (   0.0600000   0.2266667   0.0000000), wk =   0.0010667
        k(  655) = (   0.0600000   0.2333333   0.0000000), wk =   0.0010667
        k(  656) = (   0.0600000   0.2400000   0.0000000), wk =   0.0010667
        k(  657) = (   0.0600000   0.2466667   0.0000000), wk =   0.0010667
        k(  658) = (   0.0600000   0.2533333   0.0000000), wk =   0.0010667
        k(  659) = (   0.0600000   0.2600000   0.0000000), wk =   0.0010667
        k(  660) = (   0.0600000   0.2666667   0.0000000), wk =   0.0010667
        k(  661) = (   0.0600000   0.2733333   0.0000000), wk =   0.0010667
        k(  662) = (   0.0600000   0.2800000   0.0000000), wk =   0.0010667
        k(  663) = (   0.0600000   0.2866667   0.0000000), wk =   0.0010667
        k(  664) = (   0.0600000   0.2933333   0.0000000), wk =   0.0010667
        k(  665) = (   0.0600000   0.3000000   0.0000000), wk =   0.0010667
        k(  666) = (   0.0600000   0.3066667   0.0000000), wk =   0.0010667
        k(  667) = (   0.0600000   0.3133333   0.0000000), wk =   0.0010667
        k(  668) = (   0.0600000   0.3200000   0.0000000), wk =   0.0010667
        k(  669) = (   0.0600000   0.3266667   0.0000000), wk =   0.0010667
        k(  670) = (   0.0600000   0.3333333   0.0000000), wk =   0.0010667
        k(  671) = (   0.0600000   0.3400000   0.0000000), wk =   0.0010667
        k(  672) = (   0.0600000   0.3466667   0.0000000), wk =   0.0010667
        k(  673) = (   0.0600000   0.3533333   0.0000000), wk =   0.0010667
        k(  674) = (   0.0600000   0.3600000   0.0000000), wk =   0.0010667
        k(  675) = (   0.0600000   0.3666667   0.0000000), wk =   0.0010667
        k(  676) = (   0.0600000   0.3733333   0.0000000), wk =   0.0010667
        k(  677) = (   0.0600000   0.3800000   0.0000000), wk =   0.0010667
        k(  678) = (   0.0600000   0.3866667   0.0000000), wk =   0.0010667
        k(  679) = (   0.0600000   0.3933333   0.0000000), wk =   0.0010667
        k(  680) = (   0.0600000   0.4000000   0.0000000), wk =   0.0010667
        k(  681) = (   0.0600000   0.4066667   0.0000000), wk =   0.0010667
        k(  682) = (   0.0600000   0.4133333   0.0000000), wk =   0.0010667
        k(  683) = (   0.0600000   0.4200000   0.0000000), wk =   0.0010667
        k(  684) = (   0.0600000   0.4266667   0.0000000), wk =   0.0010667
        k(  685) = (   0.0600000   0.4333333   0.0000000), wk =   0.0010667
        k(  686) = (   0.0600000   0.4400000   0.0000000), wk =   0.0010667
        k(  687) = (   0.0600000   0.4466667   0.0000000), wk =   0.0010667
        k(  688) = (   0.0600000   0.4533333   0.0000000), wk =   0.0010667
        k(  689) = (   0.0600000   0.4600000   0.0000000), wk =   0.0010667
        k(  690) = (   0.0600000   0.4666667   0.0000000), wk =   0.0010667
        k(  691) = (   0.0666667   0.0666667   0.0000000), wk =   0.0005333
        k(  692) = (   0.0666667   0.0733333   0.0000000), wk =   0.0010667
        k(  693) = (   0.0666667   0.0800000   0.0000000), wk =   0.0010667
        k(  694) = (   0.0666667   0.0866667   0.0000000), wk =   0.0010667
        k(  695) = (   0.0666667   0.0933333   0.0000000), wk =   0.0010667
        k(  696) = (   0.0666667   0.1000000   0.0000000), wk =   0.0010667
        k(  697) = (   0.0666667   0.1066667   0.0000000), wk =   0.0010667
        k(  698) = (   0.0666667   0.1133333   0.0000000), wk =   0.0010667
        k(  699) = (   0.0666667   0.1200000   0.0000000), wk =   0.0010667
        k(  700) = (   0.0666667   0.1266667   0.0000000), wk =   0.0010667
        k(  701) = (   0.0666667   0.1333333   0.0000000), wk =   0.0010667
        k(  702) = (   0.0666667   0.1400000   0.0000000), wk =   0.0010667
        k(  703) = (   0.0666667   0.1466667   0.0000000), wk =   0.0010667
        k(  704) = (   0.0666667   0.1533333   0.0000000), wk =   0.0010667
        k(  705) = (   0.0666667   0.1600000   0.0000000), wk =   0.0010667
        k(  706) = (   0.0666667   0.1666667   0.0000000), wk =   0.0010667
        k(  707) = (   0.0666667   0.1733333   0.0000000), wk =   0.0010667
        k(  708) = (   0.0666667   0.1800000   0.0000000), wk =   0.0010667
        k(  709) = (   0.0666667   0.1866667   0.0000000), wk =   0.0010667
        k(  710) = (   0.0666667   0.1933333   0.0000000), wk =   0.0010667
        k(  711) = (   0.0666667   0.2000000   0.0000000), wk =   0.0010667
        k(  712) = (   0.0666667   0.2066667   0.0000000), wk =   0.0010667
        k(  713) = (   0.0666667   0.2133333   0.0000000), wk =   0.0010667
        k(  714) = (   0.0666667   0.2200000   0.0000000), wk =   0.0010667
        k(  715) = (   0.0666667   0.2266667   0.0000000), wk =   0.0010667
        k(  716) = (   0.0666667   0.2333333   0.0000000), wk =   0.0010667
        k(  717) = (   0.0666667   0.2400000   0.0000000), wk =   0.0010667
        k(  718) = (   0.0666667   0.2466667   0.0000000), wk =   0.0010667
        k(  719) = (   0.0666667   0.2533333   0.0000000), wk =   0.0010667
        k(  720) = (   0.0666667   0.2600000   0.0000000), wk =   0.0010667
        k(  721) = (   0.0666667   0.2666667   0.0000000), wk =   0.0010667
        k(  722) = (   0.0666667   0.2733333   0.0000000), wk =   0.0010667
        k(  723) = (   0.0666667   0.2800000   0.0000000), wk =   0.0010667
        k(  724) = (   0.0666667   0.2866667   0.0000000), wk =   0.0010667
        k(  725) = (   0.0666667   0.2933333   0.0000000), wk =   0.0010667
        k(  726) = (   0.0666667   0.3000000   0.0000000), wk =   0.0010667
        k(  727) = (   0.0666667   0.3066667   0.0000000), wk =   0.0010667
        k(  728) = (   0.0666667   0.3133333   0.0000000), wk =   0.0010667
        k(  729) = (   0.0666667   0.3200000   0.0000000), wk =   0.0010667
        k(  730) = (   0.0666667   0.3266667   0.0000000), wk =   0.0010667
        k(  731) = (   0.0666667   0.3333333   0.0000000), wk =   0.0010667
        k(  732) = (   0.0666667   0.3400000   0.0000000), wk =   0.0010667
        k(  733) = (   0.0666667   0.3466667   0.0000000), wk =   0.0010667
        k(  734) = (   0.0666667   0.3533333   0.0000000), wk =   0.0010667
        k(  735) = (   0.0666667   0.3600000   0.0000000), wk =   0.0010667
        k(  736) = (   0.0666667   0.3666667   0.0000000), wk =   0.0010667
        k(  737) = (   0.0666667   0.3733333   0.0000000), wk =   0.0010667
        k(  738) = (   0.0666667   0.3800000   0.0000000), wk =   0.0010667
        k(  739) = (   0.0666667   0.3866667   0.0000000), wk =   0.0010667
        k(  740) = (   0.0666667   0.3933333   0.0000000), wk =   0.0010667
        k(  741) = (   0.0666667   0.4000000   0.0000000), wk =   0.0010667
        k(  742) = (   0.0666667   0.4066667   0.0000000), wk =   0.0010667
        k(  743) = (   0.0666667   0.4133333   0.0000000), wk =   0.0010667
        k(  744) = (   0.0666667   0.4200000   0.0000000), wk =   0.0010667
        k(  745) = (   0.0666667   0.4266667   0.0000000), wk =   0.0010667
        k(  746) = (   0.0666667   0.4333333   0.0000000), wk =   0.0010667
        k(  747) = (   0.0666667   0.4400000   0.0000000), wk =   0.0010667
        k(  748) = (   0.0666667   0.4466667   0.0000000), wk =   0.0010667
        k(  749) = (   0.0666667   0.4533333   0.0000000), wk =   0.0010667
        k(  750) = (   0.0666667   0.4600000   0.0000000), wk =   0.0010667
        k(  751) = (   0.0666667   0.4666667   0.0000000), wk =   0.0005333
        k(  752) = (   0.0733333   0.0733333   0.0000000), wk =   0.0005333
        k(  753) = (   0.0733333   0.0800000   0.0000000), wk =   0.0010667
        k(  754) = (   0.0733333   0.0866667   0.0000000), wk =   0.0010667
        k(  755) = (   0.0733333   0.0933333   0.0000000), wk =   0.0010667
        k(  756) = (   0.0733333   0.1000000   0.0000000), wk =   0.0010667
        k(  757) = (   0.0733333   0.1066667   0.0000000), wk =   0.0010667
        k(  758) = (   0.0733333   0.1133333   0.0000000), wk =   0.0010667
        k(  759) = (   0.0733333   0.1200000   0.0000000), wk =   0.0010667
        k(  760) = (   0.0733333   0.1266667   0.0000000), wk =   0.0010667
        k(  761) = (   0.0733333   0.1333333   0.0000000), wk =   0.0010667
        k(  762) = (   0.0733333   0.1400000   0.0000000), wk =   0.0010667
        k(  763) = (   0.0733333   0.1466667   0.0000000), wk =   0.0010667
        k(  764) = (   0.0733333   0.1533333   0.0000000), wk =   0.0010667
        k(  765) = (   0.0733333   0.1600000   0.0000000), wk =   0.0010667
        k(  766) = (   0.0733333   0.1666667   0.0000000), wk =   0.0010667
        k(  767) = (   0.0733333   0.1733333   0.0000000), wk =   0.0010667
        k(  768) = (   0.0733333   0.1800000   0.0000000), wk =   0.0010667
        k(  769) = (   0.0733333   0.1866667   0.0000000), wk =   0.0010667
        k(  770) = (   0.0733333   0.1933333   0.0000000), wk =   0.0010667
        k(  771) = (   0.0733333   0.2000000   0.0000000), wk =   0.0010667
        k(  772) = (   0.0733333   0.2066667   0.0000000), wk =   0.0010667
        k(  773) = (   0.0733333   0.2133333   0.0000000), wk =   0.0010667
        k(  774) = (   0.0733333   0.2200000   0.0000000), wk =   0.0010667
        k(  775) = (   0.0733333   0.2266667   0.0000000), wk =   0.0010667
        k(  776) = (   0.0733333   0.2333333   0.0000000), wk =   0.0010667
        k(  777) = (   0.0733333   0.2400000   0.0000000), wk =   0.0010667
        k(  778) = (   0.0733333   0.2466667   0.0000000), wk =   0.0010667
        k(  779) = (   0.0733333   0.2533333   0.0000000), wk =   0.0010667
        k(  780) = (   0.0733333   0.2600000   0.0000000), wk =   0.0010667
        k(  781) = (   0.0733333   0.2666667   0.0000000), wk =   0.0010667
        k(  782) = (   0.0733333   0.2733333   0.0000000), wk =   0.0010667
        k(  783) = (   0.0733333   0.2800000   0.0000000), wk =   0.0010667
        k(  784) = (   0.0733333   0.2866667   0.0000000), wk =   0.0010667
        k(  785) = (   0.0733333   0.2933333   0.0000000), wk =   0.0010667
        k(  786) = (   0.0733333   0.3000000   0.0000000), wk =   0.0010667
        k(  787) = (   0.0733333   0.3066667   0.0000000), wk =   0.0010667
        k(  788) = (   0.0733333   0.3133333   0.0000000), wk =   0.0010667
        k(  789) = (   0.0733333   0.3200000   0.0000000), wk =   0.0010667
        k(  790) = (   0.0733333   0.3266667   0.0000000), wk =   0.0010667
        k(  791) = (   0.0733333   0.3333333   0.0000000), wk =   0.0010667
        k(  792) = (   0.0733333   0.3400000   0.0000000), wk =   0.0010667
        k(  793) = (   0.0733333   0.3466667   0.0000000), wk =   0.0010667
        k(  794) = (   0.0733333   0.3533333   0.0000000), wk =   0.0010667
        k(  795) = (   0.0733333   0.3600000   0.0000000), wk =   0.0010667
        k(  796) = (   0.0733333   0.3666667   0.0000000), wk =   0.0010667
        k(  797) = (   0.0733333   0.3733333   0.0000000), wk =   0.0010667
        k(  798) = (   0.0733333   0.3800000   0.0000000), wk =   0.0010667
        k(  799) = (   0.0733333   0.3866667   0.0000000), wk =   0.0010667
        k(  800) = (   0.0733333   0.3933333   0.0000000), wk =   0.0010667
        k(  801) = (   0.0733333   0.4000000   0.0000000), wk =   0.0010667
        k(  802) = (   0.0733333   0.4066667   0.0000000), wk =   0.0010667
        k(  803) = (   0.0733333   0.4133333   0.0000000), wk =   0.0010667
        k(  804) = (   0.0733333   0.4200000   0.0000000), wk =   0.0010667
        k(  805) = (   0.0733333   0.4266667   0.0000000), wk =   0.0010667
        k(  806) = (   0.0733333   0.4333333   0.0000000), wk =   0.0010667
        k(  807) = (   0.0733333   0.4400000   0.0000000), wk =   0.0010667
        k(  808) = (   0.0733333   0.4466667   0.0000000), wk =   0.0010667
        k(  809) = (   0.0733333   0.4533333   0.0000000), wk =   0.0010667
        k(  810) = (   0.0733333   0.4600000   0.0000000), wk =   0.0010667
        k(  811) = (   0.0800000   0.0800000   0.0000000), wk =   0.0005333
        k(  812) = (   0.0800000   0.0866667   0.0000000), wk =   0.0010667
        k(  813) = (   0.0800000   0.0933333   0.0000000), wk =   0.0010667
        k(  814) = (   0.0800000   0.1000000   0.0000000), wk =   0.0010667
        k(  815) = (   0.0800000   0.1066667   0.0000000), wk =   0.0010667
        k(  816) = (   0.0800000   0.1133333   0.0000000), wk =   0.0010667
        k(  817) = (   0.0800000   0.1200000   0.0000000), wk =   0.0010667
        k(  818) = (   0.0800000   0.1266667   0.0000000), wk =   0.0010667
        k(  819) = (   0.0800000   0.1333333   0.0000000), wk =   0.0010667
        k(  820) = (   0.0800000   0.1400000   0.0000000), wk =   0.0010667
        k(  821) = (   0.0800000   0.1466667   0.0000000), wk =   0.0010667
        k(  822) = (   0.0800000   0.1533333   0.0000000), wk =   0.0010667
        k(  823) = (   0.0800000   0.1600000   0.0000000), wk =   0.0010667
        k(  824) = (   0.0800000   0.1666667   0.0000000), wk =   0.0010667
        k(  825) = (   0.0800000   0.1733333   0.0000000), wk =   0.0010667
        k(  826) = (   0.0800000   0.1800000   0.0000000), wk =   0.0010667
        k(  827) = (   0.0800000   0.1866667   0.0000000), wk =   0.0010667
        k(  828) = (   0.0800000   0.1933333   0.0000000), wk =   0.0010667
        k(  829) = (   0.0800000   0.2000000   0.0000000), wk =   0.0010667
        k(  830) = (   0.0800000   0.2066667   0.0000000), wk =   0.0010667
        k(  831) = (   0.0800000   0.2133333   0.0000000), wk =   0.0010667
        k(  832) = (   0.0800000   0.2200000   0.0000000), wk =   0.0010667
        k(  833) = (   0.0800000   0.2266667   0.0000000), wk =   0.0010667
        k(  834) = (   0.0800000   0.2333333   0.0000000), wk =   0.0010667
        k(  835) = (   0.0800000   0.2400000   0.0000000), wk =   0.0010667
        k(  836) = (   0.0800000   0.2466667   0.0000000), wk =   0.0010667
        k(  837) = (   0.0800000   0.2533333   0.0000000), wk =   0.0010667
        k(  838) = (   0.0800000   0.2600000   0.0000000), wk =   0.0010667
        k(  839) = (   0.0800000   0.2666667   0.0000000), wk =   0.0010667
        k(  840) = (   0.0800000   0.2733333   0.0000000), wk =   0.0010667
        k(  841) = (   0.0800000   0.2800000   0.0000000), wk =   0.0010667
        k(  842) = (   0.0800000   0.2866667   0.0000000), wk =   0.0010667
        k(  843) = (   0.0800000   0.2933333   0.0000000), wk =   0.0010667
        k(  844) = (   0.0800000   0.3000000   0.0000000), wk =   0.0010667
        k(  845) = (   0.0800000   0.3066667   0.0000000), wk =   0.0010667
        k(  846) = (   0.0800000   0.3133333   0.0000000), wk =   0.0010667
        k(  847) = (   0.0800000   0.3200000   0.0000000), wk =   0.0010667
        k(  848) = (   0.0800000   0.3266667   0.0000000), wk =   0.0010667
        k(  849) = (   0.0800000   0.3333333   0.0000000), wk =   0.0010667
        k(  850) = (   0.0800000   0.3400000   0.0000000), wk =   0.0010667
        k(  851) = (   0.0800000   0.3466667   0.0000000), wk =   0.0010667
        k(  852) = (   0.0800000   0.3533333   0.0000000), wk =   0.0010667
        k(  853) = (   0.0800000   0.3600000   0.0000000), wk =   0.0010667
        k(  854) = (   0.0800000   0.3666667   0.0000000), wk =   0.0010667
        k(  855) = (   0.0800000   0.3733333   0.0000000), wk =   0.0010667
        k(  856) = (   0.0800000   0.3800000   0.0000000), wk =   0.0010667
        k(  857) = (   0.0800000   0.3866667   0.0000000), wk =   0.0010667
        k(  858) = (   0.0800000   0.3933333   0.0000000), wk =   0.0010667
        k(  859) = (   0.0800000   0.4000000   0.0000000), wk =   0.0010667
        k(  860) = (   0.0800000   0.4066667   0.0000000), wk =   0.0010667
        k(  861) = (   0.0800000   0.4133333   0.0000000), wk =   0.0010667
        k(  862) = (   0.0800000   0.4200000   0.0000000), wk =   0.0010667
        k(  863) = (   0.0800000   0.4266667   0.0000000), wk =   0.0010667
        k(  864) = (   0.0800000   0.4333333   0.0000000), wk =   0.0010667
        k(  865) = (   0.0800000   0.4400000   0.0000000), wk =   0.0010667
        k(  866) = (   0.0800000   0.4466667   0.0000000), wk =   0.0010667
        k(  867) = (   0.0800000   0.4533333   0.0000000), wk =   0.0010667
        k(  868) = (   0.0800000   0.4600000   0.0000000), wk =   0.0005333
        k(  869) = (   0.0866667   0.0866667   0.0000000), wk =   0.0005333
        k(  870) = (   0.0866667   0.0933333   0.0000000), wk =   0.0010667
        k(  871) = (   0.0866667   0.1000000   0.0000000), wk =   0.0010667
        k(  872) = (   0.0866667   0.1066667   0.0000000), wk =   0.0010667
        k(  873) = (   0.0866667   0.1133333   0.0000000), wk =   0.0010667
        k(  874) = (   0.0866667   0.1200000   0.0000000), wk =   0.0010667
        k(  875) = (   0.0866667   0.1266667   0.0000000), wk =   0.0010667
        k(  876) = (   0.0866667   0.1333333   0.0000000), wk =   0.0010667
        k(  877) = (   0.0866667   0.1400000   0.0000000), wk =   0.0010667
        k(  878) = (   0.0866667   0.1466667   0.0000000), wk =   0.0010667
        k(  879) = (   0.0866667   0.1533333   0.0000000), wk =   0.0010667
        k(  880) = (   0.0866667   0.1600000   0.0000000), wk =   0.0010667
        k(  881) = (   0.0866667   0.1666667   0.0000000), wk =   0.0010667
        k(  882) = (   0.0866667   0.1733333   0.0000000), wk =   0.0010667
        k(  883) = (   0.0866667   0.1800000   0.0000000), wk =   0.0010667
        k(  884) = (   0.0866667   0.1866667   0.0000000), wk =   0.0010667
        k(  885) = (   0.0866667   0.1933333   0.0000000), wk =   0.0010667
        k(  886) = (   0.0866667   0.2000000   0.0000000), wk =   0.0010667
        k(  887) = (   0.0866667   0.2066667   0.0000000), wk =   0.0010667
        k(  888) = (   0.0866667   0.2133333   0.0000000), wk =   0.0010667
        k(  889) = (   0.0866667   0.2200000   0.0000000), wk =   0.0010667
        k(  890) = (   0.0866667   0.2266667   0.0000000), wk =   0.0010667
        k(  891) = (   0.0866667   0.2333333   0.0000000), wk =   0.0010667
        k(  892) = (   0.0866667   0.2400000   0.0000000), wk =   0.0010667
        k(  893) = (   0.0866667   0.2466667   0.0000000), wk =   0.0010667
        k(  894) = (   0.0866667   0.2533333   0.0000000), wk =   0.0010667
        k(  895) = (   0.0866667   0.2600000   0.0000000), wk =   0.0010667
        k(  896) = (   0.0866667   0.2666667   0.0000000), wk =   0.0010667
        k(  897) = (   0.0866667   0.2733333   0.0000000), wk =   0.0010667
        k(  898) = (   0.0866667   0.2800000   0.0000000), wk =   0.0010667
        k(  899) = (   0.0866667   0.2866667   0.0000000), wk =   0.0010667
        k(  900) = (   0.0866667   0.2933333   0.0000000), wk =   0.0010667
        k(  901) = (   0.0866667   0.3000000   0.0000000), wk =   0.0010667
        k(  902) = (   0.0866667   0.3066667   0.0000000), wk =   0.0010667
        k(  903) = (   0.0866667   0.3133333   0.0000000), wk =   0.0010667
        k(  904) = (   0.0866667   0.3200000   0.0000000), wk =   0.0010667
        k(  905) = (   0.0866667   0.3266667   0.0000000), wk =   0.0010667
        k(  906) = (   0.0866667   0.3333333   0.0000000), wk =   0.0010667
        k(  907) = (   0.0866667   0.3400000   0.0000000), wk =   0.0010667
        k(  908) = (   0.0866667   0.3466667   0.0000000), wk =   0.0010667
        k(  909) = (   0.0866667   0.3533333   0.0000000), wk =   0.0010667
        k(  910) = (   0.0866667   0.3600000   0.0000000), wk =   0.0010667
        k(  911) = (   0.0866667   0.3666667   0.0000000), wk =   0.0010667
        k(  912) = (   0.0866667   0.3733333   0.0000000), wk =   0.0010667
        k(  913) = (   0.0866667   0.3800000   0.0000000), wk =   0.0010667
        k(  914) = (   0.0866667   0.3866667   0.0000000), wk =   0.0010667
        k(  915) = (   0.0866667   0.3933333   0.0000000), wk =   0.0010667
        k(  916) = (   0.0866667   0.4000000   0.0000000), wk =   0.0010667
        k(  917) = (   0.0866667   0.4066667   0.0000000), wk =   0.0010667
        k(  918) = (   0.0866667   0.4133333   0.0000000), wk =   0.0010667
        k(  919) = (   0.0866667   0.4200000   0.0000000), wk =   0.0010667
        k(  920) = (   0.0866667   0.4266667   0.0000000), wk =   0.0010667
        k(  921) = (   0.0866667   0.4333333   0.0000000), wk =   0.0010667
        k(  922) = (   0.0866667   0.4400000   0.0000000), wk =   0.0010667
        k(  923) = (   0.0866667   0.4466667   0.0000000), wk =   0.0010667
        k(  924) = (   0.0866667   0.4533333   0.0000000), wk =   0.0010667
        k(  925) = (   0.0933333   0.0933333   0.0000000), wk =   0.0005333
        k(  926) = (   0.0933333   0.1000000   0.0000000), wk =   0.0010667
        k(  927) = (   0.0933333   0.1066667   0.0000000), wk =   0.0010667
        k(  928) = (   0.0933333   0.1133333   0.0000000), wk =   0.0010667
        k(  929) = (   0.0933333   0.1200000   0.0000000), wk =   0.0010667
        k(  930) = (   0.0933333   0.1266667   0.0000000), wk =   0.0010667
        k(  931) = (   0.0933333   0.1333333   0.0000000), wk =   0.0010667
        k(  932) = (   0.0933333   0.1400000   0.0000000), wk =   0.0010667
        k(  933) = (   0.0933333   0.1466667   0.0000000), wk =   0.0010667
        k(  934) = (   0.0933333   0.1533333   0.0000000), wk =   0.0010667
        k(  935) = (   0.0933333   0.1600000   0.0000000), wk =   0.0010667
        k(  936) = (   0.0933333   0.1666667   0.0000000), wk =   0.0010667
        k(  937) = (   0.0933333   0.1733333   0.0000000), wk =   0.0010667
        k(  938) = (   0.0933333   0.1800000   0.0000000), wk =   0.0010667
        k(  939) = (   0.0933333   0.1866667   0.0000000), wk =   0.0010667
        k(  940) = (   0.0933333   0.1933333   0.0000000), wk =   0.0010667
        k(  941) = (   0.0933333   0.2000000   0.0000000), wk =   0.0010667
        k(  942) = (   0.0933333   0.2066667   0.0000000), wk =   0.0010667
        k(  943) = (   0.0933333   0.2133333   0.0000000), wk =   0.0010667
        k(  944) = (   0.0933333   0.2200000   0.0000000), wk =   0.0010667
        k(  945) = (   0.0933333   0.2266667   0.0000000), wk =   0.0010667
        k(  946) = (   0.0933333   0.2333333   0.0000000), wk =   0.0010667
        k(  947) = (   0.0933333   0.2400000   0.0000000), wk =   0.0010667
        k(  948) = (   0.0933333   0.2466667   0.0000000), wk =   0.0010667
        k(  949) = (   0.0933333   0.2533333   0.0000000), wk =   0.0010667
        k(  950) = (   0.0933333   0.2600000   0.0000000), wk =   0.0010667
        k(  951) = (   0.0933333   0.2666667   0.0000000), wk =   0.0010667
        k(  952) = (   0.0933333   0.2733333   0.0000000), wk =   0.0010667
        k(  953) = (   0.0933333   0.2800000   0.0000000), wk =   0.0010667
        k(  954) = (   0.0933333   0.2866667   0.0000000), wk =   0.0010667
        k(  955) = (   0.0933333   0.2933333   0.0000000), wk =   0.0010667
        k(  956) = (   0.0933333   0.3000000   0.0000000), wk =   0.0010667
        k(  957) = (   0.0933333   0.3066667   0.0000000), wk =   0.0010667
        k(  958) = (   0.0933333   0.3133333   0.0000000), wk =   0.0010667
        k(  959) = (   0.0933333   0.3200000   0.0000000), wk =   0.0010667
        k(  960) = (   0.0933333   0.3266667   0.0000000), wk =   0.0010667
        k(  961) = (   0.0933333   0.3333333   0.0000000), wk =   0.0010667
        k(  962) = (   0.0933333   0.3400000   0.0000000), wk =   0.0010667
        k(  963) = (   0.0933333   0.3466667   0.0000000), wk =   0.0010667
        k(  964) = (   0.0933333   0.3533333   0.0000000), wk =   0.0010667
        k(  965) = (   0.0933333   0.3600000   0.0000000), wk =   0.0010667
        k(  966) = (   0.0933333   0.3666667   0.0000000), wk =   0.0010667
        k(  967) = (   0.0933333   0.3733333   0.0000000), wk =   0.0010667
        k(  968) = (   0.0933333   0.3800000   0.0000000), wk =   0.0010667
        k(  969) = (   0.0933333   0.3866667   0.0000000), wk =   0.0010667
        k(  970) = (   0.0933333   0.3933333   0.0000000), wk =   0.0010667
        k(  971) = (   0.0933333   0.4000000   0.0000000), wk =   0.0010667
        k(  972) = (   0.0933333   0.4066667   0.0000000), wk =   0.0010667
        k(  973) = (   0.0933333   0.4133333   0.0000000), wk =   0.0010667
        k(  974) = (   0.0933333   0.4200000   0.0000000), wk =   0.0010667
        k(  975) = (   0.0933333   0.4266667   0.0000000), wk =   0.0010667
        k(  976) = (   0.0933333   0.4333333   0.0000000), wk =   0.0010667
        k(  977) = (   0.0933333   0.4400000   0.0000000), wk =   0.0010667
        k(  978) = (   0.0933333   0.4466667   0.0000000), wk =   0.0010667
        k(  979) = (   0.0933333   0.4533333   0.0000000), wk =   0.0005333
        k(  980) = (   0.1000000   0.1000000   0.0000000), wk =   0.0005333
        k(  981) = (   0.1000000   0.1066667   0.0000000), wk =   0.0010667
        k(  982) = (   0.1000000   0.1133333   0.0000000), wk =   0.0010667
        k(  983) = (   0.1000000   0.1200000   0.0000000), wk =   0.0010667
        k(  984) = (   0.1000000   0.1266667   0.0000000), wk =   0.0010667
        k(  985) = (   0.1000000   0.1333333   0.0000000), wk =   0.0010667
        k(  986) = (   0.1000000   0.1400000   0.0000000), wk =   0.0010667
        k(  987) = (   0.1000000   0.1466667   0.0000000), wk =   0.0010667
        k(  988) = (   0.1000000   0.1533333   0.0000000), wk =   0.0010667
        k(  989) = (   0.1000000   0.1600000   0.0000000), wk =   0.0010667
        k(  990) = (   0.1000000   0.1666667   0.0000000), wk =   0.0010667
        k(  991) = (   0.1000000   0.1733333   0.0000000), wk =   0.0010667
        k(  992) = (   0.1000000   0.1800000   0.0000000), wk =   0.0010667
        k(  993) = (   0.1000000   0.1866667   0.0000000), wk =   0.0010667
        k(  994) = (   0.1000000   0.1933333   0.0000000), wk =   0.0010667
        k(  995) = (   0.1000000   0.2000000   0.0000000), wk =   0.0010667
        k(  996) = (   0.1000000   0.2066667   0.0000000), wk =   0.0010667
        k(  997) = (   0.1000000   0.2133333   0.0000000), wk =   0.0010667
        k(  998) = (   0.1000000   0.2200000   0.0000000), wk =   0.0010667
        k(  999) = (   0.1000000   0.2266667   0.0000000), wk =   0.0010667
        k( 1000) = (   0.1000000   0.2333333   0.0000000), wk =   0.0010667
        k( 1001) = (   0.1000000   0.2400000   0.0000000), wk =   0.0010667
        k( 1002) = (   0.1000000   0.2466667   0.0000000), wk =   0.0010667
        k( 1003) = (   0.1000000   0.2533333   0.0000000), wk =   0.0010667
        k( 1004) = (   0.1000000   0.2600000   0.0000000), wk =   0.0010667
        k( 1005) = (   0.1000000   0.2666667   0.0000000), wk =   0.0010667
        k( 1006) = (   0.1000000   0.2733333   0.0000000), wk =   0.0010667
        k( 1007) = (   0.1000000   0.2800000   0.0000000), wk =   0.0010667
        k( 1008) = (   0.1000000   0.2866667   0.0000000), wk =   0.0010667
        k( 1009) = (   0.1000000   0.2933333   0.0000000), wk =   0.0010667
        k( 1010) = (   0.1000000   0.3000000   0.0000000), wk =   0.0010667
        k( 1011) = (   0.1000000   0.3066667   0.0000000), wk =   0.0010667
        k( 1012) = (   0.1000000   0.3133333   0.0000000), wk =   0.0010667
        k( 1013) = (   0.1000000   0.3200000   0.0000000), wk =   0.0010667
        k( 1014) = (   0.1000000   0.3266667   0.0000000), wk =   0.0010667
        k( 1015) = (   0.1000000   0.3333333   0.0000000), wk =   0.0010667
        k( 1016) = (   0.1000000   0.3400000   0.0000000), wk =   0.0010667
        k( 1017) = (   0.1000000   0.3466667   0.0000000), wk =   0.0010667
        k( 1018) = (   0.1000000   0.3533333   0.0000000), wk =   0.0010667
        k( 1019) = (   0.1000000   0.3600000   0.0000000), wk =   0.0010667
        k( 1020) = (   0.1000000   0.3666667   0.0000000), wk =   0.0010667
        k( 1021) = (   0.1000000   0.3733333   0.0000000), wk =   0.0010667
        k( 1022) = (   0.1000000   0.3800000   0.0000000), wk =   0.0010667
        k( 1023) = (   0.1000000   0.3866667   0.0000000), wk =   0.0010667
        k( 1024) = (   0.1000000   0.3933333   0.0000000), wk =   0.0010667
        k( 1025) = (   0.1000000   0.4000000   0.0000000), wk =   0.0010667
        k( 1026) = (   0.1000000   0.4066667   0.0000000), wk =   0.0010667
        k( 1027) = (   0.1000000   0.4133333   0.0000000), wk =   0.0010667
        k( 1028) = (   0.1000000   0.4200000   0.0000000), wk =   0.0010667
        k( 1029) = (   0.1000000   0.4266667   0.0000000), wk =   0.0010667
        k( 1030) = (   0.1000000   0.4333333   0.0000000), wk =   0.0010667
        k( 1031) = (   0.1000000   0.4400000   0.0000000), wk =   0.0010667
        k( 1032) = (   0.1000000   0.4466667   0.0000000), wk =   0.0010667
        k( 1033) = (   0.1066667   0.1066667   0.0000000), wk =   0.0005333
        k( 1034) = (   0.1066667   0.1133333   0.0000000), wk =   0.0010667
        k( 1035) = (   0.1066667   0.1200000   0.0000000), wk =   0.0010667
        k( 1036) = (   0.1066667   0.1266667   0.0000000), wk =   0.0010667
        k( 1037) = (   0.1066667   0.1333333   0.0000000), wk =   0.0010667
        k( 1038) = (   0.1066667   0.1400000   0.0000000), wk =   0.0010667
        k( 1039) = (   0.1066667   0.1466667   0.0000000), wk =   0.0010667
        k( 1040) = (   0.1066667   0.1533333   0.0000000), wk =   0.0010667
        k( 1041) = (   0.1066667   0.1600000   0.0000000), wk =   0.0010667
        k( 1042) = (   0.1066667   0.1666667   0.0000000), wk =   0.0010667
        k( 1043) = (   0.1066667   0.1733333   0.0000000), wk =   0.0010667
        k( 1044) = (   0.1066667   0.1800000   0.0000000), wk =   0.0010667
        k( 1045) = (   0.1066667   0.1866667   0.0000000), wk =   0.0010667
        k( 1046) = (   0.1066667   0.1933333   0.0000000), wk =   0.0010667
        k( 1047) = (   0.1066667   0.2000000   0.0000000), wk =   0.0010667
        k( 1048) = (   0.1066667   0.2066667   0.0000000), wk =   0.0010667
        k( 1049) = (   0.1066667   0.2133333   0.0000000), wk =   0.0010667
        k( 1050) = (   0.1066667   0.2200000   0.0000000), wk =   0.0010667
        k( 1051) = (   0.1066667   0.2266667   0.0000000), wk =   0.0010667
        k( 1052) = (   0.1066667   0.2333333   0.0000000), wk =   0.0010667
        k( 1053) = (   0.1066667   0.2400000   0.0000000), wk =   0.0010667
        k( 1054) = (   0.1066667   0.2466667   0.0000000), wk =   0.0010667
        k( 1055) = (   0.1066667   0.2533333   0.0000000), wk =   0.0010667
        k( 1056) = (   0.1066667   0.2600000   0.0000000), wk =   0.0010667
        k( 1057) = (   0.1066667   0.2666667   0.0000000), wk =   0.0010667
        k( 1058) = (   0.1066667   0.2733333   0.0000000), wk =   0.0010667
        k( 1059) = (   0.1066667   0.2800000   0.0000000), wk =   0.0010667
        k( 1060) = (   0.1066667   0.2866667   0.0000000), wk =   0.0010667
        k( 1061) = (   0.1066667   0.2933333   0.0000000), wk =   0.0010667
        k( 1062) = (   0.1066667   0.3000000   0.0000000), wk =   0.0010667
        k( 1063) = (   0.1066667   0.3066667   0.0000000), wk =   0.0010667
        k( 1064) = (   0.1066667   0.3133333   0.0000000), wk =   0.0010667
        k( 1065) = (   0.1066667   0.3200000   0.0000000), wk =   0.0010667
        k( 1066) = (   0.1066667   0.3266667   0.0000000), wk =   0.0010667
        k( 1067) = (   0.1066667   0.3333333   0.0000000), wk =   0.0010667
        k( 1068) = (   0.1066667   0.3400000   0.0000000), wk =   0.0010667
        k( 1069) = (   0.1066667   0.3466667   0.0000000), wk =   0.0010667
        k( 1070) = (   0.1066667   0.3533333   0.0000000), wk =   0.0010667
        k( 1071) = (   0.1066667   0.3600000   0.0000000), wk =   0.0010667
        k( 1072) = (   0.1066667   0.3666667   0.0000000), wk =   0.0010667
        k( 1073) = (   0.1066667   0.3733333   0.0000000), wk =   0.0010667
        k( 1074) = (   0.1066667   0.3800000   0.0000000), wk =   0.0010667
        k( 1075) = (   0.1066667   0.3866667   0.0000000), wk =   0.0010667
        k( 1076) = (   0.1066667   0.3933333   0.0000000), wk =   0.0010667
        k( 1077) = (   0.1066667   0.4000000   0.0000000), wk =   0.0010667
        k( 1078) = (   0.1066667   0.4066667   0.0000000), wk =   0.0010667
        k( 1079) = (   0.1066667   0.4133333   0.0000000), wk =   0.0010667
        k( 1080) = (   0.1066667   0.4200000   0.0000000), wk =   0.0010667
        k( 1081) = (   0.1066667   0.4266667   0.0000000), wk =   0.0010667
        k( 1082) = (   0.1066667   0.4333333   0.0000000), wk =   0.0010667
        k( 1083) = (   0.1066667   0.4400000   0.0000000), wk =   0.0010667
        k( 1084) = (   0.1066667   0.4466667   0.0000000), wk =   0.0005333
        k( 1085) = (   0.1133333   0.1133333   0.0000000), wk =   0.0005333
        k( 1086) = (   0.1133333   0.1200000   0.0000000), wk =   0.0010667
        k( 1087) = (   0.1133333   0.1266667   0.0000000), wk =   0.0010667
        k( 1088) = (   0.1133333   0.1333333   0.0000000), wk =   0.0010667
        k( 1089) = (   0.1133333   0.1400000   0.0000000), wk =   0.0010667
        k( 1090) = (   0.1133333   0.1466667   0.0000000), wk =   0.0010667
        k( 1091) = (   0.1133333   0.1533333   0.0000000), wk =   0.0010667
        k( 1092) = (   0.1133333   0.1600000   0.0000000), wk =   0.0010667
        k( 1093) = (   0.1133333   0.1666667   0.0000000), wk =   0.0010667
        k( 1094) = (   0.1133333   0.1733333   0.0000000), wk =   0.0010667
        k( 1095) = (   0.1133333   0.1800000   0.0000000), wk =   0.0010667
        k( 1096) = (   0.1133333   0.1866667   0.0000000), wk =   0.0010667
        k( 1097) = (   0.1133333   0.1933333   0.0000000), wk =   0.0010667
        k( 1098) = (   0.1133333   0.2000000   0.0000000), wk =   0.0010667
        k( 1099) = (   0.1133333   0.2066667   0.0000000), wk =   0.0010667
        k( 1100) = (   0.1133333   0.2133333   0.0000000), wk =   0.0010667
        k( 1101) = (   0.1133333   0.2200000   0.0000000), wk =   0.0010667
        k( 1102) = (   0.1133333   0.2266667   0.0000000), wk =   0.0010667
        k( 1103) = (   0.1133333   0.2333333   0.0000000), wk =   0.0010667
        k( 1104) = (   0.1133333   0.2400000   0.0000000), wk =   0.0010667
        k( 1105) = (   0.1133333   0.2466667   0.0000000), wk =   0.0010667
        k( 1106) = (   0.1133333   0.2533333   0.0000000), wk =   0.0010667
        k( 1107) = (   0.1133333   0.2600000   0.0000000), wk =   0.0010667
        k( 1108) = (   0.1133333   0.2666667   0.0000000), wk =   0.0010667
        k( 1109) = (   0.1133333   0.2733333   0.0000000), wk =   0.0010667
        k( 1110) = (   0.1133333   0.2800000   0.0000000), wk =   0.0010667
        k( 1111) = (   0.1133333   0.2866667   0.0000000), wk =   0.0010667
        k( 1112) = (   0.1133333   0.2933333   0.0000000), wk =   0.0010667
        k( 1113) = (   0.1133333   0.3000000   0.0000000), wk =   0.0010667
        k( 1114) = (   0.1133333   0.3066667   0.0000000), wk =   0.0010667
        k( 1115) = (   0.1133333   0.3133333   0.0000000), wk =   0.0010667
        k( 1116) = (   0.1133333   0.3200000   0.0000000), wk =   0.0010667
        k( 1117) = (   0.1133333   0.3266667   0.0000000), wk =   0.0010667
        k( 1118) = (   0.1133333   0.3333333   0.0000000), wk =   0.0010667
        k( 1119) = (   0.1133333   0.3400000   0.0000000), wk =   0.0010667
        k( 1120) = (   0.1133333   0.3466667   0.0000000), wk =   0.0010667
        k( 1121) = (   0.1133333   0.3533333   0.0000000), wk =   0.0010667
        k( 1122) = (   0.1133333   0.3600000   0.0000000), wk =   0.0010667
        k( 1123) = (   0.1133333   0.3666667   0.0000000), wk =   0.0010667
        k( 1124) = (   0.1133333   0.3733333   0.0000000), wk =   0.0010667
        k( 1125) = (   0.1133333   0.3800000   0.0000000), wk =   0.0010667
        k( 1126) = (   0.1133333   0.3866667   0.0000000), wk =   0.0010667
        k( 1127) = (   0.1133333   0.3933333   0.0000000), wk =   0.0010667
        k( 1128) = (   0.1133333   0.4000000   0.0000000), wk =   0.0010667
        k( 1129) = (   0.1133333   0.4066667   0.0000000), wk =   0.0010667
        k( 1130) = (   0.1133333   0.4133333   0.0000000), wk =   0.0010667
        k( 1131) = (   0.1133333   0.4200000   0.0000000), wk =   0.0010667
        k( 1132) = (   0.1133333   0.4266667   0.0000000), wk =   0.0010667
        k( 1133) = (   0.1133333   0.4333333   0.0000000), wk =   0.0010667
        k( 1134) = (   0.1133333   0.4400000   0.0000000), wk =   0.0010667
        k( 1135) = (   0.1200000   0.1200000   0.0000000), wk =   0.0005333
        k( 1136) = (   0.1200000   0.1266667   0.0000000), wk =   0.0010667
        k( 1137) = (   0.1200000   0.1333333   0.0000000), wk =   0.0010667
        k( 1138) = (   0.1200000   0.1400000   0.0000000), wk =   0.0010667
        k( 1139) = (   0.1200000   0.1466667   0.0000000), wk =   0.0010667
        k( 1140) = (   0.1200000   0.1533333   0.0000000), wk =   0.0010667
        k( 1141) = (   0.1200000   0.1600000   0.0000000), wk =   0.0010667
        k( 1142) = (   0.1200000   0.1666667   0.0000000), wk =   0.0010667
        k( 1143) = (   0.1200000   0.1733333   0.0000000), wk =   0.0010667
        k( 1144) = (   0.1200000   0.1800000   0.0000000), wk =   0.0010667
        k( 1145) = (   0.1200000   0.1866667   0.0000000), wk =   0.0010667
        k( 1146) = (   0.1200000   0.1933333   0.0000000), wk =   0.0010667
        k( 1147) = (   0.1200000   0.2000000   0.0000000), wk =   0.0010667
        k( 1148) = (   0.1200000   0.2066667   0.0000000), wk =   0.0010667
        k( 1149) = (   0.1200000   0.2133333   0.0000000), wk =   0.0010667
        k( 1150) = (   0.1200000   0.2200000   0.0000000), wk =   0.0010667
        k( 1151) = (   0.1200000   0.2266667   0.0000000), wk =   0.0010667
        k( 1152) = (   0.1200000   0.2333333   0.0000000), wk =   0.0010667
        k( 1153) = (   0.1200000   0.2400000   0.0000000), wk =   0.0010667
        k( 1154) = (   0.1200000   0.2466667   0.0000000), wk =   0.0010667
        k( 1155) = (   0.1200000   0.2533333   0.0000000), wk =   0.0010667
        k( 1156) = (   0.1200000   0.2600000   0.0000000), wk =   0.0010667
        k( 1157) = (   0.1200000   0.2666667   0.0000000), wk =   0.0010667
        k( 1158) = (   0.1200000   0.2733333   0.0000000), wk =   0.0010667
        k( 1159) = (   0.1200000   0.2800000   0.0000000), wk =   0.0010667
        k( 1160) = (   0.1200000   0.2866667   0.0000000), wk =   0.0010667
        k( 1161) = (   0.1200000   0.2933333   0.0000000), wk =   0.0010667
        k( 1162) = (   0.1200000   0.3000000   0.0000000), wk =   0.0010667
        k( 1163) = (   0.1200000   0.3066667   0.0000000), wk =   0.0010667
        k( 1164) = (   0.1200000   0.3133333   0.0000000), wk =   0.0010667
        k( 1165) = (   0.1200000   0.3200000   0.0000000), wk =   0.0010667
        k( 1166) = (   0.1200000   0.3266667   0.0000000), wk =   0.0010667
        k( 1167) = (   0.1200000   0.3333333   0.0000000), wk =   0.0010667
        k( 1168) = (   0.1200000   0.3400000   0.0000000), wk =   0.0010667
        k( 1169) = (   0.1200000   0.3466667   0.0000000), wk =   0.0010667
        k( 1170) = (   0.1200000   0.3533333   0.0000000), wk =   0.0010667
        k( 1171) = (   0.1200000   0.3600000   0.0000000), wk =   0.0010667
        k( 1172) = (   0.1200000   0.3666667   0.0000000), wk =   0.0010667
        k( 1173) = (   0.1200000   0.3733333   0.0000000), wk =   0.0010667
        k( 1174) = (   0.1200000   0.3800000   0.0000000), wk =   0.0010667
        k( 1175) = (   0.1200000   0.3866667   0.0000000), wk =   0.0010667
        k( 1176) = (   0.1200000   0.3933333   0.0000000), wk =   0.0010667
        k( 1177) = (   0.1200000   0.4000000   0.0000000), wk =   0.0010667
        k( 1178) = (   0.1200000   0.4066667   0.0000000), wk =   0.0010667
        k( 1179) = (   0.1200000   0.4133333   0.0000000), wk =   0.0010667
        k( 1180) = (   0.1200000   0.4200000   0.0000000), wk =   0.0010667
        k( 1181) = (   0.1200000   0.4266667   0.0000000), wk =   0.0010667
        k( 1182) = (   0.1200000   0.4333333   0.0000000), wk =   0.0010667
        k( 1183) = (   0.1200000   0.4400000   0.0000000), wk =   0.0005333
        k( 1184) = (   0.1266667   0.1266667   0.0000000), wk =   0.0005333
        k( 1185) = (   0.1266667   0.1333333   0.0000000), wk =   0.0010667
        k( 1186) = (   0.1266667   0.1400000   0.0000000), wk =   0.0010667
        k( 1187) = (   0.1266667   0.1466667   0.0000000), wk =   0.0010667
        k( 1188) = (   0.1266667   0.1533333   0.0000000), wk =   0.0010667
        k( 1189) = (   0.1266667   0.1600000   0.0000000), wk =   0.0010667
        k( 1190) = (   0.1266667   0.1666667   0.0000000), wk =   0.0010667
        k( 1191) = (   0.1266667   0.1733333   0.0000000), wk =   0.0010667
        k( 1192) = (   0.1266667   0.1800000   0.0000000), wk =   0.0010667
        k( 1193) = (   0.1266667   0.1866667   0.0000000), wk =   0.0010667
        k( 1194) = (   0.1266667   0.1933333   0.0000000), wk =   0.0010667
        k( 1195) = (   0.1266667   0.2000000   0.0000000), wk =   0.0010667
        k( 1196) = (   0.1266667   0.2066667   0.0000000), wk =   0.0010667
        k( 1197) = (   0.1266667   0.2133333   0.0000000), wk =   0.0010667
        k( 1198) = (   0.1266667   0.2200000   0.0000000), wk =   0.0010667
        k( 1199) = (   0.1266667   0.2266667   0.0000000), wk =   0.0010667
        k( 1200) = (   0.1266667   0.2333333   0.0000000), wk =   0.0010667
        k( 1201) = (   0.1266667   0.2400000   0.0000000), wk =   0.0010667
        k( 1202) = (   0.1266667   0.2466667   0.0000000), wk =   0.0010667
        k( 1203) = (   0.1266667   0.2533333   0.0000000), wk =   0.0010667
        k( 1204) = (   0.1266667   0.2600000   0.0000000), wk =   0.0010667
        k( 1205) = (   0.1266667   0.2666667   0.0000000), wk =   0.0010667
        k( 1206) = (   0.1266667   0.2733333   0.0000000), wk =   0.0010667
        k( 1207) = (   0.1266667   0.2800000   0.0000000), wk =   0.0010667
        k( 1208) = (   0.1266667   0.2866667   0.0000000), wk =   0.0010667
        k( 1209) = (   0.1266667   0.2933333   0.0000000), wk =   0.0010667
        k( 1210) = (   0.1266667   0.3000000   0.0000000), wk =   0.0010667
        k( 1211) = (   0.1266667   0.3066667   0.0000000), wk =   0.0010667
        k( 1212) = (   0.1266667   0.3133333   0.0000000), wk =   0.0010667
        k( 1213) = (   0.1266667   0.3200000   0.0000000), wk =   0.0010667
        k( 1214) = (   0.1266667   0.3266667   0.0000000), wk =   0.0010667
        k( 1215) = (   0.1266667   0.3333333   0.0000000), wk =   0.0010667
        k( 1216) = (   0.1266667   0.3400000   0.0000000), wk =   0.0010667
        k( 1217) = (   0.1266667   0.3466667   0.0000000), wk =   0.0010667
        k( 1218) = (   0.1266667   0.3533333   0.0000000), wk =   0.0010667
        k( 1219) = (   0.1266667   0.3600000   0.0000000), wk =   0.0010667
        k( 1220) = (   0.1266667   0.3666667   0.0000000), wk =   0.0010667
        k( 1221) = (   0.1266667   0.3733333   0.0000000), wk =   0.0010667
        k( 1222) = (   0.1266667   0.3800000   0.0000000), wk =   0.0010667
        k( 1223) = (   0.1266667   0.3866667   0.0000000), wk =   0.0010667
        k( 1224) = (   0.1266667   0.3933333   0.0000000), wk =   0.0010667
        k( 1225) = (   0.1266667   0.4000000   0.0000000), wk =   0.0010667
        k( 1226) = (   0.1266667   0.4066667   0.0000000), wk =   0.0010667
        k( 1227) = (   0.1266667   0.4133333   0.0000000), wk =   0.0010667
        k( 1228) = (   0.1266667   0.4200000   0.0000000), wk =   0.0010667
        k( 1229) = (   0.1266667   0.4266667   0.0000000), wk =   0.0010667
        k( 1230) = (   0.1266667   0.4333333   0.0000000), wk =   0.0010667
        k( 1231) = (   0.1333333   0.1333333   0.0000000), wk =   0.0005333
        k( 1232) = (   0.1333333   0.1400000   0.0000000), wk =   0.0010667
        k( 1233) = (   0.1333333   0.1466667   0.0000000), wk =   0.0010667
        k( 1234) = (   0.1333333   0.1533333   0.0000000), wk =   0.0010667
        k( 1235) = (   0.1333333   0.1600000   0.0000000), wk =   0.0010667
        k( 1236) = (   0.1333333   0.1666667   0.0000000), wk =   0.0010667
        k( 1237) = (   0.1333333   0.1733333   0.0000000), wk =   0.0010667
        k( 1238) = (   0.1333333   0.1800000   0.0000000), wk =   0.0010667
        k( 1239) = (   0.1333333   0.1866667   0.0000000), wk =   0.0010667
        k( 1240) = (   0.1333333   0.1933333   0.0000000), wk =   0.0010667
        k( 1241) = (   0.1333333   0.2000000   0.0000000), wk =   0.0010667
        k( 1242) = (   0.1333333   0.2066667   0.0000000), wk =   0.0010667
        k( 1243) = (   0.1333333   0.2133333   0.0000000), wk =   0.0010667
        k( 1244) = (   0.1333333   0.2200000   0.0000000), wk =   0.0010667
        k( 1245) = (   0.1333333   0.2266667   0.0000000), wk =   0.0010667
        k( 1246) = (   0.1333333   0.2333333   0.0000000), wk =   0.0010667
        k( 1247) = (   0.1333333   0.2400000   0.0000000), wk =   0.0010667
        k( 1248) = (   0.1333333   0.2466667   0.0000000), wk =   0.0010667
        k( 1249) = (   0.1333333   0.2533333   0.0000000), wk =   0.0010667
        k( 1250) = (   0.1333333   0.2600000   0.0000000), wk =   0.0010667
        k( 1251) = (   0.1333333   0.2666667   0.0000000), wk =   0.0010667
        k( 1252) = (   0.1333333   0.2733333   0.0000000), wk =   0.0010667
        k( 1253) = (   0.1333333   0.2800000   0.0000000), wk =   0.0010667
        k( 1254) = (   0.1333333   0.2866667   0.0000000), wk =   0.0010667
        k( 1255) = (   0.1333333   0.2933333   0.0000000), wk =   0.0010667
        k( 1256) = (   0.1333333   0.3000000   0.0000000), wk =   0.0010667
        k( 1257) = (   0.1333333   0.3066667   0.0000000), wk =   0.0010667
        k( 1258) = (   0.1333333   0.3133333   0.0000000), wk =   0.0010667
        k( 1259) = (   0.1333333   0.3200000   0.0000000), wk =   0.0010667
        k( 1260) = (   0.1333333   0.3266667   0.0000000), wk =   0.0010667
        k( 1261) = (   0.1333333   0.3333333   0.0000000), wk =   0.0010667
        k( 1262) = (   0.1333333   0.3400000   0.0000000), wk =   0.0010667
        k( 1263) = (   0.1333333   0.3466667   0.0000000), wk =   0.0010667
        k( 1264) = (   0.1333333   0.3533333   0.0000000), wk =   0.0010667
        k( 1265) = (   0.1333333   0.3600000   0.0000000), wk =   0.0010667
        k( 1266) = (   0.1333333   0.3666667   0.0000000), wk =   0.0010667
        k( 1267) = (   0.1333333   0.3733333   0.0000000), wk =   0.0010667
        k( 1268) = (   0.1333333   0.3800000   0.0000000), wk =   0.0010667
        k( 1269) = (   0.1333333   0.3866667   0.0000000), wk =   0.0010667
        k( 1270) = (   0.1333333   0.3933333   0.0000000), wk =   0.0010667
        k( 1271) = (   0.1333333   0.4000000   0.0000000), wk =   0.0010667
        k( 1272) = (   0.1333333   0.4066667   0.0000000), wk =   0.0010667
        k( 1273) = (   0.1333333   0.4133333   0.0000000), wk =   0.0010667
        k( 1274) = (   0.1333333   0.4200000   0.0000000), wk =   0.0010667
        k( 1275) = (   0.1333333   0.4266667   0.0000000), wk =   0.0010667
        k( 1276) = (   0.1333333   0.4333333   0.0000000), wk =   0.0005333
        k( 1277) = (   0.1400000   0.1400000   0.0000000), wk =   0.0005333
        k( 1278) = (   0.1400000   0.1466667   0.0000000), wk =   0.0010667
        k( 1279) = (   0.1400000   0.1533333   0.0000000), wk =   0.0010667
        k( 1280) = (   0.1400000   0.1600000   0.0000000), wk =   0.0010667
        k( 1281) = (   0.1400000   0.1666667   0.0000000), wk =   0.0010667
        k( 1282) = (   0.1400000   0.1733333   0.0000000), wk =   0.0010667
        k( 1283) = (   0.1400000   0.1800000   0.0000000), wk =   0.0010667
        k( 1284) = (   0.1400000   0.1866667   0.0000000), wk =   0.0010667
        k( 1285) = (   0.1400000   0.1933333   0.0000000), wk =   0.0010667
        k( 1286) = (   0.1400000   0.2000000   0.0000000), wk =   0.0010667
        k( 1287) = (   0.1400000   0.2066667   0.0000000), wk =   0.0010667
        k( 1288) = (   0.1400000   0.2133333   0.0000000), wk =   0.0010667
        k( 1289) = (   0.1400000   0.2200000   0.0000000), wk =   0.0010667
        k( 1290) = (   0.1400000   0.2266667   0.0000000), wk =   0.0010667
        k( 1291) = (   0.1400000   0.2333333   0.0000000), wk =   0.0010667
        k( 1292) = (   0.1400000   0.2400000   0.0000000), wk =   0.0010667
        k( 1293) = (   0.1400000   0.2466667   0.0000000), wk =   0.0010667
        k( 1294) = (   0.1400000   0.2533333   0.0000000), wk =   0.0010667
        k( 1295) = (   0.1400000   0.2600000   0.0000000), wk =   0.0010667
        k( 1296) = (   0.1400000   0.2666667   0.0000000), wk =   0.0010667
        k( 1297) = (   0.1400000   0.2733333   0.0000000), wk =   0.0010667
        k( 1298) = (   0.1400000   0.2800000   0.0000000), wk =   0.0010667
        k( 1299) = (   0.1400000   0.2866667   0.0000000), wk =   0.0010667
        k( 1300) = (   0.1400000   0.2933333   0.0000000), wk =   0.0010667
        k( 1301) = (   0.1400000   0.3000000   0.0000000), wk =   0.0010667
        k( 1302) = (   0.1400000   0.3066667   0.0000000), wk =   0.0010667
        k( 1303) = (   0.1400000   0.3133333   0.0000000), wk =   0.0010667
        k( 1304) = (   0.1400000   0.3200000   0.0000000), wk =   0.0010667
        k( 1305) = (   0.1400000   0.3266667   0.0000000), wk =   0.0010667
        k( 1306) = (   0.1400000   0.3333333   0.0000000), wk =   0.0010667
        k( 1307) = (   0.1400000   0.3400000   0.0000000), wk =   0.0010667
        k( 1308) = (   0.1400000   0.3466667   0.0000000), wk =   0.0010667
        k( 1309) = (   0.1400000   0.3533333   0.0000000), wk =   0.0010667
        k( 1310) = (   0.1400000   0.3600000   0.0000000), wk =   0.0010667
        k( 1311) = (   0.1400000   0.3666667   0.0000000), wk =   0.0010667
        k( 1312) = (   0.1400000   0.3733333   0.0000000), wk =   0.0010667
        k( 1313) = (   0.1400000   0.3800000   0.0000000), wk =   0.0010667
        k( 1314) = (   0.1400000   0.3866667   0.0000000), wk =   0.0010667
        k( 1315) = (   0.1400000   0.3933333   0.0000000), wk =   0.0010667
        k( 1316) = (   0.1400000   0.4000000   0.0000000), wk =   0.0010667
        k( 1317) = (   0.1400000   0.4066667   0.0000000), wk =   0.0010667
        k( 1318) = (   0.1400000   0.4133333   0.0000000), wk =   0.0010667
        k( 1319) = (   0.1400000   0.4200000   0.0000000), wk =   0.0010667
        k( 1320) = (   0.1400000   0.4266667   0.0000000), wk =   0.0010667
        k( 1321) = (   0.1466667   0.1466667   0.0000000), wk =   0.0005333
        k( 1322) = (   0.1466667   0.1533333   0.0000000), wk =   0.0010667
        k( 1323) = (   0.1466667   0.1600000   0.0000000), wk =   0.0010667
        k( 1324) = (   0.1466667   0.1666667   0.0000000), wk =   0.0010667
        k( 1325) = (   0.1466667   0.1733333   0.0000000), wk =   0.0010667
        k( 1326) = (   0.1466667   0.1800000   0.0000000), wk =   0.0010667
        k( 1327) = (   0.1466667   0.1866667   0.0000000), wk =   0.0010667
        k( 1328) = (   0.1466667   0.1933333   0.0000000), wk =   0.0010667
        k( 1329) = (   0.1466667   0.2000000   0.0000000), wk =   0.0010667
        k( 1330) = (   0.1466667   0.2066667   0.0000000), wk =   0.0010667
        k( 1331) = (   0.1466667   0.2133333   0.0000000), wk =   0.0010667
        k( 1332) = (   0.1466667   0.2200000   0.0000000), wk =   0.0010667
        k( 1333) = (   0.1466667   0.2266667   0.0000000), wk =   0.0010667
        k( 1334) = (   0.1466667   0.2333333   0.0000000), wk =   0.0010667
        k( 1335) = (   0.1466667   0.2400000   0.0000000), wk =   0.0010667
        k( 1336) = (   0.1466667   0.2466667   0.0000000), wk =   0.0010667
        k( 1337) = (   0.1466667   0.2533333   0.0000000), wk =   0.0010667
        k( 1338) = (   0.1466667   0.2600000   0.0000000), wk =   0.0010667
        k( 1339) = (   0.1466667   0.2666667   0.0000000), wk =   0.0010667
        k( 1340) = (   0.1466667   0.2733333   0.0000000), wk =   0.0010667
        k( 1341) = (   0.1466667   0.2800000   0.0000000), wk =   0.0010667
        k( 1342) = (   0.1466667   0.2866667   0.0000000), wk =   0.0010667
        k( 1343) = (   0.1466667   0.2933333   0.0000000), wk =   0.0010667
        k( 1344) = (   0.1466667   0.3000000   0.0000000), wk =   0.0010667
        k( 1345) = (   0.1466667   0.3066667   0.0000000), wk =   0.0010667
        k( 1346) = (   0.1466667   0.3133333   0.0000000), wk =   0.0010667
        k( 1347) = (   0.1466667   0.3200000   0.0000000), wk =   0.0010667
        k( 1348) = (   0.1466667   0.3266667   0.0000000), wk =   0.0010667
        k( 1349) = (   0.1466667   0.3333333   0.0000000), wk =   0.0010667
        k( 1350) = (   0.1466667   0.3400000   0.0000000), wk =   0.0010667
        k( 1351) = (   0.1466667   0.3466667   0.0000000), wk =   0.0010667
        k( 1352) = (   0.1466667   0.3533333   0.0000000), wk =   0.0010667
        k( 1353) = (   0.1466667   0.3600000   0.0000000), wk =   0.0010667
        k( 1354) = (   0.1466667   0.3666667   0.0000000), wk =   0.0010667
        k( 1355) = (   0.1466667   0.3733333   0.0000000), wk =   0.0010667
        k( 1356) = (   0.1466667   0.3800000   0.0000000), wk =   0.0010667
        k( 1357) = (   0.1466667   0.3866667   0.0000000), wk =   0.0010667
        k( 1358) = (   0.1466667   0.3933333   0.0000000), wk =   0.0010667
        k( 1359) = (   0.1466667   0.4000000   0.0000000), wk =   0.0010667
        k( 1360) = (   0.1466667   0.4066667   0.0000000), wk =   0.0010667
        k( 1361) = (   0.1466667   0.4133333   0.0000000), wk =   0.0010667
        k( 1362) = (   0.1466667   0.4200000   0.0000000), wk =   0.0010667
        k( 1363) = (   0.1466667   0.4266667   0.0000000), wk =   0.0005333
        k( 1364) = (   0.1533333   0.1533333   0.0000000), wk =   0.0005333
        k( 1365) = (   0.1533333   0.1600000   0.0000000), wk =   0.0010667
        k( 1366) = (   0.1533333   0.1666667   0.0000000), wk =   0.0010667
        k( 1367) = (   0.1533333   0.1733333   0.0000000), wk =   0.0010667
        k( 1368) = (   0.1533333   0.1800000   0.0000000), wk =   0.0010667
        k( 1369) = (   0.1533333   0.1866667   0.0000000), wk =   0.0010667
        k( 1370) = (   0.1533333   0.1933333   0.0000000), wk =   0.0010667
        k( 1371) = (   0.1533333   0.2000000   0.0000000), wk =   0.0010667
        k( 1372) = (   0.1533333   0.2066667   0.0000000), wk =   0.0010667
        k( 1373) = (   0.1533333   0.2133333   0.0000000), wk =   0.0010667
        k( 1374) = (   0.1533333   0.2200000   0.0000000), wk =   0.0010667
        k( 1375) = (   0.1533333   0.2266667   0.0000000), wk =   0.0010667
        k( 1376) = (   0.1533333   0.2333333   0.0000000), wk =   0.0010667
        k( 1377) = (   0.1533333   0.2400000   0.0000000), wk =   0.0010667
        k( 1378) = (   0.1533333   0.2466667   0.0000000), wk =   0.0010667
        k( 1379) = (   0.1533333   0.2533333   0.0000000), wk =   0.0010667
        k( 1380) = (   0.1533333   0.2600000   0.0000000), wk =   0.0010667
        k( 1381) = (   0.1533333   0.2666667   0.0000000), wk =   0.0010667
        k( 1382) = (   0.1533333   0.2733333   0.0000000), wk =   0.0010667
        k( 1383) = (   0.1533333   0.2800000   0.0000000), wk =   0.0010667
        k( 1384) = (   0.1533333   0.2866667   0.0000000), wk =   0.0010667
        k( 1385) = (   0.1533333   0.2933333   0.0000000), wk =   0.0010667
        k( 1386) = (   0.1533333   0.3000000   0.0000000), wk =   0.0010667
        k( 1387) = (   0.1533333   0.3066667   0.0000000), wk =   0.0010667
        k( 1388) = (   0.1533333   0.3133333   0.0000000), wk =   0.0010667
        k( 1389) = (   0.1533333   0.3200000   0.0000000), wk =   0.0010667
        k( 1390) = (   0.1533333   0.3266667   0.0000000), wk =   0.0010667
        k( 1391) = (   0.1533333   0.3333333   0.0000000), wk =   0.0010667
        k( 1392) = (   0.1533333   0.3400000   0.0000000), wk =   0.0010667
        k( 1393) = (   0.1533333   0.3466667   0.0000000), wk =   0.0010667
        k( 1394) = (   0.1533333   0.3533333   0.0000000), wk =   0.0010667
        k( 1395) = (   0.1533333   0.3600000   0.0000000), wk =   0.0010667
        k( 1396) = (   0.1533333   0.3666667   0.0000000), wk =   0.0010667
        k( 1397) = (   0.1533333   0.3733333   0.0000000), wk =   0.0010667
        k( 1398) = (   0.1533333   0.3800000   0.0000000), wk =   0.0010667
        k( 1399) = (   0.1533333   0.3866667   0.0000000), wk =   0.0010667
        k( 1400) = (   0.1533333   0.3933333   0.0000000), wk =   0.0010667
        k( 1401) = (   0.1533333   0.4000000   0.0000000), wk =   0.0010667
        k( 1402) = (   0.1533333   0.4066667   0.0000000), wk =   0.0010667
        k( 1403) = (   0.1533333   0.4133333   0.0000000), wk =   0.0010667
        k( 1404) = (   0.1533333   0.4200000   0.0000000), wk =   0.0010667
        k( 1405) = (   0.1600000   0.1600000   0.0000000), wk =   0.0005333
        k( 1406) = (   0.1600000   0.1666667   0.0000000), wk =   0.0010667
        k( 1407) = (   0.1600000   0.1733333   0.0000000), wk =   0.0010667
        k( 1408) = (   0.1600000   0.1800000   0.0000000), wk =   0.0010667
        k( 1409) = (   0.1600000   0.1866667   0.0000000), wk =   0.0010667
        k( 1410) = (   0.1600000   0.1933333   0.0000000), wk =   0.0010667
        k( 1411) = (   0.1600000   0.2000000   0.0000000), wk =   0.0010667
        k( 1412) = (   0.1600000   0.2066667   0.0000000), wk =   0.0010667
        k( 1413) = (   0.1600000   0.2133333   0.0000000), wk =   0.0010667
        k( 1414) = (   0.1600000   0.2200000   0.0000000), wk =   0.0010667
        k( 1415) = (   0.1600000   0.2266667   0.0000000), wk =   0.0010667
        k( 1416) = (   0.1600000   0.2333333   0.0000000), wk =   0.0010667
        k( 1417) = (   0.1600000   0.2400000   0.0000000), wk =   0.0010667
        k( 1418) = (   0.1600000   0.2466667   0.0000000), wk =   0.0010667
        k( 1419) = (   0.1600000   0.2533333   0.0000000), wk =   0.0010667
        k( 1420) = (   0.1600000   0.2600000   0.0000000), wk =   0.0010667
        k( 1421) = (   0.1600000   0.2666667   0.0000000), wk =   0.0010667
        k( 1422) = (   0.1600000   0.2733333   0.0000000), wk =   0.0010667
        k( 1423) = (   0.1600000   0.2800000   0.0000000), wk =   0.0010667
        k( 1424) = (   0.1600000   0.2866667   0.0000000), wk =   0.0010667
        k( 1425) = (   0.1600000   0.2933333   0.0000000), wk =   0.0010667
        k( 1426) = (   0.1600000   0.3000000   0.0000000), wk =   0.0010667
        k( 1427) = (   0.1600000   0.3066667   0.0000000), wk =   0.0010667
        k( 1428) = (   0.1600000   0.3133333   0.0000000), wk =   0.0010667
        k( 1429) = (   0.1600000   0.3200000   0.0000000), wk =   0.0010667
        k( 1430) = (   0.1600000   0.3266667   0.0000000), wk =   0.0010667
        k( 1431) = (   0.1600000   0.3333333   0.0000000), wk =   0.0010667
        k( 1432) = (   0.1600000   0.3400000   0.0000000), wk =   0.0010667
        k( 1433) = (   0.1600000   0.3466667   0.0000000), wk =   0.0010667
        k( 1434) = (   0.1600000   0.3533333   0.0000000), wk =   0.0010667
        k( 1435) = (   0.1600000   0.3600000   0.0000000), wk =   0.0010667
        k( 1436) = (   0.1600000   0.3666667   0.0000000), wk =   0.0010667
        k( 1437) = (   0.1600000   0.3733333   0.0000000), wk =   0.0010667
        k( 1438) = (   0.1600000   0.3800000   0.0000000), wk =   0.0010667
        k( 1439) = (   0.1600000   0.3866667   0.0000000), wk =   0.0010667
        k( 1440) = (   0.1600000   0.3933333   0.0000000), wk =   0.0010667
        k( 1441) = (   0.1600000   0.4000000   0.0000000), wk =   0.0010667
        k( 1442) = (   0.1600000   0.4066667   0.0000000), wk =   0.0010667
        k( 1443) = (   0.1600000   0.4133333   0.0000000), wk =   0.0010667
        k( 1444) = (   0.1600000   0.4200000   0.0000000), wk =   0.0005333
        k( 1445) = (   0.1666667   0.1666667   0.0000000), wk =   0.0005333
        k( 1446) = (   0.1666667   0.1733333   0.0000000), wk =   0.0010667
        k( 1447) = (   0.1666667   0.1800000   0.0000000), wk =   0.0010667
        k( 1448) = (   0.1666667   0.1866667   0.0000000), wk =   0.0010667
        k( 1449) = (   0.1666667   0.1933333   0.0000000), wk =   0.0010667
        k( 1450) = (   0.1666667   0.2000000   0.0000000), wk =   0.0010667
        k( 1451) = (   0.1666667   0.2066667   0.0000000), wk =   0.0010667
        k( 1452) = (   0.1666667   0.2133333   0.0000000), wk =   0.0010667
        k( 1453) = (   0.1666667   0.2200000   0.0000000), wk =   0.0010667
        k( 1454) = (   0.1666667   0.2266667   0.0000000), wk =   0.0010667
        k( 1455) = (   0.1666667   0.2333333   0.0000000), wk =   0.0010667
        k( 1456) = (   0.1666667   0.2400000   0.0000000), wk =   0.0010667
        k( 1457) = (   0.1666667   0.2466667   0.0000000), wk =   0.0010667
        k( 1458) = (   0.1666667   0.2533333   0.0000000), wk =   0.0010667
        k( 1459) = (   0.1666667   0.2600000   0.0000000), wk =   0.0010667
        k( 1460) = (   0.1666667   0.2666667   0.0000000), wk =   0.0010667
        k( 1461) = (   0.1666667   0.2733333   0.0000000), wk =   0.0010667
        k( 1462) = (   0.1666667   0.2800000   0.0000000), wk =   0.0010667
        k( 1463) = (   0.1666667   0.2866667   0.0000000), wk =   0.0010667
        k( 1464) = (   0.1666667   0.2933333   0.0000000), wk =   0.0010667
        k( 1465) = (   0.1666667   0.3000000   0.0000000), wk =   0.0010667
        k( 1466) = (   0.1666667   0.3066667   0.0000000), wk =   0.0010667
        k( 1467) = (   0.1666667   0.3133333   0.0000000), wk =   0.0010667
        k( 1468) = (   0.1666667   0.3200000   0.0000000), wk =   0.0010667
        k( 1469) = (   0.1666667   0.3266667   0.0000000), wk =   0.0010667
        k( 1470) = (   0.1666667   0.3333333   0.0000000), wk =   0.0010667
        k( 1471) = (   0.1666667   0.3400000   0.0000000), wk =   0.0010667
        k( 1472) = (   0.1666667   0.3466667   0.0000000), wk =   0.0010667
        k( 1473) = (   0.1666667   0.3533333   0.0000000), wk =   0.0010667
        k( 1474) = (   0.1666667   0.3600000   0.0000000), wk =   0.0010667
        k( 1475) = (   0.1666667   0.3666667   0.0000000), wk =   0.0010667
        k( 1476) = (   0.1666667   0.3733333   0.0000000), wk =   0.0010667
        k( 1477) = (   0.1666667   0.3800000   0.0000000), wk =   0.0010667
        k( 1478) = (   0.1666667   0.3866667   0.0000000), wk =   0.0010667
        k( 1479) = (   0.1666667   0.3933333   0.0000000), wk =   0.0010667
        k( 1480) = (   0.1666667   0.4000000   0.0000000), wk =   0.0010667
        k( 1481) = (   0.1666667   0.4066667   0.0000000), wk =   0.0010667
        k( 1482) = (   0.1666667   0.4133333   0.0000000), wk =   0.0010667
        k( 1483) = (   0.1733333   0.1733333   0.0000000), wk =   0.0005333
        k( 1484) = (   0.1733333   0.1800000   0.0000000), wk =   0.0010667
        k( 1485) = (   0.1733333   0.1866667   0.0000000), wk =   0.0010667
        k( 1486) = (   0.1733333   0.1933333   0.0000000), wk =   0.0010667
        k( 1487) = (   0.1733333   0.2000000   0.0000000), wk =   0.0010667
        k( 1488) = (   0.1733333   0.2066667   0.0000000), wk =   0.0010667
        k( 1489) = (   0.1733333   0.2133333   0.0000000), wk =   0.0010667
        k( 1490) = (   0.1733333   0.2200000   0.0000000), wk =   0.0010667
        k( 1491) = (   0.1733333   0.2266667   0.0000000), wk =   0.0010667
        k( 1492) = (   0.1733333   0.2333333   0.0000000), wk =   0.0010667
        k( 1493) = (   0.1733333   0.2400000   0.0000000), wk =   0.0010667
        k( 1494) = (   0.1733333   0.2466667   0.0000000), wk =   0.0010667
        k( 1495) = (   0.1733333   0.2533333   0.0000000), wk =   0.0010667
        k( 1496) = (   0.1733333   0.2600000   0.0000000), wk =   0.0010667
        k( 1497) = (   0.1733333   0.2666667   0.0000000), wk =   0.0010667
        k( 1498) = (   0.1733333   0.2733333   0.0000000), wk =   0.0010667
        k( 1499) = (   0.1733333   0.2800000   0.0000000), wk =   0.0010667
        k( 1500) = (   0.1733333   0.2866667   0.0000000), wk =   0.0010667
        k( 1501) = (   0.1733333   0.2933333   0.0000000), wk =   0.0010667
        k( 1502) = (   0.1733333   0.3000000   0.0000000), wk =   0.0010667
        k( 1503) = (   0.1733333   0.3066667   0.0000000), wk =   0.0010667
        k( 1504) = (   0.1733333   0.3133333   0.0000000), wk =   0.0010667
        k( 1505) = (   0.1733333   0.3200000   0.0000000), wk =   0.0010667
        k( 1506) = (   0.1733333   0.3266667   0.0000000), wk =   0.0010667
        k( 1507) = (   0.1733333   0.3333333   0.0000000), wk =   0.0010667
        k( 1508) = (   0.1733333   0.3400000   0.0000000), wk =   0.0010667
        k( 1509) = (   0.1733333   0.3466667   0.0000000), wk =   0.0010667
        k( 1510) = (   0.1733333   0.3533333   0.0000000), wk =   0.0010667
        k( 1511) = (   0.1733333   0.3600000   0.0000000), wk =   0.0010667
        k( 1512) = (   0.1733333   0.3666667   0.0000000), wk =   0.0010667
        k( 1513) = (   0.1733333   0.3733333   0.0000000), wk =   0.0010667
        k( 1514) = (   0.1733333   0.3800000   0.0000000), wk =   0.0010667
        k( 1515) = (   0.1733333   0.3866667   0.0000000), wk =   0.0010667
        k( 1516) = (   0.1733333   0.3933333   0.0000000), wk =   0.0010667
        k( 1517) = (   0.1733333   0.4000000   0.0000000), wk =   0.0010667
        k( 1518) = (   0.1733333   0.4066667   0.0000000), wk =   0.0010667
        k( 1519) = (   0.1733333   0.4133333   0.0000000), wk =   0.0005333
        k( 1520) = (   0.1800000   0.1800000   0.0000000), wk =   0.0005333
        k( 1521) = (   0.1800000   0.1866667   0.0000000), wk =   0.0010667
        k( 1522) = (   0.1800000   0.1933333   0.0000000), wk =   0.0010667
        k( 1523) = (   0.1800000   0.2000000   0.0000000), wk =   0.0010667
        k( 1524) = (   0.1800000   0.2066667   0.0000000), wk =   0.0010667
        k( 1525) = (   0.1800000   0.2133333   0.0000000), wk =   0.0010667
        k( 1526) = (   0.1800000   0.2200000   0.0000000), wk =   0.0010667
        k( 1527) = (   0.1800000   0.2266667   0.0000000), wk =   0.0010667
        k( 1528) = (   0.1800000   0.2333333   0.0000000), wk =   0.0010667
        k( 1529) = (   0.1800000   0.2400000   0.0000000), wk =   0.0010667
        k( 1530) = (   0.1800000   0.2466667   0.0000000), wk =   0.0010667
        k( 1531) = (   0.1800000   0.2533333   0.0000000), wk =   0.0010667
        k( 1532) = (   0.1800000   0.2600000   0.0000000), wk =   0.0010667
        k( 1533) = (   0.1800000   0.2666667   0.0000000), wk =   0.0010667
        k( 1534) = (   0.1800000   0.2733333   0.0000000), wk =   0.0010667
        k( 1535) = (   0.1800000   0.2800000   0.0000000), wk =   0.0010667
        k( 1536) = (   0.1800000   0.2866667   0.0000000), wk =   0.0010667
        k( 1537) = (   0.1800000   0.2933333   0.0000000), wk =   0.0010667
        k( 1538) = (   0.1800000   0.3000000   0.0000000), wk =   0.0010667
        k( 1539) = (   0.1800000   0.3066667   0.0000000), wk =   0.0010667
        k( 1540) = (   0.1800000   0.3133333   0.0000000), wk =   0.0010667
        k( 1541) = (   0.1800000   0.3200000   0.0000000), wk =   0.0010667
        k( 1542) = (   0.1800000   0.3266667   0.0000000), wk =   0.0010667
        k( 1543) = (   0.1800000   0.3333333   0.0000000), wk =   0.0010667
        k( 1544) = (   0.1800000   0.3400000   0.0000000), wk =   0.0010667
        k( 1545) = (   0.1800000   0.3466667   0.0000000), wk =   0.0010667
        k( 1546) = (   0.1800000   0.3533333   0.0000000), wk =   0.0010667
        k( 1547) = (   0.1800000   0.3600000   0.0000000), wk =   0.0010667
        k( 1548) = (   0.1800000   0.3666667   0.0000000), wk =   0.0010667
        k( 1549) = (   0.1800000   0.3733333   0.0000000), wk =   0.0010667
        k( 1550) = (   0.1800000   0.3800000   0.0000000), wk =   0.0010667
        k( 1551) = (   0.1800000   0.3866667   0.0000000), wk =   0.0010667
        k( 1552) = (   0.1800000   0.3933333   0.0000000), wk =   0.0010667
        k( 1553) = (   0.1800000   0.4000000   0.0000000), wk =   0.0010667
        k( 1554) = (   0.1800000   0.4066667   0.0000000), wk =   0.0010667
        k( 1555) = (   0.1866667   0.1866667   0.0000000), wk =   0.0005333
        k( 1556) = (   0.1866667   0.1933333   0.0000000), wk =   0.0010667
        k( 1557) = (   0.1866667   0.2000000   0.0000000), wk =   0.0010667
        k( 1558) = (   0.1866667   0.2066667   0.0000000), wk =   0.0010667
        k( 1559) = (   0.1866667   0.2133333   0.0000000), wk =   0.0010667
        k( 1560) = (   0.1866667   0.2200000   0.0000000), wk =   0.0010667
        k( 1561) = (   0.1866667   0.2266667   0.0000000), wk =   0.0010667
        k( 1562) = (   0.1866667   0.2333333   0.0000000), wk =   0.0010667
        k( 1563) = (   0.1866667   0.2400000   0.0000000), wk =   0.0010667
        k( 1564) = (   0.1866667   0.2466667   0.0000000), wk =   0.0010667
        k( 1565) = (   0.1866667   0.2533333   0.0000000), wk =   0.0010667
        k( 1566) = (   0.1866667   0.2600000   0.0000000), wk =   0.0010667
        k( 1567) = (   0.1866667   0.2666667   0.0000000), wk =   0.0010667
        k( 1568) = (   0.1866667   0.2733333   0.0000000), wk =   0.0010667
        k( 1569) = (   0.1866667   0.2800000   0.0000000), wk =   0.0010667
        k( 1570) = (   0.1866667   0.2866667   0.0000000), wk =   0.0010667
        k( 1571) = (   0.1866667   0.2933333   0.0000000), wk =   0.0010667
        k( 1572) = (   0.1866667   0.3000000   0.0000000), wk =   0.0010667
        k( 1573) = (   0.1866667   0.3066667   0.0000000), wk =   0.0010667
        k( 1574) = (   0.1866667   0.3133333   0.0000000), wk =   0.0010667
        k( 1575) = (   0.1866667   0.3200000   0.0000000), wk =   0.0010667
        k( 1576) = (   0.1866667   0.3266667   0.0000000), wk =   0.0010667
        k( 1577) = (   0.1866667   0.3333333   0.0000000), wk =   0.0010667
        k( 1578) = (   0.1866667   0.3400000   0.0000000), wk =   0.0010667
        k( 1579) = (   0.1866667   0.3466667   0.0000000), wk =   0.0010667
        k( 1580) = (   0.1866667   0.3533333   0.0000000), wk =   0.0010667
        k( 1581) = (   0.1866667   0.3600000   0.0000000), wk =   0.0010667
        k( 1582) = (   0.1866667   0.3666667   0.0000000), wk =   0.0010667
        k( 1583) = (   0.1866667   0.3733333   0.0000000), wk =   0.0010667
        k( 1584) = (   0.1866667   0.3800000   0.0000000), wk =   0.0010667
        k( 1585) = (   0.1866667   0.3866667   0.0000000), wk =   0.0010667
        k( 1586) = (   0.1866667   0.3933333   0.0000000), wk =   0.0010667
        k( 1587) = (   0.1866667   0.4000000   0.0000000), wk =   0.0010667
        k( 1588) = (   0.1866667   0.4066667   0.0000000), wk =   0.0005333
        k( 1589) = (   0.1933333   0.1933333   0.0000000), wk =   0.0005333
        k( 1590) = (   0.1933333   0.2000000   0.0000000), wk =   0.0010667
        k( 1591) = (   0.1933333   0.2066667   0.0000000), wk =   0.0010667
        k( 1592) = (   0.1933333   0.2133333   0.0000000), wk =   0.0010667
        k( 1593) = (   0.1933333   0.2200000   0.0000000), wk =   0.0010667
        k( 1594) = (   0.1933333   0.2266667   0.0000000), wk =   0.0010667
        k( 1595) = (   0.1933333   0.2333333   0.0000000), wk =   0.0010667
        k( 1596) = (   0.1933333   0.2400000   0.0000000), wk =   0.0010667
        k( 1597) = (   0.1933333   0.2466667   0.0000000), wk =   0.0010667
        k( 1598) = (   0.1933333   0.2533333   0.0000000), wk =   0.0010667
        k( 1599) = (   0.1933333   0.2600000   0.0000000), wk =   0.0010667
        k( 1600) = (   0.1933333   0.2666667   0.0000000), wk =   0.0010667
        k( 1601) = (   0.1933333   0.2733333   0.0000000), wk =   0.0010667
        k( 1602) = (   0.1933333   0.2800000   0.0000000), wk =   0.0010667
        k( 1603) = (   0.1933333   0.2866667   0.0000000), wk =   0.0010667
        k( 1604) = (   0.1933333   0.2933333   0.0000000), wk =   0.0010667
        k( 1605) = (   0.1933333   0.3000000   0.0000000), wk =   0.0010667
        k( 1606) = (   0.1933333   0.3066667   0.0000000), wk =   0.0010667
        k( 1607) = (   0.1933333   0.3133333   0.0000000), wk =   0.0010667
        k( 1608) = (   0.1933333   0.3200000   0.0000000), wk =   0.0010667
        k( 1609) = (   0.1933333   0.3266667   0.0000000), wk =   0.0010667
        k( 1610) = (   0.1933333   0.3333333   0.0000000), wk =   0.0010667
        k( 1611) = (   0.1933333   0.3400000   0.0000000), wk =   0.0010667
        k( 1612) = (   0.1933333   0.3466667   0.0000000), wk =   0.0010667
        k( 1613) = (   0.1933333   0.3533333   0.0000000), wk =   0.0010667
        k( 1614) = (   0.1933333   0.3600000   0.0000000), wk =   0.0010667
        k( 1615) = (   0.1933333   0.3666667   0.0000000), wk =   0.0010667
        k( 1616) = (   0.1933333   0.3733333   0.0000000), wk =   0.0010667
        k( 1617) = (   0.1933333   0.3800000   0.0000000), wk =   0.0010667
        k( 1618) = (   0.1933333   0.3866667   0.0000000), wk =   0.0010667
        k( 1619) = (   0.1933333   0.3933333   0.0000000), wk =   0.0010667
        k( 1620) = (   0.1933333   0.4000000   0.0000000), wk =   0.0010667
        k( 1621) = (   0.2000000   0.2000000   0.0000000), wk =   0.0005333
        k( 1622) = (   0.2000000   0.2066667   0.0000000), wk =   0.0010667
        k( 1623) = (   0.2000000   0.2133333   0.0000000), wk =   0.0010667
        k( 1624) = (   0.2000000   0.2200000   0.0000000), wk =   0.0010667
        k( 1625) = (   0.2000000   0.2266667   0.0000000), wk =   0.0010667
        k( 1626) = (   0.2000000   0.2333333   0.0000000), wk =   0.0010667
        k( 1627) = (   0.2000000   0.2400000   0.0000000), wk =   0.0010667
        k( 1628) = (   0.2000000   0.2466667   0.0000000), wk =   0.0010667
        k( 1629) = (   0.2000000   0.2533333   0.0000000), wk =   0.0010667
        k( 1630) = (   0.2000000   0.2600000   0.0000000), wk =   0.0010667
        k( 1631) = (   0.2000000   0.2666667   0.0000000), wk =   0.0010667
        k( 1632) = (   0.2000000   0.2733333   0.0000000), wk =   0.0010667
        k( 1633) = (   0.2000000   0.2800000   0.0000000), wk =   0.0010667
        k( 1634) = (   0.2000000   0.2866667   0.0000000), wk =   0.0010667
        k( 1635) = (   0.2000000   0.2933333   0.0000000), wk =   0.0010667
        k( 1636) = (   0.2000000   0.3000000   0.0000000), wk =   0.0010667
        k( 1637) = (   0.2000000   0.3066667   0.0000000), wk =   0.0010667
        k( 1638) = (   0.2000000   0.3133333   0.0000000), wk =   0.0010667
        k( 1639) = (   0.2000000   0.3200000   0.0000000), wk =   0.0010667
        k( 1640) = (   0.2000000   0.3266667   0.0000000), wk =   0.0010667
        k( 1641) = (   0.2000000   0.3333333   0.0000000), wk =   0.0010667
        k( 1642) = (   0.2000000   0.3400000   0.0000000), wk =   0.0010667
        k( 1643) = (   0.2000000   0.3466667   0.0000000), wk =   0.0010667
        k( 1644) = (   0.2000000   0.3533333   0.0000000), wk =   0.0010667
        k( 1645) = (   0.2000000   0.3600000   0.0000000), wk =   0.0010667
        k( 1646) = (   0.2000000   0.3666667   0.0000000), wk =   0.0010667
        k( 1647) = (   0.2000000   0.3733333   0.0000000), wk =   0.0010667
        k( 1648) = (   0.2000000   0.3800000   0.0000000), wk =   0.0010667
        k( 1649) = (   0.2000000   0.3866667   0.0000000), wk =   0.0010667
        k( 1650) = (   0.2000000   0.3933333   0.0000000), wk =   0.0010667
        k( 1651) = (   0.2000000   0.4000000   0.0000000), wk =   0.0005333
        k( 1652) = (   0.2066667   0.2066667   0.0000000), wk =   0.0005333
        k( 1653) = (   0.2066667   0.2133333   0.0000000), wk =   0.0010667
        k( 1654) = (   0.2066667   0.2200000   0.0000000), wk =   0.0010667
        k( 1655) = (   0.2066667   0.2266667   0.0000000), wk =   0.0010667
        k( 1656) = (   0.2066667   0.2333333   0.0000000), wk =   0.0010667
        k( 1657) = (   0.2066667   0.2400000   0.0000000), wk =   0.0010667
        k( 1658) = (   0.2066667   0.2466667   0.0000000), wk =   0.0010667
        k( 1659) = (   0.2066667   0.2533333   0.0000000), wk =   0.0010667
        k( 1660) = (   0.2066667   0.2600000   0.0000000), wk =   0.0010667
        k( 1661) = (   0.2066667   0.2666667   0.0000000), wk =   0.0010667
        k( 1662) = (   0.2066667   0.2733333   0.0000000), wk =   0.0010667
        k( 1663) = (   0.2066667   0.2800000   0.0000000), wk =   0.0010667
        k( 1664) = (   0.2066667   0.2866667   0.0000000), wk =   0.0010667
        k( 1665) = (   0.2066667   0.2933333   0.0000000), wk =   0.0010667
        k( 1666) = (   0.2066667   0.3000000   0.0000000), wk =   0.0010667
        k( 1667) = (   0.2066667   0.3066667   0.0000000), wk =   0.0010667
        k( 1668) = (   0.2066667   0.3133333   0.0000000), wk =   0.0010667
        k( 1669) = (   0.2066667   0.3200000   0.0000000), wk =   0.0010667
        k( 1670) = (   0.2066667   0.3266667   0.0000000), wk =   0.0010667
        k( 1671) = (   0.2066667   0.3333333   0.0000000), wk =   0.0010667
        k( 1672) = (   0.2066667   0.3400000   0.0000000), wk =   0.0010667
        k( 1673) = (   0.2066667   0.3466667   0.0000000), wk =   0.0010667
        k( 1674) = (   0.2066667   0.3533333   0.0000000), wk =   0.0010667
        k( 1675) = (   0.2066667   0.3600000   0.0000000), wk =   0.0010667
        k( 1676) = (   0.2066667   0.3666667   0.0000000), wk =   0.0010667
        k( 1677) = (   0.2066667   0.3733333   0.0000000), wk =   0.0010667
        k( 1678) = (   0.2066667   0.3800000   0.0000000), wk =   0.0010667
        k( 1679) = (   0.2066667   0.3866667   0.0000000), wk =   0.0010667
        k( 1680) = (   0.2066667   0.3933333   0.0000000), wk =   0.0010667
        k( 1681) = (   0.2133333   0.2133333   0.0000000), wk =   0.0005333
        k( 1682) = (   0.2133333   0.2200000   0.0000000), wk =   0.0010667
        k( 1683) = (   0.2133333   0.2266667   0.0000000), wk =   0.0010667
        k( 1684) = (   0.2133333   0.2333333   0.0000000), wk =   0.0010667
        k( 1685) = (   0.2133333   0.2400000   0.0000000), wk =   0.0010667
        k( 1686) = (   0.2133333   0.2466667   0.0000000), wk =   0.0010667
        k( 1687) = (   0.2133333   0.2533333   0.0000000), wk =   0.0010667
        k( 1688) = (   0.2133333   0.2600000   0.0000000), wk =   0.0010667
        k( 1689) = (   0.2133333   0.2666667   0.0000000), wk =   0.0010667
        k( 1690) = (   0.2133333   0.2733333   0.0000000), wk =   0.0010667
        k( 1691) = (   0.2133333   0.2800000   0.0000000), wk =   0.0010667
        k( 1692) = (   0.2133333   0.2866667   0.0000000), wk =   0.0010667
        k( 1693) = (   0.2133333   0.2933333   0.0000000), wk =   0.0010667
        k( 1694) = (   0.2133333   0.3000000   0.0000000), wk =   0.0010667
        k( 1695) = (   0.2133333   0.3066667   0.0000000), wk =   0.0010667
        k( 1696) = (   0.2133333   0.3133333   0.0000000), wk =   0.0010667
        k( 1697) = (   0.2133333   0.3200000   0.0000000), wk =   0.0010667
        k( 1698) = (   0.2133333   0.3266667   0.0000000), wk =   0.0010667
        k( 1699) = (   0.2133333   0.3333333   0.0000000), wk =   0.0010667
        k( 1700) = (   0.2133333   0.3400000   0.0000000), wk =   0.0010667
        k( 1701) = (   0.2133333   0.3466667   0.0000000), wk =   0.0010667
        k( 1702) = (   0.2133333   0.3533333   0.0000000), wk =   0.0010667
        k( 1703) = (   0.2133333   0.3600000   0.0000000), wk =   0.0010667
        k( 1704) = (   0.2133333   0.3666667   0.0000000), wk =   0.0010667
        k( 1705) = (   0.2133333   0.3733333   0.0000000), wk =   0.0010667
        k( 1706) = (   0.2133333   0.3800000   0.0000000), wk =   0.0010667
        k( 1707) = (   0.2133333   0.3866667   0.0000000), wk =   0.0010667
        k( 1708) = (   0.2133333   0.3933333   0.0000000), wk =   0.0005333
        k( 1709) = (   0.2200000   0.2200000   0.0000000), wk =   0.0005333
        k( 1710) = (   0.2200000   0.2266667   0.0000000), wk =   0.0010667
        k( 1711) = (   0.2200000   0.2333333   0.0000000), wk =   0.0010667
        k( 1712) = (   0.2200000   0.2400000   0.0000000), wk =   0.0010667
        k( 1713) = (   0.2200000   0.2466667   0.0000000), wk =   0.0010667
        k( 1714) = (   0.2200000   0.2533333   0.0000000), wk =   0.0010667
        k( 1715) = (   0.2200000   0.2600000   0.0000000), wk =   0.0010667
        k( 1716) = (   0.2200000   0.2666667   0.0000000), wk =   0.0010667
        k( 1717) = (   0.2200000   0.2733333   0.0000000), wk =   0.0010667
        k( 1718) = (   0.2200000   0.2800000   0.0000000), wk =   0.0010667
        k( 1719) = (   0.2200000   0.2866667   0.0000000), wk =   0.0010667
        k( 1720) = (   0.2200000   0.2933333   0.0000000), wk =   0.0010667
        k( 1721) = (   0.2200000   0.3000000   0.0000000), wk =   0.0010667
        k( 1722) = (   0.2200000   0.3066667   0.0000000), wk =   0.0010667
        k( 1723) = (   0.2200000   0.3133333   0.0000000), wk =   0.0010667
        k( 1724) = (   0.2200000   0.3200000   0.0000000), wk =   0.0010667
        k( 1725) = (   0.2200000   0.3266667   0.0000000), wk =   0.0010667
        k( 1726) = (   0.2200000   0.3333333   0.0000000), wk =   0.0010667
        k( 1727) = (   0.2200000   0.3400000   0.0000000), wk =   0.0010667
        k( 1728) = (   0.2200000   0.3466667   0.0000000), wk =   0.0010667
        k( 1729) = (   0.2200000   0.3533333   0.0000000), wk =   0.0010667
        k( 1730) = (   0.2200000   0.3600000   0.0000000), wk =   0.0010667
        k( 1731) = (   0.2200000   0.3666667   0.0000000), wk =   0.0010667
        k( 1732) = (   0.2200000   0.3733333   0.0000000), wk =   0.0010667
        k( 1733) = (   0.2200000   0.3800000   0.0000000), wk =   0.0010667
        k( 1734) = (   0.2200000   0.3866667   0.0000000), wk =   0.0010667
        k( 1735) = (   0.2266667   0.2266667   0.0000000), wk =   0.0005333
        k( 1736) = (   0.2266667   0.2333333   0.0000000), wk =   0.0010667
        k( 1737) = (   0.2266667   0.2400000   0.0000000), wk =   0.0010667
        k( 1738) = (   0.2266667   0.2466667   0.0000000), wk =   0.0010667
        k( 1739) = (   0.2266667   0.2533333   0.0000000), wk =   0.0010667
        k( 1740) = (   0.2266667   0.2600000   0.0000000), wk =   0.0010667
        k( 1741) = (   0.2266667   0.2666667   0.0000000), wk =   0.0010667
        k( 1742) = (   0.2266667   0.2733333   0.0000000), wk =   0.0010667
        k( 1743) = (   0.2266667   0.2800000   0.0000000), wk =   0.0010667
        k( 1744) = (   0.2266667   0.2866667   0.0000000), wk =   0.0010667
        k( 1745) = (   0.2266667   0.2933333   0.0000000), wk =   0.0010667
        k( 1746) = (   0.2266667   0.3000000   0.0000000), wk =   0.0010667
        k( 1747) = (   0.2266667   0.3066667   0.0000000), wk =   0.0010667
        k( 1748) = (   0.2266667   0.3133333   0.0000000), wk =   0.0010667
        k( 1749) = (   0.2266667   0.3200000   0.0000000), wk =   0.0010667
        k( 1750) = (   0.2266667   0.3266667   0.0000000), wk =   0.0010667
        k( 1751) = (   0.2266667   0.3333333   0.0000000), wk =   0.0010667
        k( 1752) = (   0.2266667   0.3400000   0.0000000), wk =   0.0010667
        k( 1753) = (   0.2266667   0.3466667   0.0000000), wk =   0.0010667
        k( 1754) = (   0.2266667   0.3533333   0.0000000), wk =   0.0010667
        k( 1755) = (   0.2266667   0.3600000   0.0000000), wk =   0.0010667
        k( 1756) = (   0.2266667   0.3666667   0.0000000), wk =   0.0010667
        k( 1757) = (   0.2266667   0.3733333   0.0000000), wk =   0.0010667
        k( 1758) = (   0.2266667   0.3800000   0.0000000), wk =   0.0010667
        k( 1759) = (   0.2266667   0.3866667   0.0000000), wk =   0.0005333
        k( 1760) = (   0.2333333   0.2333333   0.0000000), wk =   0.0005333
        k( 1761) = (   0.2333333   0.2400000   0.0000000), wk =   0.0010667
        k( 1762) = (   0.2333333   0.2466667   0.0000000), wk =   0.0010667
        k( 1763) = (   0.2333333   0.2533333   0.0000000), wk =   0.0010667
        k( 1764) = (   0.2333333   0.2600000   0.0000000), wk =   0.0010667
        k( 1765) = (   0.2333333   0.2666667   0.0000000), wk =   0.0010667
        k( 1766) = (   0.2333333   0.2733333   0.0000000), wk =   0.0010667
        k( 1767) = (   0.2333333   0.2800000   0.0000000), wk =   0.0010667
        k( 1768) = (   0.2333333   0.2866667   0.0000000), wk =   0.0010667
        k( 1769) = (   0.2333333   0.2933333   0.0000000), wk =   0.0010667
        k( 1770) = (   0.2333333   0.3000000   0.0000000), wk =   0.0010667
        k( 1771) = (   0.2333333   0.3066667   0.0000000), wk =   0.0010667
        k( 1772) = (   0.2333333   0.3133333   0.0000000), wk =   0.0010667
        k( 1773) = (   0.2333333   0.3200000   0.0000000), wk =   0.0010667
        k( 1774) = (   0.2333333   0.3266667   0.0000000), wk =   0.0010667
        k( 1775) = (   0.2333333   0.3333333   0.0000000), wk =   0.0010667
        k( 1776) = (   0.2333333   0.3400000   0.0000000), wk =   0.0010667
        k( 1777) = (   0.2333333   0.3466667   0.0000000), wk =   0.0010667
        k( 1778) = (   0.2333333   0.3533333   0.0000000), wk =   0.0010667
        k( 1779) = (   0.2333333   0.3600000   0.0000000), wk =   0.0010667
        k( 1780) = (   0.2333333   0.3666667   0.0000000), wk =   0.0010667
        k( 1781) = (   0.2333333   0.3733333   0.0000000), wk =   0.0010667
        k( 1782) = (   0.2333333   0.3800000   0.0000000), wk =   0.0010667
        k( 1783) = (   0.2400000   0.2400000   0.0000000), wk =   0.0005333
        k( 1784) = (   0.2400000   0.2466667   0.0000000), wk =   0.0010667
        k( 1785) = (   0.2400000   0.2533333   0.0000000), wk =   0.0010667
        k( 1786) = (   0.2400000   0.2600000   0.0000000), wk =   0.0010667
        k( 1787) = (   0.2400000   0.2666667   0.0000000), wk =   0.0010667
        k( 1788) = (   0.2400000   0.2733333   0.0000000), wk =   0.0010667
        k( 1789) = (   0.2400000   0.2800000   0.0000000), wk =   0.0010667
        k( 1790) = (   0.2400000   0.2866667   0.0000000), wk =   0.0010667
        k( 1791) = (   0.2400000   0.2933333   0.0000000), wk =   0.0010667
        k( 1792) = (   0.2400000   0.3000000   0.0000000), wk =   0.0010667
        k( 1793) = (   0.2400000   0.3066667   0.0000000), wk =   0.0010667
        k( 1794) = (   0.2400000   0.3133333   0.0000000), wk =   0.0010667
        k( 1795) = (   0.2400000   0.3200000   0.0000000), wk =   0.0010667
        k( 1796) = (   0.2400000   0.3266667   0.0000000), wk =   0.0010667
        k( 1797) = (   0.2400000   0.3333333   0.0000000), wk =   0.0010667
        k( 1798) = (   0.2400000   0.3400000   0.0000000), wk =   0.0010667
        k( 1799) = (   0.2400000   0.3466667   0.0000000), wk =   0.0010667
        k( 1800) = (   0.2400000   0.3533333   0.0000000), wk =   0.0010667
        k( 1801) = (   0.2400000   0.3600000   0.0000000), wk =   0.0010667
        k( 1802) = (   0.2400000   0.3666667   0.0000000), wk =   0.0010667
        k( 1803) = (   0.2400000   0.3733333   0.0000000), wk =   0.0010667
        k( 1804) = (   0.2400000   0.3800000   0.0000000), wk =   0.0005333
        k( 1805) = (   0.2466667   0.2466667   0.0000000), wk =   0.0005333
        k( 1806) = (   0.2466667   0.2533333   0.0000000), wk =   0.0010667
        k( 1807) = (   0.2466667   0.2600000   0.0000000), wk =   0.0010667
        k( 1808) = (   0.2466667   0.2666667   0.0000000), wk =   0.0010667
        k( 1809) = (   0.2466667   0.2733333   0.0000000), wk =   0.0010667
        k( 1810) = (   0.2466667   0.2800000   0.0000000), wk =   0.0010667
        k( 1811) = (   0.2466667   0.2866667   0.0000000), wk =   0.0010667
        k( 1812) = (   0.2466667   0.2933333   0.0000000), wk =   0.0010667
        k( 1813) = (   0.2466667   0.3000000   0.0000000), wk =   0.0010667
        k( 1814) = (   0.2466667   0.3066667   0.0000000), wk =   0.0010667
        k( 1815) = (   0.2466667   0.3133333   0.0000000), wk =   0.0010667
        k( 1816) = (   0.2466667   0.3200000   0.0000000), wk =   0.0010667
        k( 1817) = (   0.2466667   0.3266667   0.0000000), wk =   0.0010667
        k( 1818) = (   0.2466667   0.3333333   0.0000000), wk =   0.0010667
        k( 1819) = (   0.2466667   0.3400000   0.0000000), wk =   0.0010667
        k( 1820) = (   0.2466667   0.3466667   0.0000000), wk =   0.0010667
        k( 1821) = (   0.2466667   0.3533333   0.0000000), wk =   0.0010667
        k( 1822) = (   0.2466667   0.3600000   0.0000000), wk =   0.0010667
        k( 1823) = (   0.2466667   0.3666667   0.0000000), wk =   0.0010667
        k( 1824) = (   0.2466667   0.3733333   0.0000000), wk =   0.0010667
        k( 1825) = (   0.2533333   0.2533333   0.0000000), wk =   0.0005333
        k( 1826) = (   0.2533333   0.2600000   0.0000000), wk =   0.0010667
        k( 1827) = (   0.2533333   0.2666667   0.0000000), wk =   0.0010667
        k( 1828) = (   0.2533333   0.2733333   0.0000000), wk =   0.0010667
        k( 1829) = (   0.2533333   0.2800000   0.0000000), wk =   0.0010667
        k( 1830) = (   0.2533333   0.2866667   0.0000000), wk =   0.0010667
        k( 1831) = (   0.2533333   0.2933333   0.0000000), wk =   0.0010667
        k( 1832) = (   0.2533333   0.3000000   0.0000000), wk =   0.0010667
        k( 1833) = (   0.2533333   0.3066667   0.0000000), wk =   0.0010667
        k( 1834) = (   0.2533333   0.3133333   0.0000000), wk =   0.0010667
        k( 1835) = (   0.2533333   0.3200000   0.0000000), wk =   0.0010667
        k( 1836) = (   0.2533333   0.3266667   0.0000000), wk =   0.0010667
        k( 1837) = (   0.2533333   0.3333333   0.0000000), wk =   0.0010667
        k( 1838) = (   0.2533333   0.3400000   0.0000000), wk =   0.0010667
        k( 1839) = (   0.2533333   0.3466667   0.0000000), wk =   0.0010667
        k( 1840) = (   0.2533333   0.3533333   0.0000000), wk =   0.0010667
        k( 1841) = (   0.2533333   0.3600000   0.0000000), wk =   0.0010667
        k( 1842) = (   0.2533333   0.3666667   0.0000000), wk =   0.0010667
        k( 1843) = (   0.2533333   0.3733333   0.0000000), wk =   0.0005333
        k( 1844) = (   0.2600000   0.2600000   0.0000000), wk =   0.0005333
        k( 1845) = (   0.2600000   0.2666667   0.0000000), wk =   0.0010667
        k( 1846) = (   0.2600000   0.2733333   0.0000000), wk =   0.0010667
        k( 1847) = (   0.2600000   0.2800000   0.0000000), wk =   0.0010667
        k( 1848) = (   0.2600000   0.2866667   0.0000000), wk =   0.0010667
        k( 1849) = (   0.2600000   0.2933333   0.0000000), wk =   0.0010667
        k( 1850) = (   0.2600000   0.3000000   0.0000000), wk =   0.0010667
        k( 1851) = (   0.2600000   0.3066667   0.0000000), wk =   0.0010667
        k( 1852) = (   0.2600000   0.3133333   0.0000000), wk =   0.0010667
        k( 1853) = (   0.2600000   0.3200000   0.0000000), wk =   0.0010667
        k( 1854) = (   0.2600000   0.3266667   0.0000000), wk =   0.0010667
        k( 1855) = (   0.2600000   0.3333333   0.0000000), wk =   0.0010667
        k( 1856) = (   0.2600000   0.3400000   0.0000000), wk =   0.0010667
        k( 1857) = (   0.2600000   0.3466667   0.0000000), wk =   0.0010667
        k( 1858) = (   0.2600000   0.3533333   0.0000000), wk =   0.0010667
        k( 1859) = (   0.2600000   0.3600000   0.0000000), wk =   0.0010667
        k( 1860) = (   0.2600000   0.3666667   0.0000000), wk =   0.0010667
        k( 1861) = (   0.2666667   0.2666667   0.0000000), wk =   0.0005333
        k( 1862) = (   0.2666667   0.2733333   0.0000000), wk =   0.0010667
        k( 1863) = (   0.2666667   0.2800000   0.0000000), wk =   0.0010667
        k( 1864) = (   0.2666667   0.2866667   0.0000000), wk =   0.0010667
        k( 1865) = (   0.2666667   0.2933333   0.0000000), wk =   0.0010667
        k( 1866) = (   0.2666667   0.3000000   0.0000000), wk =   0.0010667
        k( 1867) = (   0.2666667   0.3066667   0.0000000), wk =   0.0010667
        k( 1868) = (   0.2666667   0.3133333   0.0000000), wk =   0.0010667
        k( 1869) = (   0.2666667   0.3200000   0.0000000), wk =   0.0010667
        k( 1870) = (   0.2666667   0.3266667   0.0000000), wk =   0.0010667
        k( 1871) = (   0.2666667   0.3333333   0.0000000), wk =   0.0010667
        k( 1872) = (   0.2666667   0.3400000   0.0000000), wk =   0.0010667
        k( 1873) = (   0.2666667   0.3466667   0.0000000), wk =   0.0010667
        k( 1874) = (   0.2666667   0.3533333   0.0000000), wk =   0.0010667
        k( 1875) = (   0.2666667   0.3600000   0.0000000), wk =   0.0010667
        k( 1876) = (   0.2666667   0.3666667   0.0000000), wk =   0.0005333
        k( 1877) = (   0.2733333   0.2733333   0.0000000), wk =   0.0005333
        k( 1878) = (   0.2733333   0.2800000   0.0000000), wk =   0.0010667
        k( 1879) = (   0.2733333   0.2866667   0.0000000), wk =   0.0010667
        k( 1880) = (   0.2733333   0.2933333   0.0000000), wk =   0.0010667
        k( 1881) = (   0.2733333   0.3000000   0.0000000), wk =   0.0010667
        k( 1882) = (   0.2733333   0.3066667   0.0000000), wk =   0.0010667
        k( 1883) = (   0.2733333   0.3133333   0.0000000), wk =   0.0010667
        k( 1884) = (   0.2733333   0.3200000   0.0000000), wk =   0.0010667
        k( 1885) = (   0.2733333   0.3266667   0.0000000), wk =   0.0010667
        k( 1886) = (   0.2733333   0.3333333   0.0000000), wk =   0.0010667
        k( 1887) = (   0.2733333   0.3400000   0.0000000), wk =   0.0010667
        k( 1888) = (   0.2733333   0.3466667   0.0000000), wk =   0.0010667
        k( 1889) = (   0.2733333   0.3533333   0.0000000), wk =   0.0010667
        k( 1890) = (   0.2733333   0.3600000   0.0000000), wk =   0.0010667
        k( 1891) = (   0.2800000   0.2800000   0.0000000), wk =   0.0005333
        k( 1892) = (   0.2800000   0.2866667   0.0000000), wk =   0.0010667
        k( 1893) = (   0.2800000   0.2933333   0.0000000), wk =   0.0010667
        k( 1894) = (   0.2800000   0.3000000   0.0000000), wk =   0.0010667
        k( 1895) = (   0.2800000   0.3066667   0.0000000), wk =   0.0010667
        k( 1896) = (   0.2800000   0.3133333   0.0000000), wk =   0.0010667
        k( 1897) = (   0.2800000   0.3200000   0.0000000), wk =   0.0010667
        k( 1898) = (   0.2800000   0.3266667   0.0000000), wk =   0.0010667
        k( 1899) = (   0.2800000   0.3333333   0.0000000), wk =   0.0010667
        k( 1900) = (   0.2800000   0.3400000   0.0000000), wk =   0.0010667
        k( 1901) = (   0.2800000   0.3466667   0.0000000), wk =   0.0010667
        k( 1902) = (   0.2800000   0.3533333   0.0000000), wk =   0.0010667
        k( 1903) = (   0.2800000   0.3600000   0.0000000), wk =   0.0005333
        k( 1904) = (   0.2866667   0.2866667   0.0000000), wk =   0.0005333
        k( 1905) = (   0.2866667   0.2933333   0.0000000), wk =   0.0010667
        k( 1906) = (   0.2866667   0.3000000   0.0000000), wk =   0.0010667
        k( 1907) = (   0.2866667   0.3066667   0.0000000), wk =   0.0010667
        k( 1908) = (   0.2866667   0.3133333   0.0000000), wk =   0.0010667
        k( 1909) = (   0.2866667   0.3200000   0.0000000), wk =   0.0010667
        k( 1910) = (   0.2866667   0.3266667   0.0000000), wk =   0.0010667
        k( 1911) = (   0.2866667   0.3333333   0.0000000), wk =   0.0010667
        k( 1912) = (   0.2866667   0.3400000   0.0000000), wk =   0.0010667
        k( 1913) = (   0.2866667   0.3466667   0.0000000), wk =   0.0010667
        k( 1914) = (   0.2866667   0.3533333   0.0000000), wk =   0.0010667
        k( 1915) = (   0.2933333   0.2933333   0.0000000), wk =   0.0005333
        k( 1916) = (   0.2933333   0.3000000   0.0000000), wk =   0.0010667
        k( 1917) = (   0.2933333   0.3066667   0.0000000), wk =   0.0010667
        k( 1918) = (   0.2933333   0.3133333   0.0000000), wk =   0.0010667
        k( 1919) = (   0.2933333   0.3200000   0.0000000), wk =   0.0010667
        k( 1920) = (   0.2933333   0.3266667   0.0000000), wk =   0.0010667
        k( 1921) = (   0.2933333   0.3333333   0.0000000), wk =   0.0010667
        k( 1922) = (   0.2933333   0.3400000   0.0000000), wk =   0.0010667
        k( 1923) = (   0.2933333   0.3466667   0.0000000), wk =   0.0010667
        k( 1924) = (   0.2933333   0.3533333   0.0000000), wk =   0.0005333
        k( 1925) = (   0.3000000   0.3000000   0.0000000), wk =   0.0005333
        k( 1926) = (   0.3000000   0.3066667   0.0000000), wk =   0.0010667
        k( 1927) = (   0.3000000   0.3133333   0.0000000), wk =   0.0010667
        k( 1928) = (   0.3000000   0.3200000   0.0000000), wk =   0.0010667
        k( 1929) = (   0.3000000   0.3266667   0.0000000), wk =   0.0010667
        k( 1930) = (   0.3000000   0.3333333   0.0000000), wk =   0.0010667
        k( 1931) = (   0.3000000   0.3400000   0.0000000), wk =   0.0010667
        k( 1932) = (   0.3000000   0.3466667   0.0000000), wk =   0.0010667
        k( 1933) = (   0.3066667   0.3066667   0.0000000), wk =   0.0005333
        k( 1934) = (   0.3066667   0.3133333   0.0000000), wk =   0.0010667
        k( 1935) = (   0.3066667   0.3200000   0.0000000), wk =   0.0010667
        k( 1936) = (   0.3066667   0.3266667   0.0000000), wk =   0.0010667
        k( 1937) = (   0.3066667   0.3333333   0.0000000), wk =   0.0010667
        k( 1938) = (   0.3066667   0.3400000   0.0000000), wk =   0.0010667
        k( 1939) = (   0.3066667   0.3466667   0.0000000), wk =   0.0005333
        k( 1940) = (   0.3133333   0.3133333   0.0000000), wk =   0.0005333
        k( 1941) = (   0.3133333   0.3200000   0.0000000), wk =   0.0010667
        k( 1942) = (   0.3133333   0.3266667   0.0000000), wk =   0.0010667
        k( 1943) = (   0.3133333   0.3333333   0.0000000), wk =   0.0010667
        k( 1944) = (   0.3133333   0.3400000   0.0000000), wk =   0.0010667
        k( 1945) = (   0.3200000   0.3200000   0.0000000), wk =   0.0005333
        k( 1946) = (   0.3200000   0.3266667   0.0000000), wk =   0.0010667
        k( 1947) = (   0.3200000   0.3333333   0.0000000), wk =   0.0010667
        k( 1948) = (   0.3200000   0.3400000   0.0000000), wk =   0.0005333
        k( 1949) = (   0.3266667   0.3266667   0.0000000), wk =   0.0005333
        k( 1950) = (   0.3266667   0.3333333   0.0000000), wk =   0.0010667
        k( 1951) = (   0.3333333   0.3333333   0.0000000), wk =   0.0001778

     Dense  grid:   163611 G-vectors     FFT dimensions: (  45,  45, 240)

     Smooth grid:    41503 G-vectors     FFT dimensions: (  27,  27, 160)

     Dynamical RAM for                 wfc:       0.03 MB

     Dynamical RAM for     wfc (w. buffer):       0.03 MB

     Dynamical RAM for           str. fact:       0.12 MB

     Dynamical RAM for           local pot:       0.00 MB

     Dynamical RAM for          nlocal pot:       0.06 MB

     Dynamical RAM for                qrad:       0.61 MB

     Dynamical RAM for          rho,v,vnew:       0.93 MB

     Dynamical RAM for           G-vectors:       0.48 MB

     Dynamical RAM for          h,s,v(r/c):       0.01 MB

     Dynamical RAM for          <psi|beta>:       0.00 MB

     Dynamical RAM for                 psi:       0.06 MB

     Dynamical RAM for                hpsi:       0.06 MB

     Dynamical RAM for                spsi:       0.06 MB

     Dynamical RAM for      wfcinit/wfcrot:       0.06 MB

     Dynamical RAM for           addusdens:       5.62 MB

     Estimated static dynamical RAM per process >       3.42 MB

     Estimated max dynamical RAM per process >       9.04 MB

     Estimated total dynamical RAM >     180.70 MB

     Atomic positions and unit cell read from directory:
     ../tmp/graphene.save/
 

     The potential is recalculated from file :
     ../tmp/graphene.save/charge-density


     negative rho (up, down):  1.299E-05 0.000E+00
     Starting wfcs are random
     Checking if some PAW data can be deallocated... 

     Band Structure Calculation
     Davidson diagonalization with overlap

     Computing kpt #:     1  of  1951
     total cpu time spent up to now is        0.6 secs

     Computing kpt #:     2  of  1951
     total cpu time spent up to now is        0.7 secs

     Computing kpt #:     3  of  1951
     total cpu time spent up to now is        0.9 secs

     Computing kpt #:     4  of  1951
     total cpu time spent up to now is        1.1 secs

     Computing kpt #:     5  of  1951
     total cpu time spent up to now is        1.3 secs

     Computing kpt #:     6  of  1951
     total cpu time spent up to now is        1.5 secs

     Computing kpt #:     7  of  1951
     total cpu time spent up to now is        1.8 secs

     Computing kpt #:     8  of  1951
     total cpu time spent up to now is        2.0 secs

     Computing kpt #:     9  of  1951
     total cpu time spent up to now is        2.2 secs

     Computing kpt #:    10  of  1951
     total cpu time spent up to now is        2.3 secs

     Computing kpt #:    11  of  1951
     total cpu time spent up to now is        2.5 secs

     Computing kpt #:    12  of  1951
     total cpu time spent up to now is        2.7 secs

     Computing kpt #:    13  of  1951
     total cpu time spent up to now is        2.9 secs

     Computing kpt #:    14  of  1951
     total cpu time spent up to now is        3.1 secs

     Computing kpt #:    15  of  1951
     total cpu time spent up to now is        3.3 secs

     Computing kpt #:    16  of  1951
     total cpu time spent up to now is        3.5 secs

     Computing kpt #:    17  of  1951
     total cpu time spent up to now is        3.7 secs

     Computing kpt #:    18  of  1951
     total cpu time spent up to now is        3.9 secs

     Computing kpt #:    19  of  1951
     total cpu time spent up to now is        4.1 secs

     Computing kpt #:    20  of  1951
     total cpu time spent up to now is        4.3 secs

     Computing kpt #:    21  of  1951
     total cpu time spent up to now is        4.5 secs

     Computing kpt #:    22  of  1951
     total cpu time spent up to now is        4.7 secs

     Computing kpt #:    23  of  1951
     total cpu time spent up to now is        4.9 secs

     Computing kpt #:    24  of  1951
     total cpu time spent up to now is        5.1 secs

     Computing kpt #:    25  of  1951
     total cpu time spent up to now is        5.3 secs

     Computing kpt #:    26  of  1951
     c_bands:  1 eigenvalues not converged
     total cpu time spent up to now is        5.5 secs

     Computing kpt #:    27  of  1951
     c_bands:  1 eigenvalues not converged
     total cpu time spent up to now is        5.7 secs

     Computing kpt #:    28  of  1951
     total cpu time spent up to now is        5.9 secs

     Computing kpt #:    29  of  1951
     total cpu time spent up to now is        6.1 secs

     Computing kpt #:    30  of  1951
     c_bands:  1 eigenvalues not converged
     total cpu time spent up to now is        6.3 secs

     Computing kpt #:    31  of  1951
     c_bands:  1 eigenvalues not converged
     total cpu time spent up to now is        6.6 secs

     Computing kpt #:    32  of  1951
     c_bands:  1 eigenvalues not converged
     total cpu time spent up to now is        6.8 secs

     Computing kpt #:    33  of  1951
     c_bands:  1 eigenvalues not converged
     total cpu time spent up to now is        7.0 secs

     Computing kpt #:    34  of  1951
     c_bands:  1 eigenvalues not converged
     total cpu time spent up to now is        7.2 secs

     Computing kpt #:    35  of  1951
     c_bands:  1 eigenvalues not converged
     total cpu time spent up to now is        7.4 secs

     Computing kpt #:    36  of  1951
     c_bands:  1 eigenvalues not converged
     total cpu time spent up to now is        7.6 secs

     Computing kpt #:    37  of  1951
     c_bands:  1 eigenvalues not converged
     total cpu time spent up to now is        7.8 secs

     Computing kpt #:    38  of  1951
     c_bands:  1 eigenvalues not converged
     total cpu time spent up to now is        8.0 secs

     Computing kpt #:    39  of  1951
     total cpu time spent up to now is        8.2 secs

     Computing kpt #:    40  of  1951
     total cpu time spent up to now is        8.4 secs

     Computing kpt #:    41  of  1951
     c_bands:  1 eigenvalues not converged
     total cpu time spent up to now is        8.6 secs

     Computing kpt #:    42  of  1951
     c_bands:  1 eigenvalues not converged
     total cpu time spent up to now is        8.8 secs

     Computing kpt #:    43  of  1951
     c_bands:  3 eigenvalues not converged
     total cpu time spent up to now is        9.0 secs

     Computing kpt #:    44  of  1951
     total cpu time spent up to now is        9.2 secs

     Computing kpt #:    45  of  1951
     c_bands:  1 eigenvalues not converged
     total cpu time spent up to now is        9.4 secs

     Computing kpt #:    46  of  1951
     c_bands:  2 eigenvalues not converged
     total cpu time spent up to now is        9.7 secs

     Computing kpt #:    47  of  1951
     c_bands:  2 eigenvalues not converged
     total cpu time spent up to now is        9.9 secs

     Computing kpt #:    48  of  1951
     c_bands:  2 eigenvalues not converged
     total cpu time spent up to now is       10.1 secs

     Computing kpt #:    49  of  1951
     c_bands:  2 eigenvalues not converged
     total cpu time spent up to now is       10.3 secs

     Computing kpt #:    50  of  1951
     c_bands:  2 eigenvalues not converged
     total cpu time spent up to now is       10.5 secs

     Computing kpt #:    51  of  1951
     c_bands:  2 eigenvalues not converged
     total cpu time spent up to now is       10.7 secs

     Computing kpt #:    52  of  1951
     total cpu time spent up to now is       10.9 secs

     Computing kpt #:    53  of  1951
     total cpu time spent up to now is       11.1 secs

     Computing kpt #:    54  of  1951
     total cpu time spent up to now is       11.2 secs

     Computing kpt #:    55  of  1951
     total cpu time spent up to now is       11.4 secs

     Computing kpt #:    56  of  1951
     total cpu time spent up to now is       11.6 secs

     Computing kpt #:    57  of  1951
     total cpu time spent up to now is       11.8 secs

     Computing kpt #:    58  of  1951
     total cpu time spent up to now is       12.0 secs

     Computing kpt #:    59  of  1951
     total cpu time spent up to now is       12.5 secs

     Computing kpt #:    60  of  1951
     total cpu time spent up to now is       12.6 secs

     Computing kpt #:    61  of  1951
     total cpu time spent up to now is       12.8 secs

     Computing kpt #:    62  of  1951
     total cpu time spent up to now is       13.0 secs

     Computing kpt #:    63  of  1951
     total cpu time spent up to now is       13.1 secs

     Computing kpt #:    64  of  1951
     total cpu time spent up to now is       13.3 secs

     Computing kpt #:    65  of  1951
     total cpu time spent up to now is       13.5 secs

     Computing kpt #:    66  of  1951
     total cpu time spent up to now is       13.6 secs

     Computing kpt #:    67  of  1951
     total cpu time spent up to now is       13.8 secs

     Computing kpt #:    68  of  1951
     total cpu time spent up to now is       14.0 secs

     Computing kpt #:    69  of  1951
     total cpu time spent up to now is       14.2 secs

     Computing kpt #:    70  of  1951
     total cpu time spent up to now is       14.3 secs

     Computing kpt #:    71  of  1951
     total cpu time spent up to now is       14.5 secs

     Computing kpt #:    72  of  1951
     total cpu time spent up to now is       14.7 secs

     Computing kpt #:    73  of  1951
     c_bands:  1 eigenvalues not converged
     total cpu time spent up to now is       14.8 secs

     Computing kpt #:    74  of  1951
     c_bands:  1 eigenvalues not converged
     total cpu time spent up to now is       15.0 secs

     Computing kpt #:    75  of  1951
     total cpu time spent up to now is       15.2 secs

     Computing kpt #:    76  of  1951
     total cpu time spent up to now is       15.4 secs

     Computing kpt #:    77  of  1951
     total cpu time spent up to now is       15.6 secs

     Computing kpt #:    78  of  1951
     total cpu time spent up to now is       15.8 secs

     Computing kpt #:    79  of  1951
     total cpu time spent up to now is       16.0 secs

     Computing kpt #:    80  of  1951
     total cpu time spent up to now is       16.2 secs

     Computing kpt #:    81  of  1951
     total cpu time spent up to now is       16.4 secs

     Computing kpt #:    82  of  1951
     total cpu time spent up to now is       16.6 secs

     Computing kpt #:    83  of  1951
     total cpu time spent up to now is       16.8 secs

     Computing kpt #:    84  of  1951
     total cpu time spent up to now is       17.0 secs

     Computing kpt #:    85  of  1951
     total cpu time spent up to now is       17.2 secs

     Computing kpt #:    86  of  1951
     total cpu time spent up to now is       17.4 secs

     Computing kpt #:    87  of  1951
     total cpu time spent up to now is       17.6 secs

     Computing kpt #:    88  of  1951
     total cpu time spent up to now is       17.8 secs

     Computing kpt #:    89  of  1951
     total cpu time spent up to now is       18.0 secs

     Computing kpt #:    90  of  1951
     total cpu time spent up to now is       18.1 secs

     Computing kpt #:    91  of  1951
     total cpu time spent up to now is       18.3 secs

     Computing kpt #:    92  of  1951
     total cpu time spent up to now is       18.5 secs

     Computing kpt #:    93  of  1951
     total cpu time spent up to now is       18.7 secs

     Computing kpt #:    94  of  1951
     total cpu time spent up to now is       18.9 secs

     Computing kpt #:    95  of  1951
     total cpu time spent up to now is       19.1 secs

     Computing kpt #:    96  of  1951
     total cpu time spent up to now is       19.3 secs

     Computing kpt #:    97  of  1951
     total cpu time spent up to now is       19.5 secs

     Computing kpt #:    98  of  1951
     total cpu time spent up to now is       19.7 secs

     Computing kpt #:    99  of  1951
     total cpu time spent up to now is       19.9 secs

     Computing kpt #:   100  of  1951
     total cpu time spent up to now is       20.1 secs

     Computing kpt #:   101  of  1951
     total cpu time spent up to now is       20.3 secs

     Computing kpt #:   102  of  1951
     c_bands:  1 eigenvalues not converged
     total cpu time spent up to now is       20.5 secs

     Computing kpt #:   103  of  1951
     total cpu time spent up to now is       20.7 secs

     Computing kpt #:   104  of  1951
     total cpu time spent up to now is       20.9 secs

     Computing kpt #:   105  of  1951
     c_bands:  1 eigenvalues not converged
     total cpu time spent up to now is       21.1 secs

     Computing kpt #:   106  of  1951
     c_bands:  1 eigenvalues not converged
     total cpu time spent up to now is       21.3 secs

     Computing kpt #:   107  of  1951
     c_bands:  1 eigenvalues not converged
     total cpu time spent up to now is       21.6 secs

     Computing kpt #:   108  of  1951
     c_bands:  1 eigenvalues not converged
     total cpu time spent up to now is       21.8 secs

     Computing kpt #:   109  of  1951
     c_bands:  1 eigenvalues not converged
     total cpu time spent up to now is       22.0 secs

     Computing kpt #:   110  of  1951
     c_bands:  1 eigenvalues not converged
     total cpu time spent up to now is       22.2 secs

     Computing kpt #:   111  of  1951
     c_bands:  2 eigenvalues not converged
     total cpu time spent up to now is       22.4 secs

     Computing kpt #:   112  of  1951
     c_bands:  2 eigenvalues not converged
     total cpu time spent up to now is       22.6 secs

     Computing kpt #:   113  of  1951
     total cpu time spent up to now is       22.8 secs

     Computing kpt #:   114  of  1951
     total cpu time spent up to now is       23.0 secs

     Computing kpt #:   115  of  1951
     c_bands:  1 eigenvalues not converged
     total cpu time spent up to now is       23.2 secs

     Computing kpt #:   116  of  1951
     c_bands:  1 eigenvalues not converged
     total cpu time spent up to now is       23.4 secs

     Computing kpt #:   117  of  1951
     total cpu time spent up to now is       23.6 secs

     Computing kpt #:   118  of  1951
     total cpu time spent up to now is       23.8 secs

     Computing kpt #:   119  of  1951
     c_bands:  1 eigenvalues not converged
     total cpu time spent up to now is       24.1 secs

     Computing kpt #:   120  of  1951
     c_bands:  1 eigenvalues not converged
     total cpu time spent up to now is       24.3 secs

     Computing kpt #:   121  of  1951
     c_bands:  1 eigenvalues not converged
     total cpu time spent up to now is       24.4 secs

     Computing kpt #:   122  of  1951
     c_bands:  2 eigenvalues not converged
     total cpu time spent up to now is       24.6 secs

     Computing kpt #:   123  of  1951
     c_bands:  2 eigenvalues not converged
     total cpu time spent up to now is       24.9 secs

     Computing kpt #:   124  of  1951
     c_bands:  1 eigenvalues not converged
     total cpu time spent up to now is       25.1 secs

     Computing kpt #:   125  of  1951
     c_bands:  1 eigenvalues not converged
     total cpu time spent up to now is       25.3 secs

     Computing kpt #:   126  of  1951
     c_bands:  2 eigenvalues not converged
     total cpu time spent up to now is       25.4 secs

     Computing kpt #:   127  of  1951
     total cpu time spent up to now is       25.6 secs

     Computing kpt #:   128  of  1951
     total cpu time spent up to now is       25.8 secs

     Computing kpt #:   129  of  1951
     c_bands:  1 eigenvalues not converged
     total cpu time spent up to now is       26.0 secs

     Computing kpt #:   130  of  1951
     total cpu time spent up to now is       26.2 secs

     Computing kpt #:   131  of  1951
     total cpu time spent up to now is       26.4 secs

     Computing kpt #:   132  of  1951
     total cpu time spent up to now is       26.6 secs

     Computing kpt #:   133  of  1951
     total cpu time spent up to now is       26.7 secs

     Computing kpt #:   134  of  1951
     total cpu time spent up to now is       26.9 secs

     Computing kpt #:   135  of  1951
     total cpu time spent up to now is       27.1 secs

     Computing kpt #:   136  of  1951
     total cpu time spent up to now is       27.2 secs

     Computing kpt #:   137  of  1951
     total cpu time spent up to now is       27.4 secs

     Computing kpt #:   138  of  1951
     total cpu time spent up to now is       27.6 secs

     Computing kpt #:   139  of  1951
     total cpu time spent up to now is       27.7 secs

     Computing kpt #:   140  of  1951
     total cpu time spent up to now is       27.9 secs

     Computing kpt #:   141  of  1951
     total cpu time spent up to now is       28.1 secs

     Computing kpt #:   142  of  1951
     total cpu time spent up to now is       28.2 secs

     Computing kpt #:   143  of  1951
     total cpu time spent up to now is       28.4 secs

     Computing kpt #:   144  of  1951
     total cpu time spent up to now is       28.6 secs

     Computing kpt #:   145  of  1951
     total cpu time spent up to now is       28.7 secs

     Computing kpt #:   146  of  1951
     total cpu time spent up to now is       28.9 secs

     Computing kpt #:   147  of  1951
     total cpu time spent up to now is       29.1 secs

     Computing kpt #:   148  of  1951
     c_bands:  1 eigenvalues not converged
     total cpu time spent up to now is       29.3 secs

     Computing kpt #:   149  of  1951
     total cpu time spent up to now is       29.5 secs

     Computing kpt #:   150  of  1951
     total cpu time spent up to now is       29.7 secs

     Computing kpt #:   151  of  1951
     total cpu time spent up to now is       29.8 secs

     Computing kpt #:   152  of  1951
     total cpu time spent up to now is       30.0 secs

     Computing kpt #:   153  of  1951
     total cpu time spent up to now is       30.2 secs

     Computing kpt #:   154  of  1951
     total cpu time spent up to now is       30.4 secs

     Computing kpt #:   155  of  1951
     total cpu time spent up to now is       30.6 secs

     Computing kpt #:   156  of  1951
     total cpu time spent up to now is       30.8 secs

     Computing kpt #:   157  of  1951
     total cpu time spent up to now is       31.0 secs

     Computing kpt #:   158  of  1951
     total cpu time spent up to now is       31.2 secs

     Computing kpt #:   159  of  1951
     total cpu time spent up to now is       31.4 secs

     Computing kpt #:   160  of  1951
     total cpu time spent up to now is       31.6 secs

     Computing kpt #:   161  of  1951
     total cpu time spent up to now is       31.8 secs

     Computing kpt #:   162  of  1951
     total cpu time spent up to now is       32.0 secs

     Computing kpt #:   163  of  1951
     total cpu time spent up to now is       32.2 secs

     Computing kpt #:   164  of  1951
     total cpu time spent up to now is       32.4 secs

     Computing kpt #:   165  of  1951
     total cpu time spent up to now is       32.6 secs

     Computing kpt #:   166  of  1951
     total cpu time spent up to now is       32.8 secs

     Computing kpt #:   167  of  1951
     total cpu time spent up to now is       33.0 secs

     Computing kpt #:   168  of  1951
     total cpu time spent up to now is       33.2 secs

     Computing kpt #:   169  of  1951
     total cpu time spent up to now is       33.4 secs

     Computing kpt #:   170  of  1951
     total cpu time spent up to now is       33.6 secs

     Computing kpt #:   171  of  1951
     total cpu time spent up to now is       33.8 secs

     Computing kpt #:   172  of  1951
     total cpu time spent up to now is       34.0 secs

     Computing kpt #:   173  of  1951
     total cpu time spent up to now is       34.2 secs

     Computing kpt #:   174  of  1951
     total cpu time spent up to now is       34.4 secs

     Computing kpt #:   175  of  1951
     c_bands:  1 eigenvalues not converged
     total cpu time spent up to now is       34.6 secs

     Computing kpt #:   176  of  1951
     total cpu time spent up to now is       34.8 secs

     Computing kpt #:   177  of  1951
     c_bands:  1 eigenvalues not converged
     total cpu time spent up to now is       35.0 secs

     Computing kpt #:   178  of  1951
     c_bands:  1 eigenvalues not converged
     total cpu time spent up to now is       35.3 secs

     Computing kpt #:   179  of  1951
     c_bands:  1 eigenvalues not converged
     total cpu time spent up to now is       35.5 secs

     Computing kpt #:   180  of  1951
     c_bands:  1 eigenvalues not converged
     total cpu time spent up to now is       35.7 secs

     Computing kpt #:   181  of  1951
     c_bands:  1 eigenvalues not converged
     total cpu time spent up to now is       35.9 secs

     Computing kpt #:   182  of  1951
     c_bands:  1 eigenvalues not converged
     total cpu time spent up to now is       36.1 secs

     Computing kpt #:   183  of  1951
     c_bands:  1 eigenvalues not converged
     total cpu time spent up to now is       36.3 secs

     Computing kpt #:   184  of  1951
     total cpu time spent up to now is       36.5 secs

     Computing kpt #:   185  of  1951
     total cpu time spent up to now is       36.7 secs

     Computing kpt #:   186  of  1951
     c_bands:  1 eigenvalues not converged
     total cpu time spent up to now is       36.9 secs

     Computing kpt #:   187  of  1951
     c_bands:  1 eigenvalues not converged
     total cpu time spent up to now is       37.1 secs

     Computing kpt #:   188  of  1951
     c_bands:  2 eigenvalues not converged
     total cpu time spent up to now is       37.3 secs

     Computing kpt #:   189  of  1951
     c_bands:  1 eigenvalues not converged
     total cpu time spent up to now is       37.5 secs

     Computing kpt #:   190  of  1951
     c_bands:  1 eigenvalues not converged
     total cpu time spent up to now is       38.5 secs

     Computing kpt #:   191  of  1951
     c_bands:  3 eigenvalues not converged
     total cpu time spent up to now is       38.7 secs

     Computing kpt #:   192  of  1951
     c_bands:  2 eigenvalues not converged
     total cpu time spent up to now is       38.9 secs

     Computing kpt #:   193  of  1951
     c_bands:  2 eigenvalues not converged
     total cpu time spent up to now is       39.2 secs

     Computing kpt #:   194  of  1951
     c_bands:  2 eigenvalues not converged
     total cpu time spent up to now is       39.4 secs

     Computing kpt #:   195  of  1951
     c_bands:  2 eigenvalues not converged
     total cpu time spent up to now is       39.6 secs

     Computing kpt #:   196  of  1951
     c_bands:  1 eigenvalues not converged
     total cpu time spent up to now is       39.8 secs

     Computing kpt #:   197  of  1951
     c_bands:  1 eigenvalues not converged
     total cpu time spent up to now is       40.0 secs

     Computing kpt #:   198  of  1951
     total cpu time spent up to now is       40.1 secs

     Computing kpt #:   199  of  1951
     total cpu time spent up to now is       40.3 secs

     Computing kpt #:   200  of  1951
     total cpu time spent up to now is       40.5 secs

     Computing kpt #:   201  of  1951
     total cpu time spent up to now is       40.7 secs

     Computing kpt #:   202  of  1951
     total cpu time spent up to now is       40.9 secs

     Computing kpt #:   203  of  1951
     total cpu time spent up to now is       41.1 secs

     Computing kpt #:   204  of  1951
     total cpu time spent up to now is       41.2 secs

     Computing kpt #:   205  of  1951
     total cpu time spent up to now is       41.4 secs

     Computing kpt #:   206  of  1951
     total cpu time spent up to now is       41.6 secs

     Computing kpt #:   207  of  1951
     total cpu time spent up to now is       41.8 secs

     Computing kpt #:   208  of  1951
     total cpu time spent up to now is       41.9 secs

     Computing kpt #:   209  of  1951
     total cpu time spent up to now is       42.1 secs

     Computing kpt #:   210  of  1951
     total cpu time spent up to now is       42.3 secs

     Computing kpt #:   211  of  1951
     total cpu time spent up to now is       42.5 secs

     Computing kpt #:   212  of  1951
     total cpu time spent up to now is       42.6 secs

     Computing kpt #:   213  of  1951
     total cpu time spent up to now is       42.8 secs

     Computing kpt #:   214  of  1951
     total cpu time spent up to now is       43.0 secs

     Computing kpt #:   215  of  1951
     total cpu time spent up to now is       43.1 secs

     Computing kpt #:   216  of  1951
     total cpu time spent up to now is       43.3 secs

     Computing kpt #:   217  of  1951
     total cpu time spent up to now is       43.5 secs

     Computing kpt #:   218  of  1951
     total cpu time spent up to now is       43.6 secs

     Computing kpt #:   219  of  1951
     total cpu time spent up to now is       43.8 secs

     Computing kpt #:   220  of  1951
     c_bands:  1 eigenvalues not converged
     total cpu time spent up to now is       44.0 secs

     Computing kpt #:   221  of  1951
     c_bands:  1 eigenvalues not converged
     total cpu time spent up to now is       44.2 secs

     Computing kpt #:   222  of  1951
     total cpu time spent up to now is       44.4 secs

     Computing kpt #:   223  of  1951
     total cpu time spent up to now is       44.5 secs

     Computing kpt #:   224  of  1951
     total cpu time spent up to now is       44.7 secs

     Computing kpt #:   225  of  1951
     total cpu time spent up to now is       44.9 secs

     Computing kpt #:   226  of  1951
     total cpu time spent up to now is       45.1 secs

     Computing kpt #:   227  of  1951
     total cpu time spent up to now is       45.3 secs

     Computing kpt #:   228  of  1951
     total cpu time spent up to now is       45.5 secs

     Computing kpt #:   229  of  1951
     total cpu time spent up to now is       45.7 secs

     Computing kpt #:   230  of  1951
     total cpu time spent up to now is       45.9 secs

     Computing kpt #:   231  of  1951
     total cpu time spent up to now is       46.1 secs

     Computing kpt #:   232  of  1951
     total cpu time spent up to now is       46.3 secs

     Computing kpt #:   233  of  1951
     total cpu time spent up to now is       46.5 secs

     Computing kpt #:   234  of  1951
     total cpu time spent up to now is       46.6 secs

     Computing kpt #:   235  of  1951
     total cpu time spent up to now is       46.9 secs

     Computing kpt #:   236  of  1951
     total cpu time spent up to now is       47.0 secs

     Computing kpt #:   237  of  1951
     total cpu time spent up to now is       47.2 secs

     Computing kpt #:   238  of  1951
     total cpu time spent up to now is       47.4 secs

     Computing kpt #:   239  of  1951
     total cpu time spent up to now is       47.6 secs

     Computing kpt #:   240  of  1951
     total cpu time spent up to now is       47.8 secs

     Computing kpt #:   241  of  1951
     total cpu time spent up to now is       48.0 secs

     Computing kpt #:   242  of  1951
     total cpu time spent up to now is       48.2 secs

     Computing kpt #:   243  of  1951
     total cpu time spent up to now is       48.4 secs

     Computing kpt #:   244  of  1951
     total cpu time spent up to now is       48.6 secs

     Computing kpt #:   245  of  1951
     total cpu time spent up to now is       48.8 secs

     Computing kpt #:   246  of  1951
     c_bands:  1 eigenvalues not converged
     total cpu time spent up to now is       49.0 secs

     Computing kpt #:   247  of  1951
     c_bands:  1 eigenvalues not converged
     total cpu time spent up to now is       49.2 secs

     Computing kpt #:   248  of  1951
     c_bands:  1 eigenvalues not converged
     total cpu time spent up to now is       49.5 secs

     Computing kpt #:   249  of  1951
     c_bands:  1 eigenvalues not converged
     total cpu time spent up to now is       49.7 secs

     Computing kpt #:   250  of  1951
     c_bands:  1 eigenvalues not converged
     total cpu time spent up to now is       49.9 secs

     Computing kpt #:   251  of  1951
     c_bands:  1 eigenvalues not converged
     total cpu time spent up to now is       50.1 secs

     Computing kpt #:   252  of  1951
     c_bands:  1 eigenvalues not converged
     total cpu time spent up to now is       50.3 secs

     Computing kpt #:   253  of  1951
     c_bands:  1 eigenvalues not converged
     total cpu time spent up to now is       50.5 secs

     Computing kpt #:   254  of  1951
     c_bands:  1 eigenvalues not converged
     total cpu time spent up to now is       50.7 secs

     Computing kpt #:   255  of  1951
     c_bands:  1 eigenvalues not converged
     total cpu time spent up to now is       50.9 secs

     Computing kpt #:   256  of  1951
     c_bands:  1 eigenvalues not converged
     total cpu time spent up to now is       51.1 secs

     Computing kpt #:   257  of  1951
     total cpu time spent up to now is       51.3 secs

     Computing kpt #:   258  of  1951
     c_bands:  2 eigenvalues not converged
     total cpu time spent up to now is       51.5 secs

     Computing kpt #:   259  of  1951
     c_bands:  2 eigenvalues not converged
     total cpu time spent up to now is       51.7 secs

     Computing kpt #:   260  of  1951
     total cpu time spent up to now is       51.9 secs

     Computing kpt #:   261  of  1951
     c_bands:  2 eigenvalues not converged
     total cpu time spent up to now is       52.1 secs

     Computing kpt #:   262  of  1951
     c_bands:  3 eigenvalues not converged
     total cpu time spent up to now is       52.4 secs

     Computing kpt #:   263  of  1951
     c_bands:  1 eigenvalues not converged
     total cpu time spent up to now is       52.6 secs

     Computing kpt #:   264  of  1951
     c_bands:  2 eigenvalues not converged
     total cpu time spent up to now is       52.8 secs

     Computing kpt #:   265  of  1951
     c_bands:  2 eigenvalues not converged
     total cpu time spent up to now is       53.0 secs

     Computing kpt #:   266  of  1951
     c_bands:  2 eigenvalues not converged
     total cpu time spent up to now is       53.2 secs

     Computing kpt #:   267  of  1951
     c_bands:  2 eigenvalues not converged
     total cpu time spent up to now is       53.4 secs

     Computing kpt #:   268  of  1951
     c_bands:  2 eigenvalues not converged
     total cpu time spent up to now is       53.6 secs

     Computing kpt #:   269  of  1951
     c_bands:  2 eigenvalues not converged
     total cpu time spent up to now is       53.8 secs

     Computing kpt #:   270  of  1951
     total cpu time spent up to now is       54.0 secs

     Computing kpt #:   271  of  1951
     c_bands:  2 eigenvalues not converged
     total cpu time spent up to now is       54.2 secs

     Computing kpt #:   272  of  1951
     total cpu time spent up to now is       54.4 secs

     Computing kpt #:   273  of  1951
     total cpu time spent up to now is       54.6 secs

     Computing kpt #:   274  of  1951
     total cpu time spent up to now is       54.8 secs

     Computing kpt #:   275  of  1951
     total cpu time spent up to now is       54.9 secs

     Computing kpt #:   276  of  1951
     total cpu time spent up to now is       55.1 secs

     Computing kpt #:   277  of  1951
     total cpu time spent up to now is       55.3 secs

     Computing kpt #:   278  of  1951
     total cpu time spent up to now is       55.5 secs

     Computing kpt #:   279  of  1951
     total cpu time spent up to now is       55.6 secs

     Computing kpt #:   280  of  1951
     total cpu time spent up to now is       55.8 secs

     Computing kpt #:   281  of  1951
     total cpu time spent up to now is       56.0 secs

     Computing kpt #:   282  of  1951
     total cpu time spent up to now is       56.2 secs

     Computing kpt #:   283  of  1951
     total cpu time spent up to now is       56.3 secs

     Computing kpt #:   284  of  1951
     total cpu time spent up to now is       56.5 secs

     Computing kpt #:   285  of  1951
     total cpu time spent up to now is       56.7 secs

     Computing kpt #:   286  of  1951
     total cpu time spent up to now is       56.8 secs

     Computing kpt #:   287  of  1951
     total cpu time spent up to now is       57.0 secs

     Computing kpt #:   288  of  1951
     total cpu time spent up to now is       57.2 secs

     Computing kpt #:   289  of  1951
     total cpu time spent up to now is       57.3 secs

     Computing kpt #:   290  of  1951
     total cpu time spent up to now is       57.5 secs

     Computing kpt #:   291  of  1951
     total cpu time spent up to now is       57.7 secs

     Computing kpt #:   292  of  1951
     c_bands:  1 eigenvalues not converged
     total cpu time spent up to now is       57.9 secs

     Computing kpt #:   293  of  1951
     total cpu time spent up to now is       58.1 secs

     Computing kpt #:   294  of  1951
     total cpu time spent up to now is       58.3 secs

     Computing kpt #:   295  of  1951
     total cpu time spent up to now is       58.5 secs

     Computing kpt #:   296  of  1951
     total cpu time spent up to now is       58.7 secs

     Computing kpt #:   297  of  1951
     total cpu time spent up to now is       58.9 secs

     Computing kpt #:   298  of  1951
     total cpu time spent up to now is       59.1 secs

     Computing kpt #:   299  of  1951
     total cpu time spent up to now is       59.3 secs

     Computing kpt #:   300  of  1951
     total cpu time spent up to now is       59.5 secs

     Computing kpt #:   301  of  1951
     total cpu time spent up to now is       59.7 secs

     Computing kpt #:   302  of  1951
     total cpu time spent up to now is       59.9 secs

     Computing kpt #:   303  of  1951
     total cpu time spent up to now is       60.1 secs

     Computing kpt #:   304  of  1951
     total cpu time spent up to now is       60.3 secs

     Computing kpt #:   305  of  1951
     total cpu time spent up to now is       60.5 secs

     Computing kpt #:   306  of  1951
     total cpu time spent up to now is       60.6 secs

     Computing kpt #:   307  of  1951
     total cpu time spent up to now is       60.8 secs

     Computing kpt #:   308  of  1951
     total cpu time spent up to now is       61.0 secs

     Computing kpt #:   309  of  1951
     total cpu time spent up to now is       61.2 secs

     Computing kpt #:   310  of  1951
     total cpu time spent up to now is       61.4 secs

     Computing kpt #:   311  of  1951
     total cpu time spent up to now is       61.6 secs

     Computing kpt #:   312  of  1951
     total cpu time spent up to now is       61.8 secs

     Computing kpt #:   313  of  1951
     total cpu time spent up to now is       62.0 secs

     Computing kpt #:   314  of  1951
     total cpu time spent up to now is       62.2 secs

     Computing kpt #:   315  of  1951
     total cpu time spent up to now is       62.4 secs

     Computing kpt #:   316  of  1951
     total cpu time spent up to now is       62.6 secs

     Computing kpt #:   317  of  1951
     total cpu time spent up to now is       62.8 secs

     Computing kpt #:   318  of  1951
     c_bands:  1 eigenvalues not converged
     total cpu time spent up to now is       63.1 secs

     Computing kpt #:   319  of  1951
     c_bands:  1 eigenvalues not converged
     total cpu time spent up to now is       63.3 secs

     Computing kpt #:   320  of  1951
     c_bands:  1 eigenvalues not converged
     total cpu time spent up to now is       64.1 secs

     Computing kpt #:   321  of  1951
     c_bands:  1 eigenvalues not converged
     total cpu time spent up to now is       64.3 secs

     Computing kpt #:   322  of  1951
     c_bands:  1 eigenvalues not converged
     total cpu time spent up to now is       64.5 secs

     Computing kpt #:   323  of  1951
     c_bands:  1 eigenvalues not converged
     total cpu time spent up to now is       64.7 secs

     Computing kpt #:   324  of  1951
     c_bands:  1 eigenvalues not converged
     total cpu time spent up to now is       64.9 secs

     Computing kpt #:   325  of  1951
     c_bands:  1 eigenvalues not converged
     total cpu time spent up to now is       65.1 secs

     Computing kpt #:   326  of  1951
     c_bands:  3 eigenvalues not converged
     total cpu time spent up to now is       65.4 secs

     Computing kpt #:   327  of  1951
     c_bands:  1 eigenvalues not converged
     total cpu time spent up to now is       65.6 secs

     Computing kpt #:   328  of  1951
     c_bands:  1 eigenvalues not converged
     total cpu time spent up to now is       65.8 secs

     Computing kpt #:   329  of  1951
     c_bands:  1 eigenvalues not converged
     total cpu time spent up to now is       66.0 secs

     Computing kpt #:   330  of  1951
     total cpu time spent up to now is       66.2 secs

     Computing kpt #:   331  of  1951
     total cpu time spent up to now is       66.4 secs

     Computing kpt #:   332  of  1951
     total cpu time spent up to now is       66.6 secs

     Computing kpt #:   333  of  1951
     c_bands:  2 eigenvalues not converged
     total cpu time spent up to now is       66.8 secs

     Computing kpt #:   334  of  1951
     c_bands:  1 eigenvalues not converged
     total cpu time spent up to now is       67.0 secs

     Computing kpt #:   335  of  1951
     c_bands:  2 eigenvalues not converged
     total cpu time spent up to now is       67.2 secs

     Computing kpt #:   336  of  1951
     c_bands:  2 eigenvalues not converged
     total cpu time spent up to now is       67.4 secs

     Computing kpt #:   337  of  1951
     c_bands:  2 eigenvalues not converged
     total cpu time spent up to now is       67.6 secs

     Computing kpt #:   338  of  1951
     c_bands:  1 eigenvalues not converged
     total cpu time spent up to now is       67.8 secs

     Computing kpt #:   339  of  1951
     c_bands:  2 eigenvalues not converged
     total cpu time spent up to now is       68.0 secs

     Computing kpt #:   340  of  1951
     total cpu time spent up to now is       68.2 secs

     Computing kpt #:   341  of  1951
     total cpu time spent up to now is       68.4 secs

     Computing kpt #:   342  of  1951
     total cpu time spent up to now is       68.5 secs

     Computing kpt #:   343  of  1951
     total cpu time spent up to now is       68.7 secs

     Computing kpt #:   344  of  1951
     total cpu time spent up to now is       68.9 secs

     Computing kpt #:   345  of  1951
     total cpu time spent up to now is       69.1 secs

     Computing kpt #:   346  of  1951
     total cpu time spent up to now is       69.3 secs

     Computing kpt #:   347  of  1951
     total cpu time spent up to now is       69.4 secs

     Computing kpt #:   348  of  1951
     total cpu time spent up to now is       69.6 secs

     Computing kpt #:   349  of  1951
     total cpu time spent up to now is       69.8 secs

     Computing kpt #:   350  of  1951
     total cpu time spent up to now is       69.9 secs

     Computing kpt #:   351  of  1951
     total cpu time spent up to now is       70.1 secs

     Computing kpt #:   352  of  1951
     total cpu time spent up to now is       70.3 secs

     Computing kpt #:   353  of  1951
     total cpu time spent up to now is       70.4 secs

     Computing kpt #:   354  of  1951
     total cpu time spent up to now is       70.6 secs

     Computing kpt #:   355  of  1951
     total cpu time spent up to now is       70.8 secs

     Computing kpt #:   356  of  1951
     total cpu time spent up to now is       70.9 secs

     Computing kpt #:   357  of  1951
     total cpu time spent up to now is       71.1 secs

     Computing kpt #:   358  of  1951
     total cpu time spent up to now is       71.3 secs

     Computing kpt #:   359  of  1951
     total cpu time spent up to now is       71.4 secs

     Computing kpt #:   360  of  1951
     total cpu time spent up to now is       71.6 secs

     Computing kpt #:   361  of  1951
     c_bands:  1 eigenvalues not converged
     total cpu time spent up to now is       71.8 secs

     Computing kpt #:   362  of  1951
     c_bands:  1 eigenvalues not converged
     total cpu time spent up to now is       72.0 secs

     Computing kpt #:   363  of  1951
     total cpu time spent up to now is       72.2 secs

     Computing kpt #:   364  of  1951
     c_bands:  1 eigenvalues not converged
     total cpu time spent up to now is       72.4 secs

     Computing kpt #:   365  of  1951
     total cpu time spent up to now is       72.5 secs

     Computing kpt #:   366  of  1951
     total cpu time spent up to now is       72.7 secs

     Computing kpt #:   367  of  1951
     total cpu time spent up to now is       73.0 secs

     Computing kpt #:   368  of  1951
     total cpu time spent up to now is       73.1 secs

     Computing kpt #:   369  of  1951
     total cpu time spent up to now is       73.3 secs

     Computing kpt #:   370  of  1951
     total cpu time spent up to now is       73.5 secs

     Computing kpt #:   371  of  1951
     total cpu time spent up to now is       73.7 secs

     Computing kpt #:   372  of  1951
     total cpu time spent up to now is       73.9 secs

     Computing kpt #:   373  of  1951
     total cpu time spent up to now is       74.1 secs

     Computing kpt #:   374  of  1951
     total cpu time spent up to now is       74.3 secs

     Computing kpt #:   375  of  1951
     total cpu time spent up to now is       74.5 secs

     Computing kpt #:   376  of  1951
     total cpu time spent up to now is       74.7 secs

     Computing kpt #:   377  of  1951
     total cpu time spent up to now is       74.9 secs

     Computing kpt #:   378  of  1951
     total cpu time spent up to now is       75.1 secs

     Computing kpt #:   379  of  1951
     total cpu time spent up to now is       75.3 secs

     Computing kpt #:   380  of  1951
     total cpu time spent up to now is       75.5 secs

     Computing kpt #:   381  of  1951
     total cpu time spent up to now is       75.7 secs

     Computing kpt #:   382  of  1951
     total cpu time spent up to now is       75.9 secs

     Computing kpt #:   383  of  1951
     total cpu time spent up to now is       76.1 secs

     Computing kpt #:   384  of  1951
     total cpu time spent up to now is       76.3 secs

     Computing kpt #:   385  of  1951
     c_bands:  1 eigenvalues not converged
     total cpu time spent up to now is       76.5 secs

     Computing kpt #:   386  of  1951
     c_bands:  1 eigenvalues not converged
     total cpu time spent up to now is       76.7 secs

     Computing kpt #:   387  of  1951
     c_bands:  1 eigenvalues not converged
     total cpu time spent up to now is       76.9 secs

     Computing kpt #:   388  of  1951
     c_bands:  1 eigenvalues not converged
     total cpu time spent up to now is       77.1 secs

     Computing kpt #:   389  of  1951
     c_bands:  1 eigenvalues not converged
     total cpu time spent up to now is       77.3 secs

     Computing kpt #:   390  of  1951
     c_bands:  1 eigenvalues not converged
     total cpu time spent up to now is       77.5 secs

     Computing kpt #:   391  of  1951
     c_bands:  1 eigenvalues not converged
     total cpu time spent up to now is       77.7 secs

     Computing kpt #:   392  of  1951
     c_bands:  1 eigenvalues not converged
     total cpu time spent up to now is       77.9 secs

     Computing kpt #:   393  of  1951
     c_bands:  1 eigenvalues not converged
     total cpu time spent up to now is       78.1 secs

     Computing kpt #:   394  of  1951
     total cpu time spent up to now is       78.3 secs

     Computing kpt #:   395  of  1951
     c_bands:  1 eigenvalues not converged
     total cpu time spent up to now is       78.5 secs

     Computing kpt #:   396  of  1951
     c_bands:  2 eigenvalues not converged
     total cpu time spent up to now is       78.7 secs

     Computing kpt #:   397  of  1951
     total cpu time spent up to now is       78.9 secs

     Computing kpt #:   398  of  1951
     total cpu time spent up to now is       79.1 secs

     Computing kpt #:   399  of  1951
     total cpu time spent up to now is       79.3 secs

     Computing kpt #:   400  of  1951
     total cpu time spent up to now is       79.5 secs

     Computing kpt #:   401  of  1951
     c_bands:  2 eigenvalues not converged
     total cpu time spent up to now is       79.8 secs

     Computing kpt #:   402  of  1951
     total cpu time spent up to now is       80.0 secs

     Computing kpt #:   403  of  1951
     c_bands:  1 eigenvalues not converged
     total cpu time spent up to now is       80.2 secs

     Computing kpt #:   404  of  1951
     c_bands:  2 eigenvalues not converged
     total cpu time spent up to now is       80.4 secs

     Computing kpt #:   405  of  1951
     c_bands:  2 eigenvalues not converged
     total cpu time spent up to now is       80.6 secs

     Computing kpt #:   406  of  1951
     c_bands:  2 eigenvalues not converged
     total cpu time spent up to now is       80.8 secs

     Computing kpt #:   407  of  1951
     total cpu time spent up to now is       81.0 secs

     Computing kpt #:   408  of  1951
     c_bands:  2 eigenvalues not converged
     total cpu time spent up to now is       81.2 secs

     Computing kpt #:   409  of  1951
     total cpu time spent up to now is       81.3 secs

     Computing kpt #:   410  of  1951
     total cpu time spent up to now is       81.5 secs

     Computing kpt #:   411  of  1951
     total cpu time spent up to now is       81.7 secs

     Computing kpt #:   412  of  1951
     total cpu time spent up to now is       81.9 secs

     Computing kpt #:   413  of  1951
     total cpu time spent up to now is       82.1 secs

     Computing kpt #:   414  of  1951
     total cpu time spent up to now is       82.3 secs

     Computing kpt #:   415  of  1951
     total cpu time spent up to now is       82.4 secs

     Computing kpt #:   416  of  1951
     total cpu time spent up to now is       82.6 secs

     Computing kpt #:   417  of  1951
     total cpu time spent up to now is       82.8 secs

     Computing kpt #:   418  of  1951
     total cpu time spent up to now is       83.0 secs

     Computing kpt #:   419  of  1951
     total cpu time spent up to now is       83.2 secs

     Computing kpt #:   420  of  1951
     total cpu time spent up to now is       83.3 secs

     Computing kpt #:   421  of  1951
     total cpu time spent up to now is       83.5 secs

     Computing kpt #:   422  of  1951
     total cpu time spent up to now is       83.7 secs

     Computing kpt #:   423  of  1951
     total cpu time spent up to now is       83.8 secs

     Computing kpt #:   424  of  1951
     total cpu time spent up to now is       84.0 secs

     Computing kpt #:   425  of  1951
     total cpu time spent up to now is       84.2 secs

     Computing kpt #:   426  of  1951
     total cpu time spent up to now is       84.3 secs

     Computing kpt #:   427  of  1951
     total cpu time spent up to now is       84.5 secs

     Computing kpt #:   428  of  1951
     total cpu time spent up to now is       84.7 secs

     Computing kpt #:   429  of  1951
     total cpu time spent up to now is       84.9 secs

     Computing kpt #:   430  of  1951
     c_bands:  1 eigenvalues not converged
     total cpu time spent up to now is       85.0 secs

     Computing kpt #:   431  of  1951
     c_bands:  1 eigenvalues not converged
     total cpu time spent up to now is       85.2 secs

     Computing kpt #:   432  of  1951
     total cpu time spent up to now is       85.4 secs

     Computing kpt #:   433  of  1951
     total cpu time spent up to now is       85.6 secs

     Computing kpt #:   434  of  1951
     total cpu time spent up to now is       85.8 secs

     Computing kpt #:   435  of  1951
     total cpu time spent up to now is       86.0 secs

     Computing kpt #:   436  of  1951
     total cpu time spent up to now is       86.2 secs

     Computing kpt #:   437  of  1951
     total cpu time spent up to now is       86.4 secs

     Computing kpt #:   438  of  1951
     total cpu time spent up to now is       86.6 secs

     Computing kpt #:   439  of  1951
     total cpu time spent up to now is       86.8 secs

     Computing kpt #:   440  of  1951
     total cpu time spent up to now is       87.0 secs

     Computing kpt #:   441  of  1951
     total cpu time spent up to now is       87.2 secs

     Computing kpt #:   442  of  1951
     total cpu time spent up to now is       87.4 secs

     Computing kpt #:   443  of  1951
     total cpu time spent up to now is       87.6 secs

     Computing kpt #:   444  of  1951
     total cpu time spent up to now is       87.8 secs

     Computing kpt #:   445  of  1951
     total cpu time spent up to now is       88.0 secs

     Computing kpt #:   446  of  1951
     total cpu time spent up to now is       88.2 secs

     Computing kpt #:   447  of  1951
     total cpu time spent up to now is       88.4 secs

     Computing kpt #:   448  of  1951
     total cpu time spent up to now is       88.6 secs

     Computing kpt #:   449  of  1951
     total cpu time spent up to now is       88.8 secs

     Computing kpt #:   450  of  1951
     c_bands:  1 eigenvalues not converged
     total cpu time spent up to now is       89.7 secs

     Computing kpt #:   451  of  1951
     total cpu time spent up to now is       89.9 secs

     Computing kpt #:   452  of  1951
     total cpu time spent up to now is       90.1 secs

     Computing kpt #:   453  of  1951
     c_bands:  1 eigenvalues not converged
     total cpu time spent up to now is       90.3 secs

     Computing kpt #:   454  of  1951
     c_bands:  1 eigenvalues not converged
     total cpu time spent up to now is       90.5 secs

     Computing kpt #:   455  of  1951
     c_bands:  1 eigenvalues not converged
     total cpu time spent up to now is       90.7 secs

     Computing kpt #:   456  of  1951
     c_bands:  1 eigenvalues not converged
     total cpu time spent up to now is       90.9 secs

     Computing kpt #:   457  of  1951
     c_bands:  1 eigenvalues not converged
     total cpu time spent up to now is       91.1 secs

     Computing kpt #:   458  of  1951
     c_bands:  1 eigenvalues not converged
     total cpu time spent up to now is       91.3 secs

     Computing kpt #:   459  of  1951
     c_bands:  1 eigenvalues not converged
     total cpu time spent up to now is       91.5 secs

     Computing kpt #:   460  of  1951
     total cpu time spent up to now is       91.7 secs

     Computing kpt #:   461  of  1951
     c_bands:  1 eigenvalues not converged
     total cpu time spent up to now is       91.9 secs

     Computing kpt #:   462  of  1951
     c_bands:  1 eigenvalues not converged
     total cpu time spent up to now is       92.2 secs

     Computing kpt #:   463  of  1951
     total cpu time spent up to now is       92.4 secs

     Computing kpt #:   464  of  1951
     total cpu time spent up to now is       92.5 secs

     Computing kpt #:   465  of  1951
     total cpu time spent up to now is       92.7 secs

     Computing kpt #:   466  of  1951
     total cpu time spent up to now is       92.9 secs

     Computing kpt #:   467  of  1951
     c_bands:  1 eigenvalues not converged
     total cpu time spent up to now is       93.1 secs

     Computing kpt #:   468  of  1951
     c_bands:  1 eigenvalues not converged
     total cpu time spent up to now is       93.4 secs

     Computing kpt #:   469  of  1951
     total cpu time spent up to now is       93.5 secs

     Computing kpt #:   470  of  1951
     c_bands:  2 eigenvalues not converged
     total cpu time spent up to now is       93.8 secs

     Computing kpt #:   471  of  1951
     c_bands:  2 eigenvalues not converged
     total cpu time spent up to now is       94.0 secs

     Computing kpt #:   472  of  1951
     c_bands:  2 eigenvalues not converged
     total cpu time spent up to now is       94.2 secs

     Computing kpt #:   473  of  1951
     c_bands:  1 eigenvalues not converged
     total cpu time spent up to now is       94.4 secs

     Computing kpt #:   474  of  1951
     c_bands:  1 eigenvalues not converged
     total cpu time spent up to now is       94.6 secs

     Computing kpt #:   475  of  1951
     c_bands:  2 eigenvalues not converged
     total cpu time spent up to now is       94.8 secs

     Computing kpt #:   476  of  1951
     total cpu time spent up to now is       95.0 secs

     Computing kpt #:   477  of  1951
     total cpu time spent up to now is       95.2 secs

     Computing kpt #:   478  of  1951
     total cpu time spent up to now is       95.3 secs

     Computing kpt #:   479  of  1951
     total cpu time spent up to now is       95.5 secs

     Computing kpt #:   480  of  1951
     total cpu time spent up to now is       95.7 secs

     Computing kpt #:   481  of  1951
     total cpu time spent up to now is       95.8 secs

     Computing kpt #:   482  of  1951
     total cpu time spent up to now is       96.0 secs

     Computing kpt #:   483  of  1951
     total cpu time spent up to now is       96.2 secs

     Computing kpt #:   484  of  1951
     total cpu time spent up to now is       96.4 secs

     Computing kpt #:   485  of  1951
     total cpu time spent up to now is       96.5 secs

     Computing kpt #:   486  of  1951
     total cpu time spent up to now is       96.7 secs

     Computing kpt #:   487  of  1951
     total cpu time spent up to now is       96.9 secs

     Computing kpt #:   488  of  1951
     total cpu time spent up to now is       97.1 secs

     Computing kpt #:   489  of  1951
     total cpu time spent up to now is       97.2 secs

     Computing kpt #:   490  of  1951
     total cpu time spent up to now is       97.4 secs

     Computing kpt #:   491  of  1951
     total cpu time spent up to now is       97.6 secs

     Computing kpt #:   492  of  1951
     total cpu time spent up to now is       97.7 secs

     Computing kpt #:   493  of  1951
     total cpu time spent up to now is       97.9 secs

     Computing kpt #:   494  of  1951
     total cpu time spent up to now is       98.1 secs

     Computing kpt #:   495  of  1951
     total cpu time spent up to now is       98.3 secs

     Computing kpt #:   496  of  1951
     c_bands:  1 eigenvalues not converged
     total cpu time spent up to now is       98.4 secs

     Computing kpt #:   497  of  1951
     c_bands:  1 eigenvalues not converged
     total cpu time spent up to now is       98.6 secs

     Computing kpt #:   498  of  1951
     total cpu time spent up to now is       98.8 secs

     Computing kpt #:   499  of  1951
     total cpu time spent up to now is       99.0 secs

     Computing kpt #:   500  of  1951
     total cpu time spent up to now is       99.2 secs

     Computing kpt #:   501  of  1951
     total cpu time spent up to now is       99.4 secs

     Computing kpt #:   502  of  1951
     total cpu time spent up to now is       99.6 secs

     Computing kpt #:   503  of  1951
     total cpu time spent up to now is       99.8 secs

     Computing kpt #:   504  of  1951
     total cpu time spent up to now is      100.0 secs

     Computing kpt #:   505  of  1951
     total cpu time spent up to now is      100.2 secs

     Computing kpt #:   506  of  1951
     total cpu time spent up to now is      100.4 secs

     Computing kpt #:   507  of  1951
     total cpu time spent up to now is      100.6 secs

     Computing kpt #:   508  of  1951
     total cpu time spent up to now is      100.8 secs

     Computing kpt #:   509  of  1951
     total cpu time spent up to now is      101.0 secs

     Computing kpt #:   510  of  1951
     total cpu time spent up to now is      101.2 secs

     Computing kpt #:   511  of  1951
     total cpu time spent up to now is      101.4 secs

     Computing kpt #:   512  of  1951
     total cpu time spent up to now is      101.6 secs

     Computing kpt #:   513  of  1951
     total cpu time spent up to now is      101.7 secs

     Computing kpt #:   514  of  1951
     total cpu time spent up to now is      101.9 secs

     Computing kpt #:   515  of  1951
     total cpu time spent up to now is      102.1 secs

     Computing kpt #:   516  of  1951
     total cpu time spent up to now is      102.3 secs

     Computing kpt #:   517  of  1951
     c_bands:  1 eigenvalues not converged
     total cpu time spent up to now is      102.6 secs

     Computing kpt #:   518  of  1951
     total cpu time spent up to now is      102.8 secs

     Computing kpt #:   519  of  1951
     c_bands:  1 eigenvalues not converged
     total cpu time spent up to now is      103.0 secs

     Computing kpt #:   520  of  1951
     c_bands:  1 eigenvalues not converged
     total cpu time spent up to now is      103.2 secs

     Computing kpt #:   521  of  1951
     c_bands:  1 eigenvalues not converged
     total cpu time spent up to now is      103.4 secs

     Computing kpt #:   522  of  1951
     c_bands:  1 eigenvalues not converged
     total cpu time spent up to now is      103.6 secs

     Computing kpt #:   523  of  1951
     c_bands:  1 eigenvalues not converged
     total cpu time spent up to now is      103.8 secs

     Computing kpt #:   524  of  1951
     c_bands:  1 eigenvalues not converged
     total cpu time spent up to now is      104.0 secs

     Computing kpt #:   525  of  1951
     total cpu time spent up to now is      104.2 secs

     Computing kpt #:   526  of  1951
     total cpu time spent up to now is      104.4 secs

     Computing kpt #:   527  of  1951
     total cpu time spent up to now is      104.6 secs

     Computing kpt #:   528  of  1951
     total cpu time spent up to now is      104.8 secs

     Computing kpt #:   529  of  1951
     total cpu time spent up to now is      105.0 secs

     Computing kpt #:   530  of  1951
     total cpu time spent up to now is      105.2 secs

     Computing kpt #:   531  of  1951
     total cpu time spent up to now is      105.4 secs

     Computing kpt #:   532  of  1951
     total cpu time spent up to now is      105.6 secs

     Computing kpt #:   533  of  1951
     c_bands:  1 eigenvalues not converged
     total cpu time spent up to now is      105.8 secs

     Computing kpt #:   534  of  1951
     total cpu time spent up to now is      106.0 secs

     Computing kpt #:   535  of  1951
     c_bands:  1 eigenvalues not converged
     total cpu time spent up to now is      106.2 secs

     Computing kpt #:   536  of  1951
     c_bands:  2 eigenvalues not converged
     total cpu time spent up to now is      106.4 secs

     Computing kpt #:   537  of  1951
     c_bands:  2 eigenvalues not converged
     total cpu time spent up to now is      106.6 secs

     Computing kpt #:   538  of  1951
     c_bands:  2 eigenvalues not converged
     total cpu time spent up to now is      106.8 secs

     Computing kpt #:   539  of  1951
     c_bands:  2 eigenvalues not converged
     total cpu time spent up to now is      107.0 secs

     Computing kpt #:   540  of  1951
     total cpu time spent up to now is      107.2 secs

     Computing kpt #:   541  of  1951
     total cpu time spent up to now is      107.4 secs

     Computing kpt #:   542  of  1951
     total cpu time spent up to now is      107.5 secs

     Computing kpt #:   543  of  1951
     total cpu time spent up to now is      107.7 secs

     Computing kpt #:   544  of  1951
     total cpu time spent up to now is      107.9 secs

     Computing kpt #:   545  of  1951
     total cpu time spent up to now is      108.1 secs

     Computing kpt #:   546  of  1951
     total cpu time spent up to now is      108.3 secs

     Computing kpt #:   547  of  1951
     c_bands:  1 eigenvalues not converged
     total cpu time spent up to now is      108.5 secs

     Computing kpt #:   548  of  1951
     total cpu time spent up to now is      108.7 secs

     Computing kpt #:   549  of  1951
     total cpu time spent up to now is      108.8 secs

     Computing kpt #:   550  of  1951
     total cpu time spent up to now is      109.0 secs

     Computing kpt #:   551  of  1951
     total cpu time spent up to now is      109.2 secs

     Computing kpt #:   552  of  1951
     total cpu time spent up to now is      109.3 secs

     Computing kpt #:   553  of  1951
     total cpu time spent up to now is      109.5 secs

     Computing kpt #:   554  of  1951
     total cpu time spent up to now is      109.7 secs

     Computing kpt #:   555  of  1951
     total cpu time spent up to now is      109.8 secs

     Computing kpt #:   556  of  1951
     total cpu time spent up to now is      110.0 secs

     Computing kpt #:   557  of  1951
     total cpu time spent up to now is      110.2 secs

     Computing kpt #:   558  of  1951
     total cpu time spent up to now is      110.4 secs

     Computing kpt #:   559  of  1951
     total cpu time spent up to now is      110.5 secs

     Computing kpt #:   560  of  1951
     total cpu time spent up to now is      110.7 secs

     Computing kpt #:   561  of  1951
     c_bands:  1 eigenvalues not converged
     total cpu time spent up to now is      110.9 secs

     Computing kpt #:   562  of  1951
     total cpu time spent up to now is      111.1 secs

     Computing kpt #:   563  of  1951
     total cpu time spent up to now is      111.2 secs

     Computing kpt #:   564  of  1951
     total cpu time spent up to now is      111.4 secs

     Computing kpt #:   565  of  1951
     total cpu time spent up to now is      111.6 secs

     Computing kpt #:   566  of  1951
     total cpu time spent up to now is      111.8 secs

     Computing kpt #:   567  of  1951
     total cpu time spent up to now is      112.0 secs

     Computing kpt #:   568  of  1951
     total cpu time spent up to now is      112.2 secs

     Computing kpt #:   569  of  1951
     total cpu time spent up to now is      112.4 secs

     Computing kpt #:   570  of  1951
     total cpu time spent up to now is      112.6 secs

     Computing kpt #:   571  of  1951
     total cpu time spent up to now is      112.8 secs

     Computing kpt #:   572  of  1951
     total cpu time spent up to now is      112.9 secs

     Computing kpt #:   573  of  1951
     total cpu time spent up to now is      113.2 secs

     Computing kpt #:   574  of  1951
     total cpu time spent up to now is      113.4 secs

     Computing kpt #:   575  of  1951
     total cpu time spent up to now is      113.6 secs

     Computing kpt #:   576  of  1951
     total cpu time spent up to now is      113.8 secs

     Computing kpt #:   577  of  1951
     total cpu time spent up to now is      113.9 secs

     Computing kpt #:   578  of  1951
     total cpu time spent up to now is      114.2 secs

     Computing kpt #:   579  of  1951
     total cpu time spent up to now is      114.3 secs

     Computing kpt #:   580  of  1951
     total cpu time spent up to now is      115.3 secs

     Computing kpt #:   581  of  1951
     c_bands:  1 eigenvalues not converged
     total cpu time spent up to now is      115.5 secs

     Computing kpt #:   582  of  1951
     c_bands:  1 eigenvalues not converged
     total cpu time spent up to now is      115.7 secs

     Computing kpt #:   583  of  1951
     c_bands:  1 eigenvalues not converged
     total cpu time spent up to now is      115.9 secs

     Computing kpt #:   584  of  1951
     c_bands:  1 eigenvalues not converged
     total cpu time spent up to now is      116.1 secs

     Computing kpt #:   585  of  1951
     c_bands:  1 eigenvalues not converged
     total cpu time spent up to now is      116.3 secs

     Computing kpt #:   586  of  1951
     c_bands:  1 eigenvalues not converged
     total cpu time spent up to now is      116.6 secs

     Computing kpt #:   587  of  1951
     total cpu time spent up to now is      116.7 secs

     Computing kpt #:   588  of  1951
     total cpu time spent up to now is      117.0 secs

     Computing kpt #:   589  of  1951
     total cpu time spent up to now is      117.1 secs

     Computing kpt #:   590  of  1951
     total cpu time spent up to now is      117.3 secs

     Computing kpt #:   591  of  1951
     total cpu time spent up to now is      117.6 secs

     Computing kpt #:   592  of  1951
     total cpu time spent up to now is      117.7 secs

     Computing kpt #:   593  of  1951
     total cpu time spent up to now is      117.9 secs

     Computing kpt #:   594  of  1951
     total cpu time spent up to now is      118.1 secs

     Computing kpt #:   595  of  1951
     total cpu time spent up to now is      118.3 secs

     Computing kpt #:   596  of  1951
     c_bands:  2 eigenvalues not converged
     total cpu time spent up to now is      118.5 secs

     Computing kpt #:   597  of  1951
     c_bands:  1 eigenvalues not converged
     total cpu time spent up to now is      118.7 secs

     Computing kpt #:   598  of  1951
     total cpu time spent up to now is      118.9 secs

     Computing kpt #:   599  of  1951
     total cpu time spent up to now is      119.1 secs

     Computing kpt #:   600  of  1951
     c_bands:  2 eigenvalues not converged
     total cpu time spent up to now is      119.3 secs

     Computing kpt #:   601  of  1951
     c_bands:  2 eigenvalues not converged
     total cpu time spent up to now is      119.5 secs

     Computing kpt #:   602  of  1951
     c_bands:  2 eigenvalues not converged
     total cpu time spent up to now is      119.7 secs

     Computing kpt #:   603  of  1951
     c_bands:  2 eigenvalues not converged
     total cpu time spent up to now is      119.9 secs

     Computing kpt #:   604  of  1951
     c_bands:  2 eigenvalues not converged
     total cpu time spent up to now is      120.1 secs

     Computing kpt #:   605  of  1951
     total cpu time spent up to now is      120.3 secs

     Computing kpt #:   606  of  1951
     total cpu time spent up to now is      120.5 secs

     Computing kpt #:   607  of  1951
     total cpu time spent up to now is      120.7 secs

     Computing kpt #:   608  of  1951
     total cpu time spent up to now is      120.9 secs

     Computing kpt #:   609  of  1951
     total cpu time spent up to now is      121.1 secs

     Computing kpt #:   610  of  1951
     total cpu time spent up to now is      121.3 secs

     Computing kpt #:   611  of  1951
     total cpu time spent up to now is      121.5 secs

     Computing kpt #:   612  of  1951
     total cpu time spent up to now is      121.6 secs

     Computing kpt #:   613  of  1951
     total cpu time spent up to now is      121.8 secs

     Computing kpt #:   614  of  1951
     total cpu time spent up to now is      122.0 secs

     Computing kpt #:   615  of  1951
     total cpu time spent up to now is      122.1 secs

     Computing kpt #:   616  of  1951
     total cpu time spent up to now is      122.3 secs

     Computing kpt #:   617  of  1951
     total cpu time spent up to now is      122.5 secs

     Computing kpt #:   618  of  1951
     total cpu time spent up to now is      122.7 secs

     Computing kpt #:   619  of  1951
     total cpu time spent up to now is      122.8 secs

     Computing kpt #:   620  of  1951
     total cpu time spent up to now is      123.0 secs

     Computing kpt #:   621  of  1951
     total cpu time spent up to now is      123.2 secs

     Computing kpt #:   622  of  1951
     total cpu time spent up to now is      123.4 secs

     Computing kpt #:   623  of  1951
     total cpu time spent up to now is      123.5 secs

     Computing kpt #:   624  of  1951
     total cpu time spent up to now is      123.7 secs

     Computing kpt #:   625  of  1951
     c_bands:  1 eigenvalues not converged
     total cpu time spent up to now is      123.9 secs

     Computing kpt #:   626  of  1951
     c_bands:  1 eigenvalues not converged
     total cpu time spent up to now is      124.1 secs

     Computing kpt #:   627  of  1951
     total cpu time spent up to now is      124.2 secs

     Computing kpt #:   628  of  1951
     total cpu time spent up to now is      124.4 secs

     Computing kpt #:   629  of  1951
     total cpu time spent up to now is      124.6 secs

     Computing kpt #:   630  of  1951
     total cpu time spent up to now is      124.8 secs

     Computing kpt #:   631  of  1951
     total cpu time spent up to now is      125.0 secs

     Computing kpt #:   632  of  1951
     total cpu time spent up to now is      125.2 secs

     Computing kpt #:   633  of  1951
     total cpu time spent up to now is      125.4 secs

     Computing kpt #:   634  of  1951
     total cpu time spent up to now is      125.6 secs

     Computing kpt #:   635  of  1951
     total cpu time spent up to now is      125.8 secs

     Computing kpt #:   636  of  1951
     total cpu time spent up to now is      126.0 secs

     Computing kpt #:   637  of  1951
     total cpu time spent up to now is      126.2 secs

     Computing kpt #:   638  of  1951
     total cpu time spent up to now is      126.4 secs

     Computing kpt #:   639  of  1951
     total cpu time spent up to now is      126.6 secs

     Computing kpt #:   640  of  1951
     total cpu time spent up to now is      126.8 secs

     Computing kpt #:   641  of  1951
     total cpu time spent up to now is      127.0 secs

     Computing kpt #:   642  of  1951
     total cpu time spent up to now is      127.2 secs

     Computing kpt #:   643  of  1951
     c_bands:  1 eigenvalues not converged
     total cpu time spent up to now is      127.4 secs

     Computing kpt #:   644  of  1951
     total cpu time spent up to now is      127.6 secs

     Computing kpt #:   645  of  1951
     c_bands:  1 eigenvalues not converged
     total cpu time spent up to now is      127.8 secs

     Computing kpt #:   646  of  1951
     c_bands:  1 eigenvalues not converged
     total cpu time spent up to now is      128.0 secs

     Computing kpt #:   647  of  1951
     c_bands:  1 eigenvalues not converged
     total cpu time spent up to now is      128.2 secs

     Computing kpt #:   648  of  1951
     c_bands:  1 eigenvalues not converged
     total cpu time spent up to now is      128.4 secs

     Computing kpt #:   649  of  1951
     c_bands:  1 eigenvalues not converged
     total cpu time spent up to now is      128.6 secs

     Computing kpt #:   650  of  1951
     c_bands:  1 eigenvalues not converged
     total cpu time spent up to now is      128.9 secs

     Computing kpt #:   651  of  1951
     c_bands:  1 eigenvalues not converged
     total cpu time spent up to now is      129.1 secs

     Computing kpt #:   652  of  1951
     total cpu time spent up to now is      129.3 secs

     Computing kpt #:   653  of  1951
     total cpu time spent up to now is      129.5 secs

     Computing kpt #:   654  of  1951
     total cpu time spent up to now is      129.7 secs

     Computing kpt #:   655  of  1951
     total cpu time spent up to now is      129.8 secs

     Computing kpt #:   656  of  1951
     total cpu time spent up to now is      130.0 secs

     Computing kpt #:   657  of  1951
     total cpu time spent up to now is      130.2 secs

     Computing kpt #:   658  of  1951
     c_bands:  1 eigenvalues not converged
     total cpu time spent up to now is      130.4 secs

     Computing kpt #:   659  of  1951
     total cpu time spent up to now is      130.6 secs

     Computing kpt #:   660  of  1951
     c_bands:  1 eigenvalues not converged
     total cpu time spent up to now is      130.8 secs

     Computing kpt #:   661  of  1951
     c_bands:  2 eigenvalues not converged
     total cpu time spent up to now is      131.0 secs

     Computing kpt #:   662  of  1951
     c_bands:  2 eigenvalues not converged
     total cpu time spent up to now is      131.2 secs

     Computing kpt #:   663  of  1951
     c_bands:  1 eigenvalues not converged
     total cpu time spent up to now is      131.4 secs

     Computing kpt #:   664  of  1951
     c_bands:  2 eigenvalues not converged
     total cpu time spent up to now is      131.6 secs

     Computing kpt #:   665  of  1951
     c_bands:  2 eigenvalues not converged
     total cpu time spent up to now is      131.9 secs

     Computing kpt #:   666  of  1951
     total cpu time spent up to now is      132.0 secs

     Computing kpt #:   667  of  1951
     total cpu time spent up to now is      132.2 secs

     Computing kpt #:   668  of  1951
     total cpu time spent up to now is      132.4 secs

     Computing kpt #:   669  of  1951
     total cpu time spent up to now is      132.6 secs

     Computing kpt #:   670  of  1951
     total cpu time spent up to now is      132.8 secs

     Computing kpt #:   671  of  1951
     total cpu time spent up to now is      133.0 secs

     Computing kpt #:   672  of  1951
     total cpu time spent up to now is      133.2 secs

     Computing kpt #:   673  of  1951
     total cpu time spent up to now is      133.4 secs

     Computing kpt #:   674  of  1951
     total cpu time spent up to now is      133.5 secs

     Computing kpt #:   675  of  1951
     total cpu time spent up to now is      133.7 secs

     Computing kpt #:   676  of  1951
     total cpu time spent up to now is      133.9 secs

     Computing kpt #:   677  of  1951
     total cpu time spent up to now is      134.1 secs

     Computing kpt #:   678  of  1951
     total cpu time spent up to now is      134.2 secs

     Computing kpt #:   679  of  1951
     total cpu time spent up to now is      134.4 secs

     Computing kpt #:   680  of  1951
     total cpu time spent up to now is      134.6 secs

     Computing kpt #:   681  of  1951
     total cpu time spent up to now is      134.7 secs

     Computing kpt #:   682  of  1951
     total cpu time spent up to now is      134.9 secs

     Computing kpt #:   683  of  1951
     total cpu time spent up to now is      135.1 secs

     Computing kpt #:   684  of  1951
     total cpu time spent up to now is      135.2 secs

     Computing kpt #:   685  of  1951
     total cpu time spent up to now is      135.4 secs

     Computing kpt #:   686  of  1951
     total cpu time spent up to now is      135.6 secs

     Computing kpt #:   687  of  1951
     total cpu time spent up to now is      135.8 secs

     Computing kpt #:   688  of  1951
     c_bands:  1 eigenvalues not converged
     total cpu time spent up to now is      135.9 secs

     Computing kpt #:   689  of  1951
     total cpu time spent up to now is      136.1 secs

     Computing kpt #:   690  of  1951
     total cpu time spent up to now is      136.3 secs

     Computing kpt #:   691  of  1951
     total cpu time spent up to now is      136.5 secs

     Computing kpt #:   692  of  1951
     total cpu time spent up to now is      136.7 secs

     Computing kpt #:   693  of  1951
     total cpu time spent up to now is      136.9 secs

     Computing kpt #:   694  of  1951
     total cpu time spent up to now is      137.1 secs

     Computing kpt #:   695  of  1951
     total cpu time spent up to now is      137.3 secs

     Computing kpt #:   696  of  1951
     total cpu time spent up to now is      137.5 secs

     Computing kpt #:   697  of  1951
     total cpu time spent up to now is      137.7 secs

     Computing kpt #:   698  of  1951
     total cpu time spent up to now is      137.9 secs

     Computing kpt #:   699  of  1951
     total cpu time spent up to now is      138.1 secs

     Computing kpt #:   700  of  1951
     total cpu time spent up to now is      138.3 secs

     Computing kpt #:   701  of  1951
     total cpu time spent up to now is      138.5 secs

     Computing kpt #:   702  of  1951
     total cpu time spent up to now is      138.6 secs

     Computing kpt #:   703  of  1951
     total cpu time spent up to now is      138.8 secs

     Computing kpt #:   704  of  1951
     total cpu time spent up to now is      139.0 secs

     Computing kpt #:   705  of  1951
     c_bands:  1 eigenvalues not converged
     total cpu time spent up to now is      139.3 secs

     Computing kpt #:   706  of  1951
     c_bands:  1 eigenvalues not converged
     total cpu time spent up to now is      139.5 secs

     Computing kpt #:   707  of  1951
     c_bands:  1 eigenvalues not converged
     total cpu time spent up to now is      139.7 secs

     Computing kpt #:   708  of  1951
     c_bands:  1 eigenvalues not converged
     total cpu time spent up to now is      139.9 secs

     Computing kpt #:   709  of  1951
     c_bands:  1 eigenvalues not converged
     total cpu time spent up to now is      140.1 secs

     Computing kpt #:   710  of  1951
     c_bands:  1 eigenvalues not converged
     total cpu time spent up to now is      140.9 secs

     Computing kpt #:   711  of  1951
     total cpu time spent up to now is      141.1 secs

     Computing kpt #:   712  of  1951
     total cpu time spent up to now is      141.3 secs

     Computing kpt #:   713  of  1951
     total cpu time spent up to now is      141.5 secs

     Computing kpt #:   714  of  1951
     total cpu time spent up to now is      141.7 secs

     Computing kpt #:   715  of  1951
     total cpu time spent up to now is      141.9 secs

     Computing kpt #:   716  of  1951
     total cpu time spent up to now is      142.1 secs

     Computing kpt #:   717  of  1951
     total cpu time spent up to now is      142.3 secs

     Computing kpt #:   718  of  1951
     total cpu time spent up to now is      142.5 secs

     Computing kpt #:   719  of  1951
     c_bands:  1 eigenvalues not converged
     total cpu time spent up to now is      142.7 secs

     Computing kpt #:   720  of  1951
     total cpu time spent up to now is      142.9 secs

     Computing kpt #:   721  of  1951
     total cpu time spent up to now is      143.1 secs

     Computing kpt #:   722  of  1951
     c_bands:  2 eigenvalues not converged
     total cpu time spent up to now is      143.3 secs

     Computing kpt #:   723  of  1951
     c_bands:  2 eigenvalues not converged
     total cpu time spent up to now is      143.5 secs

     Computing kpt #:   724  of  1951
     c_bands:  1 eigenvalues not converged
     total cpu time spent up to now is      143.7 secs

     Computing kpt #:   725  of  1951
     c_bands:  3 eigenvalues not converged
     total cpu time spent up to now is      143.9 secs

     Computing kpt #:   726  of  1951
     c_bands:  1 eigenvalues not converged
     total cpu time spent up to now is      144.1 secs

     Computing kpt #:   727  of  1951
     c_bands:  2 eigenvalues not converged
     total cpu time spent up to now is      144.3 secs

     Computing kpt #:   728  of  1951
     total cpu time spent up to now is      144.5 secs

     Computing kpt #:   729  of  1951
     total cpu time spent up to now is      144.7 secs

     Computing kpt #:   730  of  1951
     total cpu time spent up to now is      144.9 secs

     Computing kpt #:   731  of  1951
     total cpu time spent up to now is      145.1 secs

     Computing kpt #:   732  of  1951
     total cpu time spent up to now is      145.2 secs

     Computing kpt #:   733  of  1951
     total cpu time spent up to now is      145.4 secs

     Computing kpt #:   734  of  1951
     total cpu time spent up to now is      145.6 secs

     Computing kpt #:   735  of  1951
     total cpu time spent up to now is      145.8 secs

     Computing kpt #:   736  of  1951
     total cpu time spent up to now is      145.9 secs

     Computing kpt #:   737  of  1951
     total cpu time spent up to now is      146.1 secs

     Computing kpt #:   738  of  1951
     total cpu time spent up to now is      146.3 secs

     Computing kpt #:   739  of  1951
     total cpu time spent up to now is      146.4 secs

     Computing kpt #:   740  of  1951
     total cpu time spent up to now is      146.6 secs

     Computing kpt #:   741  of  1951
     total cpu time spent up to now is      146.8 secs

     Computing kpt #:   742  of  1951
     total cpu time spent up to now is      147.0 secs

     Computing kpt #:   743  of  1951
     total cpu time spent up to now is      147.1 secs

     Computing kpt #:   744  of  1951
     total cpu time spent up to now is      147.3 secs

     Computing kpt #:   745  of  1951
     total cpu time spent up to now is      147.5 secs

     Computing kpt #:   746  of  1951
     total cpu time spent up to now is      147.6 secs

     Computing kpt #:   747  of  1951
     total cpu time spent up to now is      147.8 secs

     Computing kpt #:   748  of  1951
     c_bands:  1 eigenvalues not converged
     total cpu time spent up to now is      148.0 secs

     Computing kpt #:   749  of  1951
     c_bands:  1 eigenvalues not converged
     total cpu time spent up to now is      148.2 secs

     Computing kpt #:   750  of  1951
     total cpu time spent up to now is      148.4 secs

     Computing kpt #:   751  of  1951
     total cpu time spent up to now is      148.6 secs

     Computing kpt #:   752  of  1951
     total cpu time spent up to now is      148.8 secs

     Computing kpt #:   753  of  1951
     total cpu time spent up to now is      149.0 secs

     Computing kpt #:   754  of  1951
     total cpu time spent up to now is      149.2 secs

     Computing kpt #:   755  of  1951
     total cpu time spent up to now is      149.4 secs

     Computing kpt #:   756  of  1951
     total cpu time spent up to now is      149.6 secs

     Computing kpt #:   757  of  1951
     total cpu time spent up to now is      149.7 secs

     Computing kpt #:   758  of  1951
     total cpu time spent up to now is      149.9 secs

     Computing kpt #:   759  of  1951
     total cpu time spent up to now is      150.1 secs

     Computing kpt #:   760  of  1951
     total cpu time spent up to now is      150.3 secs

     Computing kpt #:   761  of  1951
     c_bands:  1 eigenvalues not converged
     total cpu time spent up to now is      150.5 secs

     Computing kpt #:   762  of  1951
     c_bands:  1 eigenvalues not converged
     total cpu time spent up to now is      150.8 secs

     Computing kpt #:   763  of  1951
     total cpu time spent up to now is      151.0 secs

     Computing kpt #:   764  of  1951
     total cpu time spent up to now is      151.2 secs

     Computing kpt #:   765  of  1951
     total cpu time spent up to now is      151.4 secs

     Computing kpt #:   766  of  1951
     c_bands:  1 eigenvalues not converged
     total cpu time spent up to now is      151.6 secs

     Computing kpt #:   767  of  1951
     c_bands:  1 eigenvalues not converged
     total cpu time spent up to now is      151.8 secs

     Computing kpt #:   768  of  1951
     c_bands:  1 eigenvalues not converged
     total cpu time spent up to now is      152.0 secs

     Computing kpt #:   769  of  1951
     c_bands:  1 eigenvalues not converged
     total cpu time spent up to now is      152.2 secs

     Computing kpt #:   770  of  1951
     c_bands:  1 eigenvalues not converged
     total cpu time spent up to now is      152.4 secs

     Computing kpt #:   771  of  1951
     total cpu time spent up to now is      152.6 secs

     Computing kpt #:   772  of  1951
     total cpu time spent up to now is      152.8 secs

     Computing kpt #:   773  of  1951
     total cpu time spent up to now is      153.0 secs

     Computing kpt #:   774  of  1951
     total cpu time spent up to now is      153.2 secs

     Computing kpt #:   775  of  1951
     total cpu time spent up to now is      153.4 secs

     Computing kpt #:   776  of  1951
     total cpu time spent up to now is      153.6 secs

     Computing kpt #:   777  of  1951
     total cpu time spent up to now is      153.7 secs

     Computing kpt #:   778  of  1951
     total cpu time spent up to now is      153.9 secs

     Computing kpt #:   779  of  1951
     total cpu time spent up to now is      154.1 secs

     Computing kpt #:   780  of  1951
     total cpu time spent up to now is      154.3 secs

     Computing kpt #:   781  of  1951
     total cpu time spent up to now is      154.5 secs

     Computing kpt #:   782  of  1951
     c_bands:  2 eigenvalues not converged
     total cpu time spent up to now is      154.7 secs

     Computing kpt #:   783  of  1951
     c_bands:  2 eigenvalues not converged
     total cpu time spent up to now is      154.9 secs

     Computing kpt #:   784  of  1951
     c_bands:  1 eigenvalues not converged
     total cpu time spent up to now is      155.1 secs

     Computing kpt #:   785  of  1951
     c_bands:  2 eigenvalues not converged
     total cpu time spent up to now is      155.3 secs

     Computing kpt #:   786  of  1951
     c_bands:  2 eigenvalues not converged
     total cpu time spent up to now is      155.5 secs

     Computing kpt #:   787  of  1951
     c_bands:  1 eigenvalues not converged
     total cpu time spent up to now is      155.7 secs

     Computing kpt #:   788  of  1951
     total cpu time spent up to now is      155.9 secs

     Computing kpt #:   789  of  1951
     total cpu time spent up to now is      156.1 secs

     Computing kpt #:   790  of  1951
     total cpu time spent up to now is      156.3 secs

     Computing kpt #:   791  of  1951
     total cpu time spent up to now is      156.5 secs

     Computing kpt #:   792  of  1951
     total cpu time spent up to now is      156.6 secs

     Computing kpt #:   793  of  1951
     total cpu time spent up to now is      156.8 secs

     Computing kpt #:   794  of  1951
     total cpu time spent up to now is      157.0 secs

     Computing kpt #:   795  of  1951
     total cpu time spent up to now is      157.2 secs

     Computing kpt #:   796  of  1951
     total cpu time spent up to now is      157.4 secs

     Computing kpt #:   797  of  1951
     total cpu time spent up to now is      157.5 secs

     Computing kpt #:   798  of  1951
     total cpu time spent up to now is      157.7 secs

     Computing kpt #:   799  of  1951
     total cpu time spent up to now is      157.9 secs

     Computing kpt #:   800  of  1951
     total cpu time spent up to now is      158.1 secs

     Computing kpt #:   801  of  1951
     total cpu time spent up to now is      158.2 secs

     Computing kpt #:   802  of  1951
     total cpu time spent up to now is      158.4 secs

     Computing kpt #:   803  of  1951
     total cpu time spent up to now is      158.6 secs

     Computing kpt #:   804  of  1951
     total cpu time spent up to now is      158.7 secs

     Computing kpt #:   805  of  1951
     total cpu time spent up to now is      158.9 secs

     Computing kpt #:   806  of  1951
     total cpu time spent up to now is      159.1 secs

     Computing kpt #:   807  of  1951
     total cpu time spent up to now is      159.3 secs

     Computing kpt #:   808  of  1951
     c_bands:  1 eigenvalues not converged
     total cpu time spent up to now is      159.5 secs

     Computing kpt #:   809  of  1951
     total cpu time spent up to now is      159.7 secs

     Computing kpt #:   810  of  1951
     total cpu time spent up to now is      159.8 secs

     Computing kpt #:   811  of  1951
     total cpu time spent up to now is      160.0 secs

     Computing kpt #:   812  of  1951
     total cpu time spent up to now is      160.2 secs

     Computing kpt #:   813  of  1951
     total cpu time spent up to now is      160.4 secs

     Computing kpt #:   814  of  1951
     total cpu time spent up to now is      160.6 secs

     Computing kpt #:   815  of  1951
     total cpu time spent up to now is      160.8 secs

     Computing kpt #:   816  of  1951
     total cpu time spent up to now is      161.0 secs

     Computing kpt #:   817  of  1951
     total cpu time spent up to now is      161.2 secs

     Computing kpt #:   818  of  1951
     total cpu time spent up to now is      161.4 secs

     Computing kpt #:   819  of  1951
     total cpu time spent up to now is      161.6 secs

     Computing kpt #:   820  of  1951
     c_bands:  1 eigenvalues not converged
     total cpu time spent up to now is      161.8 secs

     Computing kpt #:   821  of  1951
     c_bands:  1 eigenvalues not converged
     total cpu time spent up to now is      162.0 secs

     Computing kpt #:   822  of  1951
     c_bands:  1 eigenvalues not converged
     total cpu time spent up to now is      162.2 secs

     Computing kpt #:   823  of  1951
     c_bands:  1 eigenvalues not converged
     total cpu time spent up to now is      162.4 secs

     Computing kpt #:   824  of  1951
     c_bands:  1 eigenvalues not converged
     total cpu time spent up to now is      162.7 secs

     Computing kpt #:   825  of  1951
     c_bands:  1 eigenvalues not converged
     total cpu time spent up to now is      162.9 secs

     Computing kpt #:   826  of  1951
     c_bands:  1 eigenvalues not converged
     total cpu time spent up to now is      163.1 secs

     Computing kpt #:   827  of  1951
     c_bands:  1 eigenvalues not converged
     total cpu time spent up to now is      163.3 secs

     Computing kpt #:   828  of  1951
     total cpu time spent up to now is      163.5 secs

     Computing kpt #:   829  of  1951
     total cpu time spent up to now is      163.7 secs

     Computing kpt #:   830  of  1951
     total cpu time spent up to now is      163.8 secs

     Computing kpt #:   831  of  1951
     total cpu time spent up to now is      164.0 secs

     Computing kpt #:   832  of  1951
     total cpu time spent up to now is      164.2 secs

     Computing kpt #:   833  of  1951
     total cpu time spent up to now is      164.4 secs

     Computing kpt #:   834  of  1951
     total cpu time spent up to now is      164.6 secs

     Computing kpt #:   835  of  1951
     total cpu time spent up to now is      164.8 secs

     Computing kpt #:   836  of  1951
     total cpu time spent up to now is      165.0 secs

     Computing kpt #:   837  of  1951
     total cpu time spent up to now is      165.2 secs

     Computing kpt #:   838  of  1951
     total cpu time spent up to now is      165.4 secs

     Computing kpt #:   839  of  1951
     total cpu time spent up to now is      165.6 secs

     Computing kpt #:   840  of  1951
     total cpu time spent up to now is      166.5 secs

     Computing kpt #:   841  of  1951
     c_bands:  2 eigenvalues not converged
     total cpu time spent up to now is      166.7 secs

     Computing kpt #:   842  of  1951
     c_bands:  2 eigenvalues not converged
     total cpu time spent up to now is      166.9 secs

     Computing kpt #:   843  of  1951
     c_bands:  2 eigenvalues not converged
     total cpu time spent up to now is      167.1 secs

     Computing kpt #:   844  of  1951
     c_bands:  1 eigenvalues not converged
     total cpu time spent up to now is      167.3 secs

     Computing kpt #:   845  of  1951
     c_bands:  2 eigenvalues not converged
     total cpu time spent up to now is      167.5 secs

     Computing kpt #:   846  of  1951
     c_bands:  2 eigenvalues not converged
     total cpu time spent up to now is      167.7 secs

     Computing kpt #:   847  of  1951
     c_bands:  2 eigenvalues not converged
     total cpu time spent up to now is      167.9 secs

     Computing kpt #:   848  of  1951
     c_bands:  1 eigenvalues not converged
     total cpu time spent up to now is      168.1 secs

     Computing kpt #:   849  of  1951
     total cpu time spent up to now is      168.3 secs

     Computing kpt #:   850  of  1951
     total cpu time spent up to now is      168.4 secs

     Computing kpt #:   851  of  1951
     total cpu time spent up to now is      168.6 secs

     Computing kpt #:   852  of  1951
     total cpu time spent up to now is      168.8 secs

     Computing kpt #:   853  of  1951
     total cpu time spent up to now is      169.0 secs

     Computing kpt #:   854  of  1951
     total cpu time spent up to now is      169.1 secs

     Computing kpt #:   855  of  1951
     total cpu time spent up to now is      169.3 secs

     Computing kpt #:   856  of  1951
     total cpu time spent up to now is      169.5 secs

     Computing kpt #:   857  of  1951
     total cpu time spent up to now is      169.7 secs

     Computing kpt #:   858  of  1951
     total cpu time spent up to now is      169.8 secs

     Computing kpt #:   859  of  1951
     total cpu time spent up to now is      170.0 secs

     Computing kpt #:   860  of  1951
     total cpu time spent up to now is      170.2 secs

     Computing kpt #:   861  of  1951
     total cpu time spent up to now is      170.3 secs

     Computing kpt #:   862  of  1951
     total cpu time spent up to now is      170.5 secs

     Computing kpt #:   863  of  1951
     total cpu time spent up to now is      170.7 secs

     Computing kpt #:   864  of  1951
     total cpu time spent up to now is      170.9 secs

     Computing kpt #:   865  of  1951
     c_bands:  1 eigenvalues not converged
     total cpu time spent up to now is      171.0 secs

     Computing kpt #:   866  of  1951
     c_bands:  1 eigenvalues not converged
     total cpu time spent up to now is      171.2 secs

     Computing kpt #:   867  of  1951
     c_bands:  1 eigenvalues not converged
     total cpu time spent up to now is      171.4 secs

     Computing kpt #:   868  of  1951
     c_bands:  2 eigenvalues not converged
     total cpu time spent up to now is      171.6 secs

     Computing kpt #:   869  of  1951
     total cpu time spent up to now is      171.8 secs

     Computing kpt #:   870  of  1951
     total cpu time spent up to now is      172.0 secs

     Computing kpt #:   871  of  1951
     total cpu time spent up to now is      172.2 secs

     Computing kpt #:   872  of  1951
     total cpu time spent up to now is      172.4 secs

     Computing kpt #:   873  of  1951
     total cpu time spent up to now is      172.6 secs

     Computing kpt #:   874  of  1951
     total cpu time spent up to now is      172.8 secs

     Computing kpt #:   875  of  1951
     total cpu time spent up to now is      173.0 secs

     Computing kpt #:   876  of  1951
     total cpu time spent up to now is      173.2 secs

     Computing kpt #:   877  of  1951
     total cpu time spent up to now is      173.4 secs

     Computing kpt #:   878  of  1951
     total cpu time spent up to now is      173.6 secs

     Computing kpt #:   879  of  1951
     c_bands:  1 eigenvalues not converged
     total cpu time spent up to now is      173.8 secs

     Computing kpt #:   880  of  1951
     c_bands:  1 eigenvalues not converged
     total cpu time spent up to now is      174.0 secs

     Computing kpt #:   881  of  1951
     c_bands:  1 eigenvalues not converged
     total cpu time spent up to now is      174.2 secs

     Computing kpt #:   882  of  1951
     c_bands:  1 eigenvalues not converged
     total cpu time spent up to now is      174.4 secs

     Computing kpt #:   883  of  1951
     c_bands:  1 eigenvalues not converged
     total cpu time spent up to now is      174.6 secs

     Computing kpt #:   884  of  1951
     total cpu time spent up to now is      174.8 secs

     Computing kpt #:   885  of  1951
     total cpu time spent up to now is      175.0 secs

     Computing kpt #:   886  of  1951
     total cpu time spent up to now is      175.2 secs

     Computing kpt #:   887  of  1951
     total cpu time spent up to now is      175.4 secs

     Computing kpt #:   888  of  1951
     total cpu time spent up to now is      175.6 secs

     Computing kpt #:   889  of  1951
     total cpu time spent up to now is      175.8 secs

     Computing kpt #:   890  of  1951
     total cpu time spent up to now is      175.9 secs

     Computing kpt #:   891  of  1951
     total cpu time spent up to now is      176.1 secs

     Computing kpt #:   892  of  1951
     total cpu time spent up to now is      176.3 secs

     Computing kpt #:   893  of  1951
     total cpu time spent up to now is      176.5 secs

     Computing kpt #:   894  of  1951
     total cpu time spent up to now is      176.7 secs

     Computing kpt #:   895  of  1951
     total cpu time spent up to now is      176.9 secs

     Computing kpt #:   896  of  1951
     total cpu time spent up to now is      177.1 secs

     Computing kpt #:   897  of  1951
     c_bands:  2 eigenvalues not converged
     total cpu time spent up to now is      177.3 secs

     Computing kpt #:   898  of  1951
     c_bands:  2 eigenvalues not converged
     total cpu time spent up to now is      177.5 secs

     Computing kpt #:   899  of  1951
     c_bands:  2 eigenvalues not converged
     total cpu time spent up to now is      177.7 secs

     Computing kpt #:   900  of  1951
     c_bands:  2 eigenvalues not converged
     total cpu time spent up to now is      177.9 secs

     Computing kpt #:   901  of  1951
     c_bands:  2 eigenvalues not converged
     total cpu time spent up to now is      178.1 secs

     Computing kpt #:   902  of  1951
     c_bands:  2 eigenvalues not converged
     total cpu time spent up to now is      178.3 secs

     Computing kpt #:   903  of  1951
     total cpu time spent up to now is      178.5 secs

     Computing kpt #:   904  of  1951
     c_bands:  2 eigenvalues not converged
     total cpu time spent up to now is      178.7 secs

     Computing kpt #:   905  of  1951
     total cpu time spent up to now is      178.9 secs

     Computing kpt #:   906  of  1951
     total cpu time spent up to now is      179.1 secs

     Computing kpt #:   907  of  1951
     total cpu time spent up to now is      179.2 secs

     Computing kpt #:   908  of  1951
     total cpu time spent up to now is      179.4 secs

     Computing kpt #:   909  of  1951
     total cpu time spent up to now is      179.6 secs

     Computing kpt #:   910  of  1951
     total cpu time spent up to now is      179.8 secs

     Computing kpt #:   911  of  1951
     total cpu time spent up to now is      179.9 secs

     Computing kpt #:   912  of  1951
     total cpu time spent up to now is      180.1 secs

     Computing kpt #:   913  of  1951
     total cpu time spent up to now is      180.3 secs

     Computing kpt #:   914  of  1951
     total cpu time spent up to now is      180.4 secs

     Computing kpt #:   915  of  1951
     total cpu time spent up to now is      180.6 secs

     Computing kpt #:   916  of  1951
     total cpu time spent up to now is      180.8 secs

     Computing kpt #:   917  of  1951
     total cpu time spent up to now is      181.0 secs

     Computing kpt #:   918  of  1951
     total cpu time spent up to now is      181.1 secs

     Computing kpt #:   919  of  1951
     total cpu time spent up to now is      181.3 secs

     Computing kpt #:   920  of  1951
     total cpu time spent up to now is      181.5 secs

     Computing kpt #:   921  of  1951
     total cpu time spent up to now is      181.7 secs

     Computing kpt #:   922  of  1951
     c_bands:  1 eigenvalues not converged
     total cpu time spent up to now is      181.8 secs

     Computing kpt #:   923  of  1951
     c_bands:  1 eigenvalues not converged
     total cpu time spent up to now is      182.0 secs

     Computing kpt #:   924  of  1951
     total cpu time spent up to now is      182.2 secs

     Computing kpt #:   925  of  1951
     total cpu time spent up to now is      182.4 secs

     Computing kpt #:   926  of  1951
     total cpu time spent up to now is      182.6 secs

     Computing kpt #:   927  of  1951
     total cpu time spent up to now is      182.8 secs

     Computing kpt #:   928  of  1951
     total cpu time spent up to now is      183.0 secs

     Computing kpt #:   929  of  1951
     total cpu time spent up to now is      183.2 secs

     Computing kpt #:   930  of  1951
     total cpu time spent up to now is      183.4 secs

     Computing kpt #:   931  of  1951
     c_bands:  1 eigenvalues not converged
     total cpu time spent up to now is      183.6 secs

     Computing kpt #:   932  of  1951
     c_bands:  1 eigenvalues not converged
     total cpu time spent up to now is      183.8 secs

     Computing kpt #:   933  of  1951
     c_bands:  1 eigenvalues not converged
     total cpu time spent up to now is      184.0 secs

     Computing kpt #:   934  of  1951
     c_bands:  1 eigenvalues not converged
     total cpu time spent up to now is      184.2 secs

     Computing kpt #:   935  of  1951
     c_bands:  1 eigenvalues not converged
     total cpu time spent up to now is      184.4 secs

     Computing kpt #:   936  of  1951
     c_bands:  1 eigenvalues not converged
     total cpu time spent up to now is      184.6 secs

     Computing kpt #:   937  of  1951
     c_bands:  1 eigenvalues not converged
     total cpu time spent up to now is      184.9 secs

     Computing kpt #:   938  of  1951
     total cpu time spent up to now is      185.0 secs

     Computing kpt #:   939  of  1951
     total cpu time spent up to now is      185.3 secs

     Computing kpt #:   940  of  1951
     total cpu time spent up to now is      185.4 secs

     Computing kpt #:   941  of  1951
     total cpu time spent up to now is      185.6 secs

     Computing kpt #:   942  of  1951
     total cpu time spent up to now is      185.8 secs

     Computing kpt #:   943  of  1951
     total cpu time spent up to now is      186.0 secs

     Computing kpt #:   944  of  1951
     total cpu time spent up to now is      186.1 secs

     Computing kpt #:   945  of  1951
     total cpu time spent up to now is      186.3 secs

     Computing kpt #:   946  of  1951
     total cpu time spent up to now is      186.5 secs

     Computing kpt #:   947  of  1951
     total cpu time spent up to now is      186.7 secs

     Computing kpt #:   948  of  1951
     total cpu time spent up to now is      186.9 secs

     Computing kpt #:   949  of  1951
     total cpu time spent up to now is      187.1 secs

     Computing kpt #:   950  of  1951
     c_bands:  1 eigenvalues not converged
     total cpu time spent up to now is      187.3 secs

     Computing kpt #:   951  of  1951
     c_bands:  2 eigenvalues not converged
     total cpu time spent up to now is      187.5 secs

     Computing kpt #:   952  of  1951
     c_bands:  1 eigenvalues not converged
     total cpu time spent up to now is      187.7 secs

     Computing kpt #:   953  of  1951
     c_bands:  1 eigenvalues not converged
     total cpu time spent up to now is      187.9 secs

     Computing kpt #:   954  of  1951
     c_bands:  3 eigenvalues not converged
     total cpu time spent up to now is      188.1 secs

     Computing kpt #:   955  of  1951
     c_bands:  2 eigenvalues not converged
     total cpu time spent up to now is      188.3 secs

     Computing kpt #:   956  of  1951
     c_bands:  2 eigenvalues not converged
     total cpu time spent up to now is      188.5 secs

     Computing kpt #:   957  of  1951
     c_bands:  2 eigenvalues not converged
     total cpu time spent up to now is      188.7 secs

     Computing kpt #:   958  of  1951
     c_bands:  1 eigenvalues not converged
     total cpu time spent up to now is      188.9 secs

     Computing kpt #:   959  of  1951
     total cpu time spent up to now is      189.1 secs

     Computing kpt #:   960  of  1951
     total cpu time spent up to now is      189.3 secs

     Computing kpt #:   961  of  1951
     total cpu time spent up to now is      189.4 secs

     Computing kpt #:   962  of  1951
     total cpu time spent up to now is      189.6 secs

     Computing kpt #:   963  of  1951
     total cpu time spent up to now is      189.8 secs

     Computing kpt #:   964  of  1951
     total cpu time spent up to now is      189.9 secs

     Computing kpt #:   965  of  1951
     total cpu time spent up to now is      190.1 secs

     Computing kpt #:   966  of  1951
     total cpu time spent up to now is      190.3 secs

     Computing kpt #:   967  of  1951
     total cpu time spent up to now is      190.5 secs

     Computing kpt #:   968  of  1951
     total cpu time spent up to now is      190.6 secs

     Computing kpt #:   969  of  1951
     total cpu time spent up to now is      190.8 secs

     Computing kpt #:   970  of  1951
     total cpu time spent up to now is      191.0 secs

     Computing kpt #:   971  of  1951
     total cpu time spent up to now is      191.2 secs

     Computing kpt #:   972  of  1951
     total cpu time spent up to now is      192.1 secs

     Computing kpt #:   973  of  1951
     total cpu time spent up to now is      192.3 secs

     Computing kpt #:   974  of  1951
     total cpu time spent up to now is      192.5 secs

     Computing kpt #:   975  of  1951
     total cpu time spent up to now is      192.7 secs

     Computing kpt #:   976  of  1951
     c_bands:  1 eigenvalues not converged
     total cpu time spent up to now is      192.8 secs

     Computing kpt #:   977  of  1951
     c_bands:  1 eigenvalues not converged
     total cpu time spent up to now is      193.0 secs

     Computing kpt #:   978  of  1951
     c_bands:  1 eigenvalues not converged
     total cpu time spent up to now is      193.2 secs

     Computing kpt #:   979  of  1951
     c_bands:  1 eigenvalues not converged
     total cpu time spent up to now is      193.4 secs

     Computing kpt #:   980  of  1951
     total cpu time spent up to now is      193.6 secs

     Computing kpt #:   981  of  1951
     total cpu time spent up to now is      193.8 secs

     Computing kpt #:   982  of  1951
     total cpu time spent up to now is      194.0 secs

     Computing kpt #:   983  of  1951
     total cpu time spent up to now is      194.2 secs

     Computing kpt #:   984  of  1951
     total cpu time spent up to now is      194.4 secs

     Computing kpt #:   985  of  1951
     total cpu time spent up to now is      194.6 secs

     Computing kpt #:   986  of  1951
     c_bands:  1 eigenvalues not converged
     total cpu time spent up to now is      194.8 secs

     Computing kpt #:   987  of  1951
     c_bands:  1 eigenvalues not converged
     total cpu time spent up to now is      195.0 secs

     Computing kpt #:   988  of  1951
     c_bands:  1 eigenvalues not converged
     total cpu time spent up to now is      195.2 secs

     Computing kpt #:   989  of  1951
     c_bands:  1 eigenvalues not converged
     total cpu time spent up to now is      195.4 secs

     Computing kpt #:   990  of  1951
     total cpu time spent up to now is      195.6 secs

     Computing kpt #:   991  of  1951
     total cpu time spent up to now is      195.8 secs

     Computing kpt #:   992  of  1951
     total cpu time spent up to now is      196.0 secs

     Computing kpt #:   993  of  1951
     total cpu time spent up to now is      196.2 secs

     Computing kpt #:   994  of  1951
     total cpu time spent up to now is      196.4 secs

     Computing kpt #:   995  of  1951
     total cpu time spent up to now is      196.6 secs

     Computing kpt #:   996  of  1951
     total cpu time spent up to now is      196.8 secs

     Computing kpt #:   997  of  1951
     total cpu time spent up to now is      197.0 secs

     Computing kpt #:   998  of  1951
     total cpu time spent up to now is      197.2 secs

     Computing kpt #:   999  of  1951
     total cpu time spent up to now is      197.4 secs

     Computing kpt #:  1000  of  1951
     total cpu time spent up to now is      197.5 secs

     Computing kpt #:  1001  of  1951
     total cpu time spent up to now is      197.7 secs

     Computing kpt #:  1002  of  1951
     total cpu time spent up to now is      197.9 secs

     Computing kpt #:  1003  of  1951
     total cpu time spent up to now is      198.1 secs

     Computing kpt #:  1004  of  1951
     total cpu time spent up to now is      198.3 secs

     Computing kpt #:  1005  of  1951
     total cpu time spent up to now is      198.5 secs

     Computing kpt #:  1006  of  1951
     c_bands:  2 eigenvalues not converged
     total cpu time spent up to now is      198.7 secs

     Computing kpt #:  1007  of  1951
     c_bands:  2 eigenvalues not converged
     total cpu time spent up to now is      198.9 secs

     Computing kpt #:  1008  of  1951
     c_bands:  2 eigenvalues not converged
     total cpu time spent up to now is      199.1 secs

     Computing kpt #:  1009  of  1951
     c_bands:  2 eigenvalues not converged
     total cpu time spent up to now is      199.3 secs

     Computing kpt #:  1010  of  1951
     c_bands:  2 eigenvalues not converged
     total cpu time spent up to now is      199.5 secs

     Computing kpt #:  1011  of  1951
     c_bands:  1 eigenvalues not converged
     total cpu time spent up to now is      199.7 secs

     Computing kpt #:  1012  of  1951
     c_bands:  2 eigenvalues not converged
     total cpu time spent up to now is      199.9 secs

     Computing kpt #:  1013  of  1951
     total cpu time spent up to now is      200.1 secs

     Computing kpt #:  1014  of  1951
     total cpu time spent up to now is      200.3 secs

     Computing kpt #:  1015  of  1951
     total cpu time spent up to now is      200.5 secs

     Computing kpt #:  1016  of  1951
     total cpu time spent up to now is      200.6 secs

     Computing kpt #:  1017  of  1951
     total cpu time spent up to now is      200.8 secs

     Computing kpt #:  1018  of  1951
     total cpu time spent up to now is      201.0 secs

     Computing kpt #:  1019  of  1951
     total cpu time spent up to now is      201.2 secs

     Computing kpt #:  1020  of  1951
     total cpu time spent up to now is      201.4 secs

     Computing kpt #:  1021  of  1951
     total cpu time spent up to now is      201.5 secs

     Computing kpt #:  1022  of  1951
     total cpu time spent up to now is      201.7 secs

     Computing kpt #:  1023  of  1951
     total cpu time spent up to now is      201.9 secs

     Computing kpt #:  1024  of  1951
     total cpu time spent up to now is      202.0 secs

     Computing kpt #:  1025  of  1951
     total cpu time spent up to now is      202.2 secs

     Computing kpt #:  1026  of  1951
     total cpu time spent up to now is      202.4 secs

     Computing kpt #:  1027  of  1951
     total cpu time spent up to now is      202.6 secs

     Computing kpt #:  1028  of  1951
     total cpu time spent up to now is      202.7 secs

     Computing kpt #:  1029  of  1951
     total cpu time spent up to now is      202.9 secs

     Computing kpt #:  1030  of  1951
     c_bands:  1 eigenvalues not converged
     total cpu time spent up to now is      203.1 secs

     Computing kpt #:  1031  of  1951
     c_bands:  1 eigenvalues not converged
     total cpu time spent up to now is      203.3 secs

     Computing kpt #:  1032  of  1951
     total cpu time spent up to now is      203.5 secs

     Computing kpt #:  1033  of  1951
     total cpu time spent up to now is      203.7 secs

     Computing kpt #:  1034  of  1951
     total cpu time spent up to now is      203.9 secs

     Computing kpt #:  1035  of  1951
     c_bands:  1 eigenvalues not converged
     total cpu time spent up to now is      204.1 secs

     Computing kpt #:  1036  of  1951
     total cpu time spent up to now is      204.3 secs

     Computing kpt #:  1037  of  1951
     c_bands:  1 eigenvalues not converged
     total cpu time spent up to now is      204.5 secs

     Computing kpt #:  1038  of  1951
     c_bands:  1 eigenvalues not converged
     total cpu time spent up to now is      204.7 secs

     Computing kpt #:  1039  of  1951
     c_bands:  1 eigenvalues not converged
     total cpu time spent up to now is      204.9 secs

     Computing kpt #:  1040  of  1951
     c_bands:  1 eigenvalues not converged
     total cpu time spent up to now is      205.1 secs

     Computing kpt #:  1041  of  1951
     c_bands:  1 eigenvalues not converged
     total cpu time spent up to now is      205.3 secs

     Computing kpt #:  1042  of  1951
     total cpu time spent up to now is      205.5 secs

     Computing kpt #:  1043  of  1951
     total cpu time spent up to now is      205.7 secs

     Computing kpt #:  1044  of  1951
     total cpu time spent up to now is      205.9 secs

     Computing kpt #:  1045  of  1951
     total cpu time spent up to now is      206.1 secs

     Computing kpt #:  1046  of  1951
     total cpu time spent up to now is      206.3 secs

     Computing kpt #:  1047  of  1951
     total cpu time spent up to now is      206.4 secs

     Computing kpt #:  1048  of  1951
     total cpu time spent up to now is      206.6 secs

     Computing kpt #:  1049  of  1951
     total cpu time spent up to now is      206.8 secs

     Computing kpt #:  1050  of  1951
     total cpu time spent up to now is      207.0 secs

     Computing kpt #:  1051  of  1951
     total cpu time spent up to now is      207.2 secs

     Computing kpt #:  1052  of  1951
     total cpu time spent up to now is      207.4 secs

     Computing kpt #:  1053  of  1951
     total cpu time spent up to now is      207.6 secs

     Computing kpt #:  1054  of  1951
     total cpu time spent up to now is      207.7 secs

     Computing kpt #:  1055  of  1951
     total cpu time spent up to now is      207.9 secs

     Computing kpt #:  1056  of  1951
     total cpu time spent up to now is      208.1 secs

     Computing kpt #:  1057  of  1951
     total cpu time spent up to now is      208.3 secs

     Computing kpt #:  1058  of  1951
     total cpu time spent up to now is      208.5 secs

     Computing kpt #:  1059  of  1951
     c_bands:  2 eigenvalues not converged
     total cpu time spent up to now is      208.7 secs

     Computing kpt #:  1060  of  1951
     c_bands:  2 eigenvalues not converged
     total cpu time spent up to now is      208.9 secs

     Computing kpt #:  1061  of  1951
     c_bands:  2 eigenvalues not converged
     total cpu time spent up to now is      209.1 secs

     Computing kpt #:  1062  of  1951
     c_bands:  1 eigenvalues not converged
     total cpu time spent up to now is      209.3 secs

     Computing kpt #:  1063  of  1951
     c_bands:  2 eigenvalues not converged
     total cpu time spent up to now is      209.5 secs

     Computing kpt #:  1064  of  1951
     c_bands:  2 eigenvalues not converged
     total cpu time spent up to now is      209.7 secs

     Computing kpt #:  1065  of  1951
     total cpu time spent up to now is      209.9 secs

     Computing kpt #:  1066  of  1951
     total cpu time spent up to now is      210.1 secs

     Computing kpt #:  1067  of  1951
     total cpu time spent up to now is      210.3 secs

     Computing kpt #:  1068  of  1951
     total cpu time spent up to now is      210.5 secs

     Computing kpt #:  1069  of  1951
     total cpu time spent up to now is      210.7 secs

     Computing kpt #:  1070  of  1951
     total cpu time spent up to now is      210.8 secs

     Computing kpt #:  1071  of  1951
     total cpu time spent up to now is      211.0 secs

     Computing kpt #:  1072  of  1951
     total cpu time spent up to now is      211.2 secs

     Computing kpt #:  1073  of  1951
     total cpu time spent up to now is      211.3 secs

     Computing kpt #:  1074  of  1951
     total cpu time spent up to now is      211.5 secs

     Computing kpt #:  1075  of  1951
     total cpu time spent up to now is      211.7 secs

     Computing kpt #:  1076  of  1951
     total cpu time spent up to now is      211.8 secs

     Computing kpt #:  1077  of  1951
     total cpu time spent up to now is      212.0 secs

     Computing kpt #:  1078  of  1951
     total cpu time spent up to now is      212.2 secs

     Computing kpt #:  1079  of  1951
     total cpu time spent up to now is      212.3 secs

     Computing kpt #:  1080  of  1951
     total cpu time spent up to now is      212.5 secs

     Computing kpt #:  1081  of  1951
     total cpu time spent up to now is      212.7 secs

     Computing kpt #:  1082  of  1951
     c_bands:  1 eigenvalues not converged
     total cpu time spent up to now is      212.9 secs

     Computing kpt #:  1083  of  1951
     total cpu time spent up to now is      213.1 secs

     Computing kpt #:  1084  of  1951
     c_bands:  2 eigenvalues not converged
     total cpu time spent up to now is      213.3 secs

     Computing kpt #:  1085  of  1951
     total cpu time spent up to now is      213.5 secs

     Computing kpt #:  1086  of  1951
     total cpu time spent up to now is      213.7 secs

     Computing kpt #:  1087  of  1951
     total cpu time spent up to now is      213.9 secs

     Computing kpt #:  1088  of  1951
     c_bands:  1 eigenvalues not converged
     total cpu time spent up to now is      214.1 secs

     Computing kpt #:  1089  of  1951
     c_bands:  1 eigenvalues not converged
     total cpu time spent up to now is      214.3 secs

     Computing kpt #:  1090  of  1951
     c_bands:  1 eigenvalues not converged
     total cpu time spent up to now is      214.5 secs

     Computing kpt #:  1091  of  1951
     c_bands:  1 eigenvalues not converged
     total cpu time spent up to now is      214.7 secs

     Computing kpt #:  1092  of  1951
     total cpu time spent up to now is      214.9 secs

     Computing kpt #:  1093  of  1951
     c_bands:  1 eigenvalues not converged
     total cpu time spent up to now is      215.1 secs

     Computing kpt #:  1094  of  1951
     total cpu time spent up to now is      215.3 secs

     Computing kpt #:  1095  of  1951
     total cpu time spent up to now is      215.5 secs

     Computing kpt #:  1096  of  1951
     total cpu time spent up to now is      215.7 secs

     Computing kpt #:  1097  of  1951
     total cpu time spent up to now is      215.9 secs

     Computing kpt #:  1098  of  1951
     total cpu time spent up to now is      216.0 secs

     Computing kpt #:  1099  of  1951
     total cpu time spent up to now is      216.2 secs

     Computing kpt #:  1100  of  1951
     total cpu time spent up to now is      216.4 secs

     Computing kpt #:  1101  of  1951
     total cpu time spent up to now is      216.6 secs

     Computing kpt #:  1102  of  1951
     total cpu time spent up to now is      216.7 secs

     Computing kpt #:  1103  of  1951
     total cpu time spent up to now is      216.9 secs

     Computing kpt #:  1104  of  1951
     total cpu time spent up to now is      217.7 secs

     Computing kpt #:  1105  of  1951
     total cpu time spent up to now is      217.9 secs

     Computing kpt #:  1106  of  1951
     total cpu time spent up to now is      218.1 secs

     Computing kpt #:  1107  of  1951
     total cpu time spent up to now is      218.3 secs

     Computing kpt #:  1108  of  1951
     total cpu time spent up to now is      218.5 secs

     Computing kpt #:  1109  of  1951
     c_bands:  1 eigenvalues not converged
     total cpu time spent up to now is      218.7 secs

     Computing kpt #:  1110  of  1951
     c_bands:  1 eigenvalues not converged
     total cpu time spent up to now is      218.9 secs

     Computing kpt #:  1111  of  1951
     c_bands:  2 eigenvalues not converged
     total cpu time spent up to now is      219.1 secs

     Computing kpt #:  1112  of  1951
     c_bands:  2 eigenvalues not converged
     total cpu time spent up to now is      219.3 secs

     Computing kpt #:  1113  of  1951
     c_bands:  2 eigenvalues not converged
     total cpu time spent up to now is      219.5 secs

     Computing kpt #:  1114  of  1951
     c_bands:  1 eigenvalues not converged
     total cpu time spent up to now is      219.7 secs

     Computing kpt #:  1115  of  1951
     c_bands:  2 eigenvalues not converged
     total cpu time spent up to now is      219.9 secs

     Computing kpt #:  1116  of  1951
     total cpu time spent up to now is      220.1 secs

     Computing kpt #:  1117  of  1951
     c_bands:  2 eigenvalues not converged
     total cpu time spent up to now is      220.3 secs

     Computing kpt #:  1118  of  1951
     total cpu time spent up to now is      220.5 secs

     Computing kpt #:  1119  of  1951
     total cpu time spent up to now is      220.7 secs

     Computing kpt #:  1120  of  1951
     total cpu time spent up to now is      220.8 secs

     Computing kpt #:  1121  of  1951
     total cpu time spent up to now is      221.0 secs

     Computing kpt #:  1122  of  1951
     total cpu time spent up to now is      221.2 secs

     Computing kpt #:  1123  of  1951
     total cpu time spent up to now is      221.3 secs

     Computing kpt #:  1124  of  1951
     total cpu time spent up to now is      221.5 secs

     Computing kpt #:  1125  of  1951
     total cpu time spent up to now is      221.7 secs

     Computing kpt #:  1126  of  1951
     total cpu time spent up to now is      221.8 secs

     Computing kpt #:  1127  of  1951
     total cpu time spent up to now is      222.0 secs

     Computing kpt #:  1128  of  1951
     total cpu time spent up to now is      222.2 secs

     Computing kpt #:  1129  of  1951
     total cpu time spent up to now is      222.3 secs

     Computing kpt #:  1130  of  1951
     total cpu time spent up to now is      222.5 secs

     Computing kpt #:  1131  of  1951
     total cpu time spent up to now is      222.7 secs

     Computing kpt #:  1132  of  1951
     c_bands:  1 eigenvalues not converged
     total cpu time spent up to now is      222.9 secs

     Computing kpt #:  1133  of  1951
     c_bands:  1 eigenvalues not converged
     total cpu time spent up to now is      223.1 secs

     Computing kpt #:  1134  of  1951
     c_bands:  2 eigenvalues not converged
     total cpu time spent up to now is      223.3 secs

     Computing kpt #:  1135  of  1951
     c_bands:  1 eigenvalues not converged
     total cpu time spent up to now is      223.5 secs

     Computing kpt #:  1136  of  1951
     c_bands:  1 eigenvalues not converged
     total cpu time spent up to now is      223.7 secs

     Computing kpt #:  1137  of  1951
     c_bands:  1 eigenvalues not converged
     total cpu time spent up to now is      223.9 secs

     Computing kpt #:  1138  of  1951
     c_bands:  1 eigenvalues not converged
     total cpu time spent up to now is      224.1 secs

     Computing kpt #:  1139  of  1951
     c_bands:  1 eigenvalues not converged
     total cpu time spent up to now is      224.3 secs

     Computing kpt #:  1140  of  1951
     total cpu time spent up to now is      224.5 secs

     Computing kpt #:  1141  of  1951
     total cpu time spent up to now is      224.7 secs

     Computing kpt #:  1142  of  1951
     total cpu time spent up to now is      224.9 secs

     Computing kpt #:  1143  of  1951
     c_bands:  1 eigenvalues not converged
     total cpu time spent up to now is      225.1 secs

     Computing kpt #:  1144  of  1951
     total cpu time spent up to now is      225.3 secs

     Computing kpt #:  1145  of  1951
     total cpu time spent up to now is      225.5 secs

     Computing kpt #:  1146  of  1951
     total cpu time spent up to now is      225.6 secs

     Computing kpt #:  1147  of  1951
     total cpu time spent up to now is      225.8 secs

     Computing kpt #:  1148  of  1951
     total cpu time spent up to now is      226.0 secs

     Computing kpt #:  1149  of  1951
     total cpu time spent up to now is      226.2 secs

     Computing kpt #:  1150  of  1951
     total cpu time spent up to now is      226.4 secs

     Computing kpt #:  1151  of  1951
     total cpu time spent up to now is      226.6 secs

     Computing kpt #:  1152  of  1951
     total cpu time spent up to now is      226.7 secs

     Computing kpt #:  1153  of  1951
     total cpu time spent up to now is      226.9 secs

     Computing kpt #:  1154  of  1951
     total cpu time spent up to now is      227.1 secs

     Computing kpt #:  1155  of  1951
     total cpu time spent up to now is      227.3 secs

     Computing kpt #:  1156  of  1951
     total cpu time spent up to now is      227.5 secs

     Computing kpt #:  1157  of  1951
     total cpu time spent up to now is      227.6 secs

     Computing kpt #:  1158  of  1951
     c_bands:  1 eigenvalues not converged
     total cpu time spent up to now is      227.8 secs

     Computing kpt #:  1159  of  1951
     total cpu time spent up to now is      228.0 secs

     Computing kpt #:  1160  of  1951
     c_bands:  1 eigenvalues not converged
     total cpu time spent up to now is      228.2 secs

     Computing kpt #:  1161  of  1951
     c_bands:  2 eigenvalues not converged
     total cpu time spent up to now is      228.4 secs

     Computing kpt #:  1162  of  1951
     c_bands:  2 eigenvalues not converged
     total cpu time spent up to now is      228.6 secs

     Computing kpt #:  1163  of  1951
     c_bands:  2 eigenvalues not converged
     total cpu time spent up to now is      228.8 secs

     Computing kpt #:  1164  of  1951
     c_bands:  1 eigenvalues not converged
     total cpu time spent up to now is      229.0 secs

     Computing kpt #:  1165  of  1951
     total cpu time spent up to now is      229.2 secs

     Computing kpt #:  1166  of  1951
     total cpu time spent up to now is      229.4 secs

     Computing kpt #:  1167  of  1951
     total cpu time spent up to now is      229.6 secs

     Computing kpt #:  1168  of  1951
     total cpu time spent up to now is      229.8 secs

     Computing kpt #:  1169  of  1951
     total cpu time spent up to now is      229.9 secs

     Computing kpt #:  1170  of  1951
     total cpu time spent up to now is      230.1 secs

     Computing kpt #:  1171  of  1951
     total cpu time spent up to now is      230.3 secs

     Computing kpt #:  1172  of  1951
     total cpu time spent up to now is      230.4 secs

     Computing kpt #:  1173  of  1951
     total cpu time spent up to now is      230.6 secs

     Computing kpt #:  1174  of  1951
     total cpu time spent up to now is      230.8 secs

     Computing kpt #:  1175  of  1951
     total cpu time spent up to now is      230.9 secs

     Computing kpt #:  1176  of  1951
     total cpu time spent up to now is      231.1 secs

     Computing kpt #:  1177  of  1951
     total cpu time spent up to now is      231.3 secs

     Computing kpt #:  1178  of  1951
     total cpu time spent up to now is      231.4 secs

     Computing kpt #:  1179  of  1951
     total cpu time spent up to now is      231.6 secs

     Computing kpt #:  1180  of  1951
     total cpu time spent up to now is      231.8 secs

     Computing kpt #:  1181  of  1951
     c_bands:  1 eigenvalues not converged
     total cpu time spent up to now is      232.0 secs

     Computing kpt #:  1182  of  1951
     c_bands:  2 eigenvalues not converged
     total cpu time spent up to now is      232.2 secs

     Computing kpt #:  1183  of  1951
     c_bands:  2 eigenvalues not converged
     total cpu time spent up to now is      232.4 secs

     Computing kpt #:  1184  of  1951
     c_bands:  1 eigenvalues not converged
     total cpu time spent up to now is      232.6 secs

     Computing kpt #:  1185  of  1951
     c_bands:  1 eigenvalues not converged
     total cpu time spent up to now is      232.8 secs

     Computing kpt #:  1186  of  1951
     c_bands:  1 eigenvalues not converged
     total cpu time spent up to now is      233.0 secs

     Computing kpt #:  1187  of  1951
     total cpu time spent up to now is      233.2 secs

     Computing kpt #:  1188  of  1951
     total cpu time spent up to now is      233.4 secs

     Computing kpt #:  1189  of  1951
     total cpu time spent up to now is      233.6 secs

     Computing kpt #:  1190  of  1951
     total cpu time spent up to now is      233.8 secs

     Computing kpt #:  1191  of  1951
     total cpu time spent up to now is      234.0 secs

     Computing kpt #:  1192  of  1951
     total cpu time spent up to now is      234.1 secs

     Computing kpt #:  1193  of  1951
     total cpu time spent up to now is      234.3 secs

     Computing kpt #:  1194  of  1951
     total cpu time spent up to now is      234.5 secs

     Computing kpt #:  1195  of  1951
     total cpu time spent up to now is      234.7 secs

     Computing kpt #:  1196  of  1951
     total cpu time spent up to now is      234.9 secs

     Computing kpt #:  1197  of  1951
     total cpu time spent up to now is      235.0 secs

     Computing kpt #:  1198  of  1951
     total cpu time spent up to now is      235.2 secs

     Computing kpt #:  1199  of  1951
     total cpu time spent up to now is      235.4 secs

     Computing kpt #:  1200  of  1951
     total cpu time spent up to now is      235.5 secs

     Computing kpt #:  1201  of  1951
     total cpu time spent up to now is      235.7 secs

     Computing kpt #:  1202  of  1951
     total cpu time spent up to now is      235.9 secs

     Computing kpt #:  1203  of  1951
     total cpu time spent up to now is      236.1 secs

     Computing kpt #:  1204  of  1951
     total cpu time spent up to now is      236.3 secs

     Computing kpt #:  1205  of  1951
     total cpu time spent up to now is      236.5 secs

     Computing kpt #:  1206  of  1951
     total cpu time spent up to now is      236.6 secs

     Computing kpt #:  1207  of  1951
     c_bands:  2 eigenvalues not converged
     total cpu time spent up to now is      236.8 secs

     Computing kpt #:  1208  of  1951
     c_bands:  1 eigenvalues not converged
     total cpu time spent up to now is      237.1 secs

     Computing kpt #:  1209  of  1951
     c_bands:  1 eigenvalues not converged
     total cpu time spent up to now is      237.2 secs

     Computing kpt #:  1210  of  1951
     c_bands:  1 eigenvalues not converged
     total cpu time spent up to now is      237.4 secs

     Computing kpt #:  1211  of  1951
     c_bands:  2 eigenvalues not converged
     total cpu time spent up to now is      237.6 secs

     Computing kpt #:  1212  of  1951
     c_bands:  2 eigenvalues not converged
     total cpu time spent up to now is      237.8 secs

     Computing kpt #:  1213  of  1951
     total cpu time spent up to now is      238.0 secs

     Computing kpt #:  1214  of  1951
     total cpu time spent up to now is      238.2 secs

     Computing kpt #:  1215  of  1951
     total cpu time spent up to now is      238.4 secs

     Computing kpt #:  1216  of  1951
     total cpu time spent up to now is      238.5 secs

     Computing kpt #:  1217  of  1951
     total cpu time spent up to now is      238.7 secs

     Computing kpt #:  1218  of  1951
     total cpu time spent up to now is      238.9 secs

     Computing kpt #:  1219  of  1951
     total cpu time spent up to now is      239.1 secs

     Computing kpt #:  1220  of  1951
     total cpu time spent up to now is      239.3 secs

     Computing kpt #:  1221  of  1951
     total cpu time spent up to now is      239.4 secs

     Computing kpt #:  1222  of  1951
     total cpu time spent up to now is      239.6 secs

     Computing kpt #:  1223  of  1951
     total cpu time spent up to now is      239.7 secs

     Computing kpt #:  1224  of  1951
     total cpu time spent up to now is      239.9 secs

     Computing kpt #:  1225  of  1951
     total cpu time spent up to now is      240.1 secs

     Computing kpt #:  1226  of  1951
     total cpu time spent up to now is      240.3 secs

     Computing kpt #:  1227  of  1951
     total cpu time spent up to now is      240.4 secs

     Computing kpt #:  1228  of  1951
     total cpu time spent up to now is      240.6 secs

     Computing kpt #:  1229  of  1951
     c_bands:  1 eigenvalues not converged
     total cpu time spent up to now is      240.8 secs

     Computing kpt #:  1230  of  1951
     c_bands:  2 eigenvalues not converged
     total cpu time spent up to now is      241.0 secs

     Computing kpt #:  1231  of  1951
     c_bands:  1 eigenvalues not converged
     total cpu time spent up to now is      241.2 secs

     Computing kpt #:  1232  of  1951
     total cpu time spent up to now is      241.4 secs

     Computing kpt #:  1233  of  1951
     total cpu time spent up to now is      241.6 secs

     Computing kpt #:  1234  of  1951
     total cpu time spent up to now is      241.8 secs

     Computing kpt #:  1235  of  1951
     total cpu time spent up to now is      242.0 secs

     Computing kpt #:  1236  of  1951
     total cpu time spent up to now is      242.2 secs

     Computing kpt #:  1237  of  1951
     total cpu time spent up to now is      242.4 secs

     Computing kpt #:  1238  of  1951
     total cpu time spent up to now is      243.3 secs

     Computing kpt #:  1239  of  1951
     total cpu time spent up to now is      243.5 secs

     Computing kpt #:  1240  of  1951
     total cpu time spent up to now is      243.7 secs

     Computing kpt #:  1241  of  1951
     total cpu time spent up to now is      243.9 secs

     Computing kpt #:  1242  of  1951
     total cpu time spent up to now is      244.0 secs

     Computing kpt #:  1243  of  1951
     total cpu time spent up to now is      244.2 secs

     Computing kpt #:  1244  of  1951
     total cpu time spent up to now is      244.4 secs

     Computing kpt #:  1245  of  1951
     total cpu time spent up to now is      244.6 secs

     Computing kpt #:  1246  of  1951
     total cpu time spent up to now is      244.8 secs

     Computing kpt #:  1247  of  1951
     total cpu time spent up to now is      244.9 secs

     Computing kpt #:  1248  of  1951
     total cpu time spent up to now is      245.1 secs

     Computing kpt #:  1249  of  1951
     total cpu time spent up to now is      245.3 secs

     Computing kpt #:  1250  of  1951
     total cpu time spent up to now is      245.5 secs

     Computing kpt #:  1251  of  1951
     total cpu time spent up to now is      245.6 secs

     Computing kpt #:  1252  of  1951
     total cpu time spent up to now is      245.8 secs

     Computing kpt #:  1253  of  1951
     c_bands:  2 eigenvalues not converged
     total cpu time spent up to now is      246.0 secs

     Computing kpt #:  1254  of  1951
     c_bands:  2 eigenvalues not converged
     total cpu time spent up to now is      246.2 secs

     Computing kpt #:  1255  of  1951
     c_bands:  2 eigenvalues not converged
     total cpu time spent up to now is      246.4 secs

     Computing kpt #:  1256  of  1951
     c_bands:  1 eigenvalues not converged
     total cpu time spent up to now is      246.6 secs

     Computing kpt #:  1257  of  1951
     c_bands:  2 eigenvalues not converged
     total cpu time spent up to now is      246.8 secs

     Computing kpt #:  1258  of  1951
     total cpu time spent up to now is      247.0 secs

     Computing kpt #:  1259  of  1951
     c_bands:  2 eigenvalues not converged
     total cpu time spent up to now is      247.2 secs

     Computing kpt #:  1260  of  1951
     total cpu time spent up to now is      247.4 secs

     Computing kpt #:  1261  of  1951
     total cpu time spent up to now is      247.6 secs

     Computing kpt #:  1262  of  1951
     total cpu time spent up to now is      247.8 secs

     Computing kpt #:  1263  of  1951
     total cpu time spent up to now is      248.0 secs

     Computing kpt #:  1264  of  1951
     total cpu time spent up to now is      248.1 secs

     Computing kpt #:  1265  of  1951
     total cpu time spent up to now is      248.3 secs

     Computing kpt #:  1266  of  1951
     total cpu time spent up to now is      248.5 secs

     Computing kpt #:  1267  of  1951
     total cpu time spent up to now is      248.6 secs

     Computing kpt #:  1268  of  1951
     total cpu time spent up to now is      248.8 secs

     Computing kpt #:  1269  of  1951
     total cpu time spent up to now is      249.0 secs

     Computing kpt #:  1270  of  1951
     total cpu time spent up to now is      249.1 secs

     Computing kpt #:  1271  of  1951
     total cpu time spent up to now is      249.3 secs

     Computing kpt #:  1272  of  1951
     total cpu time spent up to now is      249.5 secs

     Computing kpt #:  1273  of  1951
     total cpu time spent up to now is      249.7 secs

     Computing kpt #:  1274  of  1951
     c_bands:  1 eigenvalues not converged
     total cpu time spent up to now is      249.8 secs

     Computing kpt #:  1275  of  1951
     c_bands:  2 eigenvalues not converged
     total cpu time spent up to now is      250.0 secs

     Computing kpt #:  1276  of  1951
     c_bands:  2 eigenvalues not converged
     total cpu time spent up to now is      250.2 secs

     Computing kpt #:  1277  of  1951
     total cpu time spent up to now is      250.4 secs

     Computing kpt #:  1278  of  1951
     total cpu time spent up to now is      250.6 secs

     Computing kpt #:  1279  of  1951
     total cpu time spent up to now is      250.8 secs

     Computing kpt #:  1280  of  1951
     total cpu time spent up to now is      251.0 secs

     Computing kpt #:  1281  of  1951
     total cpu time spent up to now is      251.2 secs

     Computing kpt #:  1282  of  1951
     total cpu time spent up to now is      251.4 secs

     Computing kpt #:  1283  of  1951
     total cpu time spent up to now is      251.6 secs

     Computing kpt #:  1284  of  1951
     total cpu time spent up to now is      251.8 secs

     Computing kpt #:  1285  of  1951
     total cpu time spent up to now is      251.9 secs

     Computing kpt #:  1286  of  1951
     total cpu time spent up to now is      252.1 secs

     Computing kpt #:  1287  of  1951
     total cpu time spent up to now is      252.3 secs

     Computing kpt #:  1288  of  1951
     total cpu time spent up to now is      252.5 secs

     Computing kpt #:  1289  of  1951
     total cpu time spent up to now is      252.6 secs

     Computing kpt #:  1290  of  1951
     total cpu time spent up to now is      252.8 secs

     Computing kpt #:  1291  of  1951
     total cpu time spent up to now is      253.0 secs

     Computing kpt #:  1292  of  1951
     total cpu time spent up to now is      253.2 secs

     Computing kpt #:  1293  of  1951
     total cpu time spent up to now is      253.4 secs

     Computing kpt #:  1294  of  1951
     total cpu time spent up to now is      253.5 secs

     Computing kpt #:  1295  of  1951
     total cpu time spent up to now is      253.7 secs

     Computing kpt #:  1296  of  1951
     total cpu time spent up to now is      253.9 secs

     Computing kpt #:  1297  of  1951
     total cpu time spent up to now is      254.1 secs

     Computing kpt #:  1298  of  1951
     total cpu time spent up to now is      254.3 secs

     Computing kpt #:  1299  of  1951
     c_bands:  1 eigenvalues not converged
     total cpu time spent up to now is      254.5 secs

     Computing kpt #:  1300  of  1951
     c_bands:  2 eigenvalues not converged
     total cpu time spent up to now is      254.7 secs

     Computing kpt #:  1301  of  1951
     c_bands:  1 eigenvalues not converged
     total cpu time spent up to now is      254.9 secs

     Computing kpt #:  1302  of  1951
     c_bands:  2 eigenvalues not converged
     total cpu time spent up to now is      255.1 secs

     Computing kpt #:  1303  of  1951
     c_bands:  1 eigenvalues not converged
     total cpu time spent up to now is      255.3 secs

     Computing kpt #:  1304  of  1951
     total cpu time spent up to now is      255.5 secs

     Computing kpt #:  1305  of  1951
     total cpu time spent up to now is      255.7 secs

     Computing kpt #:  1306  of  1951
     total cpu time spent up to now is      255.9 secs

     Computing kpt #:  1307  of  1951
     total cpu time spent up to now is      256.0 secs

     Computing kpt #:  1308  of  1951
     total cpu time spent up to now is      256.2 secs

     Computing kpt #:  1309  of  1951
     total cpu time spent up to now is      256.4 secs

     Computing kpt #:  1310  of  1951
     total cpu time spent up to now is      256.5 secs

     Computing kpt #:  1311  of  1951
     total cpu time spent up to now is      256.7 secs

     Computing kpt #:  1312  of  1951
     total cpu time spent up to now is      256.9 secs

     Computing kpt #:  1313  of  1951
     total cpu time spent up to now is      257.1 secs

     Computing kpt #:  1314  of  1951
     total cpu time spent up to now is      257.2 secs

     Computing kpt #:  1315  of  1951
     total cpu time spent up to now is      257.4 secs

     Computing kpt #:  1316  of  1951
     total cpu time spent up to now is      257.5 secs

     Computing kpt #:  1317  of  1951
     total cpu time spent up to now is      257.7 secs

     Computing kpt #:  1318  of  1951
     c_bands:  1 eigenvalues not converged
     total cpu time spent up to now is      257.9 secs

     Computing kpt #:  1319  of  1951
     c_bands:  1 eigenvalues not converged
     total cpu time spent up to now is      258.1 secs

     Computing kpt #:  1320  of  1951
     c_bands:  2 eigenvalues not converged
     total cpu time spent up to now is      258.3 secs

     Computing kpt #:  1321  of  1951
     total cpu time spent up to now is      258.5 secs

     Computing kpt #:  1322  of  1951
     total cpu time spent up to now is      258.7 secs

     Computing kpt #:  1323  of  1951
     total cpu time spent up to now is      258.8 secs

     Computing kpt #:  1324  of  1951
     total cpu time spent up to now is      259.0 secs

     Computing kpt #:  1325  of  1951
     total cpu time spent up to now is      259.2 secs

     Computing kpt #:  1326  of  1951
     total cpu time spent up to now is      259.4 secs

     Computing kpt #:  1327  of  1951
     total cpu time spent up to now is      259.6 secs

     Computing kpt #:  1328  of  1951
     total cpu time spent up to now is      259.8 secs

     Computing kpt #:  1329  of  1951
     total cpu time spent up to now is      259.9 secs

     Computing kpt #:  1330  of  1951
     total cpu time spent up to now is      260.1 secs

     Computing kpt #:  1331  of  1951
     total cpu time spent up to now is      260.3 secs

     Computing kpt #:  1332  of  1951
     total cpu time spent up to now is      260.4 secs

     Computing kpt #:  1333  of  1951
     total cpu time spent up to now is      260.6 secs

     Computing kpt #:  1334  of  1951
     total cpu time spent up to now is      260.8 secs

     Computing kpt #:  1335  of  1951
     total cpu time spent up to now is      261.0 secs

     Computing kpt #:  1336  of  1951
     total cpu time spent up to now is      261.1 secs

     Computing kpt #:  1337  of  1951
     total cpu time spent up to now is      261.3 secs

     Computing kpt #:  1338  of  1951
     total cpu time spent up to now is      261.5 secs

     Computing kpt #:  1339  of  1951
     c_bands:  2 eigenvalues not converged
     total cpu time spent up to now is      261.7 secs

     Computing kpt #:  1340  of  1951
     total cpu time spent up to now is      261.9 secs

     Computing kpt #:  1341  of  1951
     c_bands:  1 eigenvalues not converged
     total cpu time spent up to now is      262.1 secs

     Computing kpt #:  1342  of  1951
     c_bands:  1 eigenvalues not converged
     total cpu time spent up to now is      262.3 secs

     Computing kpt #:  1343  of  1951
     c_bands:  2 eigenvalues not converged
     total cpu time spent up to now is      262.5 secs

     Computing kpt #:  1344  of  1951
     c_bands:  2 eigenvalues not converged
     total cpu time spent up to now is      262.7 secs

     Computing kpt #:  1345  of  1951
     c_bands:  1 eigenvalues not converged
     total cpu time spent up to now is      262.9 secs

     Computing kpt #:  1346  of  1951
     total cpu time spent up to now is      263.1 secs

     Computing kpt #:  1347  of  1951
     total cpu time spent up to now is      263.3 secs

     Computing kpt #:  1348  of  1951
     total cpu time spent up to now is      263.5 secs

     Computing kpt #:  1349  of  1951
     total cpu time spent up to now is      263.6 secs

     Computing kpt #:  1350  of  1951
     total cpu time spent up to now is      263.8 secs

     Computing kpt #:  1351  of  1951
     total cpu time spent up to now is      264.0 secs

     Computing kpt #:  1352  of  1951
     total cpu time spent up to now is      264.2 secs

     Computing kpt #:  1353  of  1951
     total cpu time spent up to now is      264.3 secs

     Computing kpt #:  1354  of  1951
     total cpu time spent up to now is      264.5 secs

     Computing kpt #:  1355  of  1951
     total cpu time spent up to now is      264.7 secs

     Computing kpt #:  1356  of  1951
     total cpu time spent up to now is      264.8 secs

     Computing kpt #:  1357  of  1951
     total cpu time spent up to now is      265.0 secs

     Computing kpt #:  1358  of  1951
     total cpu time spent up to now is      265.2 secs

     Computing kpt #:  1359  of  1951
     total cpu time spent up to now is      265.3 secs

     Computing kpt #:  1360  of  1951
     total cpu time spent up to now is      265.5 secs

     Computing kpt #:  1361  of  1951
     total cpu time spent up to now is      265.7 secs

     Computing kpt #:  1362  of  1951
     c_bands:  2 eigenvalues not converged
     total cpu time spent up to now is      265.9 secs

     Computing kpt #:  1363  of  1951
     c_bands:  2 eigenvalues not converged
     total cpu time spent up to now is      266.1 secs

     Computing kpt #:  1364  of  1951
     total cpu time spent up to now is      266.3 secs

     Computing kpt #:  1365  of  1951
     total cpu time spent up to now is      266.5 secs

     Computing kpt #:  1366  of  1951
     total cpu time spent up to now is      266.7 secs

     Computing kpt #:  1367  of  1951
     total cpu time spent up to now is      266.8 secs

     Computing kpt #:  1368  of  1951
     total cpu time spent up to now is      267.0 secs

     Computing kpt #:  1369  of  1951
     total cpu time spent up to now is      267.2 secs

     Computing kpt #:  1370  of  1951
     total cpu time spent up to now is      267.4 secs

     Computing kpt #:  1371  of  1951
     total cpu time spent up to now is      267.6 secs

     Computing kpt #:  1372  of  1951
     total cpu time spent up to now is      267.7 secs

     Computing kpt #:  1373  of  1951
     total cpu time spent up to now is      267.9 secs

     Computing kpt #:  1374  of  1951
     total cpu time spent up to now is      268.1 secs

     Computing kpt #:  1375  of  1951
     total cpu time spent up to now is      269.0 secs

     Computing kpt #:  1376  of  1951
     total cpu time spent up to now is      269.2 secs

     Computing kpt #:  1377  of  1951
     total cpu time spent up to now is      269.4 secs

     Computing kpt #:  1378  of  1951
     total cpu time spent up to now is      269.5 secs

     Computing kpt #:  1379  of  1951
     total cpu time spent up to now is      269.7 secs

     Computing kpt #:  1380  of  1951
     total cpu time spent up to now is      269.9 secs

     Computing kpt #:  1381  of  1951
     total cpu time spent up to now is      270.1 secs

     Computing kpt #:  1382  of  1951
     c_bands:  1 eigenvalues not converged
     total cpu time spent up to now is      270.3 secs

     Computing kpt #:  1383  of  1951
     c_bands:  1 eigenvalues not converged
     total cpu time spent up to now is      270.5 secs

     Computing kpt #:  1384  of  1951
     c_bands:  2 eigenvalues not converged
     total cpu time spent up to now is      270.7 secs

     Computing kpt #:  1385  of  1951
     c_bands:  2 eigenvalues not converged
     total cpu time spent up to now is      270.9 secs

     Computing kpt #:  1386  of  1951
     c_bands:  1 eigenvalues not converged
     total cpu time spent up to now is      271.1 secs

     Computing kpt #:  1387  of  1951
     c_bands:  2 eigenvalues not converged
     total cpu time spent up to now is      271.3 secs

     Computing kpt #:  1388  of  1951
     c_bands:  1 eigenvalues not converged
     total cpu time spent up to now is      271.5 secs

     Computing kpt #:  1389  of  1951
     total cpu time spent up to now is      271.7 secs

     Computing kpt #:  1390  of  1951
     total cpu time spent up to now is      271.9 secs

     Computing kpt #:  1391  of  1951
     total cpu time spent up to now is      272.1 secs

     Computing kpt #:  1392  of  1951
     total cpu time spent up to now is      272.2 secs

     Computing kpt #:  1393  of  1951
     total cpu time spent up to now is      272.4 secs

     Computing kpt #:  1394  of  1951
     total cpu time spent up to now is      272.6 secs

     Computing kpt #:  1395  of  1951
     total cpu time spent up to now is      272.7 secs

     Computing kpt #:  1396  of  1951
     total cpu time spent up to now is      272.9 secs

     Computing kpt #:  1397  of  1951
     total cpu time spent up to now is      273.1 secs

     Computing kpt #:  1398  of  1951
     total cpu time spent up to now is      273.2 secs

     Computing kpt #:  1399  of  1951
     total cpu time spent up to now is      273.4 secs

     Computing kpt #:  1400  of  1951
     total cpu time spent up to now is      273.6 secs

     Computing kpt #:  1401  of  1951
     total cpu time spent up to now is      273.7 secs

     Computing kpt #:  1402  of  1951
     total cpu time spent up to now is      273.9 secs

     Computing kpt #:  1403  of  1951
     c_bands:  2 eigenvalues not converged
     total cpu time spent up to now is      274.1 secs

     Computing kpt #:  1404  of  1951
     c_bands:  2 eigenvalues not converged
     total cpu time spent up to now is      274.3 secs

     Computing kpt #:  1405  of  1951
     total cpu time spent up to now is      274.5 secs

     Computing kpt #:  1406  of  1951
     total cpu time spent up to now is      274.7 secs

     Computing kpt #:  1407  of  1951
     total cpu time spent up to now is      274.8 secs

     Computing kpt #:  1408  of  1951
     total cpu time spent up to now is      275.0 secs

     Computing kpt #:  1409  of  1951
     total cpu time spent up to now is      275.2 secs

     Computing kpt #:  1410  of  1951
     total cpu time spent up to now is      275.4 secs

     Computing kpt #:  1411  of  1951
     total cpu time spent up to now is      275.5 secs

     Computing kpt #:  1412  of  1951
     total cpu time spent up to now is      275.7 secs

     Computing kpt #:  1413  of  1951
     total cpu time spent up to now is      275.9 secs

     Computing kpt #:  1414  of  1951
     total cpu time spent up to now is      276.1 secs

     Computing kpt #:  1415  of  1951
     total cpu time spent up to now is      276.2 secs

     Computing kpt #:  1416  of  1951
     total cpu time spent up to now is      276.4 secs

     Computing kpt #:  1417  of  1951
     total cpu time spent up to now is      276.6 secs

     Computing kpt #:  1418  of  1951
     total cpu time spent up to now is      276.8 secs

     Computing kpt #:  1419  of  1951
     total cpu time spent up to now is      276.9 secs

     Computing kpt #:  1420  of  1951
     total cpu time spent up to now is      277.1 secs

     Computing kpt #:  1421  of  1951
     total cpu time spent up to now is      277.3 secs

     Computing kpt #:  1422  of  1951
     total cpu time spent up to now is      277.5 secs

     Computing kpt #:  1423  of  1951
     total cpu time spent up to now is      277.7 secs

     Computing kpt #:  1424  of  1951
     c_bands:  2 eigenvalues not converged
     total cpu time spent up to now is      277.9 secs

     Computing kpt #:  1425  of  1951
     c_bands:  2 eigenvalues not converged
     total cpu time spent up to now is      278.1 secs

     Computing kpt #:  1426  of  1951
     c_bands:  1 eigenvalues not converged
     total cpu time spent up to now is      278.3 secs

     Computing kpt #:  1427  of  1951
     c_bands:  2 eigenvalues not converged
     total cpu time spent up to now is      278.5 secs

     Computing kpt #:  1428  of  1951
     total cpu time spent up to now is      278.7 secs

     Computing kpt #:  1429  of  1951
     total cpu time spent up to now is      278.9 secs

     Computing kpt #:  1430  of  1951
     total cpu time spent up to now is      279.0 secs

     Computing kpt #:  1431  of  1951
     total cpu time spent up to now is      279.2 secs

     Computing kpt #:  1432  of  1951
     total cpu time spent up to now is      279.4 secs

     Computing kpt #:  1433  of  1951
     total cpu time spent up to now is      279.5 secs

     Computing kpt #:  1434  of  1951
     total cpu time spent up to now is      279.7 secs

     Computing kpt #:  1435  of  1951
     total cpu time spent up to now is      279.9 secs

     Computing kpt #:  1436  of  1951
     total cpu time spent up to now is      280.1 secs

     Computing kpt #:  1437  of  1951
     total cpu time spent up to now is      280.3 secs

     Computing kpt #:  1438  of  1951
     total cpu time spent up to now is      280.4 secs

     Computing kpt #:  1439  of  1951
     total cpu time spent up to now is      280.6 secs

     Computing kpt #:  1440  of  1951
     total cpu time spent up to now is      280.8 secs

     Computing kpt #:  1441  of  1951
     total cpu time spent up to now is      280.9 secs

     Computing kpt #:  1442  of  1951
     total cpu time spent up to now is      281.1 secs

     Computing kpt #:  1443  of  1951
     c_bands:  2 eigenvalues not converged
     total cpu time spent up to now is      281.3 secs

     Computing kpt #:  1444  of  1951
     c_bands:  2 eigenvalues not converged
     total cpu time spent up to now is      281.5 secs

     Computing kpt #:  1445  of  1951
     total cpu time spent up to now is      281.7 secs

     Computing kpt #:  1446  of  1951
     total cpu time spent up to now is      281.9 secs

     Computing kpt #:  1447  of  1951
     total cpu time spent up to now is      282.0 secs

     Computing kpt #:  1448  of  1951
     total cpu time spent up to now is      282.2 secs

     Computing kpt #:  1449  of  1951
     total cpu time spent up to now is      282.4 secs

     Computing kpt #:  1450  of  1951
     total cpu time spent up to now is      282.6 secs

     Computing kpt #:  1451  of  1951
     total cpu time spent up to now is      282.7 secs

     Computing kpt #:  1452  of  1951
     total cpu time spent up to now is      282.9 secs

     Computing kpt #:  1453  of  1951
     total cpu time spent up to now is      283.1 secs

     Computing kpt #:  1454  of  1951
     total cpu time spent up to now is      283.2 secs

     Computing kpt #:  1455  of  1951
     total cpu time spent up to now is      283.4 secs

     Computing kpt #:  1456  of  1951
     total cpu time spent up to now is      283.6 secs

     Computing kpt #:  1457  of  1951
     total cpu time spent up to now is      283.8 secs

     Computing kpt #:  1458  of  1951
     total cpu time spent up to now is      284.0 secs

     Computing kpt #:  1459  of  1951
     total cpu time spent up to now is      284.1 secs

     Computing kpt #:  1460  of  1951
     total cpu time spent up to now is      284.3 secs

     Computing kpt #:  1461  of  1951
     total cpu time spent up to now is      284.5 secs

     Computing kpt #:  1462  of  1951
     c_bands:  2 eigenvalues not converged
     total cpu time spent up to now is      284.7 secs

     Computing kpt #:  1463  of  1951
     c_bands:  1 eigenvalues not converged
     total cpu time spent up to now is      284.9 secs

     Computing kpt #:  1464  of  1951
     c_bands:  1 eigenvalues not converged
     total cpu time spent up to now is      285.1 secs

     Computing kpt #:  1465  of  1951
     c_bands:  1 eigenvalues not converged
     total cpu time spent up to now is      285.3 secs

     Computing kpt #:  1466  of  1951
     c_bands:  1 eigenvalues not converged
     total cpu time spent up to now is      285.5 secs

     Computing kpt #:  1467  of  1951
     c_bands:  1 eigenvalues not converged
     total cpu time spent up to now is      285.7 secs

     Computing kpt #:  1468  of  1951
     c_bands:  1 eigenvalues not converged
     total cpu time spent up to now is      285.9 secs

     Computing kpt #:  1469  of  1951
     total cpu time spent up to now is      286.1 secs

     Computing kpt #:  1470  of  1951
     total cpu time spent up to now is      286.3 secs

     Computing kpt #:  1471  of  1951
     total cpu time spent up to now is      286.4 secs

     Computing kpt #:  1472  of  1951
     total cpu time spent up to now is      286.6 secs

     Computing kpt #:  1473  of  1951
     total cpu time spent up to now is      286.8 secs

     Computing kpt #:  1474  of  1951
     total cpu time spent up to now is      287.0 secs

     Computing kpt #:  1475  of  1951
     total cpu time spent up to now is      287.1 secs

     Computing kpt #:  1476  of  1951
     total cpu time spent up to now is      287.3 secs

     Computing kpt #:  1477  of  1951
     total cpu time spent up to now is      287.5 secs

     Computing kpt #:  1478  of  1951
     total cpu time spent up to now is      287.6 secs

     Computing kpt #:  1479  of  1951
     total cpu time spent up to now is      287.8 secs

     Computing kpt #:  1480  of  1951
     total cpu time spent up to now is      288.0 secs

     Computing kpt #:  1481  of  1951
     total cpu time spent up to now is      288.2 secs

     Computing kpt #:  1482  of  1951
     c_bands:  2 eigenvalues not converged
     total cpu time spent up to now is      288.4 secs

     Computing kpt #:  1483  of  1951
     total cpu time spent up to now is      288.6 secs

     Computing kpt #:  1484  of  1951
     total cpu time spent up to now is      288.7 secs

     Computing kpt #:  1485  of  1951
     total cpu time spent up to now is      288.9 secs

     Computing kpt #:  1486  of  1951
     total cpu time spent up to now is      289.1 secs

     Computing kpt #:  1487  of  1951
     total cpu time spent up to now is      289.3 secs

     Computing kpt #:  1488  of  1951
     total cpu time spent up to now is      289.4 secs

     Computing kpt #:  1489  of  1951
     total cpu time spent up to now is      289.6 secs

     Computing kpt #:  1490  of  1951
     total cpu time spent up to now is      289.8 secs

     Computing kpt #:  1491  of  1951
     total cpu time spent up to now is      290.0 secs

     Computing kpt #:  1492  of  1951
     total cpu time spent up to now is      290.1 secs

     Computing kpt #:  1493  of  1951
     total cpu time spent up to now is      290.3 secs

     Computing kpt #:  1494  of  1951
     total cpu time spent up to now is      290.5 secs

     Computing kpt #:  1495  of  1951
     total cpu time spent up to now is      290.7 secs

     Computing kpt #:  1496  of  1951
     total cpu time spent up to now is      290.9 secs

     Computing kpt #:  1497  of  1951
     total cpu time spent up to now is      291.1 secs

     Computing kpt #:  1498  of  1951
     c_bands:  1 eigenvalues not converged
     total cpu time spent up to now is      291.3 secs

     Computing kpt #:  1499  of  1951
     c_bands:  1 eigenvalues not converged
     total cpu time spent up to now is      291.5 secs

     Computing kpt #:  1500  of  1951
     c_bands:  1 eigenvalues not converged
     total cpu time spent up to now is      291.7 secs

     Computing kpt #:  1501  of  1951
     c_bands:  1 eigenvalues not converged
     total cpu time spent up to now is      291.9 secs

     Computing kpt #:  1502  of  1951
     c_bands:  2 eigenvalues not converged
     total cpu time spent up to now is      292.1 secs

     Computing kpt #:  1503  of  1951
     c_bands:  2 eigenvalues not converged
     total cpu time spent up to now is      292.3 secs

     Computing kpt #:  1504  of  1951
     total cpu time spent up to now is      292.5 secs

     Computing kpt #:  1505  of  1951
     c_bands:  1 eigenvalues not converged
     total cpu time spent up to now is      292.7 secs

     Computing kpt #:  1506  of  1951
     total cpu time spent up to now is      292.8 secs

     Computing kpt #:  1507  of  1951
     total cpu time spent up to now is      293.0 secs

     Computing kpt #:  1508  of  1951
     total cpu time spent up to now is      293.2 secs

     Computing kpt #:  1509  of  1951
     total cpu time spent up to now is      293.4 secs

     Computing kpt #:  1510  of  1951
     total cpu time spent up to now is      293.5 secs

     Computing kpt #:  1511  of  1951
     total cpu time spent up to now is      293.7 secs

     Computing kpt #:  1512  of  1951
     total cpu time spent up to now is      294.5 secs

     Computing kpt #:  1513  of  1951
     total cpu time spent up to now is      294.7 secs

     Computing kpt #:  1514  of  1951
     total cpu time spent up to now is      294.9 secs

     Computing kpt #:  1515  of  1951
     total cpu time spent up to now is      295.1 secs

     Computing kpt #:  1516  of  1951
     total cpu time spent up to now is      295.2 secs

     Computing kpt #:  1517  of  1951
     total cpu time spent up to now is      295.4 secs

     Computing kpt #:  1518  of  1951
     c_bands:  2 eigenvalues not converged
     total cpu time spent up to now is      295.6 secs

     Computing kpt #:  1519  of  1951
     c_bands:  1 eigenvalues not converged
     total cpu time spent up to now is      295.8 secs

     Computing kpt #:  1520  of  1951
     total cpu time spent up to now is      296.0 secs

     Computing kpt #:  1521  of  1951
     total cpu time spent up to now is      296.2 secs

     Computing kpt #:  1522  of  1951
     total cpu time spent up to now is      296.4 secs

     Computing kpt #:  1523  of  1951
     total cpu time spent up to now is      296.5 secs

     Computing kpt #:  1524  of  1951
     total cpu time spent up to now is      296.7 secs

     Computing kpt #:  1525  of  1951
     total cpu time spent up to now is      296.9 secs

     Computing kpt #:  1526  of  1951
     total cpu time spent up to now is      297.1 secs

     Computing kpt #:  1527  of  1951
     total cpu time spent up to now is      297.2 secs

     Computing kpt #:  1528  of  1951
     total cpu time spent up to now is      297.4 secs

     Computing kpt #:  1529  of  1951
     total cpu time spent up to now is      297.6 secs

     Computing kpt #:  1530  of  1951
     total cpu time spent up to now is      297.8 secs

     Computing kpt #:  1531  of  1951
     total cpu time spent up to now is      297.9 secs

     Computing kpt #:  1532  of  1951
     total cpu time spent up to now is      298.1 secs

     Computing kpt #:  1533  of  1951
     total cpu time spent up to now is      298.3 secs

     Computing kpt #:  1534  of  1951
     c_bands:  1 eigenvalues not converged
     total cpu time spent up to now is      298.5 secs

     Computing kpt #:  1535  of  1951
     c_bands:  1 eigenvalues not converged
     total cpu time spent up to now is      298.7 secs

     Computing kpt #:  1536  of  1951
     c_bands:  2 eigenvalues not converged
     total cpu time spent up to now is      298.9 secs

     Computing kpt #:  1537  of  1951
     c_bands:  1 eigenvalues not converged
     total cpu time spent up to now is      299.1 secs

     Computing kpt #:  1538  of  1951
     c_bands:  1 eigenvalues not converged
     total cpu time spent up to now is      299.3 secs

     Computing kpt #:  1539  of  1951
     c_bands:  1 eigenvalues not converged
     total cpu time spent up to now is      299.5 secs

     Computing kpt #:  1540  of  1951
     total cpu time spent up to now is      299.7 secs

     Computing kpt #:  1541  of  1951
     c_bands:  2 eigenvalues not converged
     total cpu time spent up to now is      299.9 secs

     Computing kpt #:  1542  of  1951
     total cpu time spent up to now is      300.1 secs

     Computing kpt #:  1543  of  1951
     total cpu time spent up to now is      300.3 secs

     Computing kpt #:  1544  of  1951
     total cpu time spent up to now is      300.5 secs

     Computing kpt #:  1545  of  1951
     total cpu time spent up to now is      300.6 secs

     Computing kpt #:  1546  of  1951
     total cpu time spent up to now is      300.8 secs

     Computing kpt #:  1547  of  1951
     total cpu time spent up to now is      301.0 secs

     Computing kpt #:  1548  of  1951
     total cpu time spent up to now is      301.2 secs

     Computing kpt #:  1549  of  1951
     total cpu time spent up to now is      301.3 secs

     Computing kpt #:  1550  of  1951
     total cpu time spent up to now is      301.5 secs

     Computing kpt #:  1551  of  1951
     total cpu time spent up to now is      301.7 secs

     Computing kpt #:  1552  of  1951
     total cpu time spent up to now is      301.9 secs

     Computing kpt #:  1553  of  1951
     total cpu time spent up to now is      302.1 secs

     Computing kpt #:  1554  of  1951
     c_bands:  2 eigenvalues not converged
     total cpu time spent up to now is      302.3 secs

     Computing kpt #:  1555  of  1951
     total cpu time spent up to now is      302.4 secs

     Computing kpt #:  1556  of  1951
     total cpu time spent up to now is      302.6 secs

     Computing kpt #:  1557  of  1951
     total cpu time spent up to now is      302.8 secs

     Computing kpt #:  1558  of  1951
     total cpu time spent up to now is      303.0 secs

     Computing kpt #:  1559  of  1951
     total cpu time spent up to now is      303.1 secs

     Computing kpt #:  1560  of  1951
     total cpu time spent up to now is      303.3 secs

     Computing kpt #:  1561  of  1951
     total cpu time spent up to now is      303.5 secs

     Computing kpt #:  1562  of  1951
     total cpu time spent up to now is      303.7 secs

     Computing kpt #:  1563  of  1951
     total cpu time spent up to now is      303.8 secs

     Computing kpt #:  1564  of  1951
     total cpu time spent up to now is      304.0 secs

     Computing kpt #:  1565  of  1951
     total cpu time spent up to now is      304.2 secs

     Computing kpt #:  1566  of  1951
     total cpu time spent up to now is      304.4 secs

     Computing kpt #:  1567  of  1951
     total cpu time spent up to now is      304.6 secs

     Computing kpt #:  1568  of  1951
     c_bands:  1 eigenvalues not converged
     total cpu time spent up to now is      304.8 secs

     Computing kpt #:  1569  of  1951
     c_bands:  1 eigenvalues not converged
     total cpu time spent up to now is      305.0 secs

     Computing kpt #:  1570  of  1951
     total cpu time spent up to now is      305.2 secs

     Computing kpt #:  1571  of  1951
     c_bands:  1 eigenvalues not converged
     total cpu time spent up to now is      305.4 secs

     Computing kpt #:  1572  of  1951
     c_bands:  1 eigenvalues not converged
     total cpu time spent up to now is      305.6 secs

     Computing kpt #:  1573  of  1951
     c_bands:  1 eigenvalues not converged
     total cpu time spent up to now is      305.7 secs

     Computing kpt #:  1574  of  1951
     c_bands:  1 eigenvalues not converged
     total cpu time spent up to now is      305.9 secs

     Computing kpt #:  1575  of  1951
     total cpu time spent up to now is      306.1 secs

     Computing kpt #:  1576  of  1951
     total cpu time spent up to now is      306.3 secs

     Computing kpt #:  1577  of  1951
     total cpu time spent up to now is      306.5 secs

     Computing kpt #:  1578  of  1951
     total cpu time spent up to now is      306.7 secs

     Computing kpt #:  1579  of  1951
     total cpu time spent up to now is      306.8 secs

     Computing kpt #:  1580  of  1951
     total cpu time spent up to now is      307.0 secs

     Computing kpt #:  1581  of  1951
     total cpu time spent up to now is      307.2 secs

     Computing kpt #:  1582  of  1951
     total cpu time spent up to now is      307.4 secs

     Computing kpt #:  1583  of  1951
     total cpu time spent up to now is      307.5 secs

     Computing kpt #:  1584  of  1951
     total cpu time spent up to now is      307.7 secs

     Computing kpt #:  1585  of  1951
     total cpu time spent up to now is      307.9 secs

     Computing kpt #:  1586  of  1951
     total cpu time spent up to now is      308.1 secs

     Computing kpt #:  1587  of  1951
     c_bands:  1 eigenvalues not converged
     total cpu time spent up to now is      308.3 secs

     Computing kpt #:  1588  of  1951
     c_bands:  1 eigenvalues not converged
     total cpu time spent up to now is      308.5 secs

     Computing kpt #:  1589  of  1951
     total cpu time spent up to now is      308.7 secs

     Computing kpt #:  1590  of  1951
     total cpu time spent up to now is      308.8 secs

     Computing kpt #:  1591  of  1951
     total cpu time spent up to now is      309.0 secs

     Computing kpt #:  1592  of  1951
     total cpu time spent up to now is      309.2 secs

     Computing kpt #:  1593  of  1951
     total cpu time spent up to now is      309.4 secs

     Computing kpt #:  1594  of  1951
     total cpu time spent up to now is      309.5 secs

     Computing kpt #:  1595  of  1951
     total cpu time spent up to now is      309.7 secs

     Computing kpt #:  1596  of  1951
     total cpu time spent up to now is      309.9 secs

     Computing kpt #:  1597  of  1951
     total cpu time spent up to now is      310.1 secs

     Computing kpt #:  1598  of  1951
     total cpu time spent up to now is      310.2 secs

     Computing kpt #:  1599  of  1951
     total cpu time spent up to now is      310.4 secs

     Computing kpt #:  1600  of  1951
     total cpu time spent up to now is      310.6 secs

     Computing kpt #:  1601  of  1951
     total cpu time spent up to now is      310.8 secs

     Computing kpt #:  1602  of  1951
     total cpu time spent up to now is      311.0 secs

     Computing kpt #:  1603  of  1951
     c_bands:  1 eigenvalues not converged
     total cpu time spent up to now is      311.2 secs

     Computing kpt #:  1604  of  1951
     c_bands:  1 eigenvalues not converged
     total cpu time spent up to now is      311.4 secs

     Computing kpt #:  1605  of  1951
     c_bands:  1 eigenvalues not converged
     total cpu time spent up to now is      311.6 secs

     Computing kpt #:  1606  of  1951
     c_bands:  1 eigenvalues not converged
     total cpu time spent up to now is      311.8 secs

     Computing kpt #:  1607  of  1951
     c_bands:  1 eigenvalues not converged
     total cpu time spent up to now is      312.0 secs

     Computing kpt #:  1608  of  1951
     total cpu time spent up to now is      312.2 secs

     Computing kpt #:  1609  of  1951
     total cpu time spent up to now is      312.3 secs

     Computing kpt #:  1610  of  1951
     total cpu time spent up to now is      312.5 secs

     Computing kpt #:  1611  of  1951
     total cpu time spent up to now is      312.7 secs

     Computing kpt #:  1612  of  1951
     total cpu time spent up to now is      312.9 secs

     Computing kpt #:  1613  of  1951
     total cpu time spent up to now is      313.1 secs

     Computing kpt #:  1614  of  1951
     total cpu time spent up to now is      313.2 secs

     Computing kpt #:  1615  of  1951
     total cpu time spent up to now is      313.4 secs

     Computing kpt #:  1616  of  1951
     total cpu time spent up to now is      313.6 secs

     Computing kpt #:  1617  of  1951
     total cpu time spent up to now is      313.7 secs

     Computing kpt #:  1618  of  1951
     total cpu time spent up to now is      313.9 secs

     Computing kpt #:  1619  of  1951
     total cpu time spent up to now is      314.1 secs

     Computing kpt #:  1620  of  1951
     c_bands:  1 eigenvalues not converged
     total cpu time spent up to now is      314.3 secs

     Computing kpt #:  1621  of  1951
     total cpu time spent up to now is      314.5 secs

     Computing kpt #:  1622  of  1951
     total cpu time spent up to now is      314.7 secs

     Computing kpt #:  1623  of  1951
     total cpu time spent up to now is      314.8 secs

     Computing kpt #:  1624  of  1951
     total cpu time spent up to now is      315.0 secs

     Computing kpt #:  1625  of  1951
     total cpu time spent up to now is      315.2 secs

     Computing kpt #:  1626  of  1951
     total cpu time spent up to now is      315.3 secs

     Computing kpt #:  1627  of  1951
     total cpu time spent up to now is      315.5 secs

     Computing kpt #:  1628  of  1951
     total cpu time spent up to now is      315.7 secs

     Computing kpt #:  1629  of  1951
     total cpu time spent up to now is      315.9 secs

     Computing kpt #:  1630  of  1951
     total cpu time spent up to now is      316.1 secs

     Computing kpt #:  1631  of  1951
     total cpu time spent up to now is      316.3 secs

     Computing kpt #:  1632  of  1951
     total cpu time spent up to now is      316.4 secs

     Computing kpt #:  1633  of  1951
     total cpu time spent up to now is      316.6 secs

     Computing kpt #:  1634  of  1951
     c_bands:  1 eigenvalues not converged
     total cpu time spent up to now is      316.8 secs

     Computing kpt #:  1635  of  1951
     c_bands:  1 eigenvalues not converged
     total cpu time spent up to now is      317.0 secs

     Computing kpt #:  1636  of  1951
     c_bands:  1 eigenvalues not converged
     total cpu time spent up to now is      317.2 secs

     Computing kpt #:  1637  of  1951
     c_bands:  1 eigenvalues not converged
     total cpu time spent up to now is      317.4 secs

     Computing kpt #:  1638  of  1951
     c_bands:  1 eigenvalues not converged
     total cpu time spent up to now is      317.6 secs

     Computing kpt #:  1639  of  1951
     c_bands:  1 eigenvalues not converged
     total cpu time spent up to now is      317.8 secs

     Computing kpt #:  1640  of  1951
     total cpu time spent up to now is      318.0 secs

     Computing kpt #:  1641  of  1951
     total cpu time spent up to now is      318.2 secs

     Computing kpt #:  1642  of  1951
     total cpu time spent up to now is      318.4 secs

     Computing kpt #:  1643  of  1951
     total cpu time spent up to now is      318.5 secs

     Computing kpt #:  1644  of  1951
     total cpu time spent up to now is      318.7 secs

     Computing kpt #:  1645  of  1951
     total cpu time spent up to now is      318.9 secs

     Computing kpt #:  1646  of  1951
     total cpu time spent up to now is      319.1 secs

     Computing kpt #:  1647  of  1951
     total cpu time spent up to now is      319.2 secs

     Computing kpt #:  1648  of  1951
     total cpu time spent up to now is      320.1 secs

     Computing kpt #:  1649  of  1951
     total cpu time spent up to now is      320.3 secs

     Computing kpt #:  1650  of  1951
     c_bands:  1 eigenvalues not converged
     total cpu time spent up to now is      320.5 secs

     Computing kpt #:  1651  of  1951
     c_bands:  3 eigenvalues not converged
     total cpu time spent up to now is      320.7 secs

     Computing kpt #:  1652  of  1951
     total cpu time spent up to now is      320.9 secs

     Computing kpt #:  1653  of  1951
     total cpu time spent up to now is      321.1 secs

     Computing kpt #:  1654  of  1951
     total cpu time spent up to now is      321.2 secs

     Computing kpt #:  1655  of  1951
     total cpu time spent up to now is      321.4 secs

     Computing kpt #:  1656  of  1951
     total cpu time spent up to now is      321.6 secs

     Computing kpt #:  1657  of  1951
     total cpu time spent up to now is      321.8 secs

     Computing kpt #:  1658  of  1951
     total cpu time spent up to now is      321.9 secs

     Computing kpt #:  1659  of  1951
     total cpu time spent up to now is      322.1 secs

     Computing kpt #:  1660  of  1951
     total cpu time spent up to now is      322.3 secs

     Computing kpt #:  1661  of  1951
     total cpu time spent up to now is      322.5 secs

     Computing kpt #:  1662  of  1951
     total cpu time spent up to now is      322.7 secs

     Computing kpt #:  1663  of  1951
     total cpu time spent up to now is      322.9 secs

     Computing kpt #:  1664  of  1951
     total cpu time spent up to now is      323.1 secs

     Computing kpt #:  1665  of  1951
     c_bands:  1 eigenvalues not converged
     total cpu time spent up to now is      323.3 secs

     Computing kpt #:  1666  of  1951
     c_bands:  2 eigenvalues not converged
     total cpu time spent up to now is      323.5 secs

     Computing kpt #:  1667  of  1951
     c_bands:  1 eigenvalues not converged
     total cpu time spent up to now is      323.7 secs

     Computing kpt #:  1668  of  1951
     c_bands:  1 eigenvalues not converged
     total cpu time spent up to now is      323.9 secs

     Computing kpt #:  1669  of  1951
     total cpu time spent up to now is      324.1 secs

     Computing kpt #:  1670  of  1951
     total cpu time spent up to now is      324.3 secs

     Computing kpt #:  1671  of  1951
     total cpu time spent up to now is      324.5 secs

     Computing kpt #:  1672  of  1951
     total cpu time spent up to now is      324.6 secs

     Computing kpt #:  1673  of  1951
     total cpu time spent up to now is      324.8 secs

     Computing kpt #:  1674  of  1951
     total cpu time spent up to now is      325.0 secs

     Computing kpt #:  1675  of  1951
     total cpu time spent up to now is      325.2 secs

     Computing kpt #:  1676  of  1951
     total cpu time spent up to now is      325.3 secs

     Computing kpt #:  1677  of  1951
     total cpu time spent up to now is      325.5 secs

     Computing kpt #:  1678  of  1951
     total cpu time spent up to now is      325.7 secs

     Computing kpt #:  1679  of  1951
     c_bands:  1 eigenvalues not converged
     total cpu time spent up to now is      325.9 secs

     Computing kpt #:  1680  of  1951
     c_bands:  3 eigenvalues not converged
     total cpu time spent up to now is      326.1 secs

     Computing kpt #:  1681  of  1951
     total cpu time spent up to now is      326.3 secs

     Computing kpt #:  1682  of  1951
     total cpu time spent up to now is      326.4 secs

     Computing kpt #:  1683  of  1951
     total cpu time spent up to now is      326.6 secs

     Computing kpt #:  1684  of  1951
     total cpu time spent up to now is      326.8 secs

     Computing kpt #:  1685  of  1951
     total cpu time spent up to now is      327.0 secs

     Computing kpt #:  1686  of  1951
     total cpu time spent up to now is      327.1 secs

     Computing kpt #:  1687  of  1951
     total cpu time spent up to now is      327.3 secs

     Computing kpt #:  1688  of  1951
     total cpu time spent up to now is      327.5 secs

     Computing kpt #:  1689  of  1951
     total cpu time spent up to now is      327.7 secs

     Computing kpt #:  1690  of  1951
     total cpu time spent up to now is      327.9 secs

     Computing kpt #:  1691  of  1951
     total cpu time spent up to now is      328.1 secs

     Computing kpt #:  1692  of  1951
     total cpu time spent up to now is      328.3 secs

     Computing kpt #:  1693  of  1951
     total cpu time spent up to now is      328.5 secs

     Computing kpt #:  1694  of  1951
     c_bands:  1 eigenvalues not converged
     total cpu time spent up to now is      328.7 secs

     Computing kpt #:  1695  of  1951
     c_bands:  1 eigenvalues not converged
     total cpu time spent up to now is      328.9 secs

     Computing kpt #:  1696  of  1951
     c_bands:  1 eigenvalues not converged
     total cpu time spent up to now is      329.1 secs

     Computing kpt #:  1697  of  1951
     total cpu time spent up to now is      329.3 secs

     Computing kpt #:  1698  of  1951
     total cpu time spent up to now is      329.4 secs

     Computing kpt #:  1699  of  1951
     total cpu time spent up to now is      329.6 secs

     Computing kpt #:  1700  of  1951
     total cpu time spent up to now is      329.8 secs

     Computing kpt #:  1701  of  1951
     total cpu time spent up to now is      330.0 secs

     Computing kpt #:  1702  of  1951
     total cpu time spent up to now is      330.1 secs

     Computing kpt #:  1703  of  1951
     total cpu time spent up to now is      330.3 secs

     Computing kpt #:  1704  of  1951
     total cpu time spent up to now is      330.5 secs

     Computing kpt #:  1705  of  1951
     total cpu time spent up to now is      330.7 secs

     Computing kpt #:  1706  of  1951
     total cpu time spent up to now is      330.9 secs

     Computing kpt #:  1707  of  1951
     c_bands:  1 eigenvalues not converged
     total cpu time spent up to now is      331.1 secs

     Computing kpt #:  1708  of  1951
     c_bands:  1 eigenvalues not converged
     total cpu time spent up to now is      331.3 secs

     Computing kpt #:  1709  of  1951
     total cpu time spent up to now is      331.4 secs

     Computing kpt #:  1710  of  1951
     total cpu time spent up to now is      331.6 secs

     Computing kpt #:  1711  of  1951
     total cpu time spent up to now is      331.8 secs

     Computing kpt #:  1712  of  1951
     total cpu time spent up to now is      331.9 secs

     Computing kpt #:  1713  of  1951
     total cpu time spent up to now is      332.1 secs

     Computing kpt #:  1714  of  1951
     total cpu time spent up to now is      332.3 secs

     Computing kpt #:  1715  of  1951
     total cpu time spent up to now is      332.5 secs

     Computing kpt #:  1716  of  1951
     total cpu time spent up to now is      332.7 secs

     Computing kpt #:  1717  of  1951
     total cpu time spent up to now is      332.8 secs

     Computing kpt #:  1718  of  1951
     total cpu time spent up to now is      333.0 secs

     Computing kpt #:  1719  of  1951
     c_bands:  1 eigenvalues not converged
     total cpu time spent up to now is      333.2 secs

     Computing kpt #:  1720  of  1951
     c_bands:  1 eigenvalues not converged
     total cpu time spent up to now is      333.4 secs

     Computing kpt #:  1721  of  1951
     c_bands:  1 eigenvalues not converged
     total cpu time spent up to now is      333.6 secs

     Computing kpt #:  1722  of  1951
     c_bands:  1 eigenvalues not converged
     total cpu time spent up to now is      333.8 secs

     Computing kpt #:  1723  of  1951
     c_bands:  1 eigenvalues not converged
     total cpu time spent up to now is      334.0 secs

     Computing kpt #:  1724  of  1951
     total cpu time spent up to now is      334.2 secs

     Computing kpt #:  1725  of  1951
     total cpu time spent up to now is      334.4 secs

     Computing kpt #:  1726  of  1951
     total cpu time spent up to now is      334.6 secs

     Computing kpt #:  1727  of  1951
     total cpu time spent up to now is      334.8 secs

     Computing kpt #:  1728  of  1951
     total cpu time spent up to now is      335.0 secs

     Computing kpt #:  1729  of  1951
     total cpu time spent up to now is      335.1 secs

     Computing kpt #:  1730  of  1951
     total cpu time spent up to now is      335.3 secs

     Computing kpt #:  1731  of  1951
     total cpu time spent up to now is      335.5 secs

     Computing kpt #:  1732  of  1951
     total cpu time spent up to now is      335.7 secs

     Computing kpt #:  1733  of  1951
     c_bands:  1 eigenvalues not converged
     total cpu time spent up to now is      335.8 secs

     Computing kpt #:  1734  of  1951
     c_bands:  1 eigenvalues not converged
     total cpu time spent up to now is      336.0 secs

     Computing kpt #:  1735  of  1951
     total cpu time spent up to now is      336.2 secs

     Computing kpt #:  1736  of  1951
     total cpu time spent up to now is      336.4 secs

     Computing kpt #:  1737  of  1951
     total cpu time spent up to now is      336.6 secs

     Computing kpt #:  1738  of  1951
     total cpu time spent up to now is      336.7 secs

     Computing kpt #:  1739  of  1951
     total cpu time spent up to now is      336.9 secs

     Computing kpt #:  1740  of  1951
     total cpu time spent up to now is      337.1 secs

     Computing kpt #:  1741  of  1951
     total cpu time spent up to now is      337.3 secs

     Computing kpt #:  1742  of  1951
     total cpu time spent up to now is      337.5 secs

     Computing kpt #:  1743  of  1951
     total cpu time spent up to now is      337.7 secs

     Computing kpt #:  1744  of  1951
     total cpu time spent up to now is      337.9 secs

     Computing kpt #:  1745  of  1951
     c_bands:  1 eigenvalues not converged
     total cpu time spent up to now is      338.1 secs

     Computing kpt #:  1746  of  1951
     c_bands:  2 eigenvalues not converged
     total cpu time spent up to now is      338.3 secs

     Computing kpt #:  1747  of  1951
     c_bands:  1 eigenvalues not converged
     total cpu time spent up to now is      338.5 secs

     Computing kpt #:  1748  of  1951
     c_bands:  1 eigenvalues not converged
     total cpu time spent up to now is      338.7 secs

     Computing kpt #:  1749  of  1951
     c_bands:  1 eigenvalues not converged
     total cpu time spent up to now is      338.9 secs

     Computing kpt #:  1750  of  1951
     total cpu time spent up to now is      339.1 secs

     Computing kpt #:  1751  of  1951
     total cpu time spent up to now is      339.2 secs

     Computing kpt #:  1752  of  1951
     total cpu time spent up to now is      339.4 secs

     Computing kpt #:  1753  of  1951
     total cpu time spent up to now is      339.6 secs

     Computing kpt #:  1754  of  1951
     total cpu time spent up to now is      339.8 secs

     Computing kpt #:  1755  of  1951
     total cpu time spent up to now is      340.0 secs

     Computing kpt #:  1756  of  1951
     total cpu time spent up to now is      340.2 secs

     Computing kpt #:  1757  of  1951
     c_bands:  2 eigenvalues not converged
     total cpu time spent up to now is      340.4 secs

     Computing kpt #:  1758  of  1951
     total cpu time spent up to now is      340.5 secs

     Computing kpt #:  1759  of  1951
     c_bands:  2 eigenvalues not converged
     total cpu time spent up to now is      340.7 secs

     Computing kpt #:  1760  of  1951
     total cpu time spent up to now is      340.9 secs

     Computing kpt #:  1761  of  1951
     total cpu time spent up to now is      341.1 secs

     Computing kpt #:  1762  of  1951
     total cpu time spent up to now is      341.3 secs

     Computing kpt #:  1763  of  1951
     total cpu time spent up to now is      341.5 secs

     Computing kpt #:  1764  of  1951
     total cpu time spent up to now is      341.6 secs

     Computing kpt #:  1765  of  1951
     total cpu time spent up to now is      341.8 secs

     Computing kpt #:  1766  of  1951
     total cpu time spent up to now is      342.0 secs

     Computing kpt #:  1767  of  1951
     c_bands:  1 eigenvalues not converged
     total cpu time spent up to now is      342.2 secs

     Computing kpt #:  1768  of  1951
     total cpu time spent up to now is      342.4 secs

     Computing kpt #:  1769  of  1951
     c_bands:  1 eigenvalues not converged
     total cpu time spent up to now is      342.6 secs

     Computing kpt #:  1770  of  1951
     c_bands:  1 eigenvalues not converged
     total cpu time spent up to now is      342.8 secs

     Computing kpt #:  1771  of  1951
     c_bands:  1 eigenvalues not converged
     total cpu time spent up to now is      343.0 secs

     Computing kpt #:  1772  of  1951
     c_bands:  1 eigenvalues not converged
     total cpu time spent up to now is      343.2 secs

     Computing kpt #:  1773  of  1951
     c_bands:  1 eigenvalues not converged
     total cpu time spent up to now is      343.4 secs

     Computing kpt #:  1774  of  1951
     c_bands:  1 eigenvalues not converged
     total cpu time spent up to now is      343.6 secs

     Computing kpt #:  1775  of  1951
     total cpu time spent up to now is      343.8 secs

     Computing kpt #:  1776  of  1951
     total cpu time spent up to now is      344.0 secs

     Computing kpt #:  1777  of  1951
     total cpu time spent up to now is      344.1 secs

     Computing kpt #:  1778  of  1951
     total cpu time spent up to now is      344.3 secs

     Computing kpt #:  1779  of  1951
     total cpu time spent up to now is      344.5 secs

     Computing kpt #:  1780  of  1951
     total cpu time spent up to now is      344.7 secs

     Computing kpt #:  1781  of  1951
     total cpu time spent up to now is      344.9 secs

     Computing kpt #:  1782  of  1951
     c_bands:  2 eigenvalues not converged
     total cpu time spent up to now is      345.7 secs

     Computing kpt #:  1783  of  1951
     total cpu time spent up to now is      345.9 secs

     Computing kpt #:  1784  of  1951
     total cpu time spent up to now is      346.1 secs

     Computing kpt #:  1785  of  1951
     total cpu time spent up to now is      346.2 secs

     Computing kpt #:  1786  of  1951
     total cpu time spent up to now is      346.4 secs

     Computing kpt #:  1787  of  1951
     total cpu time spent up to now is      346.6 secs

     Computing kpt #:  1788  of  1951
     total cpu time spent up to now is      346.8 secs

     Computing kpt #:  1789  of  1951
     total cpu time spent up to now is      347.0 secs

     Computing kpt #:  1790  of  1951
     total cpu time spent up to now is      347.2 secs

     Computing kpt #:  1791  of  1951
     c_bands:  1 eigenvalues not converged
     total cpu time spent up to now is      347.4 secs

     Computing kpt #:  1792  of  1951
     c_bands:  1 eigenvalues not converged
     total cpu time spent up to now is      347.6 secs

     Computing kpt #:  1793  of  1951
     c_bands:  1 eigenvalues not converged
     total cpu time spent up to now is      347.8 secs

     Computing kpt #:  1794  of  1951
     c_bands:  1 eigenvalues not converged
     total cpu time spent up to now is      348.0 secs

     Computing kpt #:  1795  of  1951
     c_bands:  1 eigenvalues not converged
     total cpu time spent up to now is      348.2 secs

     Computing kpt #:  1796  of  1951
     total cpu time spent up to now is      348.3 secs

     Computing kpt #:  1797  of  1951
     total cpu time spent up to now is      348.5 secs

     Computing kpt #:  1798  of  1951
     total cpu time spent up to now is      348.7 secs

     Computing kpt #:  1799  of  1951
     total cpu time spent up to now is      348.8 secs

     Computing kpt #:  1800  of  1951
     total cpu time spent up to now is      349.0 secs

     Computing kpt #:  1801  of  1951
     total cpu time spent up to now is      349.2 secs

     Computing kpt #:  1802  of  1951
     total cpu time spent up to now is      349.4 secs

     Computing kpt #:  1803  of  1951
     c_bands:  2 eigenvalues not converged
     total cpu time spent up to now is      349.6 secs

     Computing kpt #:  1804  of  1951
     c_bands:  2 eigenvalues not converged
     total cpu time spent up to now is      349.8 secs

     Computing kpt #:  1805  of  1951
     total cpu time spent up to now is      350.0 secs

     Computing kpt #:  1806  of  1951
     total cpu time spent up to now is      350.2 secs

     Computing kpt #:  1807  of  1951
     total cpu time spent up to now is      350.4 secs

     Computing kpt #:  1808  of  1951
     total cpu time spent up to now is      350.5 secs

     Computing kpt #:  1809  of  1951
     total cpu time spent up to now is      350.7 secs

     Computing kpt #:  1810  of  1951
     total cpu time spent up to now is      350.9 secs

     Computing kpt #:  1811  of  1951
     c_bands:  1 eigenvalues not converged
     total cpu time spent up to now is      351.1 secs

     Computing kpt #:  1812  of  1951
     c_bands:  1 eigenvalues not converged
     total cpu time spent up to now is      351.3 secs

     Computing kpt #:  1813  of  1951
     c_bands:  1 eigenvalues not converged
     total cpu time spent up to now is      351.5 secs

     Computing kpt #:  1814  of  1951
     c_bands:  1 eigenvalues not converged
     total cpu time spent up to now is      351.7 secs

     Computing kpt #:  1815  of  1951
     c_bands:  1 eigenvalues not converged
     total cpu time spent up to now is      351.9 secs

     Computing kpt #:  1816  of  1951
     c_bands:  1 eigenvalues not converged
     total cpu time spent up to now is      352.1 secs

     Computing kpt #:  1817  of  1951
     total cpu time spent up to now is      352.3 secs

     Computing kpt #:  1818  of  1951
     total cpu time spent up to now is      352.5 secs

     Computing kpt #:  1819  of  1951
     total cpu time spent up to now is      352.7 secs

     Computing kpt #:  1820  of  1951
     c_bands:  1 eigenvalues not converged
     total cpu time spent up to now is      352.8 secs

     Computing kpt #:  1821  of  1951
     total cpu time spent up to now is      353.0 secs

     Computing kpt #:  1822  of  1951
     total cpu time spent up to now is      353.2 secs

     Computing kpt #:  1823  of  1951
     c_bands:  2 eigenvalues not converged
     total cpu time spent up to now is      353.4 secs

     Computing kpt #:  1824  of  1951
     c_bands:  2 eigenvalues not converged
     total cpu time spent up to now is      353.6 secs

     Computing kpt #:  1825  of  1951
     total cpu time spent up to now is      353.8 secs

     Computing kpt #:  1826  of  1951
     total cpu time spent up to now is      354.0 secs

     Computing kpt #:  1827  of  1951
     total cpu time spent up to now is      354.2 secs

     Computing kpt #:  1828  of  1951
     total cpu time spent up to now is      354.4 secs

     Computing kpt #:  1829  of  1951
     total cpu time spent up to now is      354.5 secs

     Computing kpt #:  1830  of  1951
     c_bands:  1 eigenvalues not converged
     total cpu time spent up to now is      354.7 secs

     Computing kpt #:  1831  of  1951
     c_bands:  1 eigenvalues not converged
     total cpu time spent up to now is      354.9 secs

     Computing kpt #:  1832  of  1951
     c_bands:  1 eigenvalues not converged
     total cpu time spent up to now is      355.1 secs

     Computing kpt #:  1833  of  1951
     c_bands:  1 eigenvalues not converged
     total cpu time spent up to now is      355.3 secs

     Computing kpt #:  1834  of  1951
     c_bands:  1 eigenvalues not converged
     total cpu time spent up to now is      355.5 secs

     Computing kpt #:  1835  of  1951
     c_bands:  1 eigenvalues not converged
     total cpu time spent up to now is      355.7 secs

     Computing kpt #:  1836  of  1951
     c_bands:  1 eigenvalues not converged
     total cpu time spent up to now is      355.9 secs

     Computing kpt #:  1837  of  1951
     total cpu time spent up to now is      356.1 secs

     Computing kpt #:  1838  of  1951
     total cpu time spent up to now is      356.3 secs

     Computing kpt #:  1839  of  1951
     total cpu time spent up to now is      356.5 secs

     Computing kpt #:  1840  of  1951
     total cpu time spent up to now is      356.7 secs

     Computing kpt #:  1841  of  1951
     c_bands:  1 eigenvalues not converged
     total cpu time spent up to now is      356.8 secs

     Computing kpt #:  1842  of  1951
     c_bands:  2 eigenvalues not converged
     total cpu time spent up to now is      357.0 secs

     Computing kpt #:  1843  of  1951
     c_bands:  2 eigenvalues not converged
     total cpu time spent up to now is      357.2 secs

     Computing kpt #:  1844  of  1951
     total cpu time spent up to now is      357.4 secs

     Computing kpt #:  1845  of  1951
     total cpu time spent up to now is      357.6 secs

     Computing kpt #:  1846  of  1951
     total cpu time spent up to now is      357.8 secs

     Computing kpt #:  1847  of  1951
     total cpu time spent up to now is      358.0 secs

     Computing kpt #:  1848  of  1951
     c_bands:  1 eigenvalues not converged
     total cpu time spent up to now is      358.2 secs

     Computing kpt #:  1849  of  1951
     c_bands:  1 eigenvalues not converged
     total cpu time spent up to now is      358.4 secs

     Computing kpt #:  1850  of  1951
     c_bands:  1 eigenvalues not converged
     total cpu time spent up to now is      358.6 secs

     Computing kpt #:  1851  of  1951
     c_bands:  1 eigenvalues not converged
     total cpu time spent up to now is      358.8 secs

     Computing kpt #:  1852  of  1951
     c_bands:  1 eigenvalues not converged
     total cpu time spent up to now is      358.9 secs

     Computing kpt #:  1853  of  1951
     c_bands:  1 eigenvalues not converged
     total cpu time spent up to now is      359.1 secs

     Computing kpt #:  1854  of  1951
     c_bands:  1 eigenvalues not converged
     total cpu time spent up to now is      359.3 secs

     Computing kpt #:  1855  of  1951
     c_bands:  1 eigenvalues not converged
     total cpu time spent up to now is      359.5 secs

     Computing kpt #:  1856  of  1951
     total cpu time spent up to now is      359.7 secs

     Computing kpt #:  1857  of  1951
     c_bands:  1 eigenvalues not converged
     total cpu time spent up to now is      359.9 secs

     Computing kpt #:  1858  of  1951
     c_bands:  1 eigenvalues not converged
     total cpu time spent up to now is      360.1 secs

     Computing kpt #:  1859  of  1951
     c_bands:  2 eigenvalues not converged
     total cpu time spent up to now is      360.3 secs

     Computing kpt #:  1860  of  1951
     c_bands:  2 eigenvalues not converged
     total cpu time spent up to now is      360.5 secs

     Computing kpt #:  1861  of  1951
     total cpu time spent up to now is      360.7 secs

     Computing kpt #:  1862  of  1951
     total cpu time spent up to now is      360.9 secs

     Computing kpt #:  1863  of  1951
     c_bands:  1 eigenvalues not converged
     total cpu time spent up to now is      361.1 secs

     Computing kpt #:  1864  of  1951
     c_bands:  1 eigenvalues not converged
     total cpu time spent up to now is      361.3 secs

     Computing kpt #:  1865  of  1951
     c_bands:  1 eigenvalues not converged
     total cpu time spent up to now is      361.5 secs

     Computing kpt #:  1866  of  1951
     c_bands:  1 eigenvalues not converged
     total cpu time spent up to now is      361.7 secs

     Computing kpt #:  1867  of  1951
     c_bands:  1 eigenvalues not converged
     total cpu time spent up to now is      361.9 secs

     Computing kpt #:  1868  of  1951
     c_bands:  1 eigenvalues not converged
     total cpu time spent up to now is      362.1 secs

     Computing kpt #:  1869  of  1951
     c_bands:  1 eigenvalues not converged
     total cpu time spent up to now is      362.2 secs

     Computing kpt #:  1870  of  1951
     c_bands:  1 eigenvalues not converged
     total cpu time spent up to now is      362.4 secs

     Computing kpt #:  1871  of  1951
     c_bands:  1 eigenvalues not converged
     total cpu time spent up to now is      362.6 secs

     Computing kpt #:  1872  of  1951
     c_bands:  1 eigenvalues not converged
     total cpu time spent up to now is      362.8 secs

     Computing kpt #:  1873  of  1951
     c_bands:  1 eigenvalues not converged
     total cpu time spent up to now is      363.0 secs

     Computing kpt #:  1874  of  1951
     c_bands:  1 eigenvalues not converged
     total cpu time spent up to now is      363.2 secs

     Computing kpt #:  1875  of  1951
     c_bands:  2 eigenvalues not converged
     total cpu time spent up to now is      363.4 secs

     Computing kpt #:  1876  of  1951
     c_bands:  2 eigenvalues not converged
     total cpu time spent up to now is      363.6 secs

     Computing kpt #:  1877  of  1951
     total cpu time spent up to now is      363.8 secs

     Computing kpt #:  1878  of  1951
     c_bands:  1 eigenvalues not converged
     total cpu time spent up to now is      364.0 secs

     Computing kpt #:  1879  of  1951
     c_bands:  1 eigenvalues not converged
     total cpu time spent up to now is      364.2 secs

     Computing kpt #:  1880  of  1951
     c_bands:  1 eigenvalues not converged
     total cpu time spent up to now is      364.4 secs

     Computing kpt #:  1881  of  1951
     c_bands:  1 eigenvalues not converged
     total cpu time spent up to now is      364.6 secs

     Computing kpt #:  1882  of  1951
     c_bands:  1 eigenvalues not converged
     total cpu time spent up to now is      364.8 secs

     Computing kpt #:  1883  of  1951
     c_bands:  1 eigenvalues not converged
     total cpu time spent up to now is      365.0 secs

     Computing kpt #:  1884  of  1951
     c_bands:  1 eigenvalues not converged
     total cpu time spent up to now is      365.2 secs

     Computing kpt #:  1885  of  1951
     c_bands:  1 eigenvalues not converged
     total cpu time spent up to now is      365.4 secs

     Computing kpt #:  1886  of  1951
     c_bands:  1 eigenvalues not converged
     total cpu time spent up to now is      365.6 secs

     Computing kpt #:  1887  of  1951
     c_bands:  1 eigenvalues not converged
     total cpu time spent up to now is      365.7 secs

     Computing kpt #:  1888  of  1951
     c_bands:  1 eigenvalues not converged
     total cpu time spent up to now is      365.9 secs

     Computing kpt #:  1889  of  1951
     c_bands:  2 eigenvalues not converged
     total cpu time spent up to now is      366.1 secs

     Computing kpt #:  1890  of  1951
     c_bands:  2 eigenvalues not converged
     total cpu time spent up to now is      366.3 secs

     Computing kpt #:  1891  of  1951
     total cpu time spent up to now is      366.5 secs

     Computing kpt #:  1892  of  1951
     c_bands:  1 eigenvalues not converged
     total cpu time spent up to now is      366.7 secs

     Computing kpt #:  1893  of  1951
     c_bands:  1 eigenvalues not converged
     total cpu time spent up to now is      366.9 secs

     Computing kpt #:  1894  of  1951
     c_bands:  1 eigenvalues not converged
     total cpu time spent up to now is      367.1 secs

     Computing kpt #:  1895  of  1951
     c_bands:  1 eigenvalues not converged
     total cpu time spent up to now is      367.3 secs

     Computing kpt #:  1896  of  1951
     c_bands:  1 eigenvalues not converged
     total cpu time spent up to now is      367.5 secs

     Computing kpt #:  1897  of  1951
     c_bands:  1 eigenvalues not converged
     total cpu time spent up to now is      367.7 secs

     Computing kpt #:  1898  of  1951
     c_bands:  1 eigenvalues not converged
     total cpu time spent up to now is      367.9 secs

     Computing kpt #:  1899  of  1951
     c_bands:  1 eigenvalues not converged
     total cpu time spent up to now is      368.1 secs

     Computing kpt #:  1900  of  1951
     c_bands:  1 eigenvalues not converged
     total cpu time spent up to now is      368.3 secs

     Computing kpt #:  1901  of  1951
     c_bands:  2 eigenvalues not converged
     total cpu time spent up to now is      368.5 secs

     Computing kpt #:  1902  of  1951
     c_bands:  2 eigenvalues not converged
     total cpu time spent up to now is      368.7 secs

     Computing kpt #:  1903  of  1951
     c_bands:  2 eigenvalues not converged
     total cpu time spent up to now is      368.9 secs

     Computing kpt #:  1904  of  1951
     c_bands:  1 eigenvalues not converged
     total cpu time spent up to now is      369.0 secs

     Computing kpt #:  1905  of  1951
     c_bands:  1 eigenvalues not converged
     total cpu time spent up to now is      369.2 secs

     Computing kpt #:  1906  of  1951
     c_bands:  1 eigenvalues not converged
     total cpu time spent up to now is      369.4 secs

     Computing kpt #:  1907  of  1951
     c_bands:  1 eigenvalues not converged
     total cpu time spent up to now is      369.6 secs

     Computing kpt #:  1908  of  1951
     c_bands:  1 eigenvalues not converged
     total cpu time spent up to now is      369.8 secs

     Computing kpt #:  1909  of  1951
     c_bands:  1 eigenvalues not converged
     total cpu time spent up to now is      370.0 secs

     Computing kpt #:  1910  of  1951
     c_bands:  1 eigenvalues not converged
     total cpu time spent up to now is      370.2 secs

     Computing kpt #:  1911  of  1951
     c_bands:  1 eigenvalues not converged
     total cpu time spent up to now is      370.4 secs

     Computing kpt #:  1912  of  1951
     c_bands:  1 eigenvalues not converged
     total cpu time spent up to now is      371.3 secs

     Computing kpt #:  1913  of  1951
     c_bands:  1 eigenvalues not converged
     total cpu time spent up to now is      371.5 secs

     Computing kpt #:  1914  of  1951
     c_bands:  2 eigenvalues not converged
     total cpu time spent up to now is      371.7 secs

     Computing kpt #:  1915  of  1951
     c_bands:  1 eigenvalues not converged
     total cpu time spent up to now is      371.9 secs

     Computing kpt #:  1916  of  1951
     c_bands:  1 eigenvalues not converged
     total cpu time spent up to now is      372.1 secs

     Computing kpt #:  1917  of  1951
     c_bands:  1 eigenvalues not converged
     total cpu time spent up to now is      372.2 secs

     Computing kpt #:  1918  of  1951
     c_bands:  1 eigenvalues not converged
     total cpu time spent up to now is      372.4 secs

     Computing kpt #:  1919  of  1951
     c_bands:  1 eigenvalues not converged
     total cpu time spent up to now is      372.6 secs

     Computing kpt #:  1920  of  1951
     c_bands:  1 eigenvalues not converged
     total cpu time spent up to now is      372.8 secs

     Computing kpt #:  1921  of  1951
     c_bands:  1 eigenvalues not converged
     total cpu time spent up to now is      373.0 secs

     Computing kpt #:  1922  of  1951
     c_bands:  1 eigenvalues not converged
     total cpu time spent up to now is      373.2 secs

     Computing kpt #:  1923  of  1951
     c_bands:  2 eigenvalues not converged
     total cpu time spent up to now is      373.4 secs

     Computing kpt #:  1924  of  1951
     c_bands:  2 eigenvalues not converged
     total cpu time spent up to now is      373.6 secs

     Computing kpt #:  1925  of  1951
     c_bands:  1 eigenvalues not converged
     total cpu time spent up to now is      373.8 secs

     Computing kpt #:  1926  of  1951
     c_bands:  1 eigenvalues not converged
     total cpu time spent up to now is      374.0 secs

     Computing kpt #:  1927  of  1951
     c_bands:  1 eigenvalues not converged
     total cpu time spent up to now is      374.2 secs

     Computing kpt #:  1928  of  1951
     c_bands:  1 eigenvalues not converged
     total cpu time spent up to now is      374.4 secs

     Computing kpt #:  1929  of  1951
     c_bands:  1 eigenvalues not converged
     total cpu time spent up to now is      374.6 secs

     Computing kpt #:  1930  of  1951
     c_bands:  1 eigenvalues not converged
     total cpu time spent up to now is      374.8 secs

     Computing kpt #:  1931  of  1951
     c_bands:  2 eigenvalues not converged
     total cpu time spent up to now is      375.0 secs

     Computing kpt #:  1932  of  1951
     c_bands:  2 eigenvalues not converged
     total cpu time spent up to now is      375.1 secs

     Computing kpt #:  1933  of  1951
     c_bands:  1 eigenvalues not converged
     total cpu time spent up to now is      375.3 secs

     Computing kpt #:  1934  of  1951
     c_bands:  1 eigenvalues not converged
     total cpu time spent up to now is      375.5 secs

     Computing kpt #:  1935  of  1951
     c_bands:  1 eigenvalues not converged
     total cpu time spent up to now is      375.7 secs

     Computing kpt #:  1936  of  1951
     c_bands:  1 eigenvalues not converged
     total cpu time spent up to now is      375.9 secs

     Computing kpt #:  1937  of  1951
     c_bands:  1 eigenvalues not converged
     total cpu time spent up to now is      376.1 secs

     Computing kpt #:  1938  of  1951
     c_bands:  2 eigenvalues not converged
     total cpu time spent up to now is      376.3 secs

     Computing kpt #:  1939  of  1951
     c_bands:  2 eigenvalues not converged
     total cpu time spent up to now is      376.5 secs

     Computing kpt #:  1940  of  1951
     c_bands:  1 eigenvalues not converged
     total cpu time spent up to now is      376.7 secs

     Computing kpt #:  1941  of  1951
     c_bands:  1 eigenvalues not converged
     total cpu time spent up to now is      376.9 secs

     Computing kpt #:  1942  of  1951
     c_bands:  1 eigenvalues not converged
     total cpu time spent up to now is      377.1 secs

     Computing kpt #:  1943  of  1951
     c_bands:  2 eigenvalues not converged
     total cpu time spent up to now is      377.3 secs

     Computing kpt #:  1944  of  1951
     c_bands:  2 eigenvalues not converged
     total cpu time spent up to now is      377.5 secs

     Computing kpt #:  1945  of  1951
     c_bands:  1 eigenvalues not converged
     total cpu time spent up to now is      377.7 secs

     Computing kpt #:  1946  of  1951
     c_bands:  2 eigenvalues not converged
     total cpu time spent up to now is      377.9 secs

     Computing kpt #:  1947  of  1951
     c_bands:  2 eigenvalues not converged
     total cpu time spent up to now is      378.1 secs

     Computing kpt #:  1948  of  1951
     c_bands:  2 eigenvalues not converged
     total cpu time spent up to now is      378.3 secs

     Computing kpt #:  1949  of  1951
     c_bands:  2 eigenvalues not converged
     total cpu time spent up to now is      378.5 secs

     Computing kpt #:  1950  of  1951
     c_bands:  2 eigenvalues not converged
     total cpu time spent up to now is      378.7 secs

     Computing kpt #:  1951  of  1951
     c_bands:  2 eigenvalues not converged
     total cpu time spent up to now is      378.9 secs

     ethr =  1.25E-10,  avg # of iterations =107.4

     total cpu time spent up to now is      378.9 secs

     End of band structure calculation

          k = 0.0000 0.0000 0.0000 (  5163 PWs)   bands (ev):

   -21.4134  -9.7229  -4.9419  -4.9419   1.4033   2.4492   2.8432   4.7344

     occupation numbers 
     1.0000   1.0000   1.0000   1.0000   0.0000   0.0000   0.0000   0.0000

          k = 0.0000 0.0077 0.0000 (  5157 PWs)   bands (ev):

   -21.4124  -9.7216  -4.9462  -4.9442   1.4048   2.4507   2.8447   4.7358

     occupation numbers 
     1.0000   1.0000   1.0000   1.0000   0.0000   0.0000   0.0000   0.0000

          k = 0.0000 0.0154 0.0000 (  5157 PWs)   bands (ev):

   -21.4092  -9.7178  -4.9591  -4.9514   1.4091   2.4551   2.8491   4.7402

     occupation numbers 
     1.0000   1.0000   1.0000   1.0000   0.0000   0.0000   0.0000   0.0000

          k = 0.0000 0.0231 0.0000 (  5149 PWs)   bands (ev):

   -21.4039  -9.7114  -4.9806  -4.9632   1.4163   2.4624   2.8565   4.7474

     occupation numbers 
     1.0000   1.0000   1.0000   1.0000   0.0000   0.0000   0.0000   0.0000

          k = 0.0000 0.0308 0.0000 (  5149 PWs)   bands (ev):

   -21.3965  -9.7024  -5.0105  -4.9797   1.4263   2.4726   2.8668   4.7576

     occupation numbers 
     1.0000   1.0000   1.0000   1.0000   0.0000   0.0000   0.0000   0.0000

          k = 0.0000 0.0385 0.0000 (  5141 PWs)   bands (ev):

   -21.3870  -9.6908  -5.0489  -5.0007   1.4393   2.4857   2.8801   4.7706

     occupation numbers 
     1.0000   1.0000   1.0000   1.0000   0.0000   0.0000   0.0000   0.0000

          k = 0.0000 0.0462 0.0000 (  5145 PWs)   bands (ev):

   -21.3753  -9.6767  -5.0954  -5.0262   1.4551   2.5017   2.8963   4.7865

     occupation numbers 
     1.0000   1.0000   1.0000   1.0000   0.0000   0.0000   0.0000   0.0000

          k = 0.0000 0.0539 0.0000 (  5145 PWs)   bands (ev):

   -21.3616  -9.6600  -5.1499  -5.0560   1.4738   2.5207   2.9155   4.8054

     occupation numbers 
     1.0000   1.0000   1.0000   1.0000   0.0000   0.0000   0.0000   0.0000

          k = 0.0000 0.0616 0.0000 (  5137 PWs)   bands (ev):

   -21.3457  -9.6408  -5.2123  -5.0899   1.4954   2.5426   2.9377   4.8271

     occupation numbers 
     1.0000   1.0000   1.0000   1.0000   0.0000   0.0000   0.0000   0.0000

          k = 0.0000 0.0693 0.0000 (  5141 PWs)   bands (ev):

   -21.3277  -9.6190  -5.2822  -5.1277   1.5199   2.5674   2.9628   4.8517

     occupation numbers 
     1.0000   1.0000   1.0000   1.0000   0.0000   0.0000   0.0000   0.0000

          k = 0.0000 0.0770 0.0000 (  5145 PWs)   bands (ev):

   -21.3076  -9.5947  -5.3595  -5.1693   1.5472   2.5951   2.9908   4.8792

     occupation numbers 
     1.0000   1.0000   1.0000   1.0000   0.0000   0.0000   0.0000   0.0000

          k = 0.0000 0.0847 0.0000 (  5153 PWs)   bands (ev):

   -21.2854  -9.5678  -5.4439  -5.2145   1.5774   2.6257   3.0218   4.9096

     occupation numbers 
     1.0000   1.0000   1.0000   1.0000   0.0000   0.0000   0.0000   0.0000

          k = 0.0000 0.0924 0.0000 (  5145 PWs)   bands (ev):

   -21.2611  -9.5384  -5.5351  -5.2631   1.6105   2.6592   3.0557   4.9429

     occupation numbers 
     1.0000   1.0000   1.0000   1.0000   0.0000   0.0000   0.0000   0.0000

          k = 0.0000 0.1001 0.0000 (  5149 PWs)   bands (ev):

   -21.2347  -9.5064  -5.6328  -5.3147   1.6465   2.6956   3.0926   4.9790

     occupation numbers 
     1.0000   1.0000   1.0000   1.0000   0.0000   0.0000   0.0000   0.0000

          k = 0.0000 0.1078 0.0000 (  5157 PWs)   bands (ev):

   -21.2062  -9.4719  -5.7368  -5.3693   1.6854   2.7349   3.1325   5.0181

     occupation numbers 
     1.0000   1.0000   1.0000   1.0000   0.0000   0.0000   0.0000   0.0000

          k = 0.0000 0.1155 0.0000 (  5155 PWs)   bands (ev):

   -21.1756  -9.4349  -5.8466  -5.4265   1.7271   2.7772   3.1753   5.0600

     occupation numbers 
     1.0000   1.0000   1.0000   1.0000   0.0000   0.0000   0.0000   0.0000

          k = 0.0000 0.1232 0.0000 (  5153 PWs)   bands (ev):

   -21.1429  -9.3953  -5.9621  -5.4862   1.7718   2.8223   3.2211   5.1048

     occupation numbers 
     1.0000   1.0000   1.0000   1.0000   0.0000   0.0000   0.0000   0.0000

          k = 0.0000 0.1309 0.0000 (  5151 PWs)   bands (ev):

   -21.1081  -9.3532  -6.0829  -5.5482   1.8193   2.8703   3.2698   5.1524

     occupation numbers 
     1.0000   1.0000   1.0000   1.0000   0.0000   0.0000   0.0000   0.0000

          k = 0.0000 0.1386 0.0000 (  5155 PWs)   bands (ev):

   -21.0712  -9.3087  -6.2088  -5.6121   1.8696   2.9212   3.3215   5.2030

     occupation numbers 
     1.0000   1.0000   1.0000   1.0000   0.0000   0.0000   0.0000   0.0000

          k = 0.0000 0.1463 0.0000 (  5159 PWs)   bands (ev):

   -21.0321  -9.2616  -6.3394  -5.6779   1.9229   2.9751   3.3761   5.2563

     occupation numbers 
     1.0000   1.0000   1.0000   1.0000   0.0000   0.0000   0.0000   0.0000

          k = 0.0000 0.1540 0.0000 (  5159 PWs)   bands (ev):

   -20.9910  -9.2120  -6.4744  -5.7452   1.9790   3.0318   3.4337   5.3125

     occupation numbers 
     1.0000   1.0000   1.0000   1.0000   0.0000   0.0000   0.0000   0.0000

          k = 0.0000 0.1617 0.0000 (  5153 PWs)   bands (ev):

   -20.9479  -9.1600  -6.6137  -5.8139   2.0381   3.0913   3.4942   5.3716

     occupation numbers 
     1.0000   1.0000   1.0000   1.0000   0.0000   0.0000   0.0000   0.0000

          k = 0.0000 0.1694 0.0000 (  5149 PWs)   bands (ev):

   -20.9026  -9.1055  -6.7568  -5.8838   2.1000   3.1538   3.5577   5.4334

     occupation numbers 
     1.0000   1.0000   1.0000   1.0000   0.0000   0.0000   0.0000   0.0000

          k = 0.0000 0.1771 0.0000 (  5139 PWs)   bands (ev):

   -20.8552  -9.0485  -6.9036  -5.9547   2.1647   3.2191   3.6241   5.4980

     occupation numbers 
     1.0000   1.0000   1.0000   1.0000   0.0000   0.0000   0.0000   0.0000

          k = 0.0000 0.1848 0.0000 (  5141 PWs)   bands (ev):

   -20.8058  -8.9891  -7.0537  -6.0264   2.2323   3.2873   3.6935   5.5654

     occupation numbers 
     1.0000   1.0000   1.0000   1.0000   0.0000   0.0000   0.0000   0.0000

          k = 0.0000 0.1925 0.0000 (  5145 PWs)   bands (ev):

   -20.7543  -8.9272  -7.2070  -6.0987   2.3029   3.3583   3.7658   5.6355

     occupation numbers 
     1.0000   1.0000   1.0000   1.0000   0.0000   0.0000   0.0000   0.0000

          k = 0.0000 0.2001 0.0000 (  5149 PWs)   bands (ev):

   -20.7007  -8.8630  -7.3631  -6.1715   2.3762   3.4322   3.8411   5.7082

     occupation numbers 
     1.0000   1.0000   1.0000   1.0000   0.0000   0.0000   0.0000   0.0000

          k = 0.0000 0.2078 0.0000 (  5149 PWs)   bands (ev):

   -20.6451  -8.7963  -7.5220  -6.2446   2.4525   3.5089   3.9193   5.7834

     occupation numbers 
     1.0000   1.0000   1.0000   1.0000   0.0000   0.0000   0.0000   0.0000

          k = 0.0000 0.2155 0.0000 (  5149 PWs)   bands (ev):

   -20.5874  -8.7272  -7.6832  -6.3178   2.5315   3.5884   4.0005   5.8609

     occupation numbers 
     1.0000   1.0000   1.0000   1.0000   0.0000   0.0000   0.0000   0.0000

          k = 0.0000 0.2232 0.0000 (  5139 PWs)   bands (ev):

   -20.5276  -8.6557  -7.8467  -6.3911   2.6135   3.6706   4.0846   5.9402

     occupation numbers 
     1.0000   1.0000   1.0000   1.0000   0.0000   0.0000   0.0000   0.0000

          k = 0.0000 0.2309 0.0000 (  5141 PWs)   bands (ev):

   -20.4658  -8.5819  -8.0123  -6.4642   2.6983   3.7556   4.1717   6.0203

     occupation numbers 
     1.0000   1.0000   1.0000   1.0000   0.0000   0.0000   0.0000   0.0000

          k = 0.0000 0.2386 0.0000 (  5141 PWs)   bands (ev):

   -20.4019  -8.5058  -8.1796  -6.5371   2.7860   3.8433   4.2617   6.0984

     occupation numbers 
     1.0000   1.0000   1.0000   1.0000   0.0000   0.0000   0.0000   0.0000

          k = 0.0000 0.2463 0.0000 (  5139 PWs)   bands (ev):

   -20.3360  -8.4273  -8.3487  -6.6096   2.8765   3.9335   4.3546   6.1629

     occupation numbers 
     1.0000   1.0000   1.0000   1.0000   0.0000   0.0000   0.0000   0.0000

          k = 0.0000 0.2540 0.0000 (  5139 PWs)   bands (ev):

   -20.2681  -8.5192  -8.3466  -6.6815   2.9698   4.0263   4.4505   6.1616

     occupation numbers 
     1.0000   1.0000   1.0000   1.0000   0.0000   0.0000   0.0000   0.0000

          k = 0.0000 0.2617 0.0000 (  5151 PWs)   bands (ev):

   -20.1981  -8.6910  -8.2636  -6.7529   3.0660   4.1214   4.5493   6.0508

     occupation numbers 
     1.0000   1.0000   1.0000   1.0000   0.0000   0.0000   0.0000   0.0000

          k = 0.0000 0.2694 0.0000 (  5155 PWs)   bands (ev):

   -20.1261  -8.8640  -8.1783  -6.8236   3.1651   4.2185   4.6510   5.8875

     occupation numbers 
     1.0000   1.0000   1.0000   1.0000   0.0000   0.0000   0.0000   0.0000

          k = 0.0000 0.2771 0.0000 (  5153 PWs)   bands (ev):

   -20.0520  -9.0379  -8.0908  -6.8934   3.2669   4.3172   4.7556   5.7178

     occupation numbers 
     1.0000   1.0000   1.0000   1.0000   0.0000   0.0000   0.0000   0.0000

          k = 0.0000 0.2848 0.0000 (  5157 PWs)   bands (ev):

   -19.9760  -9.2128  -8.0011  -6.9624   3.3716   4.4164   4.8632   5.5452

     occupation numbers 
     1.0000   1.0000   1.0000   1.0000   0.0000   0.0000   0.0000   0.0000

          k = 0.0000 0.2925 0.0000 (  5157 PWs)   bands (ev):

   -19.8979  -9.3883  -7.9093  -7.0304   3.4791   4.5136   4.9736   5.3742

     occupation numbers 
     1.0000   1.0000   1.0000   1.0000   0.0000   0.0000   0.0000   0.0000

          k = 0.0000 0.3002 0.0000 (  5161 PWs)   bands (ev):

   -19.8179  -9.5645  -7.8154  -7.0973   3.5894   4.6023   5.0869   5.2124

     occupation numbers 
     1.0000   1.0000   1.0000   1.0000   0.0000   0.0000   0.0000   0.0000

          k = 0.0000 0.3079 0.0000 (  5163 PWs)   bands (ev):

   -19.7359  -9.7411  -7.7194  -7.1631   3.7025   4.6603   5.0824   5.2030

     occupation numbers 
     1.0000   1.0000   1.0000   1.0000   0.0000   0.0000   0.0000   0.0000

          k = 0.0000 0.3156 0.0000 (  5163 PWs)   bands (ev):

   -19.6518  -9.9181  -7.6214  -7.2276   3.8183   4.6321   5.0402   5.3218

     occupation numbers 
     1.0000   1.0000   1.0000   1.0000   0.0000   0.0000   0.0000   0.0000

          k = 0.0000 0.3233 0.0000 (  5161 PWs)   bands (ev):

   -19.5658 -10.0953  -7.5214  -7.2909   3.9370   4.5082   5.0955   5.4433

     occupation numbers 
     1.0000   1.0000   1.0000   1.0000   0.0000   0.0000   0.0000   0.0000

          k = 0.0000 0.3310 0.0000 (  5155 PWs)   bands (ev):

   -19.4779 -10.2726  -7.4194  -7.3528   4.0584   4.3443   5.1928   5.5672

     occupation numbers 
     1.0000   1.0000   1.0000   1.0000   0.0000   0.0000   0.0000   0.0000

          k = 0.0000 0.3387 0.0000 (  5169 PWs)   bands (ev):

   -19.3879 -10.4499  -7.4133  -7.3156   4.1667   4.1825   5.3060   5.6932

     occupation numbers 
     1.0000   1.0000   1.0000   1.0000   0.0000   0.0000   0.0000   0.0000

          k = 0.0000 0.3464 0.0000 (  5165 PWs)   bands (ev):

   -19.2961 -10.6272  -7.4724  -7.2100   3.9835   4.3093   5.4273   5.8200

     occupation numbers 
     1.0000   1.0000   1.0000   1.0000   0.0000   0.0000   0.0000   0.0000

          k = 0.0000 0.3541 0.0000 (  5163 PWs)   bands (ev):

   -19.2023 -10.8043  -7.5299  -7.1026   3.7975   4.4387   5.5541   5.9436

     occupation numbers 
     1.0000   1.0000   1.0000   1.0000   0.0000   0.0000   0.0000   0.0000

          k = 0.0000 0.3618 0.0000 (  5167 PWs)   bands (ev):

   -19.1066 -10.9811  -7.5859  -6.9936   3.6101   4.5708   5.6850   6.0458

     occupation numbers 
     1.0000   1.0000   1.0000   1.0000   0.0000   0.0000   0.0000   0.0000

          k = 0.0000 0.3695 0.0000 (  5175 PWs)   bands (ev):

   -19.0089 -11.1576  -7.6403  -6.8829   3.4221   4.7054   5.8197   6.0834

     occupation numbers 
     1.0000   1.0000   1.0000   1.0000   0.0000   0.0000   0.0000   0.0000

          k = 0.0000 0.3772 0.0000 (  5179 PWs)   bands (ev):

   -18.9094 -11.3336  -7.6930  -6.7708   3.2340   4.8425   5.9576   6.0803

     occupation numbers 
     1.0000   1.0000   1.0000   1.0000   0.0000   0.0000   0.0000   0.0000

          k = 0.0000 0.3849 0.0000 (  5172 PWs)   bands (ev):

   -18.8080 -11.5091  -7.7440  -6.6573   3.0462   4.9817   6.0678   6.0988

     occupation numbers 
     1.0000   1.0000   1.0000   1.0000   0.0000   0.0000   0.0000   0.0000

          k = 0.0000 0.3926 0.0000 (  5172 PWs)   bands (ev):

   -18.7047 -11.6840  -7.7933  -6.5426   2.8590   5.1230   6.0535   6.2429

     occupation numbers 
     1.0000   1.0000   1.0000   1.0000   0.0000   0.0000   0.0000   0.0000

          k = 0.0000 0.4003 0.0000 (  5172 PWs)   bands (ev):

   -18.5996 -11.8583  -7.8408  -6.4267   2.6728   5.2657   6.0397   6.3900

     occupation numbers 
     1.0000   1.0000   1.0000   1.0000   0.0000   0.0000   0.0000   0.0000

          k = 0.0000 0.4080 0.0000 (  5168 PWs)   bands (ev):

   -18.4927 -12.0318  -7.8865  -6.3098   2.4878   5.4087   6.0282   6.5399

     occupation numbers 
     1.0000   1.0000   1.0000   1.0000   0.0000   0.0000   0.0000   0.0000

          k = 0.0000 0.4157 0.0000 (  5164 PWs)   bands (ev):

   -18.3839 -12.2045  -7.9304  -6.1922   2.3043   5.5497   6.0218   6.6927

     occupation numbers 
     1.0000   1.0000   1.0000   1.0000   0.0000   0.0000   0.0000   0.0000

          k = 0.0000 0.4234 0.0000 (  5172 PWs)   bands (ev):

   -18.2734 -12.3762  -7.9724  -6.0739   2.1226   5.6820   6.0271   6.8482

     occupation numbers 
     1.0000   1.0000   1.0000   1.0000   0.0000   0.0000   0.0000   0.0000

          k = 0.0000 0.4311 0.0000 (  5172 PWs)   bands (ev):

   -18.1611 -12.5471  -8.0126  -5.9552   1.9431   5.7882   6.0617   7.0065

     occupation numbers 
     1.0000   1.0000   1.0000   1.0000   0.0000   0.0000   0.0000   0.0000

          k = 0.0000 0.4388 0.0000 (  5176 PWs)   bands (ev):

   -18.0471 -12.7168  -8.0508  -5.8363   1.7661   5.8451   6.1490   7.1674

     occupation numbers 
     1.0000   1.0000   1.0000   1.0000   0.0000   0.0000   0.0000   0.0000

          k = 0.0000 0.4465 0.0000 (  5176 PWs)   bands (ev):

   -17.9315 -12.8854  -8.0870  -5.7176   1.5919   5.8623   6.2793   7.3310

     occupation numbers 
     1.0000   1.0000   1.0000   1.0000   0.0000   0.0000   0.0000   0.0000

          k = 0.0000 0.4542 0.0000 (  5174 PWs)   bands (ev):

   -17.8142 -13.0529  -8.1213  -5.5994   1.4211   5.8626   6.4297   7.4971

     occupation numbers 
     1.0000   1.0000   1.0000   1.0000   0.0000   0.0000   0.0000   0.0000

          k = 0.0000 0.4619 0.0000 (  5170 PWs)   bands (ev):

   -17.6953 -13.2190  -8.1537  -5.4820   1.2539   5.8567   6.5898   7.6659

     occupation numbers 
     1.0000   1.0000   1.0000   1.0000   0.0000   0.0000   0.0000   0.0000

          k = 0.0000 0.4696 0.0000 (  5174 PWs)   bands (ev):

   -17.5749 -13.3837  -8.1840  -5.3659   1.0909   5.8484   6.7558   7.8371

     occupation numbers 
     1.0000   1.0000   1.0000   1.0000   0.0000   0.0000   0.0000   0.0000

          k = 0.0000 0.4773 0.0000 (  5178 PWs)   bands (ev):

   -17.4531 -13.5470  -8.2123  -5.2516   0.9327   5.8391   6.9261   8.0107

     occupation numbers 
     1.0000   1.0000   1.0000   1.0000   0.0000   0.0000   0.0000   0.0000

          k = 0.0000 0.4850 0.0000 (  5182 PWs)   bands (ev):

   -17.3300 -13.7085  -8.2386  -5.1397   0.7799   5.8297   7.1000   8.1868

     occupation numbers 
     1.0000   1.0000   1.0000   1.0000   0.0000   0.0000   0.0000   0.0000

          k = 0.0000 0.4927 0.0000 (  5180 PWs)   bands (ev):

   -17.2057 -13.8683  -8.2628  -5.0308   0.6333   5.8205   7.2771   8.3652

     occupation numbers 
     1.0000   1.0000   1.0000   1.0000   0.0000   0.0000   0.0000   0.0000

          k = 0.0000 0.5004 0.0000 (  5180 PWs)   bands (ev):

   -17.0804 -14.0261  -8.2849  -4.9258   0.4936   5.8117   7.4571   8.5458

     occupation numbers 
     1.0000   1.0000   1.0000   1.0000   0.0000   0.0000   0.0000   0.0000

          k = 0.0000 0.5081 0.0000 (  5188 PWs)   bands (ev):

   -16.9543 -14.1816  -8.3050  -4.8254   0.3618   5.8036   7.6399   8.7285

     occupation numbers 
     1.0000   1.0000   1.0000   1.0000   0.0000   0.0000   0.0000   0.0000

          k = 0.0000 0.5158 0.0000 (  5188 PWs)   bands (ev):

   -16.8279 -14.3344  -8.3230  -4.7307   0.2389   5.7962   7.8253   8.9132

     occupation numbers 
     1.0000   1.0000   1.0000   1.0000   0.0000   0.0000   0.0000   0.0000

          k = 0.0000 0.5235 0.0000 (  5188 PWs)   bands (ev):

   -16.7015 -14.4840  -8.3389  -4.6428   0.1260   5.7895   8.0133   9.0998

     occupation numbers 
     1.0000   1.0000   1.0000   1.0000   0.0000   0.0000   0.0000   0.0000

          k = 0.0000 0.5312 0.0000 (  5190 PWs)   bands (ev):

   -16.5762 -14.6296  -8.3527  -4.5629   0.0243   5.7836   8.2038   9.2878

     occupation numbers 
     1.0000   1.0000   1.0000   1.0000   0.0000   0.0000   0.0000   0.0000

          k = 0.0000 0.5389 0.0000 (  5186 PWs)   bands (ev):

   -16.4531 -14.7699  -8.3644  -4.4923  -0.0647   5.7786   8.3967   9.4771

     occupation numbers 
     1.0000   1.0000   1.0000   1.0000   0.0000   0.0000   0.0000   0.0000

          k = 0.0000 0.5466 0.0000 (  5190 PWs)   bands (ev):

   -16.3344 -14.9025  -8.3739  -4.4321  -0.1400   5.7745   8.5918   9.6668

     occupation numbers 
     1.0000   1.0000   1.0000   1.0000   0.0000   0.0000   0.0000   0.0000

          k = 0.0000 0.5543 0.0000 (  5190 PWs)   bands (ev):

   -16.2241 -15.0238  -8.3814  -4.3838  -0.2001   5.7713   8.7890   9.8556

     occupation numbers 
     1.0000   1.0000   1.0000   1.0000   0.0000   0.0000   0.0000   0.0000

          k = 0.0000 0.5620 0.0000 (  5188 PWs)   bands (ev):

   -16.1292 -15.1265  -8.3867  -4.3484  -0.2439   5.7689   8.9880   9.8123

     occupation numbers 
     1.0000   1.0000   1.0000   1.0000   0.0000   0.0000   0.0000   0.0000

          k = 0.0000 0.5697 0.0000 (  5188 PWs)   bands (ev):

   -16.0614 -15.1990  -8.3899  -4.3267  -0.2706   5.7675   9.1874   9.6073

     occupation numbers 
     1.0000   1.0000   1.0000   1.0000   0.0000   0.0000   0.0000   0.0000

          k = 0.0000-0.5774 0.0000 (  5192 PWs)   bands (ev):

   -16.0361 -15.2258  -8.3910  -4.3194  -0.2796   5.7671   9.3504   9.4424

     occupation numbers 
     1.0000   1.0000   1.0000   1.0000   0.0000   0.0000   0.0000   0.0000

          k = 0.0067 0.0115 0.0000 (  5159 PWs)   bands (ev):

   -21.4102  -9.7191  -4.9548  -4.9490   1.4076   2.4536   2.8476   4.7387

     occupation numbers 
     1.0000   1.0000   1.0000   1.0000   0.0000   0.0000   0.0000   0.0000

          k = 0.0067 0.0192 0.0000 (  5155 PWs)   bands (ev):

   -21.4060  -9.7139  -4.9720  -4.9585   1.4134   2.4595   2.8535   4.7445

     occupation numbers 
     1.0000   1.0000   1.0000   1.0000   0.0000   0.0000   0.0000   0.0000

          k = 0.0067 0.0269 0.0000 (  5147 PWs)   bands (ev):

   -21.3997  -9.7062  -4.9977  -4.9727   1.4220   2.4682   2.8624   4.7532

     occupation numbers 
     1.0000   1.0000   1.0000   1.0000   0.0000   0.0000   0.0000   0.0000

          k = 0.0067 0.0346 0.0000 (  5147 PWs)   bands (ev):

   -21.3912  -9.6960  -5.0318  -4.9915   1.4335   2.4799   2.8742   4.7648

     occupation numbers 
     1.0000   1.0000   1.0000   1.0000   0.0000   0.0000   0.0000   0.0000

          k = 0.0067 0.0423 0.0000 (  5143 PWs)   bands (ev):

   -21.3806  -9.6831  -5.0741  -5.0148   1.4479   2.4945   2.8890   4.7793

     occupation numbers 
     1.0000   1.0000   1.0000   1.0000   0.0000   0.0000   0.0000   0.0000

          k = 0.0067 0.0500 0.0000 (  5141 PWs)   bands (ev):

   -21.3679  -9.6677  -5.1246  -5.0425   1.4652   2.5120   2.9067   4.7967

     occupation numbers 
     1.0000   1.0000   1.0000   1.0000   0.0000   0.0000   0.0000   0.0000

          k = 0.0067 0.0577 0.0000 (  5144 PWs)   bands (ev):

   -21.3531  -9.6498  -5.1830  -5.0744   1.4853   2.5324   2.9273   4.8170

     occupation numbers 
     1.0000   1.0000   1.0000   1.0000   0.0000   0.0000   0.0000   0.0000

          k = 0.0067 0.0654 0.0000 (  5141 PWs)   bands (ev):

   -21.3362  -9.6293  -5.2491  -5.1103   1.5083   2.5557   2.9509   4.8401

     occupation numbers 
     1.0000   1.0000   1.0000   1.0000   0.0000   0.0000   0.0000   0.0000

          k = 0.0067 0.0731 0.0000 (  5147 PWs)   bands (ev):

   -21.3172  -9.6062  -5.3226  -5.1501   1.5342   2.5819   2.9775   4.8662

     occupation numbers 
     1.0000   1.0000   1.0000   1.0000   0.0000   0.0000   0.0000   0.0000

          k = 0.0067 0.0808 0.0000 (  5149 PWs)   bands (ev):

   -21.2960  -9.5806  -5.4034  -5.1936   1.5630   2.6111   3.0070   4.8951

     occupation numbers 
     1.0000   1.0000   1.0000   1.0000   0.0000   0.0000   0.0000   0.0000

          k = 0.0067 0.0885 0.0000 (  5145 PWs)   bands (ev):

   -21.2728  -9.5524  -5.4911  -5.2406   1.5947   2.6431   3.0395   4.9270

     occupation numbers 
     1.0000   1.0000   1.0000   1.0000   0.0000   0.0000   0.0000   0.0000

          k = 0.0067 0.0962 0.0000 (  5147 PWs)   bands (ev):

   -21.2474  -9.5217  -5.5855  -5.2907   1.6292   2.6781   3.0749   4.9617

     occupation numbers 
     1.0000   1.0000   1.0000   1.0000   0.0000   0.0000   0.0000   0.0000

          k = 0.0067 0.1039 0.0000 (  5153 PWs)   bands (ev):

   -21.2199  -9.4885  -5.6862  -5.3439   1.6667   2.7160   3.1133   4.9993

     occupation numbers 
     1.0000   1.0000   1.0000   1.0000   0.0000   0.0000   0.0000   0.0000

          k = 0.0067 0.1116 0.0000 (  5159 PWs)   bands (ev):

   -21.1904  -9.4527  -5.7930  -5.3999   1.7070   2.7568   3.1546   5.0398

     occupation numbers 
     1.0000   1.0000   1.0000   1.0000   0.0000   0.0000   0.0000   0.0000

          k = 0.0067 0.1193 0.0000 (  5153 PWs)   bands (ev):

   -21.1587  -9.4144  -5.9056  -5.4585   1.7502   2.8005   3.1989   5.0831

     occupation numbers 
     1.0000   1.0000   1.0000   1.0000   0.0000   0.0000   0.0000   0.0000

          k = 0.0067 0.1270 0.0000 (  5147 PWs)   bands (ev):

   -21.1249  -9.3736  -6.0237  -5.5194   1.7962   2.8470   3.2462   5.1293

     occupation numbers 
     1.0000   1.0000   1.0000   1.0000   0.0000   0.0000   0.0000   0.0000

          k = 0.0067 0.1347 0.0000 (  5153 PWs)   bands (ev):

   -21.0891  -9.3303  -6.1469  -5.5824   1.8452   2.8965   3.2964   5.1784

     occupation numbers 
     1.0000   1.0000   1.0000   1.0000   0.0000   0.0000   0.0000   0.0000

          k = 0.0067 0.1424 0.0000 (  5157 PWs)   bands (ev):

   -21.0511  -9.2845  -6.2751  -5.6474   1.8970   2.9489   3.3495   5.2304

     occupation numbers 
     1.0000   1.0000   1.0000   1.0000   0.0000   0.0000   0.0000   0.0000

          k = 0.0067 0.1501 0.0000 (  5159 PWs)   bands (ev):

   -21.0111  -9.2362  -6.4078  -5.7140   1.9517   3.0041   3.4056   5.2852

     occupation numbers 
     1.0000   1.0000   1.0000   1.0000   0.0000   0.0000   0.0000   0.0000

          k = 0.0067 0.1578 0.0000 (  5159 PWs)   bands (ev):

   -20.9689  -9.1854  -6.5449  -5.7821   2.0093   3.0623   3.4647   5.3428

     occupation numbers 
     1.0000   1.0000   1.0000   1.0000   0.0000   0.0000   0.0000   0.0000

          k = 0.0067 0.1655 0.0000 (  5149 PWs)   bands (ev):

   -20.9247  -9.1321  -6.6860  -5.8515   2.0697   3.1233   3.5267   5.4032

     occupation numbers 
     1.0000   1.0000   1.0000   1.0000   0.0000   0.0000   0.0000   0.0000

          k = 0.0067 0.1732 0.0000 (  5147 PWs)   bands (ev):

   -20.8784  -9.0763  -6.8309  -5.9220   2.1331   3.1872   3.5916   5.4664

     occupation numbers 
     1.0000   1.0000   1.0000   1.0000   0.0000   0.0000   0.0000   0.0000

          k = 0.0067 0.1809 0.0000 (  5140 PWs)   bands (ev):

   -20.8300  -9.0181  -6.9792  -5.9933   2.1993   3.2539   3.6595   5.5325

     occupation numbers 
     1.0000   1.0000   1.0000   1.0000   0.0000   0.0000   0.0000   0.0000

          k = 0.0067 0.1886 0.0000 (  5147 PWs)   bands (ev):

   -20.7795  -8.9575  -7.1309  -6.0654   2.2683   3.3236   3.7304   5.6012

     occupation numbers 
     1.0000   1.0000   1.0000   1.0000   0.0000   0.0000   0.0000   0.0000

          k = 0.0067 0.1963 0.0000 (  5148 PWs)   bands (ev):

   -20.7270  -8.8944  -7.2855  -6.1380   2.3403   3.3960   3.8042   5.6726

     occupation numbers 
     1.0000   1.0000   1.0000   1.0000   0.0000   0.0000   0.0000   0.0000

          k = 0.0067 0.2040 0.0000 (  5146 PWs)   bands (ev):

   -20.6724  -8.8290  -7.4430  -6.2110   2.4151   3.4713   3.8809   5.7466

     occupation numbers 
     1.0000   1.0000   1.0000   1.0000   0.0000   0.0000   0.0000   0.0000

          k = 0.0067 0.2117 0.0000 (  5144 PWs)   bands (ev):

   -20.6157  -8.7611  -7.6030  -6.2842   2.4927   3.5494   3.9606   5.8230

     occupation numbers 
     1.0000   1.0000   1.0000   1.0000   0.0000   0.0000   0.0000   0.0000

          k = 0.0067 0.2194 0.0000 (  5142 PWs)   bands (ev):

   -20.5570  -8.6908  -7.7653  -6.3575   2.5733   3.6302   4.0433   5.9014

     occupation numbers 
     1.0000   1.0000   1.0000   1.0000   0.0000   0.0000   0.0000   0.0000

          k = 0.0067 0.2271 0.0000 (  5138 PWs)   bands (ev):

   -20.4962  -8.6182  -7.9298  -6.4308   2.6566   3.7139   4.1289   5.9813

     occupation numbers 
     1.0000   1.0000   1.0000   1.0000   0.0000   0.0000   0.0000   0.0000

          k = 0.0067 0.2348 0.0000 (  5138 PWs)   bands (ev):

   -20.4333  -8.5432  -8.0962  -6.5038   2.7429   3.8002   4.2174   6.0610

     occupation numbers 
     1.0000   1.0000   1.0000   1.0000   0.0000   0.0000   0.0000   0.0000

          k = 0.0067 0.2425 0.0000 (  5144 PWs)   bands (ev):

   -20.3684  -8.4659  -8.2643  -6.5765   2.8320   3.8892   4.3089   6.1350

     occupation numbers 
     1.0000   1.0000   1.0000   1.0000   0.0000   0.0000   0.0000   0.0000

          k = 0.0067 0.2502 0.0000 (  5141 PWs)   bands (ev):

   -20.3015  -8.4340  -8.3863  -6.6488   2.9239   3.9807   4.4033   6.1773

     occupation numbers 
     1.0000   1.0000   1.0000   1.0000   0.0000   0.0000   0.0000   0.0000

          k = 0.0067 0.2579 0.0000 (  5147 PWs)   bands (ev):

   -20.2325  -8.6052  -8.3044  -6.7205   3.0187   4.0747   4.5006   6.1133

     occupation numbers 
     1.0000   1.0000   1.0000   1.0000   0.0000   0.0000   0.0000   0.0000

          k = 0.0067 0.2656 0.0000 (  5151 PWs)   bands (ev):

   -20.1615  -8.7775  -8.2203  -6.7916   3.1163   4.1708   4.6009   5.9681

     occupation numbers 
     1.0000   1.0000   1.0000   1.0000   0.0000   0.0000   0.0000   0.0000

          k = 0.0067 0.2733 0.0000 (  5151 PWs)   bands (ev):

   -20.0885  -8.9510  -8.1339  -6.8619   3.2167   4.2688   4.7041   5.8037

     occupation numbers 
     1.0000   1.0000   1.0000   1.0000   0.0000   0.0000   0.0000   0.0000

          k = 0.0067 0.2810 0.0000 (  5159 PWs)   bands (ev):

   -20.0135  -9.1253  -8.0453  -6.9313   3.3200   4.3679   4.8102   5.6304

     occupation numbers 
     1.0000   1.0000   1.0000   1.0000   0.0000   0.0000   0.0000   0.0000

          k = 0.0067 0.2887 0.0000 (  5161 PWs)   bands (ev):

   -19.9364  -9.3005  -7.9546  -6.9998   3.4261   4.4666   4.9191   5.4579

     occupation numbers 
     1.0000   1.0000   1.0000   1.0000   0.0000   0.0000   0.0000   0.0000

          k = 0.0067 0.2964 0.0000 (  5161 PWs)   bands (ev):

   -19.8574  -9.4763  -7.8617  -7.0673   3.5350   4.5608   5.0310   5.2902

     occupation numbers 
     1.0000   1.0000   1.0000   1.0000   0.0000   0.0000   0.0000   0.0000

          k = 0.0067 0.3041 0.0000 (  5155 PWs)   bands (ev):

   -19.7763  -9.6527  -7.7667  -7.1337   3.6467   4.6388   5.1397   5.1457

     occupation numbers 
     1.0000   1.0000   1.0000   1.0000   0.0000   0.0000   0.0000   0.0000

          k = 0.0067 0.3118 0.0000 (  5157 PWs)   bands (ev):

   -19.6933  -9.8294  -7.6697  -7.1989   3.7611   4.6610   5.0463   5.2632

     occupation numbers 
     1.0000   1.0000   1.0000   1.0000   0.0000   0.0000   0.0000   0.0000

          k = 0.0067 0.3195 0.0000 (  5161 PWs)   bands (ev):

   -19.6083 -10.0065  -7.5707  -7.2628   3.8784   4.5779   5.0599   5.3834

     occupation numbers 
     1.0000   1.0000   1.0000   1.0000   0.0000   0.0000   0.0000   0.0000

          k = 0.0067 0.3272 0.0000 (  5157 PWs)   bands (ev):

   -19.5213 -10.1837  -7.4697  -7.3254   3.9984   4.4283   5.1419   5.5061

     occupation numbers 
     1.0000   1.0000   1.0000   1.0000   0.0000   0.0000   0.0000   0.0000

          k = 0.0067 0.3349 0.0000 (  5165 PWs)   bands (ev):

   -19.4324 -10.3610  -7.3867  -7.3668   4.1212   4.2558   5.2489   5.6312

     occupation numbers 
     1.0000   1.0000   1.0000   1.0000   0.0000   0.0000   0.0000   0.0000

          k = 0.0067 0.3426 0.0000 (  5165 PWs)   bands (ev):

   -19.3415 -10.5383  -7.4465  -7.2621   4.0749   4.2466   5.3667   5.7578

     occupation numbers 
     1.0000   1.0000   1.0000   1.0000   0.0000   0.0000   0.0000   0.0000

          k = 0.0067 0.3503 0.0000 (  5163 PWs)   bands (ev):

   -19.2486 -10.7155  -7.5048  -7.1556   3.8900   4.3748   5.4910   5.8840

     occupation numbers 
     1.0000   1.0000   1.0000   1.0000   0.0000   0.0000   0.0000   0.0000

          k = 0.0067 0.3580 0.0000 (  5171 PWs)   bands (ev):

   -19.1539 -10.8924  -7.5616  -7.0474   3.7032   4.5056   5.6200   6.0019

     occupation numbers 
     1.0000   1.0000   1.0000   1.0000   0.0000   0.0000   0.0000   0.0000

          k = 0.0067 0.3657 0.0000 (  5167 PWs)   bands (ev):

   -19.0572 -11.0691  -7.6168  -6.9375   3.5155   4.6389   5.7528   6.0768

     occupation numbers 
     1.0000   1.0000   1.0000   1.0000   0.0000   0.0000   0.0000   0.0000

          k = 0.0067 0.3734 0.0000 (  5173 PWs)   bands (ev):

   -18.9586 -11.2453  -7.6703  -6.8262   3.3274   4.7748   5.8892   6.0883

     occupation numbers 
     1.0000   1.0000   1.0000   1.0000   0.0000   0.0000   0.0000   0.0000

          k = 0.0067 0.3811 0.0000 (  5173 PWs)   bands (ev):

   -18.8582 -11.4211  -7.7222  -6.7133   3.1395   4.9130   6.0288   6.0790

     occupation numbers 
     1.0000   1.0000   1.0000   1.0000   0.0000   0.0000   0.0000   0.0000

          k = 0.0067 0.3887 0.0000 (  5176 PWs)   bands (ev):

   -18.7558 -11.5963  -7.7724  -6.5992   2.9520   5.0533   6.0653   6.1714

     occupation numbers 
     1.0000   1.0000   1.0000   1.0000   0.0000   0.0000   0.0000   0.0000

          k = 0.0067 0.3964 0.0000 (  5174 PWs)   bands (ev):

   -18.6516 -11.7708  -7.8208  -6.4839   2.7653   5.1954   6.0510   6.3170

     occupation numbers 
     1.0000   1.0000   1.0000   1.0000   0.0000   0.0000   0.0000   0.0000

          k = 0.0067 0.4041 0.0000 (  5166 PWs)   bands (ev):

   -18.5456 -11.9447  -7.8674  -6.3675   2.5797   5.3385   6.0381   6.4655

     occupation numbers 
     1.0000   1.0000   1.0000   1.0000   0.0000   0.0000   0.0000   0.0000

          k = 0.0067 0.4118 0.0000 (  5164 PWs)   bands (ev):

   -18.4378 -12.1178  -7.9122  -6.2502   2.3954   5.4811   6.0285   6.6169

     occupation numbers 
     1.0000   1.0000   1.0000   1.0000   0.0000   0.0000   0.0000   0.0000

          k = 0.0067 0.4195 0.0000 (  5168 PWs)   bands (ev):

   -18.3281 -12.2900  -7.9552  -6.1322   2.2128   5.6193   6.0264   6.7710

     occupation numbers 
     1.0000   1.0000   1.0000   1.0000   0.0000   0.0000   0.0000   0.0000

          k = 0.0067 0.4272 0.0000 (  5170 PWs)   bands (ev):

   -18.2167 -12.4613  -7.9962  -6.0137   2.0322   5.7423   6.0426   6.9279

     occupation numbers 
     1.0000   1.0000   1.0000   1.0000   0.0000   0.0000   0.0000   0.0000

          k = 0.0067 0.4349 0.0000 (  5172 PWs)   bands (ev):

   -18.1036 -12.6316  -8.0354  -5.8949   1.8539   5.8266   6.1008   7.0875

     occupation numbers 
     1.0000   1.0000   1.0000   1.0000   0.0000   0.0000   0.0000   0.0000

          k = 0.0067 0.4426 0.0000 (  5172 PWs)   bands (ev):

   -17.9888 -12.8007  -8.0727  -5.7760   1.6783   5.8611   6.2121   7.2498

     occupation numbers 
     1.0000   1.0000   1.0000   1.0000   0.0000   0.0000   0.0000   0.0000

          k = 0.0067 0.4503 0.0000 (  5169 PWs)   bands (ev):

   -17.8723 -12.9688  -8.1080  -5.6575   1.5058   5.8681   6.3542   7.4146

     occupation numbers 
     1.0000   1.0000   1.0000   1.0000   0.0000   0.0000   0.0000   0.0000

          k = 0.0067 0.4580 0.0000 (  5173 PWs)   bands (ev):

   -17.7542 -13.1356  -8.1413  -5.5397   1.3367   5.8648   6.5101   7.5820

     occupation numbers 
     1.0000   1.0000   1.0000   1.0000   0.0000   0.0000   0.0000   0.0000

          k = 0.0067 0.4657 0.0000 (  5176 PWs)   bands (ev):

   -17.6346 -13.3010  -8.1726  -5.4229   1.1716   5.8574   6.6734   7.7520

     occupation numbers 
     1.0000   1.0000   1.0000   1.0000   0.0000   0.0000   0.0000   0.0000

          k = 0.0067 0.4734 0.0000 (  5180 PWs)   bands (ev):

   -17.5135 -13.4650  -8.2019  -5.3076   1.0109   5.8485   6.8416   7.9245

     occupation numbers 
     1.0000   1.0000   1.0000   1.0000   0.0000   0.0000   0.0000   0.0000

          k = 0.0067 0.4811 0.0000 (  5186 PWs)   bands (ev):

   -17.3910 -13.6274  -8.2292  -5.1944   0.8554   5.8391   7.0137   8.0993

     occupation numbers 
     1.0000   1.0000   1.0000   1.0000   0.0000   0.0000   0.0000   0.0000

          k = 0.0067 0.4888 0.0000 (  5186 PWs)   bands (ev):

   -17.2672 -13.7881  -8.2544  -5.0839   0.7056   5.8298   7.1892   8.2765

     occupation numbers 
     1.0000   1.0000   1.0000   1.0000   0.0000   0.0000   0.0000   0.0000

          k = 0.0067 0.4965 0.0000 (  5182 PWs)   bands (ev):

   -17.1424 -13.9469  -8.2776  -4.9768   0.5623   5.8208   7.3678   8.4560

     occupation numbers 
     1.0000   1.0000   1.0000   1.0000   0.0000   0.0000   0.0000   0.0000

          k = 0.0067 0.5042 0.0000 (  5188 PWs)   bands (ev):

   -17.0167 -14.1035  -8.2988  -4.8740   0.4264   5.8123   7.5492   8.6377

     occupation numbers 
     1.0000   1.0000   1.0000   1.0000   0.0000   0.0000   0.0000   0.0000

          k = 0.0067 0.5119 0.0000 (  5188 PWs)   bands (ev):

   -16.8904 -14.2577  -8.3178  -4.7764   0.2989   5.8045   7.7333   8.8214

     occupation numbers 
     1.0000   1.0000   1.0000   1.0000   0.0000   0.0000   0.0000   0.0000

          k = 0.0067 0.5196 0.0000 (  5188 PWs)   bands (ev):

   -16.7639 -14.4090  -8.3347  -4.6849   0.1809   5.7975   7.9200   9.0070

     occupation numbers 
     1.0000   1.0000   1.0000   1.0000   0.0000   0.0000   0.0000   0.0000

          k = 0.0067 0.5273 0.0000 (  5186 PWs)   bands (ev):

   -16.6380 -14.5567  -8.3496  -4.6009   0.0735   5.7912   8.1093   9.1943

     occupation numbers 
     1.0000   1.0000   1.0000   1.0000   0.0000   0.0000   0.0000   0.0000

          k = 0.0067 0.5350 0.0000 (  5188 PWs)   bands (ev):

   -16.5135 -14.6999  -8.3623  -4.5254  -0.0220   5.7858   8.3009   9.3829

     occupation numbers 
     1.0000   1.0000   1.0000   1.0000   0.0000   0.0000   0.0000   0.0000

          k = 0.0067 0.5427 0.0000 (  5190 PWs)   bands (ev):

   -16.3923 -14.8367  -8.3730  -4.4598  -0.1043   5.7812   8.4949   9.5724

     occupation numbers 
     1.0000   1.0000   1.0000   1.0000   0.0000   0.0000   0.0000   0.0000

          k = 0.0067 0.5504 0.0000 (  5188 PWs)   bands (ev):

   -16.2772 -14.9643  -8.3815  -4.4055  -0.1721   5.7775   8.6911   9.7618

     occupation numbers 
     1.0000   1.0000   1.0000   1.0000   0.0000   0.0000   0.0000   0.0000

          k = 0.0067 0.5581 0.0000 (  5186 PWs)   bands (ev):

   -16.1734 -15.0774  -8.3879  -4.3634  -0.2242   5.7747   8.8893   9.9309

     occupation numbers 
     1.0000   1.0000   1.0000   1.0000   0.0000   0.0000   0.0000   0.0000

          k = 0.0067 0.5658 0.0000 (  5190 PWs)   bands (ev):

   -16.0903 -15.1668  -8.3921  -4.3348  -0.2596   5.7729   9.0888   9.7101

     occupation numbers 
     1.0000   1.0000   1.0000   1.0000   0.0000   0.0000   0.0000   0.0000

          k = 0.0067 0.5735 0.0000 (  5192 PWs)   bands (ev):

   -16.0419 -15.2183  -8.3942  -4.3203  -0.2775   5.7719   9.2853   9.5099

     occupation numbers 
     1.0000   1.0000   1.0000   1.0000   0.0000   0.0000   0.0000   0.0000

          k = 0.0133 0.0231 0.0000 (  5151 PWs)   bands (ev):

   -21.4007  -9.7075  -4.9933  -4.9704   1.4206   2.4667   2.8609   4.7518

     occupation numbers 
     1.0000   1.0000   1.0000   1.0000   0.0000   0.0000   0.0000   0.0000

          k = 0.0133 0.0308 0.0000 (  5143 PWs)   bands (ev):

   -21.3933  -9.6985  -5.0231  -4.9870   1.4306   2.4770   2.8713   4.7619

     occupation numbers 
     1.0000   1.0000   1.0000   1.0000   0.0000   0.0000   0.0000   0.0000

          k = 0.0133 0.0385 0.0000 (  5143 PWs)   bands (ev):

   -21.3838  -9.6870  -5.0612  -5.0081   1.4436   2.4901   2.8845   4.7750

     occupation numbers 
     1.0000   1.0000   1.0000   1.0000   0.0000   0.0000   0.0000   0.0000

          k = 0.0133 0.0462 0.0000 (  5140 PWs)   bands (ev):

   -21.3721  -9.6729  -5.1074  -5.0338   1.4594   2.5061   2.9008   4.7909

     occupation numbers 
     1.0000   1.0000   1.0000   1.0000   0.0000   0.0000   0.0000   0.0000

          k = 0.0133 0.0539 0.0000 (  5138 PWs)   bands (ev):

   -21.3584  -9.6562  -5.1616  -5.0637   1.4781   2.5251   2.9200   4.8097

     occupation numbers 
     1.0000   1.0000   1.0000   1.0000   0.0000   0.0000   0.0000   0.0000

          k = 0.0133 0.0616 0.0000 (  5144 PWs)   bands (ev):

   -21.3425  -9.6370  -5.2235  -5.0978   1.4997   2.5469   2.9421   4.8314

     occupation numbers 
     1.0000   1.0000   1.0000   1.0000   0.0000   0.0000   0.0000   0.0000

          k = 0.0133 0.0693 0.0000 (  5144 PWs)   bands (ev):

   -21.3246  -9.6152  -5.2931  -5.1358   1.5242   2.5717   2.9672   4.8561

     occupation numbers 
     1.0000   1.0000   1.0000   1.0000   0.0000   0.0000   0.0000   0.0000

          k = 0.0133 0.0770 0.0000 (  5145 PWs)   bands (ev):

   -21.3045  -9.5908  -5.3699  -5.1777   1.5515   2.5994   2.9952   4.8836

     occupation numbers 
     1.0000   1.0000   1.0000   1.0000   0.0000   0.0000   0.0000   0.0000

          k = 0.0133 0.0847 0.0000 (  5147 PWs)   bands (ev):

   -21.2823  -9.5640  -5.4539  -5.2231   1.5817   2.6300   3.0262   4.9139

     occupation numbers 
     1.0000   1.0000   1.0000   1.0000   0.0000   0.0000   0.0000   0.0000

          k = 0.0133 0.0924 0.0000 (  5153 PWs)   bands (ev):

   -21.2580  -9.5345  -5.5446  -5.2718   1.6148   2.6635   3.0602   4.9472

     occupation numbers 
     1.0000   1.0000   1.0000   1.0000   0.0000   0.0000   0.0000   0.0000

          k = 0.0133 0.1001 0.0000 (  5153 PWs)   bands (ev):

   -21.2316  -9.5026  -5.6418  -5.3237   1.6508   2.7000   3.0971   4.9834

     occupation numbers 
     1.0000   1.0000   1.0000   1.0000   0.0000   0.0000   0.0000   0.0000

          k = 0.0133 0.1078 0.0000 (  5157 PWs)   bands (ev):

   -21.2031  -9.4681  -5.7452  -5.3785   1.6897   2.7393   3.1369   5.0224

     occupation numbers 
     1.0000   1.0000   1.0000   1.0000   0.0000   0.0000   0.0000   0.0000

          k = 0.0133 0.1155 0.0000 (  5155 PWs)   bands (ev):

   -21.1724  -9.4310  -5.8546  -5.4360   1.7314   2.7815   3.1797   5.0643

     occupation numbers 
     1.0000   1.0000   1.0000   1.0000   0.0000   0.0000   0.0000   0.0000

          k = 0.0133 0.1232 0.0000 (  5143 PWs)   bands (ev):

   -21.1397  -9.3915  -5.9696  -5.4960   1.7761   2.8267   3.2255   5.1091

     occupation numbers 
     1.0000   1.0000   1.0000   1.0000   0.0000   0.0000   0.0000   0.0000

          k = 0.0133 0.1309 0.0000 (  5147 PWs)   bands (ev):

   -21.1049  -9.3494  -6.0899  -5.5581   1.8236   2.8747   3.2742   5.1568

     occupation numbers 
     1.0000   1.0000   1.0000   1.0000   0.0000   0.0000   0.0000   0.0000

          k = 0.0133 0.1386 0.0000 (  5151 PWs)   bands (ev):

   -21.0680  -9.3049  -6.2153  -5.6223   1.8740   2.9256   3.3259   5.2073

     occupation numbers 
     1.0000   1.0000   1.0000   1.0000   0.0000   0.0000   0.0000   0.0000

          k = 0.0133 0.1463 0.0000 (  5153 PWs)   bands (ev):

   -21.0290  -9.2578  -6.3454  -5.6883   1.9272   2.9794   3.3805   5.2607

     occupation numbers 
     1.0000   1.0000   1.0000   1.0000   0.0000   0.0000   0.0000   0.0000

          k = 0.0133 0.1540 0.0000 (  5155 PWs)   bands (ev):

   -20.9879  -9.2082  -6.4800  -5.7559   1.9834   3.0361   3.4381   5.3169

     occupation numbers 
     1.0000   1.0000   1.0000   1.0000   0.0000   0.0000   0.0000   0.0000

          k = 0.0133 0.1617 0.0000 (  5148 PWs)   bands (ev):

   -20.9447  -9.1562  -6.6188  -5.8248   2.0424   3.0957   3.4986   5.3759

     occupation numbers 
     1.0000   1.0000   1.0000   1.0000   0.0000   0.0000   0.0000   0.0000

          k = 0.0133 0.1694 0.0000 (  5146 PWs)   bands (ev):

   -20.8994  -9.1017  -6.7615  -5.8949   2.1043   3.1582   3.5621   5.4377

     occupation numbers 
     1.0000   1.0000   1.0000   1.0000   0.0000   0.0000   0.0000   0.0000

          k = 0.0133 0.1771 0.0000 (  5147 PWs)   bands (ev):

   -20.8521  -9.0447  -6.9078  -5.9660   2.1690   3.2235   3.6285   5.5024

     occupation numbers 
     1.0000   1.0000   1.0000   1.0000   0.0000   0.0000   0.0000   0.0000

          k = 0.0133 0.1848 0.0000 (  5149 PWs)   bands (ev):

   -20.8026  -8.9853  -7.0576  -6.0379   2.2367   3.2917   3.6979   5.5697

     occupation numbers 
     1.0000   1.0000   1.0000   1.0000   0.0000   0.0000   0.0000   0.0000

          k = 0.0133 0.1925 0.0000 (  5148 PWs)   bands (ev):

   -20.7511  -8.9234  -7.2105  -6.1104   2.3072   3.3627   3.7702   5.6398

     occupation numbers 
     1.0000   1.0000   1.0000   1.0000   0.0000   0.0000   0.0000   0.0000

          k = 0.0133 0.2001 0.0000 (  5144 PWs)   bands (ev):

   -20.6976  -8.8592  -7.3663  -6.1833   2.3806   3.4366   3.8455   5.7125

     occupation numbers 
     1.0000   1.0000   1.0000   1.0000   0.0000   0.0000   0.0000   0.0000

          k = 0.0133 0.2078 0.0000 (  5142 PWs)   bands (ev):

   -20.6419  -8.7925  -7.5247  -6.2566   2.4568   3.5132   3.9238   5.7877

     occupation numbers 
     1.0000   1.0000   1.0000   1.0000   0.0000   0.0000   0.0000   0.0000

          k = 0.0133 0.2155 0.0000 (  5142 PWs)   bands (ev):

   -20.5842  -8.7234  -7.6857  -6.3300   2.5359   3.5927   4.0049   5.8652

     occupation numbers 
     1.0000   1.0000   1.0000   1.0000   0.0000   0.0000   0.0000   0.0000

          k = 0.0133 0.2232 0.0000 (  5140 PWs)   bands (ev):

   -20.5245  -8.6520  -7.8489  -6.4034   2.6178   3.6750   4.0891   5.9445

     occupation numbers 
     1.0000   1.0000   1.0000   1.0000   0.0000   0.0000   0.0000   0.0000

          k = 0.0133 0.2309 0.0000 (  5142 PWs)   bands (ev):

   -20.4626  -8.5782  -8.0141  -6.4767   2.7027   3.7600   4.1761   6.0247

     occupation numbers 
     1.0000   1.0000   1.0000   1.0000   0.0000   0.0000   0.0000   0.0000

          k = 0.0133 0.2386 0.0000 (  5142 PWs)   bands (ev):

   -20.3988  -8.5020  -8.1812  -6.5497   2.7903   3.8476   4.2661   6.1026

     occupation numbers 
     1.0000   1.0000   1.0000   1.0000   0.0000   0.0000   0.0000   0.0000

          k = 0.0133 0.2463 0.0000 (  5140 PWs)   bands (ev):

   -20.3329  -8.4236  -8.3500  -6.6223   2.8808   3.9379   4.3591   6.1663

     occupation numbers 
     1.0000   1.0000   1.0000   1.0000   0.0000   0.0000   0.0000   0.0000

          k = 0.0133 0.2540 0.0000 (  5142 PWs)   bands (ev):

   -20.2649  -8.5202  -8.3428  -6.6944   2.9742   4.0307   4.4549   6.1610

     occupation numbers 
     1.0000   1.0000   1.0000   1.0000   0.0000   0.0000   0.0000   0.0000

          k = 0.0133 0.2617 0.0000 (  5144 PWs)   bands (ev):

   -20.1949  -8.6918  -8.2598  -6.7659   3.0704   4.1258   4.5537   6.0423

     occupation numbers 
     1.0000   1.0000   1.0000   1.0000   0.0000   0.0000   0.0000   0.0000

          k = 0.0133 0.2694 0.0000 (  5146 PWs)   bands (ev):

   -20.1229  -8.8646  -8.1746  -6.8366   3.1694   4.2229   4.6555   5.8827

     occupation numbers 
     1.0000   1.0000   1.0000   1.0000   0.0000   0.0000   0.0000   0.0000

          k = 0.0133 0.2771 0.0000 (  5148 PWs)   bands (ev):

   -20.0489  -9.0383  -8.0871  -6.9066   3.2713   4.3216   4.7601   5.7128

     occupation numbers 
     1.0000   1.0000   1.0000   1.0000   0.0000   0.0000   0.0000   0.0000

          k = 0.0133 0.2848 0.0000 (  5153 PWs)   bands (ev):

   -19.9729  -9.2130  -7.9974  -6.9756   3.3760   4.4207   4.8676   5.5403

     occupation numbers 
     1.0000   1.0000   1.0000   1.0000   0.0000   0.0000   0.0000   0.0000

          k = 0.0133 0.2925 0.0000 (  5151 PWs)   bands (ev):

   -19.8948  -9.3883  -7.9056  -7.0437   3.4834   4.5179   4.9781   5.3695

     occupation numbers 
     1.0000   1.0000   1.0000   1.0000   0.0000   0.0000   0.0000   0.0000

          k = 0.0133 0.3002 0.0000 (  5155 PWs)   bands (ev):

   -19.8148  -9.5643  -7.8117  -7.1107   3.5937   4.6063   5.0914   5.2081

     occupation numbers 
     1.0000   1.0000   1.0000   1.0000   0.0000   0.0000   0.0000   0.0000

          k = 0.0133 0.3079 0.0000 (  5159 PWs)   bands (ev):

   -19.7327  -9.7408  -7.7157  -7.1765   3.7068   4.6632   5.0795   5.2075

     occupation numbers 
     1.0000   1.0000   1.0000   1.0000   0.0000   0.0000   0.0000   0.0000

          k = 0.0133 0.3156 0.0000 (  5163 PWs)   bands (ev):

   -19.6487  -9.9176  -7.6177  -7.2411   3.8227   4.6320   5.0404   5.3263

     occupation numbers 
     1.0000   1.0000   1.0000   1.0000   0.0000   0.0000   0.0000   0.0000

          k = 0.0133 0.3233 0.0000 (  5161 PWs)   bands (ev):

   -19.5627 -10.0946  -7.5177  -7.3044   3.9414   4.5062   5.0978   5.4479

     occupation numbers 
     1.0000   1.0000   1.0000   1.0000   0.0000   0.0000   0.0000   0.0000

          k = 0.0133 0.3310 0.0000 (  5165 PWs)   bands (ev):

   -19.4748 -10.2718  -7.4158  -7.3664   4.0627   4.3417   5.1959   5.5719

     occupation numbers 
     1.0000   1.0000   1.0000   1.0000   0.0000   0.0000   0.0000   0.0000

          k = 0.0133 0.3387 0.0000 (  5167 PWs)   bands (ev):

   -19.3849 -10.4490  -7.4270  -7.3119   4.1639   4.1869   5.3094   5.6979

     occupation numbers 
     1.0000   1.0000   1.0000   1.0000   0.0000   0.0000   0.0000   0.0000

          k = 0.0133 0.3464 0.0000 (  5173 PWs)   bands (ev):

   -19.2930 -10.6261  -7.4861  -7.2063   3.9807   4.3137   5.4309   5.8250

     occupation numbers 
     1.0000   1.0000   1.0000   1.0000   0.0000   0.0000   0.0000   0.0000

          k = 0.0133 0.3541 0.0000 (  5169 PWs)   bands (ev):

   -19.1992 -10.8031  -7.5437  -7.0989   3.7948   4.4432   5.5577   5.9497

     occupation numbers 
     1.0000   1.0000   1.0000   1.0000   0.0000   0.0000   0.0000   0.0000

          k = 0.0133 0.3618 0.0000 (  5173 PWs)   bands (ev):

   -19.1035 -10.9798  -7.5997  -6.9899   3.6075   4.5753   5.6887   6.0557

     occupation numbers 
     1.0000   1.0000   1.0000   1.0000   0.0000   0.0000   0.0000   0.0000

          k = 0.0133 0.3695 0.0000 (  5173 PWs)   bands (ev):

   -19.0059 -11.1562  -7.6541  -6.8793   3.4196   4.7099   5.8234   6.0994

     occupation numbers 
     1.0000   1.0000   1.0000   1.0000   0.0000   0.0000   0.0000   0.0000

          k = 0.0133 0.3772 0.0000 (  5169 PWs)   bands (ev):

   -18.9063 -11.3321  -7.7069  -6.7672   3.2317   4.8470   5.9614   6.0980

     occupation numbers 
     1.0000   1.0000   1.0000   1.0000   0.0000   0.0000   0.0000   0.0000

          k = 0.0133 0.3849 0.0000 (  5170 PWs)   bands (ev):

   -18.8049 -11.5076  -7.7579  -6.6537   3.0440   4.9863   6.0860   6.1025

     occupation numbers 
     1.0000   1.0000   1.0000   1.0000   0.0000   0.0000   0.0000   0.0000

          k = 0.0133 0.3926 0.0000 (  5176 PWs)   bands (ev):

   -18.7017 -11.6824  -7.8072  -6.5390   2.8570   5.1277   6.0718   6.2467

     occupation numbers 
     1.0000   1.0000   1.0000   1.0000   0.0000   0.0000   0.0000   0.0000

          k = 0.0133 0.4003 0.0000 (  5170 PWs)   bands (ev):

   -18.5966 -11.8566  -7.8548  -6.4231   2.6709   5.2705   6.0579   6.3937

     occupation numbers 
     1.0000   1.0000   1.0000   1.0000   0.0000   0.0000   0.0000   0.0000

          k = 0.0133 0.4080 0.0000 (  5170 PWs)   bands (ev):

   -18.4896 -12.0300  -7.9005  -6.3062   2.4860   5.4139   6.0462   6.5437

     occupation numbers 
     1.0000   1.0000   1.0000   1.0000   0.0000   0.0000   0.0000   0.0000

          k = 0.0133 0.4157 0.0000 (  5168 PWs)   bands (ev):

   -18.3809 -12.2026  -7.9444  -6.1885   2.3026   5.5554   6.0391   6.6964

     occupation numbers 
     1.0000   1.0000   1.0000   1.0000   0.0000   0.0000   0.0000   0.0000

          k = 0.0133 0.4234 0.0000 (  5172 PWs)   bands (ev):

   -18.2704 -12.3743  -7.9864  -6.0703   2.1211   5.6893   6.0430   6.8519

     occupation numbers 
     1.0000   1.0000   1.0000   1.0000   0.0000   0.0000   0.0000   0.0000

          k = 0.0133 0.4311 0.0000 (  5172 PWs)   bands (ev):

   -18.1581 -12.5450  -8.0266  -5.9516   1.9417   5.7990   6.0741   7.0101

     occupation numbers 
     1.0000   1.0000   1.0000   1.0000   0.0000   0.0000   0.0000   0.0000

          k = 0.0133 0.4388 0.0000 (  5173 PWs)   bands (ev):

   -18.0441 -12.7147  -8.0648  -5.8327   1.7648   5.8602   6.1570   7.1710

     occupation numbers 
     1.0000   1.0000   1.0000   1.0000   0.0000   0.0000   0.0000   0.0000

          k = 0.0133 0.4465 0.0000 (  5171 PWs)   bands (ev):

   -17.9285 -12.8833  -8.1011  -5.7140   1.5907   5.8796   6.2850   7.3345

     occupation numbers 
     1.0000   1.0000   1.0000   1.0000   0.0000   0.0000   0.0000   0.0000

          k = 0.0133 0.4542 0.0000 (  5169 PWs)   bands (ev):

   -17.8112 -13.0507  -8.1354  -5.5958   1.4199   5.8809   6.4347   7.5007

     occupation numbers 
     1.0000   1.0000   1.0000   1.0000   0.0000   0.0000   0.0000   0.0000

          k = 0.0133 0.4619 0.0000 (  5177 PWs)   bands (ev):

   -17.6924 -13.2168  -8.1677  -5.4784   1.2528   5.8753   6.5944   7.6693

     occupation numbers 
     1.0000   1.0000   1.0000   1.0000   0.0000   0.0000   0.0000   0.0000

          k = 0.0133 0.4696 0.0000 (  5181 PWs)   bands (ev):

   -17.5720 -13.3814  -8.1981  -5.3623   1.0899   5.8671   6.7602   7.8405

     occupation numbers 
     1.0000   1.0000   1.0000   1.0000   0.0000   0.0000   0.0000   0.0000

          k = 0.0133 0.4773 0.0000 (  5184 PWs)   bands (ev):

   -17.4502 -13.5446  -8.2264  -5.2480   0.9318   5.8579   6.9304   8.0141

     occupation numbers 
     1.0000   1.0000   1.0000   1.0000   0.0000   0.0000   0.0000   0.0000

          k = 0.0133 0.4850 0.0000 (  5186 PWs)   bands (ev):

   -17.3271 -13.7062  -8.2527  -5.1360   0.7791   5.8486   7.1043   8.1901

     occupation numbers 
     1.0000   1.0000   1.0000   1.0000   0.0000   0.0000   0.0000   0.0000

          k = 0.0133 0.4927 0.0000 (  5184 PWs)   bands (ev):

   -17.2028 -13.8659  -8.2769  -5.0271   0.6325   5.8394   7.2813   8.3683

     occupation numbers 
     1.0000   1.0000   1.0000   1.0000   0.0000   0.0000   0.0000   0.0000

          k = 0.0133 0.5004 0.0000 (  5186 PWs)   bands (ev):

   -17.0775 -14.0236  -8.2990  -4.9221   0.4928   5.8307   7.4612   8.5488

     occupation numbers 
     1.0000   1.0000   1.0000   1.0000   0.0000   0.0000   0.0000   0.0000

          k = 0.0133 0.5081 0.0000 (  5186 PWs)   bands (ev):

   -16.9514 -14.1791  -8.3191  -4.8217   0.3610   5.8225   7.6440   8.7315

     occupation numbers 
     1.0000   1.0000   1.0000   1.0000   0.0000   0.0000   0.0000   0.0000

          k = 0.0133 0.5158 0.0000 (  5192 PWs)   bands (ev):

   -16.8250 -14.3319  -8.3371  -4.7270   0.2381   5.8151   7.8294   8.9160

     occupation numbers 
     1.0000   1.0000   1.0000   1.0000   0.0000   0.0000   0.0000   0.0000

          k = 0.0133 0.5235 0.0000 (  5190 PWs)   bands (ev):

   -16.6987 -14.4814  -8.3530  -4.6391   0.1253   5.8084   8.0174   9.1024

     occupation numbers 
     1.0000   1.0000   1.0000   1.0000   0.0000   0.0000   0.0000   0.0000

          k = 0.0133 0.5312 0.0000 (  5198 PWs)   bands (ev):

   -16.5734 -14.6270  -8.3668  -4.5591   0.0237   5.8026   8.2078   9.2903

     occupation numbers 
     1.0000   1.0000   1.0000   1.0000   0.0000   0.0000   0.0000   0.0000

          k = 0.0133 0.5389 0.0000 (  5192 PWs)   bands (ev):

   -16.4503 -14.7672  -8.3785  -4.4884  -0.0654   5.7976   8.4007   9.4792

     occupation numbers 
     1.0000   1.0000   1.0000   1.0000   0.0000   0.0000   0.0000   0.0000

          k = 0.0133 0.5466 0.0000 (  5190 PWs)   bands (ev):

   -16.3317 -14.8998  -8.3881  -4.4283  -0.1406   5.7935   8.5957   9.6686

     occupation numbers 
     1.0000   1.0000   1.0000   1.0000   0.0000   0.0000   0.0000   0.0000

          k = 0.0133 0.5543 0.0000 (  5190 PWs)   bands (ev):

   -16.2214 -15.0210  -8.3955  -4.3799  -0.2007   5.7902   8.7929   9.8571

     occupation numbers 
     1.0000   1.0000   1.0000   1.0000   0.0000   0.0000   0.0000   0.0000

          k = 0.0133 0.5620 0.0000 (  5194 PWs)   bands (ev):

   -16.1265 -15.1238  -8.4009  -4.3445  -0.2446   5.7879   8.9918   9.8160

     occupation numbers 
     1.0000   1.0000   1.0000   1.0000   0.0000   0.0000   0.0000   0.0000

          k = 0.0133 0.5697 0.0000 (  5200 PWs)   bands (ev):

   -16.0587 -15.1962  -8.4041  -4.3228  -0.2713   5.7865   9.1912   9.6110

     occupation numbers 
     1.0000   1.0000   1.0000   1.0000   0.0000   0.0000   0.0000   0.0000

          k = 0.0133 0.5774 0.0000 (  5194 PWs)   bands (ev):

   -16.0335 -15.2230  -8.4051  -4.3155  -0.2802   5.7861   9.3541   9.4463

     occupation numbers 
     1.0000   1.0000   1.0000   1.0000   0.0000   0.0000   0.0000   0.0000

          k = 0.0200 0.0346 0.0000 (  5139 PWs)   bands (ev):

   -21.3848  -9.6883  -5.0568  -5.0060   1.4422   2.4886   2.8831   4.7735

     occupation numbers 
     1.0000   1.0000   1.0000   1.0000   0.0000   0.0000   0.0000   0.0000

          k = 0.0200 0.0423 0.0000 (  5137 PWs)   bands (ev):

   -21.3743  -9.6754  -5.0986  -5.0295   1.4565   2.5032   2.8978   4.7880

     occupation numbers 
     1.0000   1.0000   1.0000   1.0000   0.0000   0.0000   0.0000   0.0000

          k = 0.0200 0.0500 0.0000 (  5137 PWs)   bands (ev):

   -21.3616  -9.6600  -5.1485  -5.0575   1.4738   2.5207   2.9155   4.8054

     occupation numbers 
     1.0000   1.0000   1.0000   1.0000   0.0000   0.0000   0.0000   0.0000

          k = 0.0200 0.0577 0.0000 (  5138 PWs)   bands (ev):

   -21.3468  -9.6421  -5.2061  -5.0897   1.4940   2.5411   2.9362   4.8256

     occupation numbers 
     1.0000   1.0000   1.0000   1.0000   0.0000   0.0000   0.0000   0.0000

          k = 0.0200 0.0654 0.0000 (  5146 PWs)   bands (ev):

   -21.3298  -9.6216  -5.2714  -5.1260   1.5170   2.5644   2.9598   4.8488

     occupation numbers 
     1.0000   1.0000   1.0000   1.0000   0.0000   0.0000   0.0000   0.0000

          k = 0.0200 0.0731 0.0000 (  5146 PWs)   bands (ev):

   -21.3108  -9.5985  -5.3441  -5.1663   1.5429   2.5907   2.9864   4.8749

     occupation numbers 
     1.0000   1.0000   1.0000   1.0000   0.0000   0.0000   0.0000   0.0000

          k = 0.0200 0.0808 0.0000 (  5147 PWs)   bands (ev):

   -21.2897  -9.5729  -5.4239  -5.2102   1.5717   2.6198   3.0159   4.9038

     occupation numbers 
     1.0000   1.0000   1.0000   1.0000   0.0000   0.0000   0.0000   0.0000

          k = 0.0200 0.0885 0.0000 (  5147 PWs)   bands (ev):

   -21.2664  -9.5448  -5.5107  -5.2576   1.6033   2.6519   3.0484   4.9357

     occupation numbers 
     1.0000   1.0000   1.0000   1.0000   0.0000   0.0000   0.0000   0.0000

          k = 0.0200 0.0962 0.0000 (  5151 PWs)   bands (ev):

   -21.2411  -9.5141  -5.6041  -5.3083   1.6379   2.6869   3.0838   4.9704

     occupation numbers 
     1.0000   1.0000   1.0000   1.0000   0.0000   0.0000   0.0000   0.0000

          k = 0.0200 0.1039 0.0000 (  5157 PWs)   bands (ev):

   -21.2136  -9.4808  -5.7038  -5.3620   1.6753   2.7247   3.1222   5.0080

     occupation numbers 
     1.0000   1.0000   1.0000   1.0000   0.0000   0.0000   0.0000   0.0000

          k = 0.0200 0.1116 0.0000 (  5157 PWs)   bands (ev):

   -21.1840  -9.4451  -5.8096  -5.4185   1.7156   2.7655   3.1635   5.0484

     occupation numbers 
     1.0000   1.0000   1.0000   1.0000   0.0000   0.0000   0.0000   0.0000

          k = 0.0200 0.1193 0.0000 (  5151 PWs)   bands (ev):

   -21.1524  -9.4068  -5.9212  -5.4775   1.7588   2.8092   3.2078   5.0918

     occupation numbers 
     1.0000   1.0000   1.0000   1.0000   0.0000   0.0000   0.0000   0.0000

          k = 0.0200 0.1270 0.0000 (  5145 PWs)   bands (ev):

   -21.1186  -9.3660  -6.0382  -5.5389   1.8049   2.8558   3.2550   5.1380

     occupation numbers 
     1.0000   1.0000   1.0000   1.0000   0.0000   0.0000   0.0000   0.0000

          k = 0.0200 0.1347 0.0000 (  5146 PWs)   bands (ev):

   -21.0828  -9.3227  -6.1605  -5.6024   1.8538   2.9052   3.3052   5.1871

     occupation numbers 
     1.0000   1.0000   1.0000   1.0000   0.0000   0.0000   0.0000   0.0000

          k = 0.0200 0.1424 0.0000 (  5146 PWs)   bands (ev):

   -21.0448  -9.2769  -6.2877  -5.6679   1.9057   2.9576   3.3584   5.2390

     occupation numbers 
     1.0000   1.0000   1.0000   1.0000   0.0000   0.0000   0.0000   0.0000

          k = 0.0200 0.1501 0.0000 (  5146 PWs)   bands (ev):

   -21.0047  -9.2285  -6.4195  -5.7349   1.9604   3.0129   3.4145   5.2938

     occupation numbers 
     1.0000   1.0000   1.0000   1.0000   0.0000   0.0000   0.0000   0.0000

          k = 0.0200 0.1578 0.0000 (  5146 PWs)   bands (ev):

   -20.9626  -9.1777  -6.5556  -5.8035   2.0179   3.0710   3.4735   5.3514

     occupation numbers 
     1.0000   1.0000   1.0000   1.0000   0.0000   0.0000   0.0000   0.0000

          k = 0.0200 0.1655 0.0000 (  5146 PWs)   bands (ev):

   -20.9184  -9.1245  -6.6959  -5.8733   2.0784   3.1320   3.5355   5.4119

     occupation numbers 
     1.0000   1.0000   1.0000   1.0000   0.0000   0.0000   0.0000   0.0000

          k = 0.0200 0.1732 0.0000 (  5149 PWs)   bands (ev):

   -20.8721  -9.0687  -6.8399  -5.9442   2.1417   3.1959   3.6005   5.4751

     occupation numbers 
     1.0000   1.0000   1.0000   1.0000   0.0000   0.0000   0.0000   0.0000

          k = 0.0200 0.1809 0.0000 (  5149 PWs)   bands (ev):

   -20.8237  -9.0106  -6.9875  -6.0160   2.2079   3.2627   3.6684   5.5411

     occupation numbers 
     1.0000   1.0000   1.0000   1.0000   0.0000   0.0000   0.0000   0.0000

          k = 0.0200 0.1886 0.0000 (  5147 PWs)   bands (ev):

   -20.7732  -8.9499  -7.1383  -6.0884   2.2770   3.3323   3.7393   5.6099

     occupation numbers 
     1.0000   1.0000   1.0000   1.0000   0.0000   0.0000   0.0000   0.0000

          k = 0.0200 0.1963 0.0000 (  5148 PWs)   bands (ev):

   -20.7207  -8.8869  -7.2922  -6.1614   2.3489   3.4047   3.8131   5.6813

     occupation numbers 
     1.0000   1.0000   1.0000   1.0000   0.0000   0.0000   0.0000   0.0000

          k = 0.0200 0.2040 0.0000 (  5144 PWs)   bands (ev):

   -20.6661  -8.8214  -7.4489  -6.2348   2.4237   3.4800   3.8898   5.7553

     occupation numbers 
     1.0000   1.0000   1.0000   1.0000   0.0000   0.0000   0.0000   0.0000

          k = 0.0200 0.2117 0.0000 (  5142 PWs)   bands (ev):

   -20.6094  -8.7535  -7.6082  -6.3083   2.5014   3.5581   3.9695   5.8317

     occupation numbers 
     1.0000   1.0000   1.0000   1.0000   0.0000   0.0000   0.0000   0.0000

          k = 0.0200 0.2194 0.0000 (  5140 PWs)   bands (ev):

   -20.5507  -8.6833  -7.7699  -6.3819   2.5819   3.6390   4.0522   5.9102

     occupation numbers 
     1.0000   1.0000   1.0000   1.0000   0.0000   0.0000   0.0000   0.0000

          k = 0.0200 0.2271 0.0000 (  5144 PWs)   bands (ev):

   -20.4899  -8.6107  -7.9338  -6.4555   2.6653   3.7226   4.1378   5.9900

     occupation numbers 
     1.0000   1.0000   1.0000   1.0000   0.0000   0.0000   0.0000   0.0000

          k = 0.0200 0.2348 0.0000 (  5150 PWs)   bands (ev):

   -20.4270  -8.5357  -8.0996  -6.5288   2.7516   3.8089   4.2263   6.0696

     occupation numbers 
     1.0000   1.0000   1.0000   1.0000   0.0000   0.0000   0.0000   0.0000

          k = 0.0200 0.2425 0.0000 (  5146 PWs)   bands (ev):

   -20.3622  -8.4584  -8.2672  -6.6017   2.8407   3.8979   4.3178   6.1429

     occupation numbers 
     1.0000   1.0000   1.0000   1.0000   0.0000   0.0000   0.0000   0.0000

          k = 0.0200 0.2502 0.0000 (  5150 PWs)   bands (ev):

   -20.2952  -8.4364  -8.3788  -6.6743   2.9326   3.9894   4.4122   6.1808

     occupation numbers 
     1.0000   1.0000   1.0000   1.0000   0.0000   0.0000   0.0000   0.0000

          k = 0.0200 0.2579 0.0000 (  5152 PWs)   bands (ev):

   -20.2263  -8.6071  -8.2969  -6.7462   3.0274   4.0834   4.5095   6.1072

     occupation numbers 
     1.0000   1.0000   1.0000   1.0000   0.0000   0.0000   0.0000   0.0000

          k = 0.0200 0.2656 0.0000 (  5150 PWs)   bands (ev):

   -20.1553  -8.7789  -8.2128  -6.8175   3.1250   4.1796   4.6098   5.9588

     occupation numbers 
     1.0000   1.0000   1.0000   1.0000   0.0000   0.0000   0.0000   0.0000

          k = 0.0200 0.2733 0.0000 (  5152 PWs)   bands (ev):

   -20.0823  -8.9520  -8.1264  -6.8880   3.2254   4.2776   4.7130   5.7922

     occupation numbers 
     1.0000   1.0000   1.0000   1.0000   0.0000   0.0000   0.0000   0.0000

          k = 0.0200 0.2810 0.0000 (  5146 PWs)   bands (ev):

   -20.0072  -9.1259  -8.0379  -6.9576   3.3287   4.3767   4.8191   5.6204

     occupation numbers 
     1.0000   1.0000   1.0000   1.0000   0.0000   0.0000   0.0000   0.0000

          k = 0.0200 0.2887 0.0000 (  5152 PWs)   bands (ev):

   -19.9302  -9.3007  -7.9471  -7.0263   3.4348   4.4752   4.9281   5.4483

     occupation numbers 
     1.0000   1.0000   1.0000   1.0000   0.0000   0.0000   0.0000   0.0000

          k = 0.0200 0.2964 0.0000 (  5152 PWs)   bands (ev):

   -19.8512  -9.4762  -7.8543  -7.0939   3.5437   4.5693   5.0400   5.2811

     occupation numbers 
     1.0000   1.0000   1.0000   1.0000   0.0000   0.0000   0.0000   0.0000

          k = 0.0200 0.3041 0.0000 (  5153 PWs)   bands (ev):

   -19.7701  -9.6522  -7.7593  -7.1604   3.6554   4.6460   5.1322   5.1547

     occupation numbers 
     1.0000   1.0000   1.0000   1.0000   0.0000   0.0000   0.0000   0.0000

          k = 0.0200 0.3118 0.0000 (  5157 PWs)   bands (ev):

   -19.6871  -9.8286  -7.6623  -7.2257   3.7699   4.6639   5.0435   5.2722

     occupation numbers 
     1.0000   1.0000   1.0000   1.0000   0.0000   0.0000   0.0000   0.0000

          k = 0.0200 0.3195 0.0000 (  5159 PWs)   bands (ev):

   -19.6021 -10.0054  -7.5633  -7.2898   3.8872   4.5753   5.0629   5.3925

     occupation numbers 
     1.0000   1.0000   1.0000   1.0000   0.0000   0.0000   0.0000   0.0000

          k = 0.0200 0.3272 0.0000 (  5163 PWs)   bands (ev):

   -19.5151 -10.1823  -7.4624  -7.3525   4.0072   4.4235   5.1475   5.5153

     occupation numbers 
     1.0000   1.0000   1.0000   1.0000   0.0000   0.0000   0.0000   0.0000

          k = 0.0200 0.3349 0.0000 (  5169 PWs)   bands (ev):

   -19.4262 -10.3593  -7.4139  -7.3595   4.1300   4.2504   5.2555   5.6405

     occupation numbers 
     1.0000   1.0000   1.0000   1.0000   0.0000   0.0000   0.0000   0.0000

          k = 0.0200 0.3426 0.0000 (  5169 PWs)   bands (ev):

   -19.3353 -10.5364  -7.4738  -7.2548   4.0693   4.2555   5.3738   5.7675

     occupation numbers 
     1.0000   1.0000   1.0000   1.0000   0.0000   0.0000   0.0000   0.0000

          k = 0.0200 0.3503 0.0000 (  5173 PWs)   bands (ev):

   -19.2425 -10.7133  -7.5322  -7.1483   3.8846   4.3836   5.4983   5.8948

     occupation numbers 
     1.0000   1.0000   1.0000   1.0000   0.0000   0.0000   0.0000   0.0000

          k = 0.0200 0.3580 0.0000 (  5171 PWs)   bands (ev):

   -19.1477 -10.8900  -7.5890  -7.0401   3.6980   4.5144   5.6274   6.0159

     occupation numbers 
     1.0000   1.0000   1.0000   1.0000   0.0000   0.0000   0.0000   0.0000

          k = 0.0200 0.3657 0.0000 (  5171 PWs)   bands (ev):

   -19.0511 -11.0664  -7.6443  -6.9302   3.5105   4.6479   5.7603   6.1084

     occupation numbers 
     1.0000   1.0000   1.0000   1.0000   0.0000   0.0000   0.0000   0.0000

          k = 0.0200 0.3734 0.0000 (  5169 PWs)   bands (ev):

   -18.9525 -11.2424  -7.6979  -6.8189   3.3227   4.7838   5.8967   6.1225

     occupation numbers 
     1.0000   1.0000   1.0000   1.0000   0.0000   0.0000   0.0000   0.0000

          k = 0.0200 0.3811 0.0000 (  5163 PWs)   bands (ev):

   -18.8521 -11.4180  -7.7499  -6.7061   3.1350   4.9221   6.0363   6.1150

     occupation numbers 
     1.0000   1.0000   1.0000   1.0000   0.0000   0.0000   0.0000   0.0000

          k = 0.0200 0.3887 0.0000 (  5166 PWs)   bands (ev):

   -18.7497 -11.5930  -7.8001  -6.5919   2.9478   5.0626   6.1017   6.1789

     occupation numbers 
     1.0000   1.0000   1.0000   1.0000   0.0000   0.0000   0.0000   0.0000

          k = 0.0200 0.3964 0.0000 (  5170 PWs)   bands (ev):

   -18.6456 -11.7675  -7.8486  -6.4766   2.7613   5.2049   6.0875   6.3245

     occupation numbers 
     1.0000   1.0000   1.0000   1.0000   0.0000   0.0000   0.0000   0.0000

          k = 0.0200 0.4041 0.0000 (  5172 PWs)   bands (ev):

   -18.5395 -11.9412  -7.8952  -6.3602   2.5759   5.3484   6.0743   6.4730

     occupation numbers 
     1.0000   1.0000   1.0000   1.0000   0.0000   0.0000   0.0000   0.0000

          k = 0.0200 0.4118 0.0000 (  5172 PWs)   bands (ev):

   -18.4317 -12.1141  -7.9401  -6.2429   2.3919   5.4918   6.0640   6.6244

     occupation numbers 
     1.0000   1.0000   1.0000   1.0000   0.0000   0.0000   0.0000   0.0000

          k = 0.0200 0.4195 0.0000 (  5172 PWs)   bands (ev):

   -18.3221 -12.2862  -7.9831  -6.1249   2.2096   5.6317   6.0601   6.7784

     occupation numbers 
     1.0000   1.0000   1.0000   1.0000   0.0000   0.0000   0.0000   0.0000

          k = 0.0200 0.4272 0.0000 (  5171 PWs)   bands (ev):

   -18.2107 -12.4573  -8.0242  -6.0064   2.0292   5.7592   6.0719   6.9353

     occupation numbers 
     1.0000   1.0000   1.0000   1.0000   0.0000   0.0000   0.0000   0.0000

          k = 0.0200 0.4349 0.0000 (  5175 PWs)   bands (ev):

   -18.0976 -12.6275  -8.0634  -5.8876   1.8512   5.8521   6.1215   7.0948

     occupation numbers 
     1.0000   1.0000   1.0000   1.0000   0.0000   0.0000   0.0000   0.0000

          k = 0.0200 0.4426 0.0000 (  5171 PWs)   bands (ev):

   -17.9828 -12.7965  -8.1007  -5.7688   1.6758   5.8938   6.2256   7.2569

     occupation numbers 
     1.0000   1.0000   1.0000   1.0000   0.0000   0.0000   0.0000   0.0000

          k = 0.0200 0.4503 0.0000 (  5171 PWs)   bands (ev):

   -17.8663 -12.9644  -8.1360  -5.6503   1.5034   5.9038   6.3648   7.4217

     occupation numbers 
     1.0000   1.0000   1.0000   1.0000   0.0000   0.0000   0.0000   0.0000

          k = 0.0200 0.4580 0.0000 (  5173 PWs)   bands (ev):

   -17.7483 -13.1311  -8.1694  -5.5324   1.3345   5.9015   6.5196   7.5890

     occupation numbers 
     1.0000   1.0000   1.0000   1.0000   0.0000   0.0000   0.0000   0.0000

          k = 0.0200 0.4657 0.0000 (  5179 PWs)   bands (ev):

   -17.6287 -13.2964  -8.2007  -5.4156   1.1695   5.8946   6.6823   7.7589

     occupation numbers 
     1.0000   1.0000   1.0000   1.0000   0.0000   0.0000   0.0000   0.0000

          k = 0.0200 0.4734 0.0000 (  5185 PWs)   bands (ev):

   -17.5076 -13.4603  -8.2300  -5.3003   1.0090   5.8860   6.8503   7.9312

     occupation numbers 
     1.0000   1.0000   1.0000   1.0000   0.0000   0.0000   0.0000   0.0000

          k = 0.0200 0.4811 0.0000 (  5188 PWs)   bands (ev):

   -17.3851 -13.6226  -8.2573  -5.1871   0.8536   5.8767   7.0223   8.1059

     occupation numbers 
     1.0000   1.0000   1.0000   1.0000   0.0000   0.0000   0.0000   0.0000

          k = 0.0200 0.4888 0.0000 (  5184 PWs)   bands (ev):

   -17.2614 -13.7832  -8.2826  -5.0766   0.7039   5.8675   7.1977   8.2829

     occupation numbers 
     1.0000   1.0000   1.0000   1.0000   0.0000   0.0000   0.0000   0.0000

          k = 0.0200 0.4965 0.0000 (  5184 PWs)   bands (ev):

   -17.1366 -13.9420  -8.3058  -4.9695   0.5607   5.8586   7.3761   8.4622

     occupation numbers 
     1.0000   1.0000   1.0000   1.0000   0.0000   0.0000   0.0000   0.0000

          k = 0.0200 0.5042 0.0000 (  5182 PWs)   bands (ev):

   -17.0109 -14.0985  -8.3269  -4.8666   0.4249   5.8501   7.5575   8.6436

     occupation numbers 
     1.0000   1.0000   1.0000   1.0000   0.0000   0.0000   0.0000   0.0000

          k = 0.0200 0.5119 0.0000 (  5188 PWs)   bands (ev):

   -16.8847 -14.2527  -8.3460  -4.7689   0.2975   5.8424   7.7415   8.8271

     occupation numbers 
     1.0000   1.0000   1.0000   1.0000   0.0000   0.0000   0.0000   0.0000

          k = 0.0200 0.5196 0.0000 (  5194 PWs)   bands (ev):

   -16.7582 -14.4039  -8.3629  -4.6774   0.1795   5.8353   7.9282   9.0124

     occupation numbers 
     1.0000   1.0000   1.0000   1.0000   0.0000   0.0000   0.0000   0.0000

          k = 0.0200 0.5273 0.0000 (  5198 PWs)   bands (ev):

   -16.6323 -14.5515  -8.3778  -4.5933   0.0721   5.8291   8.1174   9.1993

     occupation numbers 
     1.0000   1.0000   1.0000   1.0000   0.0000   0.0000   0.0000   0.0000

          k = 0.0200 0.5350 0.0000 (  5194 PWs)   bands (ev):

   -16.5079 -14.6946  -8.3906  -4.5178  -0.0234   5.8236   8.3090   9.3875

     occupation numbers 
     1.0000   1.0000   1.0000   1.0000   0.0000   0.0000   0.0000   0.0000

          k = 0.0200 0.5427 0.0000 (  5194 PWs)   bands (ev):

   -16.3868 -14.8313  -8.4012  -4.4522  -0.1057   5.8191   8.5029   9.5765

     occupation numbers 
     1.0000   1.0000   1.0000   1.0000   0.0000   0.0000   0.0000   0.0000

          k = 0.0200 0.5504 0.0000 (  5190 PWs)   bands (ev):

   -16.2717 -14.9588  -8.4097  -4.3977  -0.1735   5.8154   8.6990   9.7652

     occupation numbers 
     1.0000   1.0000   1.0000   1.0000   0.0000   0.0000   0.0000   0.0000

          k = 0.0200 0.5581 0.0000 (  5188 PWs)   bands (ev):

   -16.1680 -15.0719  -8.4161  -4.3557  -0.2256   5.8126   8.8971   9.9245

     occupation numbers 
     1.0000   1.0000   1.0000   1.0000   0.0000   0.0000   0.0000   0.0000

          k = 0.0200 0.5658 0.0000 (  5194 PWs)   bands (ev):

   -16.0849 -15.1612  -8.4203  -4.3270  -0.2610   5.8108   9.0965   9.7175

     occupation numbers 
     1.0000   1.0000   1.0000   1.0000   0.0000   0.0000   0.0000   0.0000

          k = 0.0200 0.5735 0.0000 (  5196 PWs)   bands (ev):

   -16.0366 -15.2126  -8.4225  -4.3125  -0.2789   5.8098   9.2928   9.5175

     occupation numbers 
     1.0000   1.0000   1.0000   1.0000   0.0000   0.0000   0.0000   0.0000

          k = 0.0267 0.0462 0.0000 (  5143 PWs)   bands (ev):

   -21.3626  -9.6613  -5.1440  -5.0555   1.4724   2.5192   2.9141   4.8039

     occupation numbers 
     1.0000   1.0000   1.0000   1.0000   0.0000   0.0000   0.0000   0.0000

          k = 0.0267 0.0539 0.0000 (  5145 PWs)   bands (ev):

   -21.3489  -9.6447  -5.1973  -5.0858   1.4911   2.5382   2.9332   4.8228

     occupation numbers 
     1.0000   1.0000   1.0000   1.0000   0.0000   0.0000   0.0000   0.0000

          k = 0.0267 0.0616 0.0000 (  5148 PWs)   bands (ev):

   -21.3330  -9.6254  -5.2581  -5.1204   1.5127   2.5601   2.9554   4.8445

     occupation numbers 
     1.0000   1.0000   1.0000   1.0000   0.0000   0.0000   0.0000   0.0000

          k = 0.0267 0.0693 0.0000 (  5152 PWs)   bands (ev):

   -21.3150  -9.6037  -5.3264  -5.1591   1.5371   2.5848   2.9805   4.8691

     occupation numbers 
     1.0000   1.0000   1.0000   1.0000   0.0000   0.0000   0.0000   0.0000

          k = 0.0267 0.0770 0.0000 (  5150 PWs)   bands (ev):

   -21.2950  -9.5793  -5.4019  -5.2016   1.5645   2.6125   3.0085   4.8966

     occupation numbers 
     1.0000   1.0000   1.0000   1.0000   0.0000   0.0000   0.0000   0.0000

          k = 0.0267 0.0847 0.0000 (  5147 PWs)   bands (ev):

   -21.2728  -9.5524  -5.4844  -5.2477   1.5947   2.6431   3.0395   4.9270

     occupation numbers 
     1.0000   1.0000   1.0000   1.0000   0.0000   0.0000   0.0000   0.0000

          k = 0.0267 0.0924 0.0000 (  5151 PWs)   bands (ev):

   -21.2485  -9.5230  -5.5736  -5.2971   1.6278   2.6767   3.0735   4.9602

     occupation numbers 
     1.0000   1.0000   1.0000   1.0000   0.0000   0.0000   0.0000   0.0000

          k = 0.0267 0.1001 0.0000 (  5154 PWs)   bands (ev):

   -21.2221  -9.4911  -5.6693  -5.3498   1.6638   2.7131   3.1104   4.9964

     occupation numbers 
     1.0000   1.0000   1.0000   1.0000   0.0000   0.0000   0.0000   0.0000

          k = 0.0267 0.1078 0.0000 (  5158 PWs)   bands (ev):

   -21.1936  -9.4566  -5.7713  -5.4054   1.7027   2.7524   3.1502   5.0354

     occupation numbers 
     1.0000   1.0000   1.0000   1.0000   0.0000   0.0000   0.0000   0.0000

          k = 0.0267 0.1155 0.0000 (  5156 PWs)   bands (ev):

   -21.1629  -9.4195  -5.8791  -5.4636   1.7444   2.7946   3.1930   5.0774

     occupation numbers 
     1.0000   1.0000   1.0000   1.0000   0.0000   0.0000   0.0000   0.0000

          k = 0.0267 0.1232 0.0000 (  5154 PWs)   bands (ev):

   -21.1302  -9.3800  -5.9925  -5.5244   1.7890   2.8398   3.2388   5.1221

     occupation numbers 
     1.0000   1.0000   1.0000   1.0000   0.0000   0.0000   0.0000   0.0000

          k = 0.0267 0.1309 0.0000 (  5152 PWs)   bands (ev):

   -21.0954  -9.3380  -6.1114  -5.5873   1.8366   2.8878   3.2875   5.1698

     occupation numbers 
     1.0000   1.0000   1.0000   1.0000   0.0000   0.0000   0.0000   0.0000

          k = 0.0267 0.1386 0.0000 (  5150 PWs)   bands (ev):

   -21.0585  -9.2934  -6.2352  -5.6522   1.8869   2.9387   3.3392   5.2203

     occupation numbers 
     1.0000   1.0000   1.0000   1.0000   0.0000   0.0000   0.0000   0.0000

          k = 0.0267 0.1463 0.0000 (  5146 PWs)   bands (ev):

   -21.0195  -9.2463  -6.3639  -5.7189   1.9402   2.9925   3.3938   5.2737

     occupation numbers 
     1.0000   1.0000   1.0000   1.0000   0.0000   0.0000   0.0000   0.0000

          k = 0.0267 0.1540 0.0000 (  5148 PWs)   bands (ev):

   -20.9784  -9.1968  -6.4971  -5.7872   1.9964   3.0492   3.4514   5.3299

     occupation numbers 
     1.0000   1.0000   1.0000   1.0000   0.0000   0.0000   0.0000   0.0000

          k = 0.0267 0.1617 0.0000 (  5148 PWs)   bands (ev):

   -20.9352  -9.1448  -6.6345  -5.8568   2.0554   3.1088   3.5119   5.3889

     occupation numbers 
     1.0000   1.0000   1.0000   1.0000   0.0000   0.0000   0.0000   0.0000

          k = 0.0267 0.1694 0.0000 (  5151 PWs)   bands (ev):

   -20.8900  -9.0903  -6.7759  -5.9276   2.1173   3.1712   3.5754   5.4507

     occupation numbers 
     1.0000   1.0000   1.0000   1.0000   0.0000   0.0000   0.0000   0.0000

          k = 0.0267 0.1771 0.0000 (  5153 PWs)   bands (ev):

   -20.8426  -9.0333  -6.9210  -5.9993   2.1820   3.2366   3.6418   5.5154

     occupation numbers 
     1.0000   1.0000   1.0000   1.0000   0.0000   0.0000   0.0000   0.0000

          k = 0.0267 0.1848 0.0000 (  5153 PWs)   bands (ev):

   -20.7932  -8.9739  -7.0695  -6.0718   2.2497   3.3047   3.7112   5.5828

     occupation numbers 
     1.0000   1.0000   1.0000   1.0000   0.0000   0.0000   0.0000   0.0000

          k = 0.0267 0.1925 0.0000 (  5149 PWs)   bands (ev):

   -20.7417  -8.9121  -7.2212  -6.1449   2.3202   3.3758   3.7836   5.6529

     occupation numbers 
     1.0000   1.0000   1.0000   1.0000   0.0000   0.0000   0.0000   0.0000

          k = 0.0267 0.2001 0.0000 (  5144 PWs)   bands (ev):

   -20.6881  -8.8478  -7.3759  -6.2184   2.3936   3.4496   3.8588   5.7256

     occupation numbers 
     1.0000   1.0000   1.0000   1.0000   0.0000   0.0000   0.0000   0.0000

          k = 0.0267 0.2078 0.0000 (  5140 PWs)   bands (ev):

   -20.6325  -8.7811  -7.5333  -6.2922   2.4698   3.5263   3.9371   5.8008

     occupation numbers 
     1.0000   1.0000   1.0000   1.0000   0.0000   0.0000   0.0000   0.0000

          k = 0.0267 0.2155 0.0000 (  5146 PWs)   bands (ev):

   -20.5748  -8.7121  -7.6932  -6.3661   2.5489   3.6058   4.0183   5.8783

     occupation numbers 
     1.0000   1.0000   1.0000   1.0000   0.0000   0.0000   0.0000   0.0000

          k = 0.0267 0.2232 0.0000 (  5148 PWs)   bands (ev):

   -20.5150  -8.6407  -7.8555  -6.4399   2.6309   3.6881   4.1024   5.9576

     occupation numbers 
     1.0000   1.0000   1.0000   1.0000   0.0000   0.0000   0.0000   0.0000

          k = 0.0267 0.2309 0.0000 (  5154 PWs)   bands (ev):

   -20.4532  -8.5669  -8.0198  -6.5136   2.7157   3.7730   4.1895   6.0377

     occupation numbers 
     1.0000   1.0000   1.0000   1.0000   0.0000   0.0000   0.0000   0.0000

          k = 0.0267 0.2386 0.0000 (  5156 PWs)   bands (ev):

   -20.3894  -8.4908  -8.1861  -6.5870   2.8034   3.8607   4.2795   6.1152

     occupation numbers 
     1.0000   1.0000   1.0000   1.0000   0.0000   0.0000   0.0000   0.0000

          k = 0.0267 0.2463 0.0000 (  5154 PWs)   bands (ev):

   -20.3235  -8.4123  -8.3540  -6.6600   2.8939   3.9510   4.3724   6.1761

     occupation numbers 
     1.0000   1.0000   1.0000   1.0000   0.0000   0.0000   0.0000   0.0000

          k = 0.0267 0.2540 0.0000 (  5148 PWs)   bands (ev):

   -20.2555  -8.5235  -8.3316  -6.7325   2.9872   4.0438   4.4683   6.1574

     occupation numbers 
     1.0000   1.0000   1.0000   1.0000   0.0000   0.0000   0.0000   0.0000

          k = 0.0267 0.2617 0.0000 (  5152 PWs)   bands (ev):

   -20.1856  -8.6944  -8.2486  -6.8043   3.0834   4.1389   4.5671   6.0296

     occupation numbers 
     1.0000   1.0000   1.0000   1.0000   0.0000   0.0000   0.0000   0.0000

          k = 0.0267 0.2694 0.0000 (  5148 PWs)   bands (ev):

   -20.1136  -8.8664  -8.1634  -6.8754   3.1825   4.2361   4.6688   5.8680

     occupation numbers 
     1.0000   1.0000   1.0000   1.0000   0.0000   0.0000   0.0000   0.0000

          k = 0.0267 0.2771 0.0000 (  5151 PWs)   bands (ev):

   -20.0396  -9.0396  -8.0759  -6.9456   3.2843   4.3347   4.7735   5.6978

     occupation numbers 
     1.0000   1.0000   1.0000   1.0000   0.0000   0.0000   0.0000   0.0000

          k = 0.0267 0.2848 0.0000 (  5158 PWs)   bands (ev):

   -19.9635  -9.2136  -7.9863  -7.0149   3.3890   4.4338   4.8811   5.5256

     occupation numbers 
     1.0000   1.0000   1.0000   1.0000   0.0000   0.0000   0.0000   0.0000

          k = 0.0267 0.2925 0.0000 (  5154 PWs)   bands (ev):

   -19.8855  -9.3884  -7.8945  -7.0832   3.4965   4.5308   4.9915   5.3554

     occupation numbers 
     1.0000   1.0000   1.0000   1.0000   0.0000   0.0000   0.0000   0.0000

          k = 0.0267 0.3002 0.0000 (  5154 PWs)   bands (ev):

   -19.8055  -9.5638  -7.8006  -7.1504   3.6068   4.6184   5.1048   5.1953

     occupation numbers 
     1.0000   1.0000   1.0000   1.0000   0.0000   0.0000   0.0000   0.0000

          k = 0.0267 0.3079 0.0000 (  5154 PWs)   bands (ev):

   -19.7234  -9.7398  -7.7046  -7.2165   3.7199   4.6715   5.0710   5.2210

     occupation numbers 
     1.0000   1.0000   1.0000   1.0000   0.0000   0.0000   0.0000   0.0000

          k = 0.0267 0.3156 0.0000 (  5156 PWs)   bands (ev):

   -19.6394  -9.9161  -7.6066  -7.2813   3.8358   4.6313   5.0414   5.3399

     occupation numbers 
     1.0000   1.0000   1.0000   1.0000   0.0000   0.0000   0.0000   0.0000

          k = 0.0267 0.3233 0.0000 (  5158 PWs)   bands (ev):

   -19.5534 -10.0927  -7.5066  -7.3448   3.9545   4.4999   5.1049   5.4616

     occupation numbers 
     1.0000   1.0000   1.0000   1.0000   0.0000   0.0000   0.0000   0.0000

          k = 0.0267 0.3310 0.0000 (  5157 PWs)   bands (ev):

   -19.4655 -10.2695  -7.4070  -7.4047   4.0759   4.3337   5.2052   5.5857

     occupation numbers 
     1.0000   1.0000   1.0000   1.0000   0.0000   0.0000   0.0000   0.0000

          k = 0.0267 0.3387 0.0000 (  5167 PWs)   bands (ev):

   -19.3756 -10.4463  -7.4677  -7.3009   4.1556   4.2001   5.3197   5.7121

     occupation numbers 
     1.0000   1.0000   1.0000   1.0000   0.0000   0.0000   0.0000   0.0000

          k = 0.0267 0.3464 0.0000 (  5165 PWs)   bands (ev):

   -19.2838 -10.6230  -7.5269  -7.1953   3.9724   4.3269   5.4417   5.8399

     occupation numbers 
     1.0000   1.0000   1.0000   1.0000   0.0000   0.0000   0.0000   0.0000

          k = 0.0267 0.3541 0.0000 (  5171 PWs)   bands (ev):

   -19.1900 -10.7997  -7.5847  -7.0880   3.7867   4.4565   5.5688   5.9667

     occupation numbers 
     1.0000   1.0000   1.0000   1.0000   0.0000   0.0000   0.0000   0.0000

          k = 0.0267 0.3618 0.0000 (  5169 PWs)   bands (ev):

   -19.0943 -10.9760  -7.6408  -6.9790   3.5998   4.5886   5.6999   6.0823

     occupation numbers 
     1.0000   1.0000   1.0000   1.0000   0.0000   0.0000   0.0000   0.0000

          k = 0.0267 0.3695 0.0000 (  5171 PWs)   bands (ev):

   -18.9967 -11.1521  -7.6953  -6.8684   3.4123   4.7233   5.8347   6.1458

     occupation numbers 
     1.0000   1.0000   1.0000   1.0000   0.0000   0.0000   0.0000   0.0000

          k = 0.0267 0.3772 0.0000 (  5165 PWs)   bands (ev):

   -18.8972 -11.3277  -7.7482  -6.7563   3.2247   4.8605   5.9727   6.1506

     occupation numbers 
     1.0000   1.0000   1.0000   1.0000   0.0000   0.0000   0.0000   0.0000

          k = 0.0267 0.3849 0.0000 (  5166 PWs)   bands (ev):

   -18.7958 -11.5029  -7.7993  -6.6428   3.0374   5.0000   6.1138   6.1401

     occupation numbers 
     1.0000   1.0000   1.0000   1.0000   0.0000   0.0000   0.0000   0.0000

          k = 0.0267 0.3926 0.0000 (  5164 PWs)   bands (ev):

   -18.6925 -11.6775  -7.8487  -6.5281   2.8508   5.1416   6.1263   6.2580

     occupation numbers 
     1.0000   1.0000   1.0000   1.0000   0.0000   0.0000   0.0000   0.0000

          k = 0.0267 0.4003 0.0000 (  5172 PWs)   bands (ev):

   -18.5875 -11.8514  -7.8963  -6.4122   2.6651   5.2849   6.1123   6.4050

     occupation numbers 
     1.0000   1.0000   1.0000   1.0000   0.0000   0.0000   0.0000   0.0000

          k = 0.0267 0.4080 0.0000 (  5172 PWs)   bands (ev):

   -18.4806 -12.0246  -7.9421  -6.2953   2.4806   5.4290   6.0999   6.5549

     occupation numbers 
     1.0000   1.0000   1.0000   1.0000   0.0000   0.0000   0.0000   0.0000

          k = 0.0267 0.4157 0.0000 (  5171 PWs)   bands (ev):

   -18.3718 -12.1969  -7.9861  -6.1777   2.2976   5.5722   6.0914   6.7075

     occupation numbers 
     1.0000   1.0000   1.0000   1.0000   0.0000   0.0000   0.0000   0.0000

          k = 0.0267 0.4234 0.0000 (  5173 PWs)   bands (ev):

   -18.2614 -12.3685  -8.0282  -6.0594   2.1164   5.7098   6.0916   6.8630

     occupation numbers 
     1.0000   1.0000   1.0000   1.0000   0.0000   0.0000   0.0000   0.0000

          k = 0.0267 0.4311 0.0000 (  5175 PWs)   bands (ev):

   -18.1491 -12.5390  -8.0684  -5.9407   1.9374   5.8287   6.1135   7.0211

     occupation numbers 
     1.0000   1.0000   1.0000   1.0000   0.0000   0.0000   0.0000   0.0000

          k = 0.0267 0.4388 0.0000 (  5177 PWs)   bands (ev):

   -18.0352 -12.7085  -8.1067  -5.8219   1.7608   5.9036   6.1828   7.1818

     occupation numbers 
     1.0000   1.0000   1.0000   1.0000   0.0000   0.0000   0.0000   0.0000

          k = 0.0267 0.4465 0.0000 (  5175 PWs)   bands (ev):

   -17.9196 -12.8769  -8.1430  -5.7031   1.5870   5.9309   6.3030   7.3452

     occupation numbers 
     1.0000   1.0000   1.0000   1.0000   0.0000   0.0000   0.0000   0.0000

          k = 0.0267 0.4542 0.0000 (  5173 PWs)   bands (ev):

   -17.8023 -13.0441  -8.1773  -5.5849   1.4165   5.9350   6.4497   7.5112

     occupation numbers 
     1.0000   1.0000   1.0000   1.0000   0.0000   0.0000   0.0000   0.0000

          k = 0.0267 0.4619 0.0000 (  5179 PWs)   bands (ev):

   -17.6835 -13.2100  -8.2097  -5.4675   1.2496   5.9306   6.6083   7.6797

     occupation numbers 
     1.0000   1.0000   1.0000   1.0000   0.0000   0.0000   0.0000   0.0000

          k = 0.0267 0.4696 0.0000 (  5185 PWs)   bands (ev):

   -17.5632 -13.3746  -8.2401  -5.3514   1.0869   5.9230   6.7735   7.8507

     occupation numbers 
     1.0000   1.0000   1.0000   1.0000   0.0000   0.0000   0.0000   0.0000

          k = 0.0267 0.4773 0.0000 (  5183 PWs)   bands (ev):

   -17.4414 -13.5376  -8.2684  -5.2370   0.9290   5.9141   6.9434   8.0240

     occupation numbers 
     1.0000   1.0000   1.0000   1.0000   0.0000   0.0000   0.0000   0.0000

          k = 0.0267 0.4850 0.0000 (  5183 PWs)   bands (ev):

   -17.3183 -13.6990  -8.2947  -5.1250   0.7764   5.9049   7.1170   8.1998

     occupation numbers 
     1.0000   1.0000   1.0000   1.0000   0.0000   0.0000   0.0000   0.0000

          k = 0.0267 0.4927 0.0000 (  5184 PWs)   bands (ev):

   -17.1941 -13.8586  -8.3190  -5.0161   0.6300   5.8958   7.2939   8.3778

     occupation numbers 
     1.0000   1.0000   1.0000   1.0000   0.0000   0.0000   0.0000   0.0000

          k = 0.0267 0.5004 0.0000 (  5182 PWs)   bands (ev):

   -17.0688 -14.0162  -8.3411  -4.9110   0.4905   5.8872   7.4737   8.5579

     occupation numbers 
     1.0000   1.0000   1.0000   1.0000   0.0000   0.0000   0.0000   0.0000

          k = 0.0267 0.5081 0.0000 (  5182 PWs)   bands (ev):

   -16.9428 -14.1715  -8.3612  -4.8105   0.3588   5.8791   7.6564   8.7402

     occupation numbers 
     1.0000   1.0000   1.0000   1.0000   0.0000   0.0000   0.0000   0.0000

          k = 0.0267 0.5158 0.0000 (  5192 PWs)   bands (ev):

   -16.8164 -14.3242  -8.3793  -4.7157   0.2360   5.8717   7.8417   8.9243

     occupation numbers 
     1.0000   1.0000   1.0000   1.0000   0.0000   0.0000   0.0000   0.0000

          k = 0.0267 0.5235 0.0000 (  5192 PWs)   bands (ev):

   -16.6902 -14.4737  -8.3952  -4.6277   0.1232   5.8651   8.0296   9.1102

     occupation numbers 
     1.0000   1.0000   1.0000   1.0000   0.0000   0.0000   0.0000   0.0000

          k = 0.0267 0.5312 0.0000 (  5190 PWs)   bands (ev):

   -16.5649 -14.6191  -8.4090  -4.5477   0.0216   5.8592   8.2199   9.2974

     occupation numbers 
     1.0000   1.0000   1.0000   1.0000   0.0000   0.0000   0.0000   0.0000

          k = 0.0267 0.5389 0.0000 (  5192 PWs)   bands (ev):

   -16.4419 -14.7592  -8.4207  -4.4770  -0.0675   5.8542   8.4127   9.4857

     occupation numbers 
     1.0000   1.0000   1.0000   1.0000   0.0000   0.0000   0.0000   0.0000

          k = 0.0267 0.5466 0.0000 (  5188 PWs)   bands (ev):

   -16.3234 -14.8917  -8.4303  -4.4167  -0.1427   5.8501   8.6076   9.6741

     occupation numbers 
     1.0000   1.0000   1.0000   1.0000   0.0000   0.0000   0.0000   0.0000

          k = 0.0267 0.5543 0.0000 (  5190 PWs)   bands (ev):

   -16.2132 -15.0128  -8.4377  -4.3683  -0.2028   5.8469   8.8047   9.8614

     occupation numbers 
     1.0000   1.0000   1.0000   1.0000   0.0000   0.0000   0.0000   0.0000

          k = 0.0267 0.5620 0.0000 (  5196 PWs)   bands (ev):

   -16.1184 -15.1155  -8.4430  -4.3328  -0.2467   5.8446   9.0035   9.8269

     occupation numbers 
     1.0000   1.0000   1.0000   1.0000   0.0000   0.0000   0.0000   0.0000

          k = 0.0267 0.5697 0.0000 (  5200 PWs)   bands (ev):

   -16.0507 -15.1878  -8.4462  -4.3111  -0.2734   5.8432   9.2026   9.6223

     occupation numbers 
     1.0000   1.0000   1.0000   1.0000   0.0000   0.0000   0.0000   0.0000

          k = 0.0267 0.5774 0.0000 (  5194 PWs)   bands (ev):

   -16.0255 -15.2146  -8.4473  -4.3038  -0.2823   5.8427   9.3650   9.4580

     occupation numbers 
     1.0000   1.0000   1.0000   1.0000   0.0000   0.0000   0.0000   0.0000

          k = 0.0333 0.0577 0.0000 (  5153 PWs)   bands (ev):

   -21.3341  -9.6267  -5.2536  -5.1186   1.5112   2.5586   2.9539   4.8430

     occupation numbers 
     1.0000   1.0000   1.0000   1.0000   0.0000   0.0000   0.0000   0.0000

          k = 0.0333 0.0654 0.0000 (  5149 PWs)   bands (ev):

   -21.3172  -9.6062  -5.3174  -5.1556   1.5343   2.5819   2.9775   4.8662

     occupation numbers 
     1.0000   1.0000   1.0000   1.0000   0.0000   0.0000   0.0000   0.0000

          k = 0.0333 0.0731 0.0000 (  5145 PWs)   bands (ev):

   -21.2981  -9.5832  -5.3884  -5.1966   1.5602   2.6082   3.0041   4.8922

     occupation numbers 
     1.0000   1.0000   1.0000   1.0000   0.0000   0.0000   0.0000   0.0000

          k = 0.0333 0.0808 0.0000 (  5153 PWs)   bands (ev):

   -21.2770  -9.5576  -5.4664  -5.2415   1.5889   2.6373   3.0336   4.9212

     occupation numbers 
     1.0000   1.0000   1.0000   1.0000   0.0000   0.0000   0.0000   0.0000

          k = 0.0333 0.0885 0.0000 (  5154 PWs)   bands (ev):

   -21.2538  -9.5294  -5.5512  -5.2898   1.6206   2.6694   3.0661   4.9530

     occupation numbers 
     1.0000   1.0000   1.0000   1.0000   0.0000   0.0000   0.0000   0.0000

          k = 0.0333 0.0962 0.0000 (  5154 PWs)   bands (ev):

   -21.2284  -9.4987  -5.6426  -5.3415   1.6552   2.7043   3.1015   4.9877

     occupation numbers 
     1.0000   1.0000   1.0000   1.0000   0.0000   0.0000   0.0000   0.0000

          k = 0.0333 0.1039 0.0000 (  5158 PWs)   bands (ev):

   -21.2009  -9.4655  -5.7403  -5.3962   1.6926   2.7422   3.1399   5.0253

     occupation numbers 
     1.0000   1.0000   1.0000   1.0000   0.0000   0.0000   0.0000   0.0000

          k = 0.0333 0.1116 0.0000 (  5154 PWs)   bands (ev):

   -21.1714  -9.4298  -5.8440  -5.4538   1.7329   2.7830   3.1812   5.0658

     occupation numbers 
     1.0000   1.0000   1.0000   1.0000   0.0000   0.0000   0.0000   0.0000

          k = 0.0333 0.1193 0.0000 (  5156 PWs)   bands (ev):

   -21.1397  -9.3915  -5.9535  -5.5139   1.7761   2.8267   3.2255   5.1091

     occupation numbers 
     1.0000   1.0000   1.0000   1.0000   0.0000   0.0000   0.0000   0.0000

          k = 0.0333 0.1270 0.0000 (  5152 PWs)   bands (ev):

   -21.1060  -9.3507  -6.0685  -5.5764   1.8222   2.8732   3.2728   5.1554

     occupation numbers 
     1.0000   1.0000   1.0000   1.0000   0.0000   0.0000   0.0000   0.0000

          k = 0.0333 0.1347 0.0000 (  5152 PWs)   bands (ev):

   -21.0701  -9.3074  -6.1887  -5.6409   1.8711   2.9227   3.3230   5.2044

     occupation numbers 
     1.0000   1.0000   1.0000   1.0000   0.0000   0.0000   0.0000   0.0000

          k = 0.0333 0.1424 0.0000 (  5148 PWs)   bands (ev):

   -21.0321  -9.2616  -6.3139  -5.7074   1.9230   2.9751   3.3761   5.2564

     occupation numbers 
     1.0000   1.0000   1.0000   1.0000   0.0000   0.0000   0.0000   0.0000

          k = 0.0333 0.1501 0.0000 (  5148 PWs)   bands (ev):

   -20.9921  -9.2133  -6.4437  -5.7755   1.9777   3.0303   3.4322   5.3112

     occupation numbers 
     1.0000   1.0000   1.0000   1.0000   0.0000   0.0000   0.0000   0.0000

          k = 0.0333 0.1578 0.0000 (  5148 PWs)   bands (ev):

   -20.9500  -9.1625  -6.5780  -5.8450   2.0353   3.0885   3.4913   5.3688

     occupation numbers 
     1.0000   1.0000   1.0000   1.0000   0.0000   0.0000   0.0000   0.0000

          k = 0.0333 0.1655 0.0000 (  5147 PWs)   bands (ev):

   -20.9057  -9.1093  -6.7163  -5.9158   2.0957   3.1495   3.5533   5.4292

     occupation numbers 
     1.0000   1.0000   1.0000   1.0000   0.0000   0.0000   0.0000   0.0000

          k = 0.0333 0.1732 0.0000 (  5151 PWs)   bands (ev):

   -20.8594  -9.0535  -6.8586  -5.9875   2.1590   3.2134   3.6182   5.4925

     occupation numbers 
     1.0000   1.0000   1.0000   1.0000   0.0000   0.0000   0.0000   0.0000

          k = 0.0333 0.1809 0.0000 (  5151 PWs)   bands (ev):

   -20.8111  -8.9954  -7.0045  -6.0602   2.2253   3.2801   3.6861   5.5585

     occupation numbers 
     1.0000   1.0000   1.0000   1.0000   0.0000   0.0000   0.0000   0.0000

          k = 0.0333 0.1886 0.0000 (  5155 PWs)   bands (ev):

   -20.7606  -8.9348  -7.1537  -6.1334   2.2943   3.3497   3.7570   5.6272

     occupation numbers 
     1.0000   1.0000   1.0000   1.0000   0.0000   0.0000   0.0000   0.0000

          k = 0.0333 0.1963 0.0000 (  5155 PWs)   bands (ev):

   -20.7081  -8.8717  -7.3061  -6.2072   2.3663   3.4222   3.8308   5.6987

     occupation numbers 
     1.0000   1.0000   1.0000   1.0000   0.0000   0.0000   0.0000   0.0000

          k = 0.0333 0.2040 0.0000 (  5152 PWs)   bands (ev):

   -20.6535  -8.8063  -7.4613  -6.2813   2.4411   3.4974   3.9076   5.7727

     occupation numbers 
     1.0000   1.0000   1.0000   1.0000   0.0000   0.0000   0.0000   0.0000

          k = 0.0333 0.2117 0.0000 (  5146 PWs)   bands (ev):

   -20.5968  -8.7384  -7.6192  -6.3555   2.5188   3.5755   3.9873   5.8491

     occupation numbers 
     1.0000   1.0000   1.0000   1.0000   0.0000   0.0000   0.0000   0.0000

          k = 0.0333 0.2194 0.0000 (  5148 PWs)   bands (ev):

   -20.5381  -8.6682  -7.7796  -6.4298   2.5993   3.6564   4.0700   5.9276

     occupation numbers 
     1.0000   1.0000   1.0000   1.0000   0.0000   0.0000   0.0000   0.0000

          k = 0.0333 0.2271 0.0000 (  5150 PWs)   bands (ev):

   -20.4773  -8.5956  -7.9422  -6.5039   2.6827   3.7400   4.1556   6.0075

     occupation numbers 
     1.0000   1.0000   1.0000   1.0000   0.0000   0.0000   0.0000   0.0000

          k = 0.0333 0.2348 0.0000 (  5156 PWs)   bands (ev):

   -20.4145  -8.5207  -8.1068  -6.5778   2.7689   3.8264   4.2441   6.0868

     occupation numbers 
     1.0000   1.0000   1.0000   1.0000   0.0000   0.0000   0.0000   0.0000

          k = 0.0333 0.2425 0.0000 (  5154 PWs)   bands (ev):

   -20.3496  -8.4434  -8.2733  -6.6514   2.8580   3.9154   4.3356   6.1585

     occupation numbers 
     1.0000   1.0000   1.0000   1.0000   0.0000   0.0000   0.0000   0.0000

          k = 0.0333 0.2502 0.0000 (  5156 PWs)   bands (ev):

   -20.2827  -8.4414  -8.3638  -6.7244   2.9500   4.0069   4.4300   6.1856

     occupation numbers 
     1.0000   1.0000   1.0000   1.0000   0.0000   0.0000   0.0000   0.0000

          k = 0.0333 0.2579 0.0000 (  5154 PWs)   bands (ev):

   -20.2138  -8.6111  -8.2820  -6.7968   3.0448   4.1009   4.5274   6.0934

     occupation numbers 
     1.0000   1.0000   1.0000   1.0000   0.0000   0.0000   0.0000   0.0000

          k = 0.0333 0.2656 0.0000 (  5152 PWs)   bands (ev):

   -20.1428  -8.7820  -8.1979  -6.8685   3.1424   4.1971   4.6276   5.9397

     occupation numbers 
     1.0000   1.0000   1.0000   1.0000   0.0000   0.0000   0.0000   0.0000

          k = 0.0333 0.2733 0.0000 (  5153 PWs)   bands (ev):

   -20.0698  -8.9541  -8.1115  -6.9394   3.2429   4.2951   4.7309   5.7721

     occupation numbers 
     1.0000   1.0000   1.0000   1.0000   0.0000   0.0000   0.0000   0.0000

          k = 0.0333 0.2810 0.0000 (  5151 PWs)   bands (ev):

   -19.9948  -9.1273  -8.0230  -7.0094   3.3461   4.3942   4.8370   5.6004

     occupation numbers 
     1.0000   1.0000   1.0000   1.0000   0.0000   0.0000   0.0000   0.0000

          k = 0.0333 0.2887 0.0000 (  5154 PWs)   bands (ev):

   -19.9177  -9.3012  -7.9323  -7.0785   3.4522   4.4926   4.9460   5.4289

     occupation numbers 
     1.0000   1.0000   1.0000   1.0000   0.0000   0.0000   0.0000   0.0000

          k = 0.0333 0.2964 0.0000 (  5154 PWs)   bands (ev):

   -19.8387  -9.4760  -7.8395  -7.1464   3.5612   4.5861   5.0579   5.2629

     occupation numbers 
     1.0000   1.0000   1.0000   1.0000   0.0000   0.0000   0.0000   0.0000

          k = 0.0333 0.3041 0.0000 (  5154 PWs)   bands (ev):

   -19.7577  -9.6513  -7.7445  -7.2132   3.6729   4.6603   5.1172   5.1727

     occupation numbers 
     1.0000   1.0000   1.0000   1.0000   0.0000   0.0000   0.0000   0.0000

          k = 0.0333 0.3118 0.0000 (  5158 PWs)   bands (ev):

   -19.6747  -9.8270  -7.6476  -7.2788   3.7874   4.6686   5.0388   5.2903

     occupation numbers 
     1.0000   1.0000   1.0000   1.0000   0.0000   0.0000   0.0000   0.0000

          k = 0.0333 0.3195 0.0000 (  5162 PWs)   bands (ev):

   -19.5897 -10.0032  -7.5486  -7.3432   3.9047   4.5692   5.0697   5.4106

     occupation numbers 
     1.0000   1.0000   1.0000   1.0000   0.0000   0.0000   0.0000   0.0000

          k = 0.0333 0.3272 0.0000 (  5158 PWs)   bands (ev):

   -19.5028 -10.1795  -7.4476  -7.4061   4.0247   4.4134   5.1590   5.5336

     occupation numbers 
     1.0000   1.0000   1.0000   1.0000   0.0000   0.0000   0.0000   0.0000

          k = 0.0333 0.3349 0.0000 (  5166 PWs)   bands (ev):

   -19.4138 -10.3560  -7.4677  -7.3448   4.1475   4.2392   5.2688   5.6592

     occupation numbers 
     1.0000   1.0000   1.0000   1.0000   0.0000   0.0000   0.0000   0.0000

          k = 0.0333 0.3426 0.0000 (  5168 PWs)   bands (ev):

   -19.3230 -10.5325  -7.5278  -7.2401   4.0580   4.2731   5.3879   5.7867

     occupation numbers 
     1.0000   1.0000   1.0000   1.0000   0.0000   0.0000   0.0000   0.0000

          k = 0.0333 0.3503 0.0000 (  5166 PWs)   bands (ev):

   -19.2302 -10.7090  -7.5864  -7.1336   3.8735   4.4013   5.5129   5.9152

     occupation numbers 
     1.0000   1.0000   1.0000   1.0000   0.0000   0.0000   0.0000   0.0000

          k = 0.0333 0.3580 0.0000 (  5169 PWs)   bands (ev):

   -19.1355 -10.8852  -7.6434  -7.0255   3.6873   4.5322   5.6422   6.0412

     occupation numbers 
     1.0000   1.0000   1.0000   1.0000   0.0000   0.0000   0.0000   0.0000

          k = 0.0333 0.3657 0.0000 (  5165 PWs)   bands (ev):

   -19.0388 -11.0612  -7.6989  -6.9156   3.5003   4.6657   5.7753   6.1469

     occupation numbers 
     1.0000   1.0000   1.0000   1.0000   0.0000   0.0000   0.0000   0.0000

          k = 0.0333 0.3734 0.0000 (  5167 PWs)   bands (ev):

   -18.9403 -11.2368  -7.7526  -6.8043   3.3130   4.8017   5.9118   6.1903

     occupation numbers 
     1.0000   1.0000   1.0000   1.0000   0.0000   0.0000   0.0000   0.0000

          k = 0.0333 0.3811 0.0000 (  5163 PWs)   bands (ev):

   -18.8398 -11.4120  -7.8047  -6.6915   3.1258   4.9402   6.0514   6.1859

     occupation numbers 
     1.0000   1.0000   1.0000   1.0000   0.0000   0.0000   0.0000   0.0000

          k = 0.0333 0.3887 0.0000 (  5162 PWs)   bands (ev):

   -18.7375 -11.5867  -7.8550  -6.5774   2.9392   5.0809   6.1738   6.1940

     occupation numbers 
     1.0000   1.0000   1.0000   1.0000   0.0000   0.0000   0.0000   0.0000

          k = 0.0333 0.3964 0.0000 (  5166 PWs)   bands (ev):

   -18.6334 -11.7607  -7.9036  -6.4621   2.7533   5.2236   6.1598   6.3396

     occupation numbers 
     1.0000   1.0000   1.0000   1.0000   0.0000   0.0000   0.0000   0.0000

          k = 0.0333 0.4041 0.0000 (  5168 PWs)   bands (ev):

   -18.5274 -11.9341  -7.9504  -6.3457   2.5684   5.3678   6.1463   6.4880

     occupation numbers 
     1.0000   1.0000   1.0000   1.0000   0.0000   0.0000   0.0000   0.0000

          k = 0.0333 0.4118 0.0000 (  5173 PWs)   bands (ev):

   -18.4196 -12.1067  -7.9953  -6.2285   2.3849   5.5125   6.1349   6.6392

     occupation numbers 
     1.0000   1.0000   1.0000   1.0000   0.0000   0.0000   0.0000   0.0000

          k = 0.0333 0.4195 0.0000 (  5171 PWs)   bands (ev):

   -18.3100 -12.2785  -8.0384  -6.1105   2.2031   5.6552   6.1284   6.7932

     occupation numbers 
     1.0000   1.0000   1.0000   1.0000   0.0000   0.0000   0.0000   0.0000

          k = 0.0333 0.4272 0.0000 (  5173 PWs)   bands (ev):

   -18.1987 -12.4494  -8.0796  -5.9919   2.0232   5.7897   6.1333   6.9499

     occupation numbers 
     1.0000   1.0000   1.0000   1.0000   0.0000   0.0000   0.0000   0.0000

          k = 0.0333 0.4349 0.0000 (  5177 PWs)   bands (ev):

   -18.0856 -12.6193  -8.1189  -5.8731   1.8455   5.8982   6.1673   7.1093

     occupation numbers 
     1.0000   1.0000   1.0000   1.0000   0.0000   0.0000   0.0000   0.0000

          k = 0.0333 0.4426 0.0000 (  5179 PWs)   bands (ev):

   -17.9709 -12.7881  -8.1562  -5.7543   1.6705   5.9563   6.2550   7.2713

     occupation numbers 
     1.0000   1.0000   1.0000   1.0000   0.0000   0.0000   0.0000   0.0000

          k = 0.0333 0.4503 0.0000 (  5179 PWs)   bands (ev):

   -17.8544 -12.9558  -8.1916  -5.6358   1.4985   5.9737   6.3868   7.4358

     occupation numbers 
     1.0000   1.0000   1.0000   1.0000   0.0000   0.0000   0.0000   0.0000

          k = 0.0333 0.4580 0.0000 (  5179 PWs)   bands (ev):

   -17.7364 -13.1223  -8.2250  -5.5179   1.3300   5.9742   6.5388   7.6030

     occupation numbers 
     1.0000   1.0000   1.0000   1.0000   0.0000   0.0000   0.0000   0.0000

          k = 0.0333 0.4657 0.0000 (  5181 PWs)   bands (ev):

   -17.6169 -13.2874  -8.2564  -5.4011   1.1653   5.9685   6.7004   7.7725

     occupation numbers 
     1.0000   1.0000   1.0000   1.0000   0.0000   0.0000   0.0000   0.0000

          k = 0.0333 0.4734 0.0000 (  5181 PWs)   bands (ev):

   -17.4958 -13.4511  -8.2858  -5.2857   1.0051   5.9604   6.8678   7.9446

     occupation numbers 
     1.0000   1.0000   1.0000   1.0000   0.0000   0.0000   0.0000   0.0000

          k = 0.0333 0.4811 0.0000 (  5181 PWs)   bands (ev):

   -17.3734 -13.6132  -8.3131  -5.1725   0.8499   5.9514   7.0394   8.1190

     occupation numbers 
     1.0000   1.0000   1.0000   1.0000   0.0000   0.0000   0.0000   0.0000

          k = 0.0333 0.4888 0.0000 (  5179 PWs)   bands (ev):

   -17.2498 -13.7736  -8.3384  -5.0619   0.7005   5.9424   7.2146   8.2956

     occupation numbers 
     1.0000   1.0000   1.0000   1.0000   0.0000   0.0000   0.0000   0.0000

          k = 0.0333 0.4965 0.0000 (  5179 PWs)   bands (ev):

   -17.1250 -13.9321  -8.3616  -4.9547   0.5575   5.9336   7.3929   8.4745

     occupation numbers 
     1.0000   1.0000   1.0000   1.0000   0.0000   0.0000   0.0000   0.0000

          k = 0.0333 0.5042 0.0000 (  5184 PWs)   bands (ev):

   -16.9994 -14.0886  -8.3828  -4.8517   0.4218   5.9252   7.5741   8.6554

     occupation numbers 
     1.0000   1.0000   1.0000   1.0000   0.0000   0.0000   0.0000   0.0000

          k = 0.0333 0.5119 0.0000 (  5190 PWs)   bands (ev):

   -16.8732 -14.2425  -8.4019  -4.7539   0.2945   5.9175   7.7580   8.8383

     occupation numbers 
     1.0000   1.0000   1.0000   1.0000   0.0000   0.0000   0.0000   0.0000

          k = 0.0333 0.5196 0.0000 (  5186 PWs)   bands (ev):

   -16.7469 -14.3936  -8.4188  -4.6624   0.1766   5.9105   7.9445   9.0230

     occupation numbers 
     1.0000   1.0000   1.0000   1.0000   0.0000   0.0000   0.0000   0.0000

          k = 0.0333 0.5273 0.0000 (  5188 PWs)   bands (ev):

   -16.6210 -14.5411  -8.4337  -4.5781   0.0693   5.9043   8.1336   9.2092

     occupation numbers 
     1.0000   1.0000   1.0000   1.0000   0.0000   0.0000   0.0000   0.0000

          k = 0.0333 0.5350 0.0000 (  5192 PWs)   bands (ev):

   -16.4967 -14.6840  -8.4465  -4.5025  -0.0262   5.8988   8.3251   9.3965

     occupation numbers 
     1.0000   1.0000   1.0000   1.0000   0.0000   0.0000   0.0000   0.0000

          k = 0.0333 0.5427 0.0000 (  5192 PWs)   bands (ev):

   -16.3757 -14.8206  -8.4571  -4.4368  -0.1085   5.8943   8.5188   9.5843

     occupation numbers 
     1.0000   1.0000   1.0000   1.0000   0.0000   0.0000   0.0000   0.0000

          k = 0.0333 0.5504 0.0000 (  5194 PWs)   bands (ev):

   -16.2607 -14.9480  -8.4656  -4.3823  -0.1763   5.8906   8.7148   9.7715

     occupation numbers 
     1.0000   1.0000   1.0000   1.0000   0.0000   0.0000   0.0000   0.0000

          k = 0.0333 0.5581 0.0000 (  5194 PWs)   bands (ev):

   -16.1571 -15.0609  -8.4720  -4.3401  -0.2284   5.8879   8.9127   9.9494

     occupation numbers 
     1.0000   1.0000   1.0000   1.0000   0.0000   0.0000   0.0000   0.0000

          k = 0.0333 0.5658 0.0000 (  5198 PWs)   bands (ev):

   -16.0741 -15.1501  -8.4763  -4.3114  -0.2638   5.8860   9.1118   9.7323

     occupation numbers 
     1.0000   1.0000   1.0000   1.0000   0.0000   0.0000   0.0000   0.0000

          k = 0.0333 0.5735 0.0000 (  5196 PWs)   bands (ev):

   -16.0259 -15.2014  -8.4784  -4.2969  -0.2817   5.8851   9.3078   9.5327

     occupation numbers 
     1.0000   1.0000   1.0000   1.0000   0.0000   0.0000   0.0000   0.0000

          k = 0.0400 0.0693 0.0000 (  5149 PWs)   bands (ev):

   -21.2992  -9.5844  -5.3838  -5.1950   1.5587   2.6067   3.0026   4.8908

     occupation numbers 
     1.0000   1.0000   1.0000   1.0000   0.0000   0.0000   0.0000   0.0000

          k = 0.0400 0.0770 0.0000 (  5153 PWs)   bands (ev):

   -21.2791  -9.5601  -5.4572  -5.2385   1.5861   2.6344   3.0307   4.9183

     occupation numbers 
     1.0000   1.0000   1.0000   1.0000   0.0000   0.0000   0.0000   0.0000

          k = 0.0400 0.0847 0.0000 (  5155 PWs)   bands (ev):

   -21.2569  -9.5333  -5.5374  -5.2857   1.6163   2.6650   3.0617   4.9487

     occupation numbers 
     1.0000   1.0000   1.0000   1.0000   0.0000   0.0000   0.0000   0.0000

          k = 0.0400 0.0924 0.0000 (  5159 PWs)   bands (ev):

   -21.2326  -9.5038  -5.6242  -5.3364   1.6494   2.6985   3.0956   4.9819

     occupation numbers 
     1.0000   1.0000   1.0000   1.0000   0.0000   0.0000   0.0000   0.0000

          k = 0.0400 0.1001 0.0000 (  5156 PWs)   bands (ev):

   -21.2062  -9.4719  -5.7174  -5.3903   1.6854   2.7349   3.1325   5.0181

     occupation numbers 
     1.0000   1.0000   1.0000   1.0000   0.0000   0.0000   0.0000   0.0000

          k = 0.0400 0.1078 0.0000 (  5156 PWs)   bands (ev):

   -21.1777  -9.4374  -5.8167  -5.4473   1.7243   2.7743   3.1724   5.0571

     occupation numbers 
     1.0000   1.0000   1.0000   1.0000   0.0000   0.0000   0.0000   0.0000

          k = 0.0400 0.1155 0.0000 (  5154 PWs)   bands (ev):

   -21.1471  -9.4004  -5.9218  -5.5069   1.7660   2.8165   3.2152   5.0990

     occupation numbers 
     1.0000   1.0000   1.0000   1.0000   0.0000   0.0000   0.0000   0.0000

          k = 0.0400 0.1232 0.0000 (  5154 PWs)   bands (ev):

   -21.1144  -9.3609  -6.0326  -5.5690   1.8107   2.8616   3.2610   5.1438

     occupation numbers 
     1.0000   1.0000   1.0000   1.0000   0.0000   0.0000   0.0000   0.0000

          k = 0.0400 0.1309 0.0000 (  5160 PWs)   bands (ev):

   -21.0796  -9.3188  -6.1488  -5.6333   1.8582   2.9096   3.3097   5.1915

     occupation numbers 
     1.0000   1.0000   1.0000   1.0000   0.0000   0.0000   0.0000   0.0000

          k = 0.0400 0.1386 0.0000 (  5152 PWs)   bands (ev):

   -21.0427  -9.2743  -6.2701  -5.6996   1.9086   2.9605   3.3613   5.2420

     occupation numbers 
     1.0000   1.0000   1.0000   1.0000   0.0000   0.0000   0.0000   0.0000

          k = 0.0400 0.1463 0.0000 (  5152 PWs)   bands (ev):

   -21.0037  -9.2273  -6.3962  -5.7677   1.9618   3.0143   3.4160   5.2953

     occupation numbers 
     1.0000   1.0000   1.0000   1.0000   0.0000   0.0000   0.0000   0.0000

          k = 0.0400 0.1540 0.0000 (  5144 PWs)   bands (ev):

   -20.9626  -9.1777  -6.5269  -5.8372   2.0180   3.0710   3.4736   5.3515

     occupation numbers 
     1.0000   1.0000   1.0000   1.0000   0.0000   0.0000   0.0000   0.0000

          k = 0.0400 0.1617 0.0000 (  5145 PWs)   bands (ev):

   -20.9194  -9.1257  -6.6620  -5.9081   2.0770   3.1306   3.5341   5.4106

     occupation numbers 
     1.0000   1.0000   1.0000   1.0000   0.0000   0.0000   0.0000   0.0000

          k = 0.0400 0.1694 0.0000 (  5147 PWs)   bands (ev):

   -20.8742  -9.0713  -6.8010  -5.9801   2.1389   3.1931   3.5976   5.4724

     occupation numbers 
     1.0000   1.0000   1.0000   1.0000   0.0000   0.0000   0.0000   0.0000

          k = 0.0400 0.1771 0.0000 (  5155 PWs)   bands (ev):

   -20.8268  -9.0143  -6.9439  -6.0530   2.2037   3.2584   3.6640   5.5371

     occupation numbers 
     1.0000   1.0000   1.0000   1.0000   0.0000   0.0000   0.0000   0.0000

          k = 0.0400 0.1848 0.0000 (  5151 PWs)   bands (ev):

   -20.7774  -8.9549  -7.0903  -6.1265   2.2714   3.3266   3.7334   5.6045

     occupation numbers 
     1.0000   1.0000   1.0000   1.0000   0.0000   0.0000   0.0000   0.0000

          k = 0.0400 0.1925 0.0000 (  5149 PWs)   bands (ev):

   -20.7259  -8.8931  -7.2400  -6.2007   2.3419   3.3976   3.8058   5.6746

     occupation numbers 
     1.0000   1.0000   1.0000   1.0000   0.0000   0.0000   0.0000   0.0000

          k = 0.0400 0.2001 0.0000 (  5155 PWs)   bands (ev):

   -20.6724  -8.8289  -7.3927  -6.2752   2.4153   3.4714   3.8810   5.7473

     occupation numbers 
     1.0000   1.0000   1.0000   1.0000   0.0000   0.0000   0.0000   0.0000

          k = 0.0400 0.2078 0.0000 (  5154 PWs)   bands (ev):

   -20.6168  -8.7623  -7.5483  -6.3499   2.4915   3.5481   3.9593   5.8226

     occupation numbers 
     1.0000   1.0000   1.0000   1.0000   0.0000   0.0000   0.0000   0.0000

          k = 0.0400 0.2155 0.0000 (  5148 PWs)   bands (ev):

   -20.5591  -8.6932  -7.7065  -6.4247   2.5706   3.6276   4.0405   5.9001

     occupation numbers 
     1.0000   1.0000   1.0000   1.0000   0.0000   0.0000   0.0000   0.0000

          k = 0.0400 0.2232 0.0000 (  5148 PWs)   bands (ev):

   -20.4993  -8.6218  -7.8671  -6.4994   2.6526   3.7099   4.1246   5.9794

     occupation numbers 
     1.0000   1.0000   1.0000   1.0000   0.0000   0.0000   0.0000   0.0000

          k = 0.0400 0.2309 0.0000 (  5154 PWs)   bands (ev):

   -20.4375  -8.5481  -8.0299  -6.5738   2.7374   3.7949   4.2117   6.0593

     occupation numbers 
     1.0000   1.0000   1.0000   1.0000   0.0000   0.0000   0.0000   0.0000

          k = 0.0400 0.2386 0.0000 (  5156 PWs)   bands (ev):

   -20.3737  -8.4720  -8.1946  -6.6480   2.8251   3.8825   4.3017   6.1360

     occupation numbers 
     1.0000   1.0000   1.0000   1.0000   0.0000   0.0000   0.0000   0.0000

          k = 0.0400 0.2463 0.0000 (  5154 PWs)   bands (ev):

   -20.3078  -8.3936  -8.3612  -6.7216   2.9156   3.9728   4.3947   6.1908

     occupation numbers 
     1.0000   1.0000   1.0000   1.0000   0.0000   0.0000   0.0000   0.0000

          k = 0.0400 0.2540 0.0000 (  5148 PWs)   bands (ev):

   -20.2399  -8.5294  -8.3129  -6.7947   3.0090   4.0656   4.4906   6.1473

     occupation numbers 
     1.0000   1.0000   1.0000   1.0000   0.0000   0.0000   0.0000   0.0000

          k = 0.0400 0.2617 0.0000 (  5148 PWs)   bands (ev):

   -20.1699  -8.6990  -8.2299  -6.8671   3.1052   4.1608   4.5894   6.0068

     occupation numbers 
     1.0000   1.0000   1.0000   1.0000   0.0000   0.0000   0.0000   0.0000

          k = 0.0400 0.2694 0.0000 (  5148 PWs)   bands (ev):

   -20.0979  -8.8699  -8.1447  -6.9388   3.2042   4.2580   4.6911   5.8427

     occupation numbers 
     1.0000   1.0000   1.0000   1.0000   0.0000   0.0000   0.0000   0.0000

          k = 0.0400 0.2771 0.0000 (  5147 PWs)   bands (ev):

   -20.0240  -9.0419  -8.0573  -7.0095   3.3061   4.3566   4.7958   5.6724

     occupation numbers 
     1.0000   1.0000   1.0000   1.0000   0.0000   0.0000   0.0000   0.0000

          k = 0.0400 0.2848 0.0000 (  5154 PWs)   bands (ev):

   -19.9479  -9.2149  -7.9677  -7.0793   3.4108   4.4556   4.9034   5.5006

     occupation numbers 
     1.0000   1.0000   1.0000   1.0000   0.0000   0.0000   0.0000   0.0000

          k = 0.0400 0.2925 0.0000 (  5156 PWs)   bands (ev):

   -19.8699  -9.3887  -7.8759  -7.1481   3.5183   4.5523   5.0139   5.3315

     occupation numbers 
     1.0000   1.0000   1.0000   1.0000   0.0000   0.0000   0.0000   0.0000

          k = 0.0400 0.3002 0.0000 (  5160 PWs)   bands (ev):

   -19.7899  -9.5633  -7.7821  -7.2157   3.6287   4.6382   5.1273   5.1739

     occupation numbers 
     1.0000   1.0000   1.0000   1.0000   0.0000   0.0000   0.0000   0.0000

          k = 0.0400 0.3079 0.0000 (  5154 PWs)   bands (ev):

   -19.7079  -9.7383  -7.6861  -7.2821   3.7418   4.6839   5.0579   5.2435

     occupation numbers 
     1.0000   1.0000   1.0000   1.0000   0.0000   0.0000   0.0000   0.0000

          k = 0.0400 0.3156 0.0000 (  5160 PWs)   bands (ev):

   -19.6239  -9.9139  -7.5882  -7.3473   3.8577   4.6282   5.0448   5.3625

     occupation numbers 
     1.0000   1.0000   1.0000   1.0000   0.0000   0.0000   0.0000   0.0000

          k = 0.0400 0.3233 0.0000 (  5160 PWs)   bands (ev):

   -19.5380 -10.0897  -7.4882  -7.4111   3.9764   4.4885   5.1175   5.4843

     occupation numbers 
     1.0000   1.0000   1.0000   1.0000   0.0000   0.0000   0.0000   0.0000

          k = 0.0400 0.3310 0.0000 (  5158 PWs)   bands (ev):

   -19.4500 -10.2657  -7.4736  -7.3863   4.0978   4.3199   5.2212   5.6087

     occupation numbers 
     1.0000   1.0000   1.0000   1.0000   0.0000   0.0000   0.0000   0.0000

          k = 0.0400 0.3387 0.0000 (  5164 PWs)   bands (ev):

   -19.3602 -10.4419  -7.5346  -7.2826   4.1412   4.2220   5.3371   5.7355

     occupation numbers 
     1.0000   1.0000   1.0000   1.0000   0.0000   0.0000   0.0000   0.0000

          k = 0.0400 0.3464 0.0000 (  5174 PWs)   bands (ev):

   -19.2684 -10.6180  -7.5941  -7.1770   3.9581   4.3489   5.4598   5.8642

     occupation numbers 
     1.0000   1.0000   1.0000   1.0000   0.0000   0.0000   0.0000   0.0000

          k = 0.0400 0.3541 0.0000 (  5172 PWs)   bands (ev):

   -19.1746 -10.7940  -7.6520  -7.0697   3.7729   4.4785   5.5872   5.9934

     occupation numbers 
     1.0000   1.0000   1.0000   1.0000   0.0000   0.0000   0.0000   0.0000

          k = 0.0400 0.3618 0.0000 (  5170 PWs)   bands (ev):

   -19.0789 -10.9698  -7.7084  -6.9607   3.5865   4.6108   5.7186   6.1184

     occupation numbers 
     1.0000   1.0000   1.0000   1.0000   0.0000   0.0000   0.0000   0.0000

          k = 0.0400 0.3695 0.0000 (  5172 PWs)   bands (ev):

   -18.9814 -11.1454  -7.7631  -6.8501   3.3997   4.7456   5.8535   6.2144

     occupation numbers 
     1.0000   1.0000   1.0000   1.0000   0.0000   0.0000   0.0000   0.0000

          k = 0.0400 0.3772 0.0000 (  5164 PWs)   bands (ev):

   -18.8819 -11.3205  -7.8161  -6.7381   3.2128   4.8830   5.9916   6.2354

     occupation numbers 
     1.0000   1.0000   1.0000   1.0000   0.0000   0.0000   0.0000   0.0000

          k = 0.0400 0.3849 0.0000 (  5162 PWs)   bands (ev):

   -18.7805 -11.4952  -7.8674  -6.6246   3.0262   5.0227   6.1327   6.2290

     occupation numbers 
     1.0000   1.0000   1.0000   1.0000   0.0000   0.0000   0.0000   0.0000

          k = 0.0400 0.3926 0.0000 (  5162 PWs)   bands (ev):

   -18.6773 -11.6693  -7.9170  -6.5099   2.8403   5.1647   6.2162   6.2768

     occupation numbers 
     1.0000   1.0000   1.0000   1.0000   0.0000   0.0000   0.0000   0.0000

          k = 0.0400 0.4003 0.0000 (  5161 PWs)   bands (ev):

   -18.5723 -11.8428  -7.9647  -6.3941   2.6552   5.3085   6.2022   6.4238

     occupation numbers 
     1.0000   1.0000   1.0000   1.0000   0.0000   0.0000   0.0000   0.0000

          k = 0.0400 0.4080 0.0000 (  5171 PWs)   bands (ev):

   -18.4654 -12.0156  -8.0106  -6.2773   2.4714   5.4537   6.1892   6.5735

     occupation numbers 
     1.0000   1.0000   1.0000   1.0000   0.0000   0.0000   0.0000   0.0000

          k = 0.0400 0.4157 0.0000 (  5177 PWs)   bands (ev):

   -18.3568 -12.1876  -8.0547  -6.1596   2.2890   5.5988   6.1789   6.7261

     occupation numbers 
     1.0000   1.0000   1.0000   1.0000   0.0000   0.0000   0.0000   0.0000

          k = 0.0400 0.4234 0.0000 (  5175 PWs)   bands (ev):

   -18.2463 -12.3588  -8.0969  -6.0413   2.1084   5.7410   6.1746   6.8813

     occupation numbers 
     1.0000   1.0000   1.0000   1.0000   0.0000   0.0000   0.0000   0.0000

          k = 0.0400 0.4311 0.0000 (  5181 PWs)   bands (ev):

   -18.1341 -12.5290  -8.1372  -5.9226   1.9299   5.8715   6.1850   7.0393

     occupation numbers 
     1.0000   1.0000   1.0000   1.0000   0.0000   0.0000   0.0000   0.0000

          k = 0.0400 0.4388 0.0000 (  5181 PWs)   bands (ev):

   -18.0202 -12.6982  -8.1756  -5.8038   1.7539   5.9684   6.2323   7.1998

     occupation numbers 
     1.0000   1.0000   1.0000   1.0000   0.0000   0.0000   0.0000   0.0000

          k = 0.0400 0.4465 0.0000 (  5177 PWs)   bands (ev):

   -17.9047 -12.8663  -8.2120  -5.6850   1.5806   6.0126   6.3356   7.3630

     occupation numbers 
     1.0000   1.0000   1.0000   1.0000   0.0000   0.0000   0.0000   0.0000

          k = 0.0400 0.4542 0.0000 (  5177 PWs)   bands (ev):

   -17.7875 -13.0332  -8.2464  -5.5668   1.4105   6.0234   6.4757   7.5287

     occupation numbers 
     1.0000   1.0000   1.0000   1.0000   0.0000   0.0000   0.0000   0.0000

          k = 0.0400 0.4619 0.0000 (  5179 PWs)   bands (ev):

   -17.6687 -13.1988  -8.2788  -5.4493   1.2441   6.0216   6.6317   7.6969

     occupation numbers 
     1.0000   1.0000   1.0000   1.0000   0.0000   0.0000   0.0000   0.0000

          k = 0.0400 0.4696 0.0000 (  5181 PWs)   bands (ev):

   -17.5484 -13.3631  -8.3092  -5.3332   1.0818   6.0151   6.7958   7.8675

     occupation numbers 
     1.0000   1.0000   1.0000   1.0000   0.0000   0.0000   0.0000   0.0000

          k = 0.0400 0.4773 0.0000 (  5181 PWs)   bands (ev):

   -17.4267 -13.5259  -8.3376  -5.2188   0.9242   6.0068   6.9651   8.0405

     occupation numbers 
     1.0000   1.0000   1.0000   1.0000   0.0000   0.0000   0.0000   0.0000

          k = 0.0400 0.4850 0.0000 (  5179 PWs)   bands (ev):

   -17.3037 -13.6871  -8.3640  -5.1067   0.7719   5.9979   7.1383   8.2158

     occupation numbers 
     1.0000   1.0000   1.0000   1.0000   0.0000   0.0000   0.0000   0.0000

          k = 0.0400 0.4927 0.0000 (  5179 PWs)   bands (ev):

   -17.1796 -13.8465  -8.3883  -4.9977   0.6257   5.9890   7.3149   8.3933

     occupation numbers 
     1.0000   1.0000   1.0000   1.0000   0.0000   0.0000   0.0000   0.0000

          k = 0.0400 0.5004 0.0000 (  5181 PWs)   bands (ev):

   -17.0544 -14.0039  -8.4105  -4.8925   0.4864   5.9805   7.4946   8.5729

     occupation numbers 
     1.0000   1.0000   1.0000   1.0000   0.0000   0.0000   0.0000   0.0000

          k = 0.0400 0.5081 0.0000 (  5181 PWs)   bands (ev):

   -16.9285 -14.1590  -8.4306  -4.7919   0.3549   5.9725   7.6770   8.7545

     occupation numbers 
     1.0000   1.0000   1.0000   1.0000   0.0000   0.0000   0.0000   0.0000

          k = 0.0400 0.5158 0.0000 (  5186 PWs)   bands (ev):

   -16.8022 -14.3115  -8.4486  -4.6970   0.2322   5.9651   7.8622   8.9379

     occupation numbers 
     1.0000   1.0000   1.0000   1.0000   0.0000   0.0000   0.0000   0.0000

          k = 0.0400 0.5235 0.0000 (  5188 PWs)   bands (ev):

   -16.6760 -14.4607  -8.4646  -4.6089   0.1195   5.9585   8.0499   9.1228

     occupation numbers 
     1.0000   1.0000   1.0000   1.0000   0.0000   0.0000   0.0000   0.0000

          k = 0.0400 0.5312 0.0000 (  5186 PWs)   bands (ev):

   -16.5509 -14.6060  -8.4784  -4.5287   0.0180   5.9527   8.2401   9.3090

     occupation numbers 
     1.0000   1.0000   1.0000   1.0000   0.0000   0.0000   0.0000   0.0000

          k = 0.0400 0.5389 0.0000 (  5192 PWs)   bands (ev):

   -16.4280 -14.7459  -8.4901  -4.4578  -0.0711   5.9477   8.4327   9.4959

     occupation numbers 
     1.0000   1.0000   1.0000   1.0000   0.0000   0.0000   0.0000   0.0000

          k = 0.0400 0.5466 0.0000 (  5194 PWs)   bands (ev):

   -16.3096 -14.8783  -8.4997  -4.3975  -0.1463   5.9436   8.6274   9.6827

     occupation numbers 
     1.0000   1.0000   1.0000   1.0000   0.0000   0.0000   0.0000   0.0000

          k = 0.0400 0.5543 0.0000 (  5194 PWs)   bands (ev):

   -16.1995 -14.9992  -8.5072  -4.3490  -0.2064   5.9404   8.8243   9.8675

     occupation numbers 
     1.0000   1.0000   1.0000   1.0000   0.0000   0.0000   0.0000   0.0000

          k = 0.0400 0.5620 0.0000 (  5198 PWs)   bands (ev):

   -16.1048 -15.1016  -8.5125  -4.3134  -0.2503   5.9381   9.0228   9.8452

     occupation numbers 
     1.0000   1.0000   1.0000   1.0000   0.0000   0.0000   0.0000   0.0000

          k = 0.0400 0.5697 0.0000 (  5196 PWs)   bands (ev):

   -16.0373 -15.1738  -8.5157  -4.2916  -0.2770   5.9367   9.2216   9.6410

     occupation numbers 
     1.0000   1.0000   1.0000   1.0000   0.0000   0.0000   0.0000   0.0000

          k = 0.0400 0.5774 0.0000 (  5194 PWs)   bands (ev):

   -16.0122 -15.2005  -8.5168  -4.2843  -0.2860   5.9363   9.3833   9.4775

     occupation numbers 
     1.0000   1.0000   1.0000   1.0000   0.0000   0.0000   0.0000   0.0000

          k = 0.0467 0.0808 0.0000 (  5155 PWs)   bands (ev):

   -21.2580  -9.5345  -5.5328  -5.2844   1.6149   2.6635   3.0602   4.9472

     occupation numbers 
     1.0000   1.0000   1.0000   1.0000   0.0000   0.0000   0.0000   0.0000

          k = 0.0467 0.0885 0.0000 (  5157 PWs)   bands (ev):

   -21.2347  -9.5064  -5.6149  -5.3340   1.6465   2.6956   3.0927   4.9791

     occupation numbers 
     1.0000   1.0000   1.0000   1.0000   0.0000   0.0000   0.0000   0.0000

          k = 0.0467 0.0962 0.0000 (  5161 PWs)   bands (ev):

   -21.2094  -9.4757  -5.7033  -5.3871   1.6811   2.7306   3.1281   5.0138

     occupation numbers 
     1.0000   1.0000   1.0000   1.0000   0.0000   0.0000   0.0000   0.0000

          k = 0.0467 0.1039 0.0000 (  5154 PWs)   bands (ev):

   -21.1819  -9.4425  -5.7979  -5.4434   1.7185   2.7684   3.1665   5.0514

     occupation numbers 
     1.0000   1.0000   1.0000   1.0000   0.0000   0.0000   0.0000   0.0000

          k = 0.0467 0.1116 0.0000 (  5158 PWs)   bands (ev):

   -21.1524  -9.4068  -5.8984  -5.5026   1.7588   2.8092   3.2078   5.0918

     occupation numbers 
     1.0000   1.0000   1.0000   1.0000   0.0000   0.0000   0.0000   0.0000

          k = 0.0467 0.1193 0.0000 (  5150 PWs)   bands (ev):

   -21.1207  -9.3685  -6.0047  -5.5645   1.8020   2.8529   3.2521   5.1352

     occupation numbers 
     1.0000   1.0000   1.0000   1.0000   0.0000   0.0000   0.0000   0.0000

          k = 0.0467 0.1270 0.0000 (  5152 PWs)   bands (ev):

   -21.0870  -9.3278  -6.1165  -5.6287   1.8481   2.8994   3.2993   5.1814

     occupation numbers 
     1.0000   1.0000   1.0000   1.0000   0.0000   0.0000   0.0000   0.0000

          k = 0.0467 0.1347 0.0000 (  5154 PWs)   bands (ev):

   -21.0511  -9.2845  -6.2335  -5.6949   1.8971   2.9489   3.3495   5.2305

     occupation numbers 
     1.0000   1.0000   1.0000   1.0000   0.0000   0.0000   0.0000   0.0000

          k = 0.0467 0.1424 0.0000 (  5148 PWs)   bands (ev):

   -21.0132  -9.2387  -6.3555  -5.7631   1.9489   3.0013   3.4027   5.2824

     occupation numbers 
     1.0000   1.0000   1.0000   1.0000   0.0000   0.0000   0.0000   0.0000

          k = 0.0467 0.1501 0.0000 (  5146 PWs)   bands (ev):

   -20.9731  -9.1904  -6.4822  -5.8328   2.0036   3.0565   3.4588   5.3372

     occupation numbers 
     1.0000   1.0000   1.0000   1.0000   0.0000   0.0000   0.0000   0.0000

          k = 0.0467 0.1578 0.0000 (  5143 PWs)   bands (ev):

   -20.9310  -9.1397  -6.6135  -5.9040   2.0612   3.1146   3.5179   5.3948

     occupation numbers 
     1.0000   1.0000   1.0000   1.0000   0.0000   0.0000   0.0000   0.0000

          k = 0.0467 0.1655 0.0000 (  5143 PWs)   bands (ev):

   -20.8868  -9.0864  -6.7490  -5.9763   2.1217   3.1757   3.5799   5.4552

     occupation numbers 
     1.0000   1.0000   1.0000   1.0000   0.0000   0.0000   0.0000   0.0000

          k = 0.0467 0.1732 0.0000 (  5153 PWs)   bands (ev):

   -20.8405  -9.0307  -6.8884  -6.0496   2.1850   3.2395   3.6448   5.5185

     occupation numbers 
     1.0000   1.0000   1.0000   1.0000   0.0000   0.0000   0.0000   0.0000

          k = 0.0467 0.1809 0.0000 (  5155 PWs)   bands (ev):

   -20.7921  -8.9726  -7.0316  -6.1236   2.2512   3.3063   3.7128   5.5845

     occupation numbers 
     1.0000   1.0000   1.0000   1.0000   0.0000   0.0000   0.0000   0.0000

          k = 0.0467 0.1886 0.0000 (  5149 PWs)   bands (ev):

   -20.7417  -8.9120  -7.1783  -6.1983   2.3203   3.3759   3.7836   5.6533

     occupation numbers 
     1.0000   1.0000   1.0000   1.0000   0.0000   0.0000   0.0000   0.0000

          k = 0.0467 0.1963 0.0000 (  5143 PWs)   bands (ev):

   -20.6892  -8.8490  -7.3282  -6.2733   2.3923   3.4483   3.8575   5.7247

     occupation numbers 
     1.0000   1.0000   1.0000   1.0000   0.0000   0.0000   0.0000   0.0000

          k = 0.0467 0.2040 0.0000 (  5141 PWs)   bands (ev):

   -20.6346  -8.7836  -7.4811  -6.3487   2.4671   3.5236   3.9342   5.7988

     occupation numbers 
     1.0000   1.0000   1.0000   1.0000   0.0000   0.0000   0.0000   0.0000

          k = 0.0467 0.2117 0.0000 (  5144 PWs)   bands (ev):

   -20.5779  -8.7158  -7.6368  -6.4241   2.5448   3.6017   4.0139   5.8752

     occupation numbers 
     1.0000   1.0000   1.0000   1.0000   0.0000   0.0000   0.0000   0.0000

          k = 0.0467 0.2194 0.0000 (  5140 PWs)   bands (ev):

   -20.5192  -8.6456  -7.7950  -6.4994   2.6253   3.6826   4.0966   5.9537

     occupation numbers 
     1.0000   1.0000   1.0000   1.0000   0.0000   0.0000   0.0000   0.0000

          k = 0.0467 0.2271 0.0000 (  5148 PWs)   bands (ev):

   -20.4585  -8.5730  -7.9557  -6.5746   2.7087   3.7662   4.1822   6.0336

     occupation numbers 
     1.0000   1.0000   1.0000   1.0000   0.0000   0.0000   0.0000   0.0000

          k = 0.0467 0.2348 0.0000 (  5152 PWs)   bands (ev):

   -20.3957  -8.4981  -8.1184  -6.6494   2.7950   3.8525   4.2708   6.1125

     occupation numbers 
     1.0000   1.0000   1.0000   1.0000   0.0000   0.0000   0.0000   0.0000

          k = 0.0467 0.2425 0.0000 (  5154 PWs)   bands (ev):

   -20.3308  -8.4209  -8.2831  -6.7238   2.8841   3.9416   4.3623   6.1810

     occupation numbers 
     1.0000   1.0000   1.0000   1.0000   0.0000   0.0000   0.0000   0.0000

          k = 0.0467 0.2502 0.0000 (  5150 PWs)   bands (ev):

   -20.2639  -8.4496  -8.3413  -6.7977   2.9761   4.0331   4.4567   6.1858

     occupation numbers 
     1.0000   1.0000   1.0000   1.0000   0.0000   0.0000   0.0000   0.0000

          k = 0.0467 0.2579 0.0000 (  5146 PWs)   bands (ev):

   -20.1950  -8.6177  -8.2595  -6.8709   3.0709   4.1271   4.5541   6.0685

     occupation numbers 
     1.0000   1.0000   1.0000   1.0000   0.0000   0.0000   0.0000   0.0000

          k = 0.0467 0.2656 0.0000 (  5146 PWs)   bands (ev):

   -20.1240  -8.7871  -8.1755  -6.9433   3.1685   4.2234   4.6544   5.9095

     occupation numbers 
     1.0000   1.0000   1.0000   1.0000   0.0000   0.0000   0.0000   0.0000

          k = 0.0467 0.2733 0.0000 (  5149 PWs)   bands (ev):

   -20.0511  -8.9579  -8.0892  -7.0149   3.2690   4.3214   4.7576   5.7411

     occupation numbers 
     1.0000   1.0000   1.0000   1.0000   0.0000   0.0000   0.0000   0.0000

          k = 0.0467 0.2810 0.0000 (  5151 PWs)   bands (ev):

   -19.9761  -9.1297  -8.0007  -7.0855   3.3723   4.4204   4.8638   5.5698

     occupation numbers 
     1.0000   1.0000   1.0000   1.0000   0.0000   0.0000   0.0000   0.0000

          k = 0.0467 0.2887 0.0000 (  5152 PWs)   bands (ev):

   -19.8991  -9.3024  -7.9100  -7.1551   3.4784   4.5187   4.9728   5.3993

     occupation numbers 
     1.0000   1.0000   1.0000   1.0000   0.0000   0.0000   0.0000   0.0000

          k = 0.0467 0.2964 0.0000 (  5158 PWs)   bands (ev):

   -19.8201  -9.4760  -7.8172  -7.2236   3.5873   4.6111   5.0848   5.2352

     occupation numbers 
     1.0000   1.0000   1.0000   1.0000   0.0000   0.0000   0.0000   0.0000

          k = 0.0467 0.3041 0.0000 (  5156 PWs)   bands (ev):

   -19.7391  -9.6502  -7.7223  -7.2909   3.6990   4.6806   5.0953   5.1996

     occupation numbers 
     1.0000   1.0000   1.0000   1.0000   0.0000   0.0000   0.0000   0.0000

          k = 0.0467 0.3118 0.0000 (  5162 PWs)   bands (ev):

   -19.6561  -9.8250  -7.6254  -7.3570   3.8136   4.6724   5.0345   5.3173

     occupation numbers 
     1.0000   1.0000   1.0000   1.0000   0.0000   0.0000   0.0000   0.0000

          k = 0.0467 0.3195 0.0000 (  5162 PWs)   bands (ev):

   -19.5711 -10.0002  -7.5265  -7.4217   3.9309   4.5580   5.0816   5.4378

     occupation numbers 
     1.0000   1.0000   1.0000   1.0000   0.0000   0.0000   0.0000   0.0000

          k = 0.0467 0.3272 0.0000 (  5160 PWs)   bands (ev):

   -19.4842 -10.1756  -7.4850  -7.4256   4.0510   4.3972   5.1770   5.5610

     occupation numbers 
     1.0000   1.0000   1.0000   1.0000   0.0000   0.0000   0.0000   0.0000

          k = 0.0467 0.3349 0.0000 (  5162 PWs)   bands (ev):

   -19.3953 -10.3512  -7.5470  -7.3228   4.1738   4.2217   5.2891   5.6868

     occupation numbers 
     1.0000   1.0000   1.0000   1.0000   0.0000   0.0000   0.0000   0.0000

          k = 0.0467 0.3426 0.0000 (  5170 PWs)   bands (ev):

   -19.3045 -10.5270  -7.6074  -7.2181   4.0404   4.2994   5.4094   5.8149

     occupation numbers 
     1.0000   1.0000   1.0000   1.0000   0.0000   0.0000   0.0000   0.0000

          k = 0.0467 0.3503 0.0000 (  5174 PWs)   bands (ev):

   -19.2117 -10.7026  -7.6663  -7.1117   3.8563   4.4277   5.5349   5.9447

     occupation numbers 
     1.0000   1.0000   1.0000   1.0000   0.0000   0.0000   0.0000   0.0000

          k = 0.0467 0.3580 0.0000 (  5170 PWs)   bands (ev):

   -19.1170 -10.8782  -7.7236  -7.0036   3.6708   4.5587   5.6646   6.0744

     occupation numbers 
     1.0000   1.0000   1.0000   1.0000   0.0000   0.0000   0.0000   0.0000

          k = 0.0467 0.3657 0.0000 (  5172 PWs)   bands (ev):

   -19.0204 -11.0535  -7.7793  -6.8938   3.4846   4.6923   5.7979   6.1967

     occupation numbers 
     1.0000   1.0000   1.0000   1.0000   0.0000   0.0000   0.0000   0.0000

          k = 0.0467 0.3734 0.0000 (  5172 PWs)   bands (ev):

   -18.9219 -11.2285  -7.8333  -6.7825   3.2981   4.8284   5.9344   6.2796

     occupation numbers 
     1.0000   1.0000   1.0000   1.0000   0.0000   0.0000   0.0000   0.0000

          k = 0.0467 0.3811 0.0000 (  5166 PWs)   bands (ev):

   -18.8215 -11.4031  -7.8856  -6.6697   3.1118   4.9671   6.0740   6.3157

     occupation numbers 
     1.0000   1.0000   1.0000   1.0000   0.0000   0.0000   0.0000   0.0000

          k = 0.0467 0.3887 0.0000 (  5164 PWs)   bands (ev):

   -18.7193 -11.5772  -7.9361  -6.5557   2.9259   5.1082   6.2166   6.2804

     occupation numbers 
     1.0000   1.0000   1.0000   1.0000   0.0000   0.0000   0.0000   0.0000

          k = 0.0467 0.3964 0.0000 (  5166 PWs)   bands (ev):

   -18.6152 -11.7507  -7.9849  -6.4404   2.7409   5.2514   6.2672   6.3621

     occupation numbers 
     1.0000   1.0000   1.0000   1.0000   0.0000   0.0000   0.0000   0.0000

          k = 0.0467 0.4041 0.0000 (  5164 PWs)   bands (ev):

   -18.5092 -11.9236  -8.0318  -6.3240   2.5568   5.3964   6.2534   6.5105

     occupation numbers 
     1.0000   1.0000   1.0000   1.0000   0.0000   0.0000   0.0000   0.0000

          k = 0.0467 0.4118 0.0000 (  5169 PWs)   bands (ev):

   -18.4015 -12.0958  -8.0769  -6.2068   2.3741   5.5424   6.2409   6.6615

     occupation numbers 
     1.0000   1.0000   1.0000   1.0000   0.0000   0.0000   0.0000   0.0000

          k = 0.0467 0.4195 0.0000 (  5177 PWs)   bands (ev):

   -18.2920 -12.2671  -8.1201  -6.0888   2.1930   5.6881   6.2317   6.8154

     occupation numbers 
     1.0000   1.0000   1.0000   1.0000   0.0000   0.0000   0.0000   0.0000

          k = 0.0467 0.4272 0.0000 (  5179 PWs)   bands (ev):

   -18.1807 -12.4376  -8.1614  -5.9703   2.0138   5.8295   6.2298   6.9719

     occupation numbers 
     1.0000   1.0000   1.0000   1.0000   0.0000   0.0000   0.0000   0.0000

          k = 0.0467 0.4349 0.0000 (  5179 PWs)   bands (ev):

   -18.0677 -12.6071  -8.2008  -5.8515   1.8368   5.9556   6.2464   7.1310

     occupation numbers 
     1.0000   1.0000   1.0000   1.0000   0.0000   0.0000   0.0000   0.0000

          k = 0.0467 0.4426 0.0000 (  5177 PWs)   bands (ev):

   -17.9530 -12.7756  -8.2382  -5.7326   1.6624   6.0408   6.3070   7.2927

     occupation numbers 
     1.0000   1.0000   1.0000   1.0000   0.0000   0.0000   0.0000   0.0000

          k = 0.0467 0.4503 0.0000 (  5179 PWs)   bands (ev):

   -17.8366 -12.9429  -8.2737  -5.6141   1.4910   6.0743   6.4227   7.4570

     occupation numbers 
     1.0000   1.0000   1.0000   1.0000   0.0000   0.0000   0.0000   0.0000

          k = 0.0467 0.4580 0.0000 (  5179 PWs)   bands (ev):

   -17.7187 -13.1090  -8.3072  -5.4961   1.3230   6.0808   6.5687   7.6237

     occupation numbers 
     1.0000   1.0000   1.0000   1.0000   0.0000   0.0000   0.0000   0.0000

          k = 0.0467 0.4657 0.0000 (  5181 PWs)   bands (ev):

   -17.5992 -13.2738  -8.3387  -5.3793   1.1588   6.0774   6.7280   7.7929

     occupation numbers 
     1.0000   1.0000   1.0000   1.0000   0.0000   0.0000   0.0000   0.0000

          k = 0.0467 0.4734 0.0000 (  5183 PWs)   bands (ev):

   -17.4782 -13.4372  -8.3681  -5.2639   0.9990   6.0704   6.8942   7.9645

     occupation numbers 
     1.0000   1.0000   1.0000   1.0000   0.0000   0.0000   0.0000   0.0000

          k = 0.0467 0.4811 0.0000 (  5187 PWs)   bands (ev):

   -17.3559 -13.5991  -8.3955  -5.1505   0.8442   6.0620   7.0652   8.1384

     occupation numbers 
     1.0000   1.0000   1.0000   1.0000   0.0000   0.0000   0.0000   0.0000

          k = 0.0467 0.4888 0.0000 (  5179 PWs)   bands (ev):

   -17.2323 -13.7592  -8.4208  -5.0398   0.6951   6.0533   7.2400   8.3145

     occupation numbers 
     1.0000   1.0000   1.0000   1.0000   0.0000   0.0000   0.0000   0.0000

          k = 0.0467 0.4965 0.0000 (  5185 PWs)   bands (ev):

   -17.1077 -13.9175  -8.4441  -4.9326   0.5524   6.0447   7.4180   8.4927

     occupation numbers 
     1.0000   1.0000   1.0000   1.0000   0.0000   0.0000   0.0000   0.0000

          k = 0.0467 0.5042 0.0000 (  5181 PWs)   bands (ev):

   -16.9821 -14.0736  -8.4653  -4.8295   0.4170   6.0365   7.5989   8.6729

     occupation numbers 
     1.0000   1.0000   1.0000   1.0000   0.0000   0.0000   0.0000   0.0000

          k = 0.0467 0.5119 0.0000 (  5185 PWs)   bands (ev):

   -16.8560 -14.2274  -8.4844  -4.7316   0.2898   6.0288   7.7827   8.8549

     occupation numbers 
     1.0000   1.0000   1.0000   1.0000   0.0000   0.0000   0.0000   0.0000

          k = 0.0467 0.5196 0.0000 (  5186 PWs)   bands (ev):

   -16.7298 -14.3782  -8.5014  -4.6398   0.1720   6.0219   7.9690   9.0385

     occupation numbers 
     1.0000   1.0000   1.0000   1.0000   0.0000   0.0000   0.0000   0.0000

          k = 0.0467 0.5273 0.0000 (  5184 PWs)   bands (ev):

   -16.6041 -14.5255  -8.5163  -4.5554   0.0648   6.0157   8.1579   9.2235

     occupation numbers 
     1.0000   1.0000   1.0000   1.0000   0.0000   0.0000   0.0000   0.0000

          k = 0.0467 0.5350 0.0000 (  5188 PWs)   bands (ev):

   -16.4799 -14.6682  -8.5291  -4.4797  -0.0306   6.0103   8.3491   9.4093

     occupation numbers 
     1.0000   1.0000   1.0000   1.0000   0.0000   0.0000   0.0000   0.0000

          k = 0.0467 0.5427 0.0000 (  5188 PWs)   bands (ev):

   -16.3590 -14.8045  -8.5398  -4.4138  -0.1129   6.0058   8.5427   9.5952

     occupation numbers 
     1.0000   1.0000   1.0000   1.0000   0.0000   0.0000   0.0000   0.0000

          k = 0.0467 0.5504 0.0000 (  5190 PWs)   bands (ev):

   -16.2442 -14.9317  -8.5483  -4.3591  -0.1807   6.0021   8.7384   9.7800

     occupation numbers 
     1.0000   1.0000   1.0000   1.0000   0.0000   0.0000   0.0000   0.0000

          k = 0.0467 0.5581 0.0000 (  5196 PWs)   bands (ev):

   -16.1408 -15.0444  -8.5547  -4.3169  -0.2329   5.9993   8.9360   9.9603

     occupation numbers 
     1.0000   1.0000   1.0000   1.0000   0.0000   0.0000   0.0000   0.0000

          k = 0.0467 0.5658 0.0000 (  5194 PWs)   bands (ev):

   -16.0580 -15.1334  -8.5590  -4.2881  -0.2683   5.9975   9.1348   9.7544

     occupation numbers 
     1.0000   1.0000   1.0000   1.0000   0.0000   0.0000   0.0000   0.0000

          k = 0.0467 0.5735 0.0000 (  5196 PWs)   bands (ev):

   -16.0099 -15.1845  -8.5611  -4.2735  -0.2862   5.9966   9.3303   9.5554

     occupation numbers 
     1.0000   1.0000   1.0000   1.0000   0.0000   0.0000   0.0000   0.0000

          k = 0.0533 0.0924 0.0000 (  5169 PWs)   bands (ev):

   -21.2104  -9.4770  -5.6985  -5.3861   1.6796   2.7291   3.1266   5.0123

     occupation numbers 
     1.0000   1.0000   1.0000   1.0000   0.0000   0.0000   0.0000   0.0000

          k = 0.0533 0.1001 0.0000 (  5161 PWs)   bands (ev):

   -21.1840  -9.4451  -5.7883  -5.4417   1.7156   2.7655   3.1635   5.0485

     occupation numbers 
     1.0000   1.0000   1.0000   1.0000   0.0000   0.0000   0.0000   0.0000

          k = 0.0533 0.1078 0.0000 (  5156 PWs)   bands (ev):

   -21.1555  -9.4106  -5.8840  -5.5004   1.7545   2.8048   3.2034   5.0875

     occupation numbers 
     1.0000   1.0000   1.0000   1.0000   0.0000   0.0000   0.0000   0.0000

          k = 0.0533 0.1155 0.0000 (  5150 PWs)   bands (ev):

   -21.1249  -9.3736  -5.9855  -5.5620   1.7963   2.8471   3.2462   5.1294

     occupation numbers 
     1.0000   1.0000   1.0000   1.0000   0.0000   0.0000   0.0000   0.0000

          k = 0.0533 0.1232 0.0000 (  5146 PWs)   bands (ev):

   -21.0922  -9.3341  -6.0925  -5.6261   1.8409   2.8922   3.2920   5.1742

     occupation numbers 
     1.0000   1.0000   1.0000   1.0000   0.0000   0.0000   0.0000   0.0000

          k = 0.0533 0.1309 0.0000 (  5148 PWs)   bands (ev):

   -21.0574  -9.2921  -6.2049  -5.6925   1.8884   2.9402   3.3407   5.2218

     occupation numbers 
     1.0000   1.0000   1.0000   1.0000   0.0000   0.0000   0.0000   0.0000

          k = 0.0533 0.1386 0.0000 (  5148 PWs)   bands (ev):

   -21.0206  -9.2476  -6.3224  -5.7609   1.9388   2.9911   3.3924   5.2723

     occupation numbers 
     1.0000   1.0000   1.0000   1.0000   0.0000   0.0000   0.0000   0.0000

          k = 0.0533 0.1463 0.0000 (  5142 PWs)   bands (ev):

   -20.9816  -9.2006  -6.4447  -5.8310   1.9921   3.0449   3.4470   5.3257

     occupation numbers 
     1.0000   1.0000   1.0000   1.0000   0.0000   0.0000   0.0000   0.0000

          k = 0.0533 0.1540 0.0000 (  5141 PWs)   bands (ev):

   -20.9405  -9.1511  -6.5718  -5.9026   2.0483   3.1016   3.5046   5.3819

     occupation numbers 
     1.0000   1.0000   1.0000   1.0000   0.0000   0.0000   0.0000   0.0000

          k = 0.0533 0.1617 0.0000 (  5141 PWs)   bands (ev):

   -20.8973  -9.0991  -6.7032  -5.9754   2.1073   3.1611   3.5651   5.4409

     occupation numbers 
     1.0000   1.0000   1.0000   1.0000   0.0000   0.0000   0.0000   0.0000

          k = 0.0533 0.1694 0.0000 (  5149 PWs)   bands (ev):

   -20.8521  -9.0447  -6.8389  -6.0493   2.1692   3.2236   3.6286   5.5028

     occupation numbers 
     1.0000   1.0000   1.0000   1.0000   0.0000   0.0000   0.0000   0.0000

          k = 0.0533 0.1771 0.0000 (  5149 PWs)   bands (ev):

   -20.8048  -8.9877  -6.9784  -6.1240   2.2340   3.2889   3.6951   5.5674

     occupation numbers 
     1.0000   1.0000   1.0000   1.0000   0.0000   0.0000   0.0000   0.0000

          k = 0.0533 0.1848 0.0000 (  5147 PWs)   bands (ev):

   -20.7554  -8.9284  -7.1216  -6.1993   2.3017   3.3571   3.7645   5.6348

     occupation numbers 
     1.0000   1.0000   1.0000   1.0000   0.0000   0.0000   0.0000   0.0000

          k = 0.0533 0.1925 0.0000 (  5147 PWs)   bands (ev):

   -20.7039  -8.8666  -7.2683  -6.2751   2.3722   3.4281   3.8368   5.7049

     occupation numbers 
     1.0000   1.0000   1.0000   1.0000   0.0000   0.0000   0.0000   0.0000

          k = 0.0533 0.2001 0.0000 (  5147 PWs)   bands (ev):

   -20.6503  -8.8024  -7.4181  -6.3512   2.4456   3.5020   3.9121   5.7777

     occupation numbers 
     1.0000   1.0000   1.0000   1.0000   0.0000   0.0000   0.0000   0.0000

          k = 0.0533 0.2078 0.0000 (  5140 PWs)   bands (ev):

   -20.5947  -8.7358  -7.5710  -6.4274   2.5218   3.5786   3.9904   5.8530

     occupation numbers 
     1.0000   1.0000   1.0000   1.0000   0.0000   0.0000   0.0000   0.0000

          k = 0.0533 0.2155 0.0000 (  5138 PWs)   bands (ev):

   -20.5371  -8.6668  -7.7266  -6.5035   2.6010   3.6581   4.0716   5.9306

     occupation numbers 
     1.0000   1.0000   1.0000   1.0000   0.0000   0.0000   0.0000   0.0000

          k = 0.0533 0.2232 0.0000 (  5140 PWs)   bands (ev):

   -20.4773  -8.5955  -7.8847  -6.5795   2.6829   3.7404   4.1557   6.0099

     occupation numbers 
     1.0000   1.0000   1.0000   1.0000   0.0000   0.0000   0.0000   0.0000

          k = 0.0533 0.2309 0.0000 (  5148 PWs)   bands (ev):

   -20.4156  -8.5218  -8.0452  -6.6552   2.7678   3.8254   4.2428   6.0896

     occupation numbers 
     1.0000   1.0000   1.0000   1.0000   0.0000   0.0000   0.0000   0.0000

          k = 0.0533 0.2386 0.0000 (  5148 PWs)   bands (ev):

   -20.3517  -8.4457  -8.2077  -6.7305   2.8555   3.9131   4.3328   6.1647

     occupation numbers 
     1.0000   1.0000   1.0000   1.0000   0.0000   0.0000   0.0000   0.0000

          k = 0.0533 0.2463 0.0000 (  5146 PWs)   bands (ev):

   -20.2859  -8.3722  -8.3674  -6.8052   2.9460   4.0034   4.4258   6.2054

     occupation numbers 
     1.0000   1.0000   1.0000   1.0000   0.0000   0.0000   0.0000   0.0000

          k = 0.0533 0.2540 0.0000 (  5148 PWs)   bands (ev):

   -20.2180  -8.5385  -8.2867  -6.8793   3.0394   4.0962   4.5217   6.1239

     occupation numbers 
     1.0000   1.0000   1.0000   1.0000   0.0000   0.0000   0.0000   0.0000

          k = 0.0533 0.2617 0.0000 (  5150 PWs)   bands (ev):

   -20.1480  -8.7063  -8.2038  -6.9526   3.1356   4.1914   4.6206   5.9721

     occupation numbers 
     1.0000   1.0000   1.0000   1.0000   0.0000   0.0000   0.0000   0.0000

          k = 0.0533 0.2694 0.0000 (  5153 PWs)   bands (ev):

   -20.0761  -8.8755  -8.1186  -7.0251   3.2347   4.2886   4.7223   5.8061

     occupation numbers 
     1.0000   1.0000   1.0000   1.0000   0.0000   0.0000   0.0000   0.0000

          k = 0.0533 0.2771 0.0000 (  5151 PWs)   bands (ev):

   -20.0021  -9.0459  -8.0312  -7.0966   3.3366   4.3873   4.8270   5.6359

     occupation numbers 
     1.0000   1.0000   1.0000   1.0000   0.0000   0.0000   0.0000   0.0000

          k = 0.0533 0.2848 0.0000 (  5151 PWs)   bands (ev):

   -19.9261  -9.2174  -7.9417  -7.1672   3.4413   4.4862   4.9347   5.4650

     occupation numbers 
     1.0000   1.0000   1.0000   1.0000   0.0000   0.0000   0.0000   0.0000

          k = 0.0533 0.2925 0.0000 (  5156 PWs)   bands (ev):

   -19.8481  -9.3898  -7.8500  -7.2366   3.5488   4.5822   5.0452   5.2976

     occupation numbers 
     1.0000   1.0000   1.0000   1.0000   0.0000   0.0000   0.0000   0.0000

          k = 0.0533 0.3002 0.0000 (  5162 PWs)   bands (ev):

   -19.7682  -9.5630  -7.7562  -7.3048   3.6592   4.6654   5.1441   5.1586

     occupation numbers 
     1.0000   1.0000   1.0000   1.0000   0.0000   0.0000   0.0000   0.0000

          k = 0.0533 0.3079 0.0000 (  5162 PWs)   bands (ev):

   -19.6862  -9.7368  -7.6603  -7.3718   3.7723   4.6980   5.0424   5.2749

     occupation numbers 
     1.0000   1.0000   1.0000   1.0000   0.0000   0.0000   0.0000   0.0000

          k = 0.0533 0.3156 0.0000 (  5160 PWs)   bands (ev):

   -19.6022  -9.9111  -7.5624  -7.4375   3.8882   4.6198   5.0530   5.3940

     occupation numbers 
     1.0000   1.0000   1.0000   1.0000   0.0000   0.0000   0.0000   0.0000

          k = 0.0533 0.3233 0.0000 (  5164 PWs)   bands (ev):

   -19.5163 -10.0858  -7.5019  -7.4625   4.0070   4.4706   5.1365   5.5160

     occupation numbers 
     1.0000   1.0000   1.0000   1.0000   0.0000   0.0000   0.0000   0.0000

          k = 0.0533 0.3310 0.0000 (  5166 PWs)   bands (ev):

   -19.4284 -10.2608  -7.5648  -7.3606   4.1285   4.2993   5.2441   5.6406

     occupation numbers 
     1.0000   1.0000   1.0000   1.0000   0.0000   0.0000   0.0000   0.0000

          k = 0.0533 0.3387 0.0000 (  5170 PWs)   bands (ev):

   -19.3386 -10.4360  -7.6262  -7.2569   4.1202   4.2527   5.3618   5.7678

     occupation numbers 
     1.0000   1.0000   1.0000   1.0000   0.0000   0.0000   0.0000   0.0000

          k = 0.0533 0.3464 0.0000 (  5170 PWs)   bands (ev):

   -19.2468 -10.6112  -7.6861  -7.1514   3.9375   4.3797   5.4853   5.8973

     occupation numbers 
     1.0000   1.0000   1.0000   1.0000   0.0000   0.0000   0.0000   0.0000

          k = 0.0533 0.3541 0.0000 (  5168 PWs)   bands (ev):

   -19.1531 -10.7864  -7.7444  -7.0441   3.7529   4.5093   5.6133   6.0283

     occupation numbers 
     1.0000   1.0000   1.0000   1.0000   0.0000   0.0000   0.0000   0.0000

          k = 0.0533 0.3618 0.0000 (  5164 PWs)   bands (ev):

   -19.0575 -10.9614  -7.8010  -6.9352   3.5674   4.6417   5.7449   6.1585

     occupation numbers 
     1.0000   1.0000   1.0000   1.0000   0.0000   0.0000   0.0000   0.0000

          k = 0.0533 0.3695 0.0000 (  5168 PWs)   bands (ev):

   -18.9599 -11.1361  -7.8560  -6.8247   3.3815   4.7766   5.8799   6.2789

     occupation numbers 
     1.0000   1.0000   1.0000   1.0000   0.0000   0.0000   0.0000   0.0000

          k = 0.0533 0.3772 0.0000 (  5168 PWs)   bands (ev):

   -18.8605 -11.3106  -7.9093  -6.7127   3.1956   4.9142   6.0180   6.3466

     occupation numbers 
     1.0000   1.0000   1.0000   1.0000   0.0000   0.0000   0.0000   0.0000

          k = 0.0533 0.3849 0.0000 (  5168 PWs)   bands (ev):

   -18.7592 -11.4846  -7.9609  -6.5993   3.0101   5.0542   6.1591   6.3502

     occupation numbers 
     1.0000   1.0000   1.0000   1.0000   0.0000   0.0000   0.0000   0.0000

          k = 0.0533 0.3926 0.0000 (  5164 PWs)   bands (ev):

   -18.6561 -11.6580  -8.0107  -6.4846   2.8251   5.1965   6.3032   6.3407

     occupation numbers 
     1.0000   1.0000   1.0000   1.0000   0.0000   0.0000   0.0000   0.0000

          k = 0.0533 0.4003 0.0000 (  5170 PWs)   bands (ev):

   -18.5511 -11.8309  -8.0586  -6.3688   2.6410   5.3410   6.3266   6.4500

     occupation numbers 
     1.0000   1.0000   1.0000   1.0000   0.0000   0.0000   0.0000   0.0000

          k = 0.0533 0.4080 0.0000 (  5176 PWs)   bands (ev):

   -18.4443 -12.0032  -8.1047  -6.2519   2.4581   5.4871   6.3132   6.5996

     occupation numbers 
     1.0000   1.0000   1.0000   1.0000   0.0000   0.0000   0.0000   0.0000

          k = 0.0533 0.4157 0.0000 (  5178 PWs)   bands (ev):

   -18.3356 -12.1746  -8.1490  -6.1343   2.2766   5.6342   6.3013   6.7520

     occupation numbers 
     1.0000   1.0000   1.0000   1.0000   0.0000   0.0000   0.0000   0.0000

          k = 0.0533 0.4234 0.0000 (  5176 PWs)   bands (ev):

   -18.2253 -12.3453  -8.1913  -6.0160   2.0968   5.7804   6.2931   6.9070

     occupation numbers 
     1.0000   1.0000   1.0000   1.0000   0.0000   0.0000   0.0000   0.0000

          k = 0.0533 0.4311 0.0000 (  5182 PWs)   bands (ev):

   -18.1131 -12.5150  -8.2318  -5.8974   1.9191   5.9210   6.2936   7.0647

     occupation numbers 
     1.0000   1.0000   1.0000   1.0000   0.0000   0.0000   0.0000   0.0000

          k = 0.0533 0.4388 0.0000 (  5175 PWs)   bands (ev):

   -17.9993 -12.6838  -8.2702  -5.7785   1.7438   6.0423   6.3167   7.2250

     occupation numbers 
     1.0000   1.0000   1.0000   1.0000   0.0000   0.0000   0.0000   0.0000

          k = 0.0533 0.4465 0.0000 (  5175 PWs)   bands (ev):

   -17.8838 -12.8515  -8.3068  -5.6597   1.5713   6.1168   6.3897   7.3878

     occupation numbers 
     1.0000   1.0000   1.0000   1.0000   0.0000   0.0000   0.0000   0.0000

          k = 0.0533 0.4542 0.0000 (  5185 PWs)   bands (ev):

   -17.7667 -13.0180  -8.3413  -5.5414   1.4018   6.1425   6.5149   7.5531

     occupation numbers 
     1.0000   1.0000   1.0000   1.0000   0.0000   0.0000   0.0000   0.0000

          k = 0.0533 0.4619 0.0000 (  5183 PWs)   bands (ev):

   -17.6480 -13.1832  -8.3738  -5.4240   1.2360   6.1460   6.6656   7.7208

     occupation numbers 
     1.0000   1.0000   1.0000   1.0000   0.0000   0.0000   0.0000   0.0000

          k = 0.0533 0.4696 0.0000 (  5181 PWs)   bands (ev):

   -17.5278 -13.3472  -8.4043  -5.3077   1.0742   6.1416   6.8274   7.8910

     occupation numbers 
     1.0000   1.0000   1.0000   1.0000   0.0000   0.0000   0.0000   0.0000

          k = 0.0533 0.4773 0.0000 (  5187 PWs)   bands (ev):

   -17.4062 -13.5096  -8.4328  -5.1932   0.9171   6.1343   6.9956   8.0634

     occupation numbers 
     1.0000   1.0000   1.0000   1.0000   0.0000   0.0000   0.0000   0.0000

          k = 0.0533 0.4850 0.0000 (  5187 PWs)   bands (ev):

   -17.2833 -13.6705  -8.4592  -5.0811   0.7653   6.1260   7.1682   8.2380

     occupation numbers 
     1.0000   1.0000   1.0000   1.0000   0.0000   0.0000   0.0000   0.0000

          k = 0.0533 0.4927 0.0000 (  5179 PWs)   bands (ev):

   -17.1592 -13.8295  -8.4835  -4.9720   0.6194   6.1175   7.3444   8.4148

     occupation numbers 
     1.0000   1.0000   1.0000   1.0000   0.0000   0.0000   0.0000   0.0000

          k = 0.0533 0.5004 0.0000 (  5181 PWs)   bands (ev):

   -17.0342 -13.9866  -8.5058  -4.8666   0.4804   6.1092   7.5237   8.5935

     occupation numbers 
     1.0000   1.0000   1.0000   1.0000   0.0000   0.0000   0.0000   0.0000

          k = 0.0533 0.5081 0.0000 (  5183 PWs)   bands (ev):

   -16.9084 -14.1415  -8.5260  -4.7659   0.3491   6.1013   7.7060   8.7741

     occupation numbers 
     1.0000   1.0000   1.0000   1.0000   0.0000   0.0000   0.0000   0.0000

          k = 0.0533 0.5158 0.0000 (  5189 PWs)   bands (ev):

   -16.7822 -14.2937  -8.5441  -4.6708   0.2266   6.0940   7.8909   8.9563

     occupation numbers 
     1.0000   1.0000   1.0000   1.0000   0.0000   0.0000   0.0000   0.0000

          k = 0.0533 0.5235 0.0000 (  5189 PWs)   bands (ev):

   -16.6562 -14.4427  -8.5600  -4.5825   0.1140   6.0875   8.0784   9.1399

     occupation numbers 
     1.0000   1.0000   1.0000   1.0000   0.0000   0.0000   0.0000   0.0000

          k = 0.0533 0.5312 0.0000 (  5186 PWs)   bands (ev):

   -16.5312 -14.5877  -8.5739  -4.5022   0.0126   6.0817   8.2683   9.3244

     occupation numbers 
     1.0000   1.0000   1.0000   1.0000   0.0000   0.0000   0.0000   0.0000

          k = 0.0533 0.5389 0.0000 (  5188 PWs)   bands (ev):

   -16.4085 -14.7273  -8.5856  -4.4311  -0.0764   6.0768   8.4606   9.5093

     occupation numbers 
     1.0000   1.0000   1.0000   1.0000   0.0000   0.0000   0.0000   0.0000

          k = 0.0533 0.5466 0.0000 (  5190 PWs)   bands (ev):

   -16.2902 -14.8594  -8.5952  -4.3706  -0.1516   6.0727   8.6551   9.6934

     occupation numbers 
     1.0000   1.0000   1.0000   1.0000   0.0000   0.0000   0.0000   0.0000

          k = 0.0533 0.5543 0.0000 (  5192 PWs)   bands (ev):

   -16.1804 -14.9801  -8.6027  -4.3219  -0.2117   6.0695   8.8516   9.8747

     occupation numbers 
     1.0000   1.0000   1.0000   1.0000   0.0000   0.0000   0.0000   0.0000

          k = 0.0533 0.5620 0.0000 (  5196 PWs)   bands (ev):

   -16.0859 -15.0823  -8.6081  -4.2862  -0.2556   6.0672   9.0498   9.8706

     occupation numbers 
     1.0000   1.0000   1.0000   1.0000   0.0000   0.0000   0.0000   0.0000

          k = 0.0533 0.5697 0.0000 (  5198 PWs)   bands (ev):

   -16.0186 -15.1542  -8.6113  -4.2643  -0.2824   6.0658   9.2482   9.6671

     occupation numbers 
     1.0000   1.0000   1.0000   1.0000   0.0000   0.0000   0.0000   0.0000

          k = 0.0533 0.5774 0.0000 (  5200 PWs)   bands (ev):

   -15.9935 -15.1808  -8.6123  -4.2570  -0.2914   6.0653   9.4087   9.5048

     occupation numbers 
     1.0000   1.0000   1.0000   1.0000   0.0000   0.0000   0.0000   0.0000

          k = 0.0600 0.1039 0.0000 (  5161 PWs)   bands (ev):

   -21.1566  -9.4119  -5.8792  -5.4997   1.7531   2.8034   3.2019   5.0860

     occupation numbers 
     1.0000   1.0000   1.0000   1.0000   0.0000   0.0000   0.0000   0.0000

          k = 0.0600 0.1116 0.0000 (  5148 PWs)   bands (ev):

   -21.1271  -9.3762  -5.9757  -5.5609   1.7934   2.8441   3.2432   5.1265

     occupation numbers 
     1.0000   1.0000   1.0000   1.0000   0.0000   0.0000   0.0000   0.0000

          k = 0.0600 0.1193 0.0000 (  5148 PWs)   bands (ev):

   -21.0954  -9.3379  -6.0778  -5.6249   1.8366   2.8878   3.2875   5.1698

     occupation numbers 
     1.0000   1.0000   1.0000   1.0000   0.0000   0.0000   0.0000   0.0000

          k = 0.0600 0.1270 0.0000 (  5142 PWs)   bands (ev):

   -21.0617  -9.2972  -6.1852  -5.6915   1.8827   2.9344   3.3348   5.2160

     occupation numbers 
     1.0000   1.0000   1.0000   1.0000   0.0000   0.0000   0.0000   0.0000

          k = 0.0600 0.1347 0.0000 (  5146 PWs)   bands (ev):

   -21.0258  -9.2539  -6.2978  -5.7601   1.9317   2.9838   3.3850   5.2651

     occupation numbers 
     1.0000   1.0000   1.0000   1.0000   0.0000   0.0000   0.0000   0.0000

          k = 0.0600 0.1424 0.0000 (  5140 PWs)   bands (ev):

   -20.9879  -9.2082  -6.4154  -5.8307   1.9835   3.0362   3.4382   5.3170

     occupation numbers 
     1.0000   1.0000   1.0000   1.0000   0.0000   0.0000   0.0000   0.0000

          k = 0.0600 0.1501 0.0000 (  5139 PWs)   bands (ev):

   -20.9479  -9.1599  -6.5378  -5.9029   2.0382   3.0914   3.4943   5.3718

     occupation numbers 
     1.0000   1.0000   1.0000   1.0000   0.0000   0.0000   0.0000   0.0000

          k = 0.0600 0.1578 0.0000 (  5143 PWs)   bands (ev):

   -20.9058  -9.1092  -6.6648  -5.9765   2.0958   3.1495   3.5533   5.4294

     occupation numbers 
     1.0000   1.0000   1.0000   1.0000   0.0000   0.0000   0.0000   0.0000

          k = 0.0600 0.1655 0.0000 (  5145 PWs)   bands (ev):

   -20.8616  -9.0560  -6.7961  -6.0511   2.1563   3.2105   3.6154   5.4899

     occupation numbers 
     1.0000   1.0000   1.0000   1.0000   0.0000   0.0000   0.0000   0.0000

          k = 0.0600 0.1732 0.0000 (  5143 PWs)   bands (ev):

   -20.8153  -9.0004  -6.9316  -6.1267   2.2197   3.2744   3.6803   5.5531

     occupation numbers 
     1.0000   1.0000   1.0000   1.0000   0.0000   0.0000   0.0000   0.0000

          k = 0.0600 0.1809 0.0000 (  5143 PWs)   bands (ev):

   -20.7669  -8.9423  -7.0709  -6.2029   2.2859   3.3412   3.7483   5.6192

     occupation numbers 
     1.0000   1.0000   1.0000   1.0000   0.0000   0.0000   0.0000   0.0000

          k = 0.0600 0.1886 0.0000 (  5145 PWs)   bands (ev):

   -20.7165  -8.8817  -7.2139  -6.2797   2.3550   3.4108   3.8191   5.6880

     occupation numbers 
     1.0000   1.0000   1.0000   1.0000   0.0000   0.0000   0.0000   0.0000

          k = 0.0600 0.1963 0.0000 (  5147 PWs)   bands (ev):

   -20.6640  -8.8188  -7.3603  -6.3567   2.4269   3.4832   3.8930   5.7594

     occupation numbers 
     1.0000   1.0000   1.0000   1.0000   0.0000   0.0000   0.0000   0.0000

          k = 0.0600 0.2040 0.0000 (  5147 PWs)   bands (ev):

   -20.6094  -8.7534  -7.5099  -6.4339   2.5018   3.5585   3.9697   5.8335

     occupation numbers 
     1.0000   1.0000   1.0000   1.0000   0.0000   0.0000   0.0000   0.0000

          k = 0.0600 0.2117 0.0000 (  5146 PWs)   bands (ev):

   -20.5528  -8.6856  -7.6624  -6.5110   2.5795   3.6366   4.0495   5.9100

     occupation numbers 
     1.0000   1.0000   1.0000   1.0000   0.0000   0.0000   0.0000   0.0000

          k = 0.0600 0.2194 0.0000 (  5146 PWs)   bands (ev):

   -20.4941  -8.6155  -7.8177  -6.5880   2.6600   3.7174   4.1321   5.9886

     occupation numbers 
     1.0000   1.0000   1.0000   1.0000   0.0000   0.0000   0.0000   0.0000

          k = 0.0600 0.2271 0.0000 (  5144 PWs)   bands (ev):

   -20.4334  -8.5429  -7.9754  -6.6647   2.7434   3.8011   4.2178   6.0684

     occupation numbers 
     1.0000   1.0000   1.0000   1.0000   0.0000   0.0000   0.0000   0.0000

          k = 0.0600 0.2348 0.0000 (  5146 PWs)   bands (ev):

   -20.3706  -8.4681  -8.1355  -6.7410   2.8297   3.8874   4.3063   6.1464

     occupation numbers 
     1.0000   1.0000   1.0000   1.0000   0.0000   0.0000   0.0000   0.0000

          k = 0.0600 0.2425 0.0000 (  5146 PWs)   bands (ev):

   -20.3057  -8.3909  -8.2977  -6.8168   2.9188   3.9765   4.3978   6.2077

     occupation numbers 
     1.0000   1.0000   1.0000   1.0000   0.0000   0.0000   0.0000   0.0000

          k = 0.0600 0.2502 0.0000 (  5148 PWs)   bands (ev):

   -20.2389  -8.4618  -8.3114  -6.8919   3.0108   4.0681   4.4923   6.1711

     occupation numbers 
     1.0000   1.0000   1.0000   1.0000   0.0000   0.0000   0.0000   0.0000

          k = 0.0600 0.2579 0.0000 (  5146 PWs)   bands (ev):

   -20.1700  -8.6277  -8.2297  -6.9662   3.1056   4.1621   4.5897   6.0302

     occupation numbers 
     1.0000   1.0000   1.0000   1.0000   0.0000   0.0000   0.0000   0.0000

          k = 0.0600 0.2656 0.0000 (  5148 PWs)   bands (ev):

   -20.0990  -8.7951  -8.1456  -7.0397   3.2033   4.2584   4.6900   5.8671

     occupation numbers 
     1.0000   1.0000   1.0000   1.0000   0.0000   0.0000   0.0000   0.0000

          k = 0.0600 0.2733 0.0000 (  5153 PWs)   bands (ev):

   -20.0261  -8.9638  -8.0594  -7.1123   3.3037   4.3564   4.7933   5.6984

     occupation numbers 
     1.0000   1.0000   1.0000   1.0000   0.0000   0.0000   0.0000   0.0000

          k = 0.0600 0.2810 0.0000 (  5147 PWs)   bands (ev):

   -19.9511  -9.1338  -7.9710  -7.1838   3.4070   4.4554   4.8994   5.5280

     occupation numbers 
     1.0000   1.0000   1.0000   1.0000   0.0000   0.0000   0.0000   0.0000

          k = 0.0600 0.2887 0.0000 (  5152 PWs)   bands (ev):

   -19.8742  -9.3049  -7.8804  -7.2543   3.5132   4.5533   5.0085   5.3590

     occupation numbers 
     1.0000   1.0000   1.0000   1.0000   0.0000   0.0000   0.0000   0.0000

          k = 0.0600 0.2964 0.0000 (  5156 PWs)   bands (ev):

   -19.7952  -9.4768  -7.7876  -7.3236   3.6221   4.6441   5.1205   5.1980

     occupation numbers 
     1.0000   1.0000   1.0000   1.0000   0.0000   0.0000   0.0000   0.0000

          k = 0.0600 0.3041 0.0000 (  5168 PWs)   bands (ev):

   -19.7142  -9.6495  -7.6928  -7.3916   3.7339   4.7051   5.0680   5.2354

     occupation numbers 
     1.0000   1.0000   1.0000   1.0000   0.0000   0.0000   0.0000   0.0000

          k = 0.0600 0.3118 0.0000 (  5168 PWs)   bands (ev):

   -19.6313  -9.8228  -7.5959  -7.4583   3.8484   4.6712   5.0344   5.3532

     occupation numbers 
     1.0000   1.0000   1.0000   1.0000   0.0000   0.0000   0.0000   0.0000

          k = 0.0600 0.3195 0.0000 (  5170 PWs)   bands (ev):

   -19.5464  -9.9967  -7.5237  -7.4970   3.9658   4.5395   5.1003   5.4738

     occupation numbers 
     1.0000   1.0000   1.0000   1.0000   0.0000   0.0000   0.0000   0.0000

          k = 0.0600 0.3272 0.0000 (  5168 PWs)   bands (ev):

   -19.4595 -10.1709  -7.5876  -7.3962   4.0859   4.3737   5.2021   5.5972

     occupation numbers 
     1.0000   1.0000   1.0000   1.0000   0.0000   0.0000   0.0000   0.0000

          k = 0.0600 0.3349 0.0000 (  5172 PWs)   bands (ev):

   -19.3706 -10.3453  -7.6500  -7.2934   4.1971   4.2088   5.3169   5.7233

     occupation numbers 
     1.0000   1.0000   1.0000   1.0000   0.0000   0.0000   0.0000   0.0000

          k = 0.0600 0.3426 0.0000 (  5170 PWs)   bands (ev):

   -19.2798 -10.5199  -7.7109  -7.1889   4.0160   4.3344   5.4384   5.8519

     occupation numbers 
     1.0000   1.0000   1.0000   1.0000   0.0000   0.0000   0.0000   0.0000

          k = 0.0600 0.3503 0.0000 (  5168 PWs)   bands (ev):

   -19.1871 -10.6946  -7.7703  -7.0825   3.8326   4.4628   5.5646   5.9827

     occupation numbers 
     1.0000   1.0000   1.0000   1.0000   0.0000   0.0000   0.0000   0.0000

          k = 0.0600 0.3580 0.0000 (  5170 PWs)   bands (ev):

   -19.0925 -10.8691  -7.8280  -6.9744   3.6481   4.5938   5.6946   6.1149

     occupation numbers 
     1.0000   1.0000   1.0000   1.0000   0.0000   0.0000   0.0000   0.0000

          k = 0.0600 0.3657 0.0000 (  5164 PWs)   bands (ev):

   -18.9959 -11.0435  -7.8840  -6.8647   3.4629   4.7276   5.8281   6.2456

     occupation numbers 
     1.0000   1.0000   1.0000   1.0000   0.0000   0.0000   0.0000   0.0000

          k = 0.0600 0.3734 0.0000 (  5165 PWs)   bands (ev):

   -18.8975 -11.2177  -7.9384  -6.7534   3.2776   4.8639   5.9647   6.3622

     occupation numbers 
     1.0000   1.0000   1.0000   1.0000   0.0000   0.0000   0.0000   0.0000

          k = 0.0600 0.3811 0.0000 (  5169 PWs)   bands (ev):

   -18.7971 -11.3915  -7.9910  -6.6407   3.0924   5.0028   6.1043   6.4177

     occupation numbers 
     1.0000   1.0000   1.0000   1.0000   0.0000   0.0000   0.0000   0.0000

          k = 0.0600 0.3887 0.0000 (  5170 PWs)   bands (ev):

   -18.6949 -11.5648  -8.0418  -6.5267   2.9077   5.1441   6.2468   6.4186

     occupation numbers 
     1.0000   1.0000   1.0000   1.0000   0.0000   0.0000   0.0000   0.0000

          k = 0.0600 0.3964 0.0000 (  5172 PWs)   bands (ev):

   -18.5909 -11.7376  -8.0908  -6.4114   2.7237   5.2878   6.3922   6.4077

     occupation numbers 
     1.0000   1.0000   1.0000   1.0000   0.0000   0.0000   0.0000   0.0000

          k = 0.0600 0.4041 0.0000 (  5176 PWs)   bands (ev):

   -18.4850 -11.9099  -8.1380  -6.2951   2.5408   5.4335   6.3944   6.5404

     occupation numbers 
     1.0000   1.0000   1.0000   1.0000   0.0000   0.0000   0.0000   0.0000

          k = 0.0600 0.4118 0.0000 (  5178 PWs)   bands (ev):

   -18.3773 -12.0814  -8.1833  -6.1779   2.3591   5.5809   6.3812   6.6912

     occupation numbers 
     1.0000   1.0000   1.0000   1.0000   0.0000   0.0000   0.0000   0.0000

          k = 0.0600 0.4195 0.0000 (  5176 PWs)   bands (ev):

   -18.2679 -12.2521  -8.2267  -6.0599   2.1790   5.7289   6.3699   6.8448

     occupation numbers 
     1.0000   1.0000   1.0000   1.0000   0.0000   0.0000   0.0000   0.0000

          k = 0.0600 0.4272 0.0000 (  5172 PWs)   bands (ev):

   -18.1567 -12.4220  -8.2682  -5.9414   2.0007   5.8757   6.3628   7.0010

     occupation numbers 
     1.0000   1.0000   1.0000   1.0000   0.0000   0.0000   0.0000   0.0000

          k = 0.0600 0.4349 0.0000 (  5176 PWs)   bands (ev):

   -18.0437 -12.5910  -8.3077  -5.8226   1.8246   6.0156   6.3657   7.1598

     occupation numbers 
     1.0000   1.0000   1.0000   1.0000   0.0000   0.0000   0.0000   0.0000

          k = 0.0600 0.4426 0.0000 (  5178 PWs)   bands (ev):

   -17.9291 -12.7589  -8.3453  -5.7038   1.6511   6.1322   6.3951   7.3211

     occupation numbers 
     1.0000   1.0000   1.0000   1.0000   0.0000   0.0000   0.0000   0.0000

          k = 0.0600 0.4503 0.0000 (  5184 PWs)   bands (ev):

   -17.8128 -12.9258  -8.3809  -5.5852   1.4804   6.1975   6.4790   7.4850

     occupation numbers 
     1.0000   1.0000   1.0000   1.0000   0.0000   0.0000   0.0000   0.0000

          k = 0.0600 0.4580 0.0000 (  5182 PWs)   bands (ev):

   -17.6950 -13.0915  -8.4145  -5.4672   1.3131   6.2176   6.6115   7.6512

     occupation numbers 
     1.0000   1.0000   1.0000   1.0000   0.0000   0.0000   0.0000   0.0000

          k = 0.0600 0.4657 0.0000 (  5183 PWs)   bands (ev):

   -17.5756 -13.2558  -8.4461  -5.3502   1.1496   6.2191   6.7658   7.8199

     occupation numbers 
     1.0000   1.0000   1.0000   1.0000   0.0000   0.0000   0.0000   0.0000

          k = 0.0600 0.4734 0.0000 (  5181 PWs)   bands (ev):

   -17.4547 -13.4188  -8.4756  -5.2348   0.9904   6.2141   6.9299   7.9908

     occupation numbers 
     1.0000   1.0000   1.0000   1.0000   0.0000   0.0000   0.0000   0.0000

          k = 0.0600 0.4811 0.0000 (  5177 PWs)   bands (ev):

   -17.3325 -13.5803  -8.5031  -5.1213   0.8361   6.2068   7.0999   8.1640

     occupation numbers 
     1.0000   1.0000   1.0000   1.0000   0.0000   0.0000   0.0000   0.0000

          k = 0.0600 0.4888 0.0000 (  5175 PWs)   bands (ev):

   -17.2091 -13.7401  -8.5285  -5.0105   0.6874   6.1986   7.2740   8.3392

     occupation numbers 
     1.0000   1.0000   1.0000   1.0000   0.0000   0.0000   0.0000   0.0000

          k = 0.0600 0.4965 0.0000 (  5179 PWs)   bands (ev):

   -17.0845 -13.8980  -8.5518  -4.9031   0.5451   6.1903   7.4515   8.5165

     occupation numbers 
     1.0000   1.0000   1.0000   1.0000   0.0000   0.0000   0.0000   0.0000

          k = 0.0600 0.5042 0.0000 (  5179 PWs)   bands (ev):

   -16.9591 -14.0538  -8.5731  -4.7999   0.4100   6.1823   7.6322   8.6956

     occupation numbers 
     1.0000   1.0000   1.0000   1.0000   0.0000   0.0000   0.0000   0.0000

          k = 0.0600 0.5119 0.0000 (  5189 PWs)   bands (ev):

   -16.8332 -14.2072  -8.5923  -4.7017   0.2831   6.1748   7.8156   8.8763

     occupation numbers 
     1.0000   1.0000   1.0000   1.0000   0.0000   0.0000   0.0000   0.0000

          k = 0.0600 0.5196 0.0000 (  5191 PWs)   bands (ev):

   -16.7071 -14.3578  -8.6093  -4.6098   0.1655   6.1679   8.0017   9.0584

     occupation numbers 
     1.0000   1.0000   1.0000   1.0000   0.0000   0.0000   0.0000   0.0000

          k = 0.0600 0.5273 0.0000 (  5189 PWs)   bands (ev):

   -16.5815 -14.5047  -8.6243  -4.5252   0.0584   6.1618   8.1903   9.2416

     occupation numbers 
     1.0000   1.0000   1.0000   1.0000   0.0000   0.0000   0.0000   0.0000

          k = 0.0600 0.5350 0.0000 (  5189 PWs)   bands (ev):

   -16.4576 -14.6471  -8.6371  -4.4492  -0.0370   6.1564   8.3812   9.4251

     occupation numbers 
     1.0000   1.0000   1.0000   1.0000   0.0000   0.0000   0.0000   0.0000

          k = 0.0600 0.5427 0.0000 (  5192 PWs)   bands (ev):

   -16.3368 -14.7832  -8.6478  -4.3831  -0.1192   6.1519   8.5745   9.6083

     occupation numbers 
     1.0000   1.0000   1.0000   1.0000   0.0000   0.0000   0.0000   0.0000

          k = 0.0600 0.5504 0.0000 (  5188 PWs)   bands (ev):

   -16.2223 -14.9100  -8.6563  -4.3283  -0.1871   6.1483   8.7699   9.7894

     occupation numbers 
     1.0000   1.0000   1.0000   1.0000   0.0000   0.0000   0.0000   0.0000

          k = 0.0600 0.5581 0.0000 (  5190 PWs)   bands (ev):

   -16.1191 -15.0224  -8.6627  -4.2858  -0.2392   6.1456   8.9671   9.9688

     occupation numbers 
     1.0000   1.0000   1.0000   1.0000   0.0000   0.0000   0.0000   0.0000

          k = 0.0600 0.5658 0.0000 (  5196 PWs)   bands (ev):

   -16.0365 -15.1112  -8.6670  -4.2569  -0.2746   6.1437   9.1655   9.7838

     occupation numbers 
     1.0000   1.0000   1.0000   1.0000   0.0000   0.0000   0.0000   0.0000

          k = 0.0600 0.5735 0.0000 (  5200 PWs)   bands (ev):

   -15.9886 -15.1621  -8.6692  -4.2423  -0.2926   6.1428   9.3601   9.5857

     occupation numbers 
     1.0000   1.0000   1.0000   1.0000   0.0000   0.0000   0.0000   0.0000

          k = 0.0667 0.1155 0.0000 (  5143 PWs)   bands (ev):

   -21.0965  -9.3392  -6.0728  -5.6246   1.8352   2.8864   3.2861   5.1684

     occupation numbers 
     1.0000   1.0000   1.0000   1.0000   0.0000   0.0000   0.0000   0.0000

          k = 0.0667 0.1232 0.0000 (  5142 PWs)   bands (ev):

   -21.0638  -9.2997  -6.1751  -5.6911   1.8798   2.9315   3.3318   5.2132

     occupation numbers 
     1.0000   1.0000   1.0000   1.0000   0.0000   0.0000   0.0000   0.0000

          k = 0.0667 0.1309 0.0000 (  5140 PWs)   bands (ev):

   -21.0290  -9.2578  -6.2827  -5.7601   1.9273   2.9795   3.3806   5.2608

     occupation numbers 
     1.0000   1.0000   1.0000   1.0000   0.0000   0.0000   0.0000   0.0000

          k = 0.0667 0.1386 0.0000 (  5142 PWs)   bands (ev):

   -20.9921  -9.2133  -6.3952  -5.8312   1.9778   3.0304   3.4323   5.3113

     occupation numbers 
     1.0000   1.0000   1.0000   1.0000   0.0000   0.0000   0.0000   0.0000

          k = 0.0667 0.1463 0.0000 (  5143 PWs)   bands (ev):

   -20.9531  -9.1663  -6.5126  -5.9041   2.0310   3.0842   3.4869   5.3646

     occupation numbers 
     1.0000   1.0000   1.0000   1.0000   0.0000   0.0000   0.0000   0.0000

          k = 0.0667 0.1540 0.0000 (  5145 PWs)   bands (ev):

   -20.9121  -9.1168  -6.6347  -5.9785   2.0872   3.1408   3.5445   5.4208

     occupation numbers 
     1.0000   1.0000   1.0000   1.0000   0.0000   0.0000   0.0000   0.0000

          k = 0.0667 0.1617 0.0000 (  5141 PWs)   bands (ev):

   -20.8689  -9.0649  -6.7613  -6.0542   2.1463   3.2004   3.6050   5.4799

     occupation numbers 
     1.0000   1.0000   1.0000   1.0000   0.0000   0.0000   0.0000   0.0000

          k = 0.0667 0.1694 0.0000 (  5143 PWs)   bands (ev):

   -20.8237  -9.0105  -6.8922  -6.1308   2.2082   3.2628   3.6685   5.5417

     occupation numbers 
     1.0000   1.0000   1.0000   1.0000   0.0000   0.0000   0.0000   0.0000

          k = 0.0667 0.1771 0.0000 (  5149 PWs)   bands (ev):

   -20.7764  -8.9536  -7.0272  -6.2082   2.2730   3.3281   3.7350   5.6064

     occupation numbers 
     1.0000   1.0000   1.0000   1.0000   0.0000   0.0000   0.0000   0.0000

          k = 0.0667 0.1848 0.0000 (  5147 PWs)   bands (ev):

   -20.7270  -8.8943  -7.1660  -6.2861   2.3406   3.3963   3.8044   5.6738

     occupation numbers 
     1.0000   1.0000   1.0000   1.0000   0.0000   0.0000   0.0000   0.0000

          k = 0.0667 0.1925 0.0000 (  5145 PWs)   bands (ev):

   -20.6755  -8.8326  -7.3084  -6.3643   2.4112   3.4673   3.8767   5.7440

     occupation numbers 
     1.0000   1.0000   1.0000   1.0000   0.0000   0.0000   0.0000   0.0000

          k = 0.0667 0.2001 0.0000 (  5143 PWs)   bands (ev):

   -20.6220  -8.7684  -7.4542  -6.4427   2.4846   3.5412   3.9521   5.8168

     occupation numbers 
     1.0000   1.0000   1.0000   1.0000   0.0000   0.0000   0.0000   0.0000

          k = 0.0667 0.2078 0.0000 (  5145 PWs)   bands (ev):

   -20.5664  -8.7019  -7.6033  -6.5211   2.5608   3.6179   4.0303   5.8921

     occupation numbers 
     1.0000   1.0000   1.0000   1.0000   0.0000   0.0000   0.0000   0.0000

          k = 0.0667 0.2155 0.0000 (  5146 PWs)   bands (ev):

   -20.5088  -8.6329  -7.7552  -6.5993   2.6400   3.6973   4.1115   5.9698

     occupation numbers 
     1.0000   1.0000   1.0000   1.0000   0.0000   0.0000   0.0000   0.0000

          k = 0.0667 0.2232 0.0000 (  5146 PWs)   bands (ev):

   -20.4491  -8.5616  -7.9099  -6.6773   2.7220   3.7796   4.1957   6.0491

     occupation numbers 
     1.0000   1.0000   1.0000   1.0000   0.0000   0.0000   0.0000   0.0000

          k = 0.0667 0.2309 0.0000 (  5144 PWs)   bands (ev):

   -20.3873  -8.4880  -8.0672  -6.7548   2.8068   3.8646   4.2828   6.1285

     occupation numbers 
     1.0000   1.0000   1.0000   1.0000   0.0000   0.0000   0.0000   0.0000

          k = 0.0667 0.2386 0.0000 (  5148 PWs)   bands (ev):

   -20.3235  -8.4120  -8.2267  -6.8317   2.8945   3.9523   4.3728   6.1999

     occupation numbers 
     1.0000   1.0000   1.0000   1.0000   0.0000   0.0000   0.0000   0.0000

          k = 0.0667 0.2463 0.0000 (  5150 PWs)   bands (ev):

   -20.2577  -8.3883  -8.3337  -6.9080   2.9851   4.0427   4.4658   6.2106

     occupation numbers 
     1.0000   1.0000   1.0000   1.0000   0.0000   0.0000   0.0000   0.0000

          k = 0.0667 0.2540 0.0000 (  5146 PWs)   bands (ev):

   -20.1898  -8.5519  -8.2531  -6.9835   3.0785   4.1355   4.5617   6.0835

     occupation numbers 
     1.0000   1.0000   1.0000   1.0000   0.0000   0.0000   0.0000   0.0000

          k = 0.0667 0.2617 0.0000 (  5150 PWs)   bands (ev):

   -20.1199  -8.7172  -8.1702  -7.0582   3.1747   4.2308   4.6606   5.9240

     occupation numbers 
     1.0000   1.0000   1.0000   1.0000   0.0000   0.0000   0.0000   0.0000

          k = 0.0667 0.2694 0.0000 (  5151 PWs)   bands (ev):

   -20.0480  -8.8840  -8.0851  -7.1319   3.2738   4.3280   4.7624   5.7570

     occupation numbers 
     1.0000   1.0000   1.0000   1.0000   0.0000   0.0000   0.0000   0.0000

          k = 0.0667 0.2771 0.0000 (  5149 PWs)   bands (ev):

   -19.9740  -9.0522  -7.9978  -7.2046   3.3757   4.4267   4.8671   5.5875

     occupation numbers 
     1.0000   1.0000   1.0000   1.0000   0.0000   0.0000   0.0000   0.0000

          k = 0.0667 0.2848 0.0000 (  5147 PWs)   bands (ev):

   -19.8981  -9.2216  -7.9083  -7.2762   3.4804   4.5254   4.9748   5.4182

     occupation numbers 
     1.0000   1.0000   1.0000   1.0000   0.0000   0.0000   0.0000   0.0000

          k = 0.0667 0.2925 0.0000 (  5158 PWs)   bands (ev):

   -19.8201  -9.3921  -7.8167  -7.3466   3.5880   4.6205   5.0854   5.2532

     occupation numbers 
     1.0000   1.0000   1.0000   1.0000   0.0000   0.0000   0.0000   0.0000

          k = 0.0667 0.3002 0.0000 (  5164 PWs)   bands (ev):

   -19.7402  -9.5635  -7.7229  -7.4158   3.6983   4.6986   5.1063   5.1988

     occupation numbers 
     1.0000   1.0000   1.0000   1.0000   0.0000   0.0000   0.0000   0.0000

          k = 0.0667 0.3079 0.0000 (  5166 PWs)   bands (ev):

   -19.6583  -9.7356  -7.6271  -7.4836   3.8115   4.7086   5.0290   5.3152

     occupation numbers 
     1.0000   1.0000   1.0000   1.0000   0.0000   0.0000   0.0000   0.0000

          k = 0.0667 0.3156 0.0000 (  5170 PWs)   bands (ev):

   -19.5743  -9.9083  -7.5501  -7.5293   3.9274   4.6029   5.0688   5.4344

     occupation numbers 
     1.0000   1.0000   1.0000   1.0000   0.0000   0.0000   0.0000   0.0000

          k = 0.0667 0.3233 0.0000 (  5174 PWs)   bands (ev):

   -19.4885 -10.0816  -7.6151  -7.4294   4.0462   4.4446   5.1632   5.5565

     occupation numbers 
     1.0000   1.0000   1.0000   1.0000   0.0000   0.0000   0.0000   0.0000

          k = 0.0667 0.3310 0.0000 (  5172 PWs)   bands (ev):

   -19.4006 -10.2552  -7.6786  -7.3277   4.1677   4.2710   5.2747   5.6814

     occupation numbers 
     1.0000   1.0000   1.0000   1.0000   0.0000   0.0000   0.0000   0.0000

          k = 0.0667 0.3387 0.0000 (  5170 PWs)   bands (ev):

   -19.3108 -10.4290  -7.7406  -7.2240   4.0918   4.2920   5.3941   5.8089

     occupation numbers 
     1.0000   1.0000   1.0000   1.0000   0.0000   0.0000   0.0000   0.0000

          k = 0.0667 0.3464 0.0000 (  5164 PWs)   bands (ev):

   -19.2191 -10.6030  -7.8011  -7.1185   3.9097   4.4190   5.5185   5.9390

     occupation numbers 
     1.0000   1.0000   1.0000   1.0000   0.0000   0.0000   0.0000   0.0000

          k = 0.0667 0.3541 0.0000 (  5166 PWs)   bands (ev):

   -19.1254 -10.7770  -7.8599  -7.0113   3.7262   4.5488   5.6470   6.0712

     occupation numbers 
     1.0000   1.0000   1.0000   1.0000   0.0000   0.0000   0.0000   0.0000

          k = 0.0667 0.3618 0.0000 (  5161 PWs)   bands (ev):

   -19.0299 -10.9509  -7.9170  -6.9025   3.5420   4.6812   5.7789   6.2046

     occupation numbers 
     1.0000   1.0000   1.0000   1.0000   0.0000   0.0000   0.0000   0.0000

          k = 0.0667 0.3695 0.0000 (  5169 PWs)   bands (ev):

   -18.9324 -11.1246  -7.9724  -6.7920   3.3573   4.8163   5.9140   6.3360

     occupation numbers 
     1.0000   1.0000   1.0000   1.0000   0.0000   0.0000   0.0000   0.0000

          k = 0.0667 0.3772 0.0000 (  5169 PWs)   bands (ev):

   -18.8330 -11.2981  -8.0261  -6.6800   3.1727   4.9540   6.0524   6.4562

     occupation numbers 
     1.0000   1.0000   1.0000   1.0000   0.0000   0.0000   0.0000   0.0000

          k = 0.0667 0.3849 0.0000 (  5168 PWs)   bands (ev):

   -18.7318 -11.4712  -8.0780  -6.5667   2.9885   5.0943   6.1932   6.4958

     occupation numbers 
     1.0000   1.0000   1.0000   1.0000   0.0000   0.0000   0.0000   0.0000

          k = 0.0667 0.3926 0.0000 (  5170 PWs)   bands (ev):

   -18.6287 -11.6438  -8.1281  -6.4520   2.8048   5.2370   6.3371   6.4950

     occupation numbers 
     1.0000   1.0000   1.0000   1.0000   0.0000   0.0000   0.0000   0.0000

          k = 0.0667 0.4003 0.0000 (  5178 PWs)   bands (ev):

   -18.5238 -11.8159  -8.1763  -6.3363   2.6219   5.3819   6.4835   6.4837

     occupation numbers 
     1.0000   1.0000   1.0000   1.0000   0.0000   0.0000   0.0000   0.0000

          k = 0.0667 0.4080 0.0000 (  5176 PWs)   bands (ev):

   -18.4170 -11.9874  -8.2227  -6.2195   2.4402   5.5290   6.4703   6.6331

     occupation numbers 
     1.0000   1.0000   1.0000   1.0000   0.0000   0.0000   0.0000   0.0000

          k = 0.0667 0.4157 0.0000 (  5174 PWs)   bands (ev):

   -18.3085 -12.1582  -8.2672  -6.1019   2.2599   5.6775   6.4575   6.7852

     occupation numbers 
     1.0000   1.0000   1.0000   1.0000   0.0000   0.0000   0.0000   0.0000

          k = 0.0667 0.4234 0.0000 (  5176 PWs)   bands (ev):

   -18.1982 -12.3282  -8.3098  -5.9836   2.0813   5.8267   6.4467   6.9399

     occupation numbers 
     1.0000   1.0000   1.0000   1.0000   0.0000   0.0000   0.0000   0.0000

          k = 0.0667 0.4311 0.0000 (  5178 PWs)   bands (ev):

   -18.0862 -12.4973  -8.3504  -5.8649   1.9046   5.9742   6.4405   7.0972

     occupation numbers 
     1.0000   1.0000   1.0000   1.0000   0.0000   0.0000   0.0000   0.0000

          k = 0.0667 0.4388 0.0000 (  5178 PWs)   bands (ev):

   -17.9724 -12.6654  -8.3891  -5.7460   1.7303   6.1136   6.4456   7.2571

     occupation numbers 
     1.0000   1.0000   1.0000   1.0000   0.0000   0.0000   0.0000   0.0000

          k = 0.0667 0.4465 0.0000 (  5184 PWs)   bands (ev):

   -17.8570 -12.8326  -8.4258  -5.6273   1.5586   6.2259   6.4809   7.4194

     occupation numbers 
     1.0000   1.0000   1.0000   1.0000   0.0000   0.0000   0.0000   0.0000

          k = 0.0667 0.4542 0.0000 (  5186 PWs)   bands (ev):

   -17.7400 -12.9986  -8.4604  -5.5089   1.3900   6.2838   6.5739   7.5842

     occupation numbers 
     1.0000   1.0000   1.0000   1.0000   0.0000   0.0000   0.0000   0.0000

          k = 0.0667 0.4619 0.0000 (  5184 PWs)   bands (ev):

   -17.6214 -13.1633  -8.4931  -5.3914   1.2250   6.2999   6.7119   7.7513

     occupation numbers 
     1.0000   1.0000   1.0000   1.0000   0.0000   0.0000   0.0000   0.0000

          k = 0.0667 0.4696 0.0000 (  5182 PWs)   bands (ev):

   -17.5014 -13.3268  -8.5237  -5.2751   1.0639   6.3001   6.8692   7.9207

     occupation numbers 
     1.0000   1.0000   1.0000   1.0000   0.0000   0.0000   0.0000   0.0000

          k = 0.0667 0.4773 0.0000 (  5180 PWs)   bands (ev):

   -17.3799 -13.4888  -8.5523  -5.1605   0.9074   6.2948   7.0354   8.0924

     occupation numbers 
     1.0000   1.0000   1.0000   1.0000   0.0000   0.0000   0.0000   0.0000

          k = 0.0667 0.4850 0.0000 (  5177 PWs)   bands (ev):

   -17.2571 -13.6492  -8.5788  -5.0482   0.7561   6.2874   7.2069   8.2661

     occupation numbers 
     1.0000   1.0000   1.0000   1.0000   0.0000   0.0000   0.0000   0.0000

          k = 0.0667 0.4927 0.0000 (  5177 PWs)   bands (ev):

   -17.1331 -13.8079  -8.6032  -4.9389   0.6108   6.2794   7.3825   8.4418

     occupation numbers 
     1.0000   1.0000   1.0000   1.0000   0.0000   0.0000   0.0000   0.0000

          k = 0.0667 0.5004 0.0000 (  5177 PWs)   bands (ev):

   -17.0082 -13.9646  -8.6256  -4.8334   0.4722   6.2714   7.5613   8.6193

     occupation numbers 
     1.0000   1.0000   1.0000   1.0000   0.0000   0.0000   0.0000   0.0000

          k = 0.0667 0.5081 0.0000 (  5177 PWs)   bands (ev):

   -16.8826 -14.1190  -8.6458  -4.7325   0.3412   6.2638   7.7432   8.7985

     occupation numbers 
     1.0000   1.0000   1.0000   1.0000   0.0000   0.0000   0.0000   0.0000

          k = 0.0667 0.5158 0.0000 (  5185 PWs)   bands (ev):

   -16.7566 -14.2709  -8.6639  -4.6372   0.2189   6.2567   7.9278   8.9791

     occupation numbers 
     1.0000   1.0000   1.0000   1.0000   0.0000   0.0000   0.0000   0.0000

          k = 0.0667 0.5235 0.0000 (  5187 PWs)   bands (ev):

   -16.6308 -14.4195  -8.6800  -4.5486   0.1065   6.2502   8.1150   9.1607

     occupation numbers 
     1.0000   1.0000   1.0000   1.0000   0.0000   0.0000   0.0000   0.0000

          k = 0.0667 0.5312 0.0000 (  5191 PWs)   bands (ev):

   -16.5059 -14.5642  -8.6939  -4.4681   0.0051   6.2445   8.3046   9.3428

     occupation numbers 
     1.0000   1.0000   1.0000   1.0000   0.0000   0.0000   0.0000   0.0000

          k = 0.0667 0.5389 0.0000 (  5191 PWs)   bands (ev):

   -16.3834 -14.7035  -8.7056  -4.3967  -0.0838   6.2396   8.4965   9.5247

     occupation numbers 
     1.0000   1.0000   1.0000   1.0000   0.0000   0.0000   0.0000   0.0000

          k = 0.0667 0.5466 0.0000 (  5185 PWs)   bands (ev):

   -16.2654 -14.8353  -8.7153  -4.3360  -0.1590   6.2355   8.6907   9.7051

     occupation numbers 
     1.0000   1.0000   1.0000   1.0000   0.0000   0.0000   0.0000   0.0000

          k = 0.0667 0.5543 0.0000 (  5186 PWs)   bands (ev):

   -16.1558 -14.9556  -8.7228  -4.2871  -0.2192   6.2323   8.8868   9.8812

     occupation numbers 
     1.0000   1.0000   1.0000   1.0000   0.0000   0.0000   0.0000   0.0000

          k = 0.0667 0.5620 0.0000 (  5192 PWs)   bands (ev):

   -16.0616 -15.0575  -8.7281  -4.2512  -0.2631   6.2300   9.0845   9.9032

     occupation numbers 
     1.0000   1.0000   1.0000   1.0000   0.0000   0.0000   0.0000   0.0000

          k = 0.0667 0.5697 0.0000 (  5196 PWs)   bands (ev):

   -15.9945 -15.1291  -8.7314  -4.2293  -0.2899   6.2287   9.2822   9.7005

     occupation numbers 
     1.0000   1.0000   1.0000   1.0000   0.0000   0.0000   0.0000   0.0000

          k = 0.0667 0.5774 0.0000 (  5196 PWs)   bands (ev):

   -15.9696 -15.1557  -8.7324  -4.2219  -0.2988   6.2282   9.4414   9.5397

     occupation numbers 
     1.0000   1.0000   1.0000   1.0000   0.0000   0.0000   0.0000   0.0000

          k = 0.0733 0.1270 0.0000 (  5141 PWs)   bands (ev):

   -21.0300  -9.2590  -6.2775  -5.7602   1.9259   2.9780   3.3791   5.2594

     occupation numbers 
     1.0000   1.0000   1.0000   1.0000   0.0000   0.0000   0.0000   0.0000

          k = 0.0733 0.1347 0.0000 (  5139 PWs)   bands (ev):

   -20.9942  -9.2158  -6.3849  -5.8317   1.9749   3.0275   3.4293   5.3084

     occupation numbers 
     1.0000   1.0000   1.0000   1.0000   0.0000   0.0000   0.0000   0.0000

          k = 0.0733 0.1424 0.0000 (  5140 PWs)   bands (ev):

   -20.9563  -9.1701  -6.4971  -5.9053   2.0267   3.0798   3.4825   5.3603

     occupation numbers 
     1.0000   1.0000   1.0000   1.0000   0.0000   0.0000   0.0000   0.0000

          k = 0.0733 0.1501 0.0000 (  5146 PWs)   bands (ev):

   -20.9163  -9.1219  -6.6140  -5.9806   2.0815   3.1350   3.5386   5.4151

     occupation numbers 
     1.0000   1.0000   1.0000   1.0000   0.0000   0.0000   0.0000   0.0000

          k = 0.0733 0.1578 0.0000 (  5147 PWs)   bands (ev):

   -20.8742  -9.0712  -6.7354  -6.0573   2.1391   3.1931   3.5977   5.4727

     occupation numbers 
     1.0000   1.0000   1.0000   1.0000   0.0000   0.0000   0.0000   0.0000

          k = 0.0733 0.1655 0.0000 (  5143 PWs)   bands (ev):

   -20.8300  -9.0181  -6.8613  -6.1352   2.1996   3.2541   3.6597   5.5332

     occupation numbers 
     1.0000   1.0000   1.0000   1.0000   0.0000   0.0000   0.0000   0.0000

          k = 0.0733 0.1732 0.0000 (  5145 PWs)   bands (ev):

   -20.7837  -8.9624  -6.9914  -6.2140   2.2629   3.3180   3.7247   5.5964

     occupation numbers 
     1.0000   1.0000   1.0000   1.0000   0.0000   0.0000   0.0000   0.0000

          k = 0.0733 0.1809 0.0000 (  5147 PWs)   bands (ev):

   -20.7354  -8.9044  -7.1256  -6.2933   2.3292   3.3847   3.7926   5.6625

     occupation numbers 
     1.0000   1.0000   1.0000   1.0000   0.0000   0.0000   0.0000   0.0000

          k = 0.0733 0.1886 0.0000 (  5143 PWs)   bands (ev):

   -20.6850  -8.8439  -7.2635  -6.3730   2.3983   3.4543   3.8635   5.7313

     occupation numbers 
     1.0000   1.0000   1.0000   1.0000   0.0000   0.0000   0.0000   0.0000

          k = 0.0733 0.1963 0.0000 (  5141 PWs)   bands (ev):

   -20.6325  -8.7810  -7.4051  -6.4529   2.4702   3.5268   3.9373   5.8028

     occupation numbers 
     1.0000   1.0000   1.0000   1.0000   0.0000   0.0000   0.0000   0.0000

          k = 0.0733 0.2040 0.0000 (  5145 PWs)   bands (ev):

   -20.5780  -8.7157  -7.5501  -6.5328   2.5451   3.6020   4.0141   5.8769

     occupation numbers 
     1.0000   1.0000   1.0000   1.0000   0.0000   0.0000   0.0000   0.0000

          k = 0.0733 0.2117 0.0000 (  5151 PWs)   bands (ev):

   -20.5214  -8.6479  -7.6983  -6.6125   2.6228   3.6801   4.0938   5.9535

     occupation numbers 
     1.0000   1.0000   1.0000   1.0000   0.0000   0.0000   0.0000   0.0000

          k = 0.0733 0.2194 0.0000 (  5150 PWs)   bands (ev):

   -20.4627  -8.5778  -7.8495  -6.6919   2.7034   3.7610   4.1765   6.0322

     occupation numbers 
     1.0000   1.0000   1.0000   1.0000   0.0000   0.0000   0.0000   0.0000

          k = 0.0733 0.2271 0.0000 (  5150 PWs)   bands (ev):

   -20.4020  -8.5054  -8.0034  -6.7709   2.7868   3.8446   4.2622   6.1118

     occupation numbers 
     1.0000   1.0000   1.0000   1.0000   0.0000   0.0000   0.0000   0.0000

          k = 0.0733 0.2348 0.0000 (  5154 PWs)   bands (ev):

   -20.3392  -8.4306  -8.1599  -6.8493   2.8731   3.9310   4.3507   6.1882

     occupation numbers 
     1.0000   1.0000   1.0000   1.0000   0.0000   0.0000   0.0000   0.0000

          k = 0.0733 0.2425 0.0000 (  5152 PWs)   bands (ev):

   -20.2744  -8.3535  -8.3186  -6.9270   2.9622   4.0201   4.4423   6.2291

     occupation numbers 
     1.0000   1.0000   1.0000   1.0000   0.0000   0.0000   0.0000   0.0000

          k = 0.0733 0.2502 0.0000 (  5146 PWs)   bands (ev):

   -20.2076  -8.4795  -8.2740  -7.0039   3.0542   4.1117   4.5367   6.1316

     occupation numbers 
     1.0000   1.0000   1.0000   1.0000   0.0000   0.0000   0.0000   0.0000

          k = 0.0733 0.2579 0.0000 (  5142 PWs)   bands (ev):

   -20.1387  -8.6424  -8.1923  -7.0799   3.1490   4.2058   4.6341   5.9764

     occupation numbers 
     1.0000   1.0000   1.0000   1.0000   0.0000   0.0000   0.0000   0.0000

          k = 0.0733 0.2656 0.0000 (  5148 PWs)   bands (ev):

   -20.0678  -8.8069  -8.1084  -7.1550   3.2467   4.3021   4.7345   5.8115

     occupation numbers 
     1.0000   1.0000   1.0000   1.0000   0.0000   0.0000   0.0000   0.0000

          k = 0.0733 0.2733 0.0000 (  5149 PWs)   bands (ev):

   -19.9949  -8.9730  -8.0222  -7.2290   3.3471   4.4002   4.8378   5.6433

     occupation numbers 
     1.0000   1.0000   1.0000   1.0000   0.0000   0.0000   0.0000   0.0000

          k = 0.0733 0.2810 0.0000 (  5149 PWs)   bands (ev):

   -19.9200  -9.1405  -7.9339  -7.3018   3.4505   4.4991   4.9440   5.4743

     occupation numbers 
     1.0000   1.0000   1.0000   1.0000   0.0000   0.0000   0.0000   0.0000

          k = 0.0733 0.2887 0.0000 (  5151 PWs)   bands (ev):

   -19.8430  -9.3093  -7.8433  -7.3735   3.5566   4.5965   5.0531   5.3075

     occupation numbers 
     1.0000   1.0000   1.0000   1.0000   0.0000   0.0000   0.0000   0.0000

          k = 0.0733 0.2964 0.0000 (  5158 PWs)   bands (ev):

   -19.7641  -9.4790  -7.7507  -7.4439   3.6656   4.6845   5.1512   5.1652

     occupation numbers 
     1.0000   1.0000   1.0000   1.0000   0.0000   0.0000   0.0000   0.0000

          k = 0.0733 0.3041 0.0000 (  5158 PWs)   bands (ev):

   -19.6832  -9.6497  -7.6559  -7.5130   3.7774   4.7294   5.0391   5.2801

     occupation numbers 
     1.0000   1.0000   1.0000   1.0000   0.0000   0.0000   0.0000   0.0000

          k = 0.0733 0.3118 0.0000 (  5168 PWs)   bands (ev):

   -19.6003  -9.8212  -7.5806  -7.5591   3.8919   4.6595   5.0434   5.3980

     occupation numbers 
     1.0000   1.0000   1.0000   1.0000   0.0000   0.0000   0.0000   0.0000

          k = 0.0733 0.3195 0.0000 (  5170 PWs)   bands (ev):

   -19.5154  -9.9932  -7.6468  -7.4603   4.0093   4.5116   5.1274   5.5187

     occupation numbers 
     1.0000   1.0000   1.0000   1.0000   0.0000   0.0000   0.0000   0.0000

          k = 0.0733 0.3272 0.0000 (  5172 PWs)   bands (ev):

   -19.4286 -10.1658  -7.7116  -7.3595   4.1295   4.3417   5.2352   5.6422

     occupation numbers 
     1.0000   1.0000   1.0000   1.0000   0.0000   0.0000   0.0000   0.0000

          k = 0.0733 0.3349 0.0000 (  5170 PWs)   bands (ev):

   -19.3398 -10.3387  -7.7747  -7.2569   4.1645   4.2524   5.3524   5.7685

     occupation numbers 
     1.0000   1.0000   1.0000   1.0000   0.0000   0.0000   0.0000   0.0000

          k = 0.0733 0.3426 0.0000 (  5168 PWs)   bands (ev):

   -19.2490 -10.5118  -7.8363  -7.1523   3.9839   4.3781   5.4751   5.8976

     occupation numbers 
     1.0000   1.0000   1.0000   1.0000   0.0000   0.0000   0.0000   0.0000

          k = 0.0733 0.3503 0.0000 (  5164 PWs)   bands (ev):

   -19.1564 -10.6851  -7.8963  -7.0460   3.8017   4.5065   5.6020   6.0291

     occupation numbers 
     1.0000   1.0000   1.0000   1.0000   0.0000   0.0000   0.0000   0.0000

          k = 0.0733 0.3580 0.0000 (  5169 PWs)   bands (ev):

   -19.0618 -10.8584  -7.9545  -6.9380   3.6184   4.6376   5.7323   6.1627

     occupation numbers 
     1.0000   1.0000   1.0000   1.0000   0.0000   0.0000   0.0000   0.0000

          k = 0.0733 0.3657 0.0000 (  5163 PWs)   bands (ev):

   -18.9653 -11.0316  -8.0111  -6.8284   3.4347   4.7714   5.8659   6.2974

     occupation numbers 
     1.0000   1.0000   1.0000   1.0000   0.0000   0.0000   0.0000   0.0000

          k = 0.0733 0.3734 0.0000 (  5161 PWs)   bands (ev):

   -18.8669 -11.2046  -8.0659  -6.7172   3.2508   4.9079   6.0026   6.4297

     occupation numbers 
     1.0000   1.0000   1.0000   1.0000   0.0000   0.0000   0.0000   0.0000

          k = 0.0733 0.3811 0.0000 (  5161 PWs)   bands (ev):

   -18.7666 -11.3773  -8.1189  -6.6045   3.0671   5.0470   6.1422   6.5411

     occupation numbers 
     1.0000   1.0000   1.0000   1.0000   0.0000   0.0000   0.0000   0.0000

          k = 0.0733 0.3887 0.0000 (  5174 PWs)   bands (ev):

   -18.6645 -11.5497  -8.1702  -6.4905   2.8839   5.1886   6.2846   6.5823

     occupation numbers 
     1.0000   1.0000   1.0000   1.0000   0.0000   0.0000   0.0000   0.0000

          k = 0.0733 0.3964 0.0000 (  5176 PWs)   bands (ev):

   -18.5605 -11.7216  -8.2195  -6.3753   2.7014   5.3327   6.4298   6.5785

     occupation numbers 
     1.0000   1.0000   1.0000   1.0000   0.0000   0.0000   0.0000   0.0000

          k = 0.0733 0.4041 0.0000 (  5178 PWs)   bands (ev):

   -18.4547 -11.8929  -8.2670  -6.2591   2.5198   5.4790   6.5671   6.5777

     occupation numbers 
     1.0000   1.0000   1.0000   1.0000   0.0000   0.0000   0.0000   0.0000

          k = 0.0733 0.4118 0.0000 (  5180 PWs)   bands (ev):

   -18.3472 -12.0636  -8.3126  -6.1419   2.3394   5.6273   6.5541   6.7283

     occupation numbers 
     1.0000   1.0000   1.0000   1.0000   0.0000   0.0000   0.0000   0.0000

          k = 0.0733 0.4195 0.0000 (  5182 PWs)   bands (ev):

   -18.2378 -12.2336  -8.3563  -6.0239   2.1606   5.7772   6.5415   6.8815

     occupation numbers 
     1.0000   1.0000   1.0000   1.0000   0.0000   0.0000   0.0000   0.0000

          k = 0.0733 0.4272 0.0000 (  5182 PWs)   bands (ev):

   -18.1267 -12.4028  -8.3980  -5.9054   1.9835   5.9275   6.5312   7.0373

     occupation numbers 
     1.0000   1.0000   1.0000   1.0000   0.0000   0.0000   0.0000   0.0000

          k = 0.0733 0.4349 0.0000 (  5176 PWs)   bands (ev):

   -18.0138 -12.5710  -8.4378  -5.7866   1.8086   6.0759   6.5259   7.1956

     occupation numbers 
     1.0000   1.0000   1.0000   1.0000   0.0000   0.0000   0.0000   0.0000

          k = 0.0733 0.4426 0.0000 (  5174 PWs)   bands (ev):

   -17.8993 -12.7384  -8.4756  -5.6677   1.6361   6.2151   6.5327   7.3565

     occupation numbers 
     1.0000   1.0000   1.0000   1.0000   0.0000   0.0000   0.0000   0.0000

          k = 0.0733 0.4503 0.0000 (  5186 PWs)   bands (ev):

   -17.7831 -12.9046  -8.5114  -5.5491   1.4665   6.3239   6.5732   7.5197

     occupation numbers 
     1.0000   1.0000   1.0000   1.0000   0.0000   0.0000   0.0000   0.0000

          k = 0.0733 0.4580 0.0000 (  5186 PWs)   bands (ev):

   -17.6654 -13.0697  -8.5451  -5.4311   1.3001   6.3762   6.6735   7.6853

     occupation numbers 
     1.0000   1.0000   1.0000   1.0000   0.0000   0.0000   0.0000   0.0000

          k = 0.0733 0.4657 0.0000 (  5186 PWs)   bands (ev):

   -17.5461 -13.2335  -8.5768  -5.3141   1.1374   6.3896   6.8159   7.8532

     occupation numbers 
     1.0000   1.0000   1.0000   1.0000   0.0000   0.0000   0.0000   0.0000

          k = 0.0733 0.4734 0.0000 (  5186 PWs)   bands (ev):

   -17.4254 -13.3960  -8.6065  -5.1985   0.9789   6.3889   6.9757   8.0232

     occupation numbers 
     1.0000   1.0000   1.0000   1.0000   0.0000   0.0000   0.0000   0.0000

          k = 0.0733 0.4811 0.0000 (  5182 PWs)   bands (ev):

   -17.3033 -13.5570  -8.6341  -5.0849   0.8253   6.3834   7.1437   8.1954

     occupation numbers 
     1.0000   1.0000   1.0000   1.0000   0.0000   0.0000   0.0000   0.0000

          k = 0.0733 0.4888 0.0000 (  5184 PWs)   bands (ev):

   -17.1800 -13.7163  -8.6596  -4.9740   0.6772   6.3761   7.3167   8.3695

     occupation numbers 
     1.0000   1.0000   1.0000   1.0000   0.0000   0.0000   0.0000   0.0000

          k = 0.0733 0.4965 0.0000 (  5182 PWs)   bands (ev):

   -17.0556 -13.8738  -8.6831  -4.8664   0.5353   6.3684   7.4936   8.5454

     occupation numbers 
     1.0000   1.0000   1.0000   1.0000   0.0000   0.0000   0.0000   0.0000

          k = 0.0733 0.5042 0.0000 (  5176 PWs)   bands (ev):

   -16.9304 -14.0292  -8.7044  -4.7629   0.4006   6.3607   7.6737   8.7230

     occupation numbers 
     1.0000   1.0000   1.0000   1.0000   0.0000   0.0000   0.0000   0.0000

          k = 0.0733 0.5119 0.0000 (  5175 PWs)   bands (ev):

   -16.8046 -14.1822  -8.7236  -4.6645   0.2740   6.3534   7.8568   8.9019

     occupation numbers 
     1.0000   1.0000   1.0000   1.0000   0.0000   0.0000   0.0000   0.0000

          k = 0.0733 0.5196 0.0000 (  5181 PWs)   bands (ev):

   -16.6787 -14.3323  -8.7408  -4.5723   0.1566   6.3467   8.0425   9.0819

     occupation numbers 
     1.0000   1.0000   1.0000   1.0000   0.0000   0.0000   0.0000   0.0000

          k = 0.0733 0.5273 0.0000 (  5185 PWs)   bands (ev):

   -16.5534 -14.4789  -8.7558  -4.4875   0.0497   6.3406   8.2307   9.2625

     occupation numbers 
     1.0000   1.0000   1.0000   1.0000   0.0000   0.0000   0.0000   0.0000

          k = 0.0733 0.5350 0.0000 (  5189 PWs)   bands (ev):

   -16.4296 -14.6209  -8.7686  -4.4112  -0.0456   6.3353   8.4213   9.4429

     occupation numbers 
     1.0000   1.0000   1.0000   1.0000   0.0000   0.0000   0.0000   0.0000

          k = 0.0733 0.5427 0.0000 (  5185 PWs)   bands (ev):

   -16.3091 -14.7566  -8.7793  -4.3448  -0.1278   6.3309   8.6142   9.6221

     occupation numbers 
     1.0000   1.0000   1.0000   1.0000   0.0000   0.0000   0.0000   0.0000

          k = 0.0733 0.5504 0.0000 (  5187 PWs)   bands (ev):

   -16.1948 -14.8831  -8.7879  -4.2897  -0.1957   6.3273   8.8091   9.7979

     occupation numbers 
     1.0000   1.0000   1.0000   1.0000   0.0000   0.0000   0.0000   0.0000

          k = 0.0733 0.5581 0.0000 (  5186 PWs)   bands (ev):

   -16.0919 -14.9951  -8.7944  -4.2471  -0.2479   6.3245   9.0058   9.9661

     occupation numbers 
     1.0000   1.0000   1.0000   1.0000   0.0000   0.0000   0.0000   0.0000

          k = 0.0733 0.5658 0.0000 (  5188 PWs)   bands (ev):

   -16.0097 -15.0835  -8.7987  -4.2180  -0.2833   6.3227   9.2036   9.8205

     occupation numbers 
     1.0000   1.0000   1.0000   1.0000   0.0000   0.0000   0.0000   0.0000

          k = 0.0733 0.5735 0.0000 (  5186 PWs)   bands (ev):

   -15.9620 -15.1342  -8.8008  -4.2033  -0.3013   6.3218   9.3973   9.6235

     occupation numbers 
     1.0000   1.0000   1.0000   1.0000   0.0000   0.0000   0.0000   0.0000

          k = 0.0800 0.1386 0.0000 (  5138 PWs)   bands (ev):

   -20.9573  -9.1714  -6.4918  -5.9057   2.0253   3.0784   3.4810   5.3589

     occupation numbers 
     1.0000   1.0000   1.0000   1.0000   0.0000   0.0000   0.0000   0.0000

          k = 0.0800 0.1463 0.0000 (  5146 PWs)   bands (ev):

   -20.9184  -9.1244  -6.6034  -5.9819   2.0786   3.1321   3.5356   5.4122

     occupation numbers 
     1.0000   1.0000   1.0000   1.0000   0.0000   0.0000   0.0000   0.0000

          k = 0.0800 0.1540 0.0000 (  5144 PWs)   bands (ev):

   -20.8773  -9.0750  -6.7195  -6.0597   2.1348   3.1888   3.5932   5.4684

     occupation numbers 
     1.0000   1.0000   1.0000   1.0000   0.0000   0.0000   0.0000   0.0000

          k = 0.0800 0.1617 0.0000 (  5140 PWs)   bands (ev):

   -20.8342  -9.0231  -6.8400  -6.1389   2.1938   3.2483   3.6538   5.5275

     occupation numbers 
     1.0000   1.0000   1.0000   1.0000   0.0000   0.0000   0.0000   0.0000

          k = 0.0800 0.1694 0.0000 (  5138 PWs)   bands (ev):

   -20.7890  -8.9688  -6.9648  -6.2191   2.2558   3.3108   3.7173   5.5893

     occupation numbers 
     1.0000   1.0000   1.0000   1.0000   0.0000   0.0000   0.0000   0.0000

          k = 0.0800 0.1771 0.0000 (  5140 PWs)   bands (ev):

   -20.7417  -8.9119  -7.0938  -6.3001   2.3206   3.3761   3.7838   5.6540

     occupation numbers 
     1.0000   1.0000   1.0000   1.0000   0.0000   0.0000   0.0000   0.0000

          k = 0.0800 0.1848 0.0000 (  5140 PWs)   bands (ev):

   -20.6924  -8.8527  -7.2268  -6.3816   2.3882   3.4442   3.8532   5.7214

     occupation numbers 
     1.0000   1.0000   1.0000   1.0000   0.0000   0.0000   0.0000   0.0000

          k = 0.0800 0.1925 0.0000 (  5142 PWs)   bands (ev):

   -20.6409  -8.7910  -7.3637  -6.4632   2.4588   3.5152   3.9255   5.7916

     occupation numbers 
     1.0000   1.0000   1.0000   1.0000   0.0000   0.0000   0.0000   0.0000

          k = 0.0800 0.2001 0.0000 (  5141 PWs)   bands (ev):

   -20.5874  -8.7269  -7.5041  -6.5449   2.5322   3.5891   4.0008   5.8645

     occupation numbers 
     1.0000   1.0000   1.0000   1.0000   0.0000   0.0000   0.0000   0.0000

          k = 0.0800 0.2078 0.0000 (  5147 PWs)   bands (ev):

   -20.5319  -8.6604  -7.6480  -6.6265   2.6085   3.6658   4.0791   5.9399

     occupation numbers 
     1.0000   1.0000   1.0000   1.0000   0.0000   0.0000   0.0000   0.0000

          k = 0.0800 0.2155 0.0000 (  5151 PWs)   bands (ev):

   -20.4742  -8.5916  -7.7951  -6.7076   2.6876   3.7452   4.1603   6.0177

     occupation numbers 
     1.0000   1.0000   1.0000   1.0000   0.0000   0.0000   0.0000   0.0000

          k = 0.0800 0.2232 0.0000 (  5150 PWs)   bands (ev):

   -20.4146  -8.5203  -7.9452  -6.7884   2.7696   3.8275   4.2445   6.0970

     occupation numbers 
     1.0000   1.0000   1.0000   1.0000   0.0000   0.0000   0.0000   0.0000

          k = 0.0800 0.2309 0.0000 (  5152 PWs)   bands (ev):

   -20.3528  -8.4467  -8.0981  -6.8685   2.8545   3.9125   4.3316   6.1756

     occupation numbers 
     1.0000   1.0000   1.0000   1.0000   0.0000   0.0000   0.0000   0.0000

          k = 0.0800 0.2386 0.0000 (  5154 PWs)   bands (ev):

   -20.2891  -8.3708  -8.2535  -6.9479   2.9422   4.0003   4.4217   6.2366

     occupation numbers 
     1.0000   1.0000   1.0000   1.0000   0.0000   0.0000   0.0000   0.0000

          k = 0.0800 0.2463 0.0000 (  5152 PWs)   bands (ev):

   -20.2233  -8.4113  -8.2926  -7.0264   3.0327   4.0907   4.5147   6.1744

     occupation numbers 
     1.0000   1.0000   1.0000   1.0000   0.0000   0.0000   0.0000   0.0000

          k = 0.0800 0.2540 0.0000 (  5146 PWs)   bands (ev):

   -20.1554  -8.5713  -8.2120  -7.1040   3.1261   4.1836   4.6106   6.0242

     occupation numbers 
     1.0000   1.0000   1.0000   1.0000   0.0000   0.0000   0.0000   0.0000

          k = 0.0800 0.2617 0.0000 (  5144 PWs)   bands (ev):

   -20.0855  -8.7332  -8.1292  -7.1806   3.2224   4.2788   4.7095   5.8614

     occupation numbers 
     1.0000   1.0000   1.0000   1.0000   0.0000   0.0000   0.0000   0.0000

          k = 0.0800 0.2694 0.0000 (  5147 PWs)   bands (ev):

   -20.0137  -8.8969  -8.0442  -7.2562   3.3215   4.3761   4.8113   5.6947

     occupation numbers 
     1.0000   1.0000   1.0000   1.0000   0.0000   0.0000   0.0000   0.0000

          k = 0.0800 0.2771 0.0000 (  5149 PWs)   bands (ev):

   -19.9398  -9.0621  -7.9570  -7.3305   3.4234   4.4748   4.9161   5.5267

     occupation numbers 
     1.0000   1.0000   1.0000   1.0000   0.0000   0.0000   0.0000   0.0000

          k = 0.0800 0.2848 0.0000 (  5151 PWs)   bands (ev):

   -19.8638  -9.2288  -7.8676  -7.4036   3.5281   4.5733   5.0238   5.3594

     occupation numbers 
     1.0000   1.0000   1.0000   1.0000   0.0000   0.0000   0.0000   0.0000

          k = 0.0800 0.2925 0.0000 (  5160 PWs)   bands (ev):

   -19.7859  -9.3967  -7.7760  -7.4754   3.6357   4.6668   5.1344   5.1981

     occupation numbers 
     1.0000   1.0000   1.0000   1.0000   0.0000   0.0000   0.0000   0.0000

          k = 0.0800 0.3002 0.0000 (  5162 PWs)   bands (ev):

   -19.7060  -9.5656  -7.6823  -7.5458   3.7461   4.7352   5.0630   5.2479

     occupation numbers 
     1.0000   1.0000   1.0000   1.0000   0.0000   0.0000   0.0000   0.0000

          k = 0.0800 0.3079 0.0000 (  5162 PWs)   bands (ev):

   -19.6241  -9.7355  -7.6148  -7.5866   3.8593   4.7073   5.0256   5.3644

     occupation numbers 
     1.0000   1.0000   1.0000   1.0000   0.0000   0.0000   0.0000   0.0000

          k = 0.0800 0.3156 0.0000 (  5170 PWs)   bands (ev):

   -19.5403  -9.9062  -7.6824  -7.4888   3.9753   4.5743   5.0949   5.4837

     occupation numbers 
     1.0000   1.0000   1.0000   1.0000   0.0000   0.0000   0.0000   0.0000

          k = 0.0800 0.3233 0.0000 (  5168 PWs)   bands (ev):

   -19.4544 -10.0775  -7.7484  -7.3891   4.0940   4.4089   5.1984   5.6059

     occupation numbers 
     1.0000   1.0000   1.0000   1.0000   0.0000   0.0000   0.0000   0.0000

          k = 0.0800 0.3310 0.0000 (  5168 PWs)   bands (ev):

   -19.3667 -10.2492  -7.8128  -7.2874   4.2156   4.2339   5.3134   5.7309

     occupation numbers 
     1.0000   1.0000   1.0000   1.0000   0.0000   0.0000   0.0000   0.0000

          k = 0.0800 0.3387 0.0000 (  5170 PWs)   bands (ev):

   -19.2769 -10.4214  -7.8756  -7.1838   4.0551   4.3399   5.4343   5.8587

     occupation numbers 
     1.0000   1.0000   1.0000   1.0000   0.0000   0.0000   0.0000   0.0000

          k = 0.0800 0.3464 0.0000 (  5169 PWs)   bands (ev):

   -19.1853 -10.5937  -7.9368  -7.0785   3.8741   4.4670   5.5596   5.9892

     occupation numbers 
     1.0000   1.0000   1.0000   1.0000   0.0000   0.0000   0.0000   0.0000

          k = 0.0800 0.3541 0.0000 (  5167 PWs)   bands (ev):

   -19.0917 -10.7662  -7.9963  -6.9713   3.6921   4.5968   5.6885   6.1222

     occupation numbers 
     1.0000   1.0000   1.0000   1.0000   0.0000   0.0000   0.0000   0.0000

          k = 0.0800 0.3618 0.0000 (  5169 PWs)   bands (ev):

   -18.9961 -10.9388  -8.0541  -6.8625   3.5094   4.7293   5.8206   6.2573

     occupation numbers 
     1.0000   1.0000   1.0000   1.0000   0.0000   0.0000   0.0000   0.0000

          k = 0.0800 0.3695 0.0000 (  5169 PWs)   bands (ev):

   -18.8987 -11.1112  -8.1101  -6.7521   3.3264   4.8645   5.9558   6.3934

     occupation numbers 
     1.0000   1.0000   1.0000   1.0000   0.0000   0.0000   0.0000   0.0000

          k = 0.0800 0.3772 0.0000 (  5177 PWs)   bands (ev):

   -18.7995 -11.2834  -8.1643  -6.6402   3.1435   5.0024   6.0939   6.5267

     occupation numbers 
     1.0000   1.0000   1.0000   1.0000   0.0000   0.0000   0.0000   0.0000

          k = 0.0800 0.3849 0.0000 (  5174 PWs)   bands (ev):

   -18.6983 -11.4554  -8.2167  -6.5269   2.9608   5.1428   6.2348   6.6368

     occupation numbers 
     1.0000   1.0000   1.0000   1.0000   0.0000   0.0000   0.0000   0.0000

          k = 0.0800 0.3926 0.0000 (  5178 PWs)   bands (ev):

   -18.5953 -11.6269  -8.2672  -6.4124   2.7788   5.2858   6.3785   6.6734

     occupation numbers 
     1.0000   1.0000   1.0000   1.0000   0.0000   0.0000   0.0000   0.0000

          k = 0.0800 0.4003 0.0000 (  5172 PWs)   bands (ev):

   -18.4904 -11.7980  -8.3158  -6.2966   2.5975   5.4312   6.5249   6.6697

     occupation numbers 
     1.0000   1.0000   1.0000   1.0000   0.0000   0.0000   0.0000   0.0000

          k = 0.0800 0.4080 0.0000 (  5178 PWs)   bands (ev):

   -18.3838 -11.9685  -8.3626  -6.1799   2.4173   5.5789   6.6583   6.6740

     occupation numbers 
     1.0000   1.0000   1.0000   1.0000   0.0000   0.0000   0.0000   0.0000

          k = 0.0800 0.4157 0.0000 (  5176 PWs)   bands (ev):

   -18.2754 -12.1384  -8.4074  -6.0623   2.2384   5.7286   6.6454   6.8257

     occupation numbers 
     1.0000   1.0000   1.0000   1.0000   0.0000   0.0000   0.0000   0.0000

          k = 0.0800 0.4234 0.0000 (  5178 PWs)   bands (ev):

   -18.1652 -12.3076  -8.4503  -5.9441   2.0612   5.8797   6.6332   6.9800

     occupation numbers 
     1.0000   1.0000   1.0000   1.0000   0.0000   0.0000   0.0000   0.0000

          k = 0.0800 0.4311 0.0000 (  5174 PWs)   bands (ev):

   -18.0532 -12.4759  -8.4912  -5.8254   1.8858   6.0313   6.6233   7.1368

     occupation numbers 
     1.0000   1.0000   1.0000   1.0000   0.0000   0.0000   0.0000   0.0000

          k = 0.0800 0.4388 0.0000 (  5174 PWs)   bands (ev):

   -17.9396 -12.6433  -8.5301  -5.7065   1.7127   6.1807   6.6186   7.2961

     occupation numbers 
     1.0000   1.0000   1.0000   1.0000   0.0000   0.0000   0.0000   0.0000

          k = 0.0800 0.4465 0.0000 (  5180 PWs)   bands (ev):

   -17.8243 -12.8097  -8.5670  -5.5877   1.5422   6.3202   6.6268   7.4578

     occupation numbers 
     1.0000   1.0000   1.0000   1.0000   0.0000   0.0000   0.0000   0.0000

          k = 0.0800 0.4542 0.0000 (  5188 PWs)   bands (ev):

   -17.7074 -12.9750  -8.6019  -5.4693   1.3747   6.4266   6.6713   7.6218

     occupation numbers 
     1.0000   1.0000   1.0000   1.0000   0.0000   0.0000   0.0000   0.0000

          k = 0.0800 0.4619 0.0000 (  5184 PWs)   bands (ev):

   -17.5890 -13.1392  -8.6347  -5.3517   1.2106   6.4749   6.7773   7.7881

     occupation numbers 
     1.0000   1.0000   1.0000   1.0000   0.0000   0.0000   0.0000   0.0000

          k = 0.0800 0.4696 0.0000 (  5186 PWs)   bands (ev):

   -17.4690 -13.3020  -8.6655  -5.2353   1.0504   6.4864   6.9232   7.9566

     occupation numbers 
     1.0000   1.0000   1.0000   1.0000   0.0000   0.0000   0.0000   0.0000

          k = 0.0800 0.4773 0.0000 (  5188 PWs)   bands (ev):

   -17.3477 -13.4635  -8.6942  -5.1206   0.8947   6.4852   7.0851   8.1271

     occupation numbers 
     1.0000   1.0000   1.0000   1.0000   0.0000   0.0000   0.0000   0.0000

          k = 0.0800 0.4850 0.0000 (  5186 PWs)   bands (ev):

   -17.2250 -13.6233  -8.7209  -5.0081   0.7441   6.4797   7.2548   8.2996

     occupation numbers 
     1.0000   1.0000   1.0000   1.0000   0.0000   0.0000   0.0000   0.0000

          k = 0.0800 0.4927 0.0000 (  5188 PWs)   bands (ev):

   -17.1013 -13.7815  -8.7454  -4.8987   0.5993   6.4726   7.4292   8.4739

     occupation numbers 
     1.0000   1.0000   1.0000   1.0000   0.0000   0.0000   0.0000   0.0000

          k = 0.0800 0.5004 0.0000 (  5180 PWs)   bands (ev):

   -16.9765 -13.9377  -8.7678  -4.7929   0.4612   6.4651   7.6074   8.6498

     occupation numbers 
     1.0000   1.0000   1.0000   1.0000   0.0000   0.0000   0.0000   0.0000

          k = 0.0800 0.5081 0.0000 (  5170 PWs)   bands (ev):

   -16.8511 -14.0917  -8.7882  -4.6917   0.3306   6.4578   7.7887   8.8270

     occupation numbers 
     1.0000   1.0000   1.0000   1.0000   0.0000   0.0000   0.0000   0.0000

          k = 0.0800 0.5158 0.0000 (  5176 PWs)   bands (ev):

   -16.7253 -14.2431  -8.8064  -4.5962   0.2086   6.4509   7.9729   9.0053

     occupation numbers 
     1.0000   1.0000   1.0000   1.0000   0.0000   0.0000   0.0000   0.0000

          k = 0.0800 0.5235 0.0000 (  5178 PWs)   bands (ev):

   -16.5996 -14.3914  -8.8225  -4.5073   0.0964   6.4445   8.1596   9.1841

     occupation numbers 
     1.0000   1.0000   1.0000   1.0000   0.0000   0.0000   0.0000   0.0000

          k = 0.0800 0.5312 0.0000 (  5179 PWs)   bands (ev):

   -16.4751 -14.5356  -8.8364  -4.4264  -0.0048   6.4389   8.3489   9.3629

     occupation numbers 
     1.0000   1.0000   1.0000   1.0000   0.0000   0.0000   0.0000   0.0000

          k = 0.0800 0.5389 0.0000 (  5179 PWs)   bands (ev):

   -16.3528 -14.6745  -8.8483  -4.3548  -0.0937   6.4341   8.5404   9.5406

     occupation numbers 
     1.0000   1.0000   1.0000   1.0000   0.0000   0.0000   0.0000   0.0000

          k = 0.0800 0.5466 0.0000 (  5183 PWs)   bands (ev):

   -16.2351 -14.8059  -8.8579  -4.2937  -0.1689   6.4300   8.7341   9.7155

     occupation numbers 
     1.0000   1.0000   1.0000   1.0000   0.0000   0.0000   0.0000   0.0000

          k = 0.0800 0.5543 0.0000 (  5177 PWs)   bands (ev):

   -16.1258 -14.9258  -8.8655  -4.2446  -0.2291   6.4269   8.9297   9.8844

     occupation numbers 
     1.0000   1.0000   1.0000   1.0000   0.0000   0.0000   0.0000   0.0000

          k = 0.0800 0.5620 0.0000 (  5183 PWs)   bands (ev):

   -16.0319 -15.0272  -8.8709  -4.2085  -0.2731   6.4246   9.1268   9.9438

     occupation numbers 
     1.0000   1.0000   1.0000   1.0000   0.0000   0.0000   0.0000   0.0000

          k = 0.0800 0.5697 0.0000 (  5184 PWs)   bands (ev):

   -15.9651 -15.0986  -8.8741  -4.1864  -0.2999   6.4232   9.3237   9.7413

     occupation numbers 
     1.0000   1.0000   1.0000   1.0000   0.0000   0.0000   0.0000   0.0000

          k = 0.0800 0.5774 0.0000 (  5180 PWs)   bands (ev):

   -15.9403 -15.1250  -8.8752  -4.1790  -0.3089   6.4228   9.4811   9.5824

     occupation numbers 
     1.0000   1.0000   1.0000   1.0000   0.0000   0.0000   0.0000   0.0000

          k = 0.0867 0.1501 0.0000 (  5144 PWs)   bands (ev):

   -20.8784  -9.0763  -6.7140  -6.0606   2.1333   3.1873   3.5918   5.4670

     occupation numbers 
     1.0000   1.0000   1.0000   1.0000   0.0000   0.0000   0.0000   0.0000

          k = 0.0867 0.1578 0.0000 (  5146 PWs)   bands (ev):

   -20.8363  -9.0256  -6.8291  -6.1410   2.1910   3.2454   3.6508   5.5246

     occupation numbers 
     1.0000   1.0000   1.0000   1.0000   0.0000   0.0000   0.0000   0.0000

          k = 0.0867 0.1655 0.0000 (  5138 PWs)   bands (ev):

   -20.7922  -8.9725  -6.9484  -6.2227   2.2514   3.3064   3.7129   5.5850

     occupation numbers 
     1.0000   1.0000   1.0000   1.0000   0.0000   0.0000   0.0000   0.0000

          k = 0.0867 0.1732 0.0000 (  5138 PWs)   bands (ev):

   -20.7459  -8.9170  -7.0719  -6.3055   2.3148   3.3703   3.7779   5.6483

     occupation numbers 
     1.0000   1.0000   1.0000   1.0000   0.0000   0.0000   0.0000   0.0000

          k = 0.0867 0.1809 0.0000 (  5142 PWs)   bands (ev):

   -20.6976  -8.8590  -7.1995  -6.3888   2.3811   3.4370   3.8458   5.7144

     occupation numbers 
     1.0000   1.0000   1.0000   1.0000   0.0000   0.0000   0.0000   0.0000

          k = 0.0867 0.1886 0.0000 (  5140 PWs)   bands (ev):

   -20.6472  -8.7985  -7.3311  -6.4725   2.4502   3.5066   3.9167   5.7832

     occupation numbers 
     1.0000   1.0000   1.0000   1.0000   0.0000   0.0000   0.0000   0.0000

          k = 0.0867 0.1963 0.0000 (  5142 PWs)   bands (ev):

   -20.5948  -8.7357  -7.4664  -6.5563   2.5222   3.5790   3.9905   5.8548

     occupation numbers 
     1.0000   1.0000   1.0000   1.0000   0.0000   0.0000   0.0000   0.0000

          k = 0.0867 0.2040 0.0000 (  5144 PWs)   bands (ev):

   -20.5402  -8.6704  -7.6054  -6.6400   2.5970   3.6543   4.0673   5.9290

     occupation numbers 
     1.0000   1.0000   1.0000   1.0000   0.0000   0.0000   0.0000   0.0000

          k = 0.0867 0.2117 0.0000 (  5152 PWs)   bands (ev):

   -20.4837  -8.6028  -7.7479  -6.7233   2.6747   3.7323   4.1471   6.0057

     occupation numbers 
     1.0000   1.0000   1.0000   1.0000   0.0000   0.0000   0.0000   0.0000

          k = 0.0867 0.2194 0.0000 (  5150 PWs)   bands (ev):

   -20.4250  -8.5328  -7.8936  -6.8061   2.7553   3.8132   4.2298   6.0844

     occupation numbers 
     1.0000   1.0000   1.0000   1.0000   0.0000   0.0000   0.0000   0.0000

          k = 0.0867 0.2271 0.0000 (  5149 PWs)   bands (ev):

   -20.3643  -8.4604  -8.0424  -6.8883   2.8387   3.8969   4.3154   6.1639

     occupation numbers 
     1.0000   1.0000   1.0000   1.0000   0.0000   0.0000   0.0000   0.0000

          k = 0.0867 0.2348 0.0000 (  5153 PWs)   bands (ev):

   -20.3016  -8.3856  -8.1939  -6.9697   2.9250   3.9833   4.4040   6.2354

     occupation numbers 
     1.0000   1.0000   1.0000   1.0000   0.0000   0.0000   0.0000   0.0000

          k = 0.0867 0.2425 0.0000 (  5150 PWs)   bands (ev):

   -20.2368  -8.3481  -8.3086  -7.0502   3.0142   4.0724   4.4956   6.2112

     occupation numbers 
     1.0000   1.0000   1.0000   1.0000   0.0000   0.0000   0.0000   0.0000

          k = 0.0867 0.2502 0.0000 (  5148 PWs)   bands (ev):

   -20.1700  -8.5048  -8.2293  -7.1297   3.1062   4.1641   4.5900   6.0672

     occupation numbers 
     1.0000   1.0000   1.0000   1.0000   0.0000   0.0000   0.0000   0.0000

          k = 0.0867 0.2579 0.0000 (  5142 PWs)   bands (ev):

   -20.1012  -8.6636  -8.1476  -7.2081   3.2010   4.2582   4.6875   5.9065

     occupation numbers 
     1.0000   1.0000   1.0000   1.0000   0.0000   0.0000   0.0000   0.0000

          k = 0.0867 0.2656 0.0000 (  5149 PWs)   bands (ev):

   -20.0303  -8.8244  -8.0638  -7.2854   3.2987   4.3546   4.7878   5.7416

     occupation numbers 
     1.0000   1.0000   1.0000   1.0000   0.0000   0.0000   0.0000   0.0000

          k = 0.0867 0.2733 0.0000 (  5149 PWs)   bands (ev):

   -19.9575  -8.9870  -7.9777  -7.3615   3.3992   4.4527   4.8911   5.5749

     occupation numbers 
     1.0000   1.0000   1.0000   1.0000   0.0000   0.0000   0.0000   0.0000

          k = 0.0867 0.2810 0.0000 (  5149 PWs)   bands (ev):

   -19.8826  -9.1512  -7.8894  -7.4362   3.5025   4.5516   4.9974   5.4080

     occupation numbers 
     1.0000   1.0000   1.0000   1.0000   0.0000   0.0000   0.0000   0.0000

          k = 0.0867 0.2887 0.0000 (  5157 PWs)   bands (ev):

   -19.8057  -9.3169  -7.7990  -7.5096   3.6087   4.6481   5.1066   5.2443

     occupation numbers 
     1.0000   1.0000   1.0000   1.0000   0.0000   0.0000   0.0000   0.0000

          k = 0.0867 0.2964 0.0000 (  5164 PWs)   bands (ev):

   -19.7268  -9.4839  -7.7064  -7.5816   3.7177   4.7305   5.0957   5.2186

     occupation numbers 
     1.0000   1.0000   1.0000   1.0000   0.0000   0.0000   0.0000   0.0000

          k = 0.0867 0.3041 0.0000 (  5168 PWs)   bands (ev):

   -19.6459  -9.6519  -7.6521  -7.6117   3.8295   4.7437   5.0178   5.3336

     occupation numbers 
     1.0000   1.0000   1.0000   1.0000   0.0000   0.0000   0.0000   0.0000

          k = 0.0867 0.3118 0.0000 (  5164 PWs)   bands (ev):

   -19.5631  -9.8209  -7.7211  -7.5150   3.9440   4.6324   5.0658   5.4516

     occupation numbers 
     1.0000   1.0000   1.0000   1.0000   0.0000   0.0000   0.0000   0.0000

          k = 0.0867 0.3195 0.0000 (  5172 PWs)   bands (ev):

   -19.4783  -9.9906  -7.7885  -7.4163   4.0614   4.4723   5.1643   5.5724

     occupation numbers 
     1.0000   1.0000   1.0000   1.0000   0.0000   0.0000   0.0000   0.0000

          k = 0.0867 0.3272 0.0000 (  5172 PWs)   bands (ev):

   -19.3915 -10.1610  -7.8544  -7.3156   4.1816   4.2999   5.2769   5.6960

     occupation numbers 
     1.0000   1.0000   1.0000   1.0000   0.0000   0.0000   0.0000   0.0000

          k = 0.0867 0.3349 0.0000 (  5171 PWs)   bands (ev):

   -19.3028 -10.3319  -7.9186  -7.2130   4.1228   4.3046   5.3962   5.8225

     occupation numbers 
     1.0000   1.0000   1.0000   1.0000   0.0000   0.0000   0.0000   0.0000

          k = 0.0867 0.3426 0.0000 (  5171 PWs)   bands (ev):

   -19.2121 -10.5032  -7.9811  -7.1086   3.9434   4.4303   5.5199   5.9518

     occupation numbers 
     1.0000   1.0000   1.0000   1.0000   0.0000   0.0000   0.0000   0.0000

          k = 0.0867 0.3503 0.0000 (  5171 PWs)   bands (ev):

   -19.1195 -10.6747  -8.0419  -7.0024   3.7626   4.5588   5.6473   6.0838

     occupation numbers 
     1.0000   1.0000   1.0000   1.0000   0.0000   0.0000   0.0000   0.0000

          k = 0.0867 0.3580 0.0000 (  5169 PWs)   bands (ev):

   -19.0250 -10.8464  -8.1009  -6.8944   3.5811   4.6899   5.7779   6.2183

     occupation numbers 
     1.0000   1.0000   1.0000   1.0000   0.0000   0.0000   0.0000   0.0000

          k = 0.0867 0.3657 0.0000 (  5171 PWs)   bands (ev):

   -18.9286 -11.0181  -8.1582  -6.7849   3.3992   4.8238   5.9116   6.3549

     occupation numbers 
     1.0000   1.0000   1.0000   1.0000   0.0000   0.0000   0.0000   0.0000

          k = 0.0867 0.3734 0.0000 (  5175 PWs)   bands (ev):

   -18.8302 -11.1896  -8.2136  -6.6738   3.2172   4.9604   6.0483   6.4925

     occupation numbers 
     1.0000   1.0000   1.0000   1.0000   0.0000   0.0000   0.0000   0.0000

          k = 0.0867 0.3811 0.0000 (  5170 PWs)   bands (ev):

   -18.7301 -11.3610  -8.2672  -6.5612   3.0353   5.0997   6.1877   6.6272

     occupation numbers 
     1.0000   1.0000   1.0000   1.0000   0.0000   0.0000   0.0000   0.0000

          k = 0.0867 0.3887 0.0000 (  5172 PWs)   bands (ev):

   -18.6280 -11.5322  -8.3190  -6.4473   2.8539   5.2415   6.3300   6.7533

     occupation numbers 
     1.0000   1.0000   1.0000   1.0000   0.0000   0.0000   0.0000   0.0000

          k = 0.0867 0.3964 0.0000 (  5176 PWs)   bands (ev):

   -18.5241 -11.7029  -8.3688  -6.3321   2.6731   5.3858   6.4749   6.7724

     occupation numbers 
     1.0000   1.0000   1.0000   1.0000   0.0000   0.0000   0.0000   0.0000

          k = 0.0867 0.4041 0.0000 (  5178 PWs)   bands (ev):

   -18.4184 -11.8731  -8.4168  -6.2159   2.4933   5.5326   6.6224   6.7683

     occupation numbers 
     1.0000   1.0000   1.0000   1.0000   0.0000   0.0000   0.0000   0.0000

          k = 0.0867 0.4118 0.0000 (  5178 PWs)   bands (ev):

   -18.3109 -12.0428  -8.4628  -6.0987   2.3145   5.6816   6.7568   6.7726

     occupation numbers 
     1.0000   1.0000   1.0000   1.0000   0.0000   0.0000   0.0000   0.0000

          k = 0.0867 0.4195 0.0000 (  5180 PWs)   bands (ev):

   -18.2017 -12.2118  -8.5068  -5.9808   2.1373   5.8327   6.7442   6.9254

     occupation numbers 
     1.0000   1.0000   1.0000   1.0000   0.0000   0.0000   0.0000   0.0000

          k = 0.0867 0.4272 0.0000 (  5176 PWs)   bands (ev):

   -18.0907 -12.3800  -8.5489  -5.8623   1.9617   5.9852   6.7323   7.0807

     occupation numbers 
     1.0000   1.0000   1.0000   1.0000   0.0000   0.0000   0.0000   0.0000

          k = 0.0867 0.4349 0.0000 (  5172 PWs)   bands (ev):

   -17.9779 -12.5475  -8.5890  -5.7435   1.7882   6.1381   6.7227   7.2384

     occupation numbers 
     1.0000   1.0000   1.0000   1.0000   0.0000   0.0000   0.0000   0.0000

          k = 0.0867 0.4426 0.0000 (  5174 PWs)   bands (ev):

   -17.8635 -12.7140  -8.6270  -5.6246   1.6170   6.2888   6.7183   7.3985

     occupation numbers 
     1.0000   1.0000   1.0000   1.0000   0.0000   0.0000   0.0000   0.0000

          k = 0.0867 0.4503 0.0000 (  5180 PWs)   bands (ev):

   -17.7475 -12.8794  -8.6631  -5.5060   1.4486   6.4290   6.7275   7.5609

     occupation numbers 
     1.0000   1.0000   1.0000   1.0000   0.0000   0.0000   0.0000   0.0000

          k = 0.0867 0.4580 0.0000 (  5184 PWs)   bands (ev):

   -17.6299 -13.0438  -8.6970  -5.3879   1.2833   6.5342   6.7748   7.7256

     occupation numbers 
     1.0000   1.0000   1.0000   1.0000   0.0000   0.0000   0.0000   0.0000

          k = 0.0867 0.4657 0.0000 (  5182 PWs)   bands (ev):

   -17.5108 -13.2070  -8.7290  -5.2708   1.1216   6.5800   6.8849   7.8925

     occupation numbers 
     1.0000   1.0000   1.0000   1.0000   0.0000   0.0000   0.0000   0.0000

          k = 0.0867 0.4734 0.0000 (  5188 PWs)   bands (ev):

   -17.3902 -13.3688  -8.7588  -5.1551   0.9641   6.5903   7.0336   8.0614

     occupation numbers 
     1.0000   1.0000   1.0000   1.0000   0.0000   0.0000   0.0000   0.0000

          k = 0.0867 0.4811 0.0000 (  5182 PWs)   bands (ev):

   -17.2683 -13.5292  -8.7866  -5.0413   0.8113   6.5889   7.1974   8.2322

     occupation numbers 
     1.0000   1.0000   1.0000   1.0000   0.0000   0.0000   0.0000   0.0000

          k = 0.0867 0.4888 0.0000 (  5180 PWs)   bands (ev):

   -17.1451 -13.6879  -8.8122  -4.9302   0.6639   6.5834   7.3686   8.4047

     occupation numbers 
     1.0000   1.0000   1.0000   1.0000   0.0000   0.0000   0.0000   0.0000

          k = 0.0867 0.4965 0.0000 (  5182 PWs)   bands (ev):

   -17.0209 -13.8448  -8.8358  -4.8224   0.5226   6.5766   7.5444   8.5789

     occupation numbers 
     1.0000   1.0000   1.0000   1.0000   0.0000   0.0000   0.0000   0.0000

          k = 0.0867 0.5042 0.0000 (  5180 PWs)   bands (ev):

   -16.8959 -13.9997  -8.8573  -4.7186   0.3884   6.5694   7.7238   8.7543

     occupation numbers 
     1.0000   1.0000   1.0000   1.0000   0.0000   0.0000   0.0000   0.0000

          k = 0.0867 0.5119 0.0000 (  5178 PWs)   bands (ev):

   -16.7703 -14.1522  -8.8766  -4.6200   0.2622   6.5624   7.9062   8.9308

     occupation numbers 
     1.0000   1.0000   1.0000   1.0000   0.0000   0.0000   0.0000   0.0000

          k = 0.0867 0.5196 0.0000 (  5180 PWs)   bands (ev):

   -16.6447 -14.3019  -8.8938  -4.5275   0.1450   6.5559   8.0914   9.1078

     occupation numbers 
     1.0000   1.0000   1.0000   1.0000   0.0000   0.0000   0.0000   0.0000

          k = 0.0867 0.5273 0.0000 (  5178 PWs)   bands (ev):

   -16.5196 -14.4480  -8.9089  -4.4423   0.0382   6.5500   8.2792   9.2848

     occupation numbers 
     1.0000   1.0000   1.0000   1.0000   0.0000   0.0000   0.0000   0.0000

          k = 0.0867 0.5350 0.0000 (  5178 PWs)   bands (ev):

   -16.3961 -14.5896  -8.9218  -4.3656  -0.0570   6.5448   8.4694   9.4608

     occupation numbers 
     1.0000   1.0000   1.0000   1.0000   0.0000   0.0000   0.0000   0.0000

          k = 0.0867 0.5427 0.0000 (  5182 PWs)   bands (ev):

   -16.2759 -14.7248  -8.9326  -4.2989  -0.1392   6.5404   8.6617   9.6344

     occupation numbers 
     1.0000   1.0000   1.0000   1.0000   0.0000   0.0000   0.0000   0.0000

          k = 0.0867 0.5504 0.0000 (  5178 PWs)   bands (ev):

   -16.1619 -14.8508  -8.9412  -4.2435  -0.2070   6.5368   8.8561   9.8029

     occupation numbers 
     1.0000   1.0000   1.0000   1.0000   0.0000   0.0000   0.0000   0.0000

          k = 0.0867 0.5581 0.0000 (  5179 PWs)   bands (ev):

   -16.0594 -14.9624  -8.9477  -4.2006  -0.2592   6.5341   9.0522   9.9610

     occupation numbers 
     1.0000   1.0000   1.0000   1.0000   0.0000   0.0000   0.0000   0.0000

          k = 0.0867 0.5658 0.0000 (  5181 PWs)   bands (ev):

   -15.9774 -15.0504  -8.9520  -4.1714  -0.2947   6.5323   9.2493   9.8642

     occupation numbers 
     1.0000   1.0000   1.0000   1.0000   0.0000   0.0000   0.0000   0.0000

          k = 0.0867 0.5735 0.0000 (  5181 PWs)   bands (ev):

   -15.9300 -15.1009  -8.9541  -4.1565  -0.3127   6.5314   9.4418   9.6687

     occupation numbers 
     1.0000   1.0000   1.0000   1.0000   0.0000   0.0000   0.0000   0.0000

          k = 0.0933 0.1617 0.0000 (  5132 PWs)   bands (ev):

   -20.7932  -8.9738  -6.9428  -6.2240   2.2500   3.3050   3.7114   5.5836

     occupation numbers 
     1.0000   1.0000   1.0000   1.0000   0.0000   0.0000   0.0000   0.0000

          k = 0.0933 0.1694 0.0000 (  5134 PWs)   bands (ev):

   -20.7480  -8.9195  -7.0607  -6.3084   2.3120   3.3674   3.7749   5.6455

     occupation numbers 
     1.0000   1.0000   1.0000   1.0000   0.0000   0.0000   0.0000   0.0000

          k = 0.0933 0.1771 0.0000 (  5140 PWs)   bands (ev):

   -20.7008  -8.8628  -7.1826  -6.3937   2.3768   3.4327   3.8414   5.7101

     occupation numbers 
     1.0000   1.0000   1.0000   1.0000   0.0000   0.0000   0.0000   0.0000

          k = 0.0933 0.1848 0.0000 (  5142 PWs)   bands (ev):

   -20.6514  -8.8036  -7.3085  -6.4795   2.4444   3.5008   3.9108   5.7776

     occupation numbers 
     1.0000   1.0000   1.0000   1.0000   0.0000   0.0000   0.0000   0.0000

          k = 0.0933 0.1925 0.0000 (  5140 PWs)   bands (ev):

   -20.6000  -8.7420  -7.4383  -6.5656   2.5150   3.5718   3.9832   5.8478

     occupation numbers 
     1.0000   1.0000   1.0000   1.0000   0.0000   0.0000   0.0000   0.0000

          k = 0.0933 0.2001 0.0000 (  5140 PWs)   bands (ev):

   -20.5465  -8.6779  -7.5719  -6.6517   2.5884   3.6456   4.0585   5.9208

     occupation numbers 
     1.0000   1.0000   1.0000   1.0000   0.0000   0.0000   0.0000   0.0000

          k = 0.0933 0.2078 0.0000 (  5142 PWs)   bands (ev):

   -20.4910  -8.6115  -7.7092  -6.7375   2.6647   3.7223   4.1368   5.9963

     occupation numbers 
     1.0000   1.0000   1.0000   1.0000   0.0000   0.0000   0.0000   0.0000

          k = 0.0933 0.2155 0.0000 (  5150 PWs)   bands (ev):

   -20.4334  -8.5427  -7.8499  -6.8228   2.7439   3.8018   4.2180   6.0742

     occupation numbers 
     1.0000   1.0000   1.0000   1.0000   0.0000   0.0000   0.0000   0.0000

          k = 0.0933 0.2232 0.0000 (  5150 PWs)   bands (ev):

   -20.3738  -8.4715  -7.9939  -6.9074   2.8259   3.8841   4.3022   6.1536

     occupation numbers 
     1.0000   1.0000   1.0000   1.0000   0.0000   0.0000   0.0000   0.0000

          k = 0.0933 0.2309 0.0000 (  5153 PWs)   bands (ev):

   -20.3121  -8.3980  -8.1411  -6.9912   2.9107   3.9691   4.3893   6.2303

     occupation numbers 
     1.0000   1.0000   1.0000   1.0000   0.0000   0.0000   0.0000   0.0000

          k = 0.0933 0.2386 0.0000 (  5155 PWs)   bands (ev):

   -20.2483  -8.3222  -8.2911  -7.0740   2.9985   4.0569   4.4794   6.2418

     occupation numbers 
     1.0000   1.0000   1.0000   1.0000   0.0000   0.0000   0.0000   0.0000

          k = 0.0933 0.2463 0.0000 (  5151 PWs)   bands (ev):

   -20.1826  -8.4438  -8.2440  -7.1558   3.0890   4.1473   4.5724   6.1053

     occupation numbers 
     1.0000   1.0000   1.0000   1.0000   0.0000   0.0000   0.0000   0.0000

          k = 0.0933 0.2540 0.0000 (  5151 PWs)   bands (ev):

   -20.1148  -8.5990  -8.1636  -7.2364   3.1825   4.2403   4.6684   5.9466

     occupation numbers 
     1.0000   1.0000   1.0000   1.0000   0.0000   0.0000   0.0000   0.0000

          k = 0.0933 0.2617 0.0000 (  5155 PWs)   bands (ev):

   -20.0449  -8.7564  -8.0809  -7.3158   3.2787   4.3356   4.7673   5.7836

     occupation numbers 
     1.0000   1.0000   1.0000   1.0000   0.0000   0.0000   0.0000   0.0000

          k = 0.0933 0.2694 0.0000 (  5152 PWs)   bands (ev):

   -19.9731  -8.9160  -7.9960  -7.3938   3.3778   4.4330   4.8691   5.6185

     occupation numbers 
     1.0000   1.0000   1.0000   1.0000   0.0000   0.0000   0.0000   0.0000

          k = 0.0933 0.2771 0.0000 (  5144 PWs)   bands (ev):

   -19.8992  -9.0773  -7.9088  -7.4705   3.4797   4.5317   4.9739   5.4526

     occupation numbers 
     1.0000   1.0000   1.0000   1.0000   0.0000   0.0000   0.0000   0.0000

          k = 0.0933 0.2848 0.0000 (  5158 PWs)   bands (ev):

   -19.8234  -9.2404  -7.8195  -7.5458   3.5845   4.6298   5.0816   5.2881

     occupation numbers 
     1.0000   1.0000   1.0000   1.0000   0.0000   0.0000   0.0000   0.0000

          k = 0.0933 0.2925 0.0000 (  5161 PWs)   bands (ev):

   -19.7455  -9.4049  -7.7281  -7.6195   3.6921   4.7203   5.1323   5.1923

     occupation numbers 
     1.0000   1.0000   1.0000   1.0000   0.0000   0.0000   0.0000   0.0000

          k = 0.0933 0.3002 0.0000 (  5166 PWs)   bands (ev):

   -19.6657  -9.5708  -7.6917  -7.6345   3.8025   4.7668   5.0216   5.3058

     occupation numbers 
     1.0000   1.0000   1.0000   1.0000   0.0000   0.0000   0.0000   0.0000

          k = 0.0933 0.3079 0.0000 (  5164 PWs)   bands (ev):

   -19.5838  -9.7377  -7.7624  -7.5388   3.9157   4.6851   5.0406   5.4223

     occupation numbers 
     1.0000   1.0000   1.0000   1.0000   0.0000   0.0000   0.0000   0.0000

          k = 0.0933 0.3156 0.0000 (  5160 PWs)   bands (ev):

   -19.5000  -9.9057  -7.8314  -7.4412   4.0317   4.5318   5.1327   5.5417

     occupation numbers 
     1.0000   1.0000   1.0000   1.0000   0.0000   0.0000   0.0000   0.0000

          k = 0.0933 0.3233 0.0000 (  5164 PWs)   bands (ev):

   -19.4143 -10.0744  -7.8988  -7.3415   4.1505   4.3620   5.2430   5.6640

     occupation numbers 
     1.0000   1.0000   1.0000   1.0000   0.0000   0.0000   0.0000   0.0000

          k = 0.0933 0.3310 0.0000 (  5171 PWs)   bands (ev):

   -19.3265 -10.2438  -7.9645  -7.2399   4.1869   4.2720   5.3606   5.7892

     occupation numbers 
     1.0000   1.0000   1.0000   1.0000   0.0000   0.0000   0.0000   0.0000

          k = 0.0933 0.3387 0.0000 (  5171 PWs)   bands (ev):

   -19.2369 -10.4138  -8.0285  -7.1365   4.0091   4.3964   5.4829   5.9171

     occupation numbers 
     1.0000   1.0000   1.0000   1.0000   0.0000   0.0000   0.0000   0.0000

          k = 0.0933 0.3464 0.0000 (  5167 PWs)   bands (ev):

   -19.1453 -10.5841  -8.0907  -7.0312   3.8298   4.5235   5.6088   6.0479

     occupation numbers 
     1.0000   1.0000   1.0000   1.0000   0.0000   0.0000   0.0000   0.0000

          k = 0.0933 0.3541 0.0000 (  5171 PWs)   bands (ev):

   -19.0517 -10.7547  -8.1511  -6.9241   3.6496   4.6533   5.7380   6.1814

     occupation numbers 
     1.0000   1.0000   1.0000   1.0000   0.0000   0.0000   0.0000   0.0000

          k = 0.0933 0.3618 0.0000 (  5175 PWs)   bands (ev):

   -18.9563 -10.9255  -8.2098  -6.8154   3.4689   4.7859   5.8702   6.3174

     occupation numbers 
     1.0000   1.0000   1.0000   1.0000   0.0000   0.0000   0.0000   0.0000

          k = 0.0933 0.3695 0.0000 (  5171 PWs)   bands (ev):

   -18.8590 -11.0963  -8.2666  -6.7051   3.2880   4.9212   6.0054   6.4555

     occupation numbers 
     1.0000   1.0000   1.0000   1.0000   0.0000   0.0000   0.0000   0.0000

          k = 0.0933 0.3772 0.0000 (  5163 PWs)   bands (ev):

   -18.7598 -11.2669  -8.3215  -6.5933   3.1071   5.0592   6.1434   6.5947

     occupation numbers 
     1.0000   1.0000   1.0000   1.0000   0.0000   0.0000   0.0000   0.0000

          k = 0.0933 0.3849 0.0000 (  5162 PWs)   bands (ev):

   -18.6587 -11.4374  -8.3745  -6.4801   2.9265   5.1998   6.2841   6.7321

     occupation numbers 
     1.0000   1.0000   1.0000   1.0000   0.0000   0.0000   0.0000   0.0000

          k = 0.0933 0.3926 0.0000 (  5166 PWs)   bands (ev):

   -18.5558 -11.6077  -8.4256  -6.3656   2.7464   5.3430   6.4275   6.8444

     occupation numbers 
     1.0000   1.0000   1.0000   1.0000   0.0000   0.0000   0.0000   0.0000

          k = 0.0933 0.4003 0.0000 (  5168 PWs)   bands (ev):

   -18.4511 -11.7775  -8.4748  -6.2499   2.5670   5.4887   6.5736   6.8786

     occupation numbers 
     1.0000   1.0000   1.0000   1.0000   0.0000   0.0000   0.0000   0.0000

          k = 0.0933 0.4080 0.0000 (  5170 PWs)   bands (ev):

   -18.3445 -11.9468  -8.5221  -6.1332   2.3887   5.6368   6.7222   6.8735

     occupation numbers 
     1.0000   1.0000   1.0000   1.0000   0.0000   0.0000   0.0000   0.0000

          k = 0.0933 0.4157 0.0000 (  5174 PWs)   bands (ev):

   -18.2362 -12.1156  -8.5673  -6.0157   2.2116   5.7872   6.8624   6.8735

     occupation numbers 
     1.0000   1.0000   1.0000   1.0000   0.0000   0.0000   0.0000   0.0000

          k = 0.0933 0.4234 0.0000 (  5176 PWs)   bands (ev):

   -18.1261 -12.2837  -8.6106  -5.8975   2.0360   5.9396   6.8500   7.0272

     occupation numbers 
     1.0000   1.0000   1.0000   1.0000   0.0000   0.0000   0.0000   0.0000

          k = 0.0933 0.4311 0.0000 (  5172 PWs)   bands (ev):

   -18.0143 -12.4510  -8.6519  -5.7788   1.8622   6.0935   6.8384   7.1833

     occupation numbers 
     1.0000   1.0000   1.0000   1.0000   0.0000   0.0000   0.0000   0.0000

          k = 0.0933 0.4388 0.0000 (  5176 PWs)   bands (ev):

   -17.9008 -12.6175  -8.6911  -5.6599   1.6906   6.2479   6.8290   7.3419

     occupation numbers 
     1.0000   1.0000   1.0000   1.0000   0.0000   0.0000   0.0000   0.0000

          k = 0.0933 0.4465 0.0000 (  5178 PWs)   bands (ev):

   -17.7857 -12.7830  -8.7283  -5.5411   1.5215   6.4000   6.8248   7.5027

     occupation numbers 
     1.0000   1.0000   1.0000   1.0000   0.0000   0.0000   0.0000   0.0000

          k = 0.0933 0.4542 0.0000 (  5180 PWs)   bands (ev):

   -17.6689 -12.9476  -8.7635  -5.4226   1.3552   6.5415   6.8344   7.6657

     occupation numbers 
     1.0000   1.0000   1.0000   1.0000   0.0000   0.0000   0.0000   0.0000

          k = 0.0933 0.4619 0.0000 (  5182 PWs)   bands (ev):

   -17.5506 -13.1109  -8.7966  -5.3049   1.1923   6.6469   6.8832   7.8309

     occupation numbers 
     1.0000   1.0000   1.0000   1.0000   0.0000   0.0000   0.0000   0.0000

          k = 0.0933 0.4696 0.0000 (  5184 PWs)   bands (ev):

   -17.4308 -13.2731  -8.8276  -5.1884   1.0332   6.6914   6.9961   7.9981

     occupation numbers 
     1.0000   1.0000   1.0000   1.0000   0.0000   0.0000   0.0000   0.0000

          k = 0.0933 0.4773 0.0000 (  5184 PWs)   bands (ev):

   -17.3097 -13.4338  -8.8565  -5.0735   0.8784   6.7011   7.1470   8.1672

     occupation numbers 
     1.0000   1.0000   1.0000   1.0000   0.0000   0.0000   0.0000   0.0000

          k = 0.0933 0.4850 0.0000 (  5182 PWs)   bands (ev):

   -17.1872 -13.5930  -8.8833  -4.9609   0.7287   6.6996   7.3125   8.3380

     occupation numbers 
     1.0000   1.0000   1.0000   1.0000   0.0000   0.0000   0.0000   0.0000

          k = 0.0933 0.4927 0.0000 (  5184 PWs)   bands (ev):

   -17.0636 -13.7506  -8.9080  -4.8512   0.5846   6.6943   7.4850   8.5104

     occupation numbers 
     1.0000   1.0000   1.0000   1.0000   0.0000   0.0000   0.0000   0.0000

          k = 0.0933 0.5004 0.0000 (  5186 PWs)   bands (ev):

   -16.9391 -13.9062  -8.9306  -4.7452   0.4470   6.6877   7.6621   8.6840

     occupation numbers 
     1.0000   1.0000   1.0000   1.0000   0.0000   0.0000   0.0000   0.0000

          k = 0.0933 0.5081 0.0000 (  5180 PWs)   bands (ev):

   -16.8138 -14.0597  -8.9511  -4.6437   0.3169   6.6809   7.8426   8.8586

     occupation numbers 
     1.0000   1.0000   1.0000   1.0000   0.0000   0.0000   0.0000   0.0000

          k = 0.0933 0.5158 0.0000 (  5182 PWs)   bands (ev):

   -16.6883 -14.2105  -8.9694  -4.5478   0.1953   6.6743   8.0262   9.0337

     occupation numbers 
     1.0000   1.0000   1.0000   1.0000   0.0000   0.0000   0.0000   0.0000

          k = 0.0933 0.5235 0.0000 (  5178 PWs)   bands (ev):

   -16.5629 -14.3583  -8.9856  -4.4586   0.0833   6.6681   8.2124   9.2087

     occupation numbers 
     1.0000   1.0000   1.0000   1.0000   0.0000   0.0000   0.0000   0.0000

          k = 0.0933 0.5312 0.0000 (  5178 PWs)   bands (ev):

   -16.4386 -14.5020  -8.9996  -4.3773  -0.0178   6.6626   8.4011   9.3828

     occupation numbers 
     1.0000   1.0000   1.0000   1.0000   0.0000   0.0000   0.0000   0.0000

          k = 0.0933 0.5389 0.0000 (  5176 PWs)   bands (ev):

   -16.3166 -14.6404  -9.0115  -4.3053  -0.1066   6.6579   8.5921   9.5547

     occupation numbers 
     1.0000   1.0000   1.0000   1.0000   0.0000   0.0000   0.0000   0.0000

          k = 0.0933 0.5466 0.0000 (  5182 PWs)   bands (ev):

   -16.1993 -14.7713  -9.0212  -4.2439  -0.1818   6.6539   8.7853   9.7221

     occupation numbers 
     1.0000   1.0000   1.0000   1.0000   0.0000   0.0000   0.0000   0.0000

          k = 0.0933 0.5543 0.0000 (  5178 PWs)   bands (ev):

   -16.0904 -14.8907  -9.0288  -4.1944  -0.2420   6.6508   8.9802   9.8810

     occupation numbers 
     1.0000   1.0000   1.0000   1.0000   0.0000   0.0000   0.0000   0.0000

          k = 0.0933 0.5620 0.0000 (  5182 PWs)   bands (ev):

   -15.9969 -14.9917  -9.0342  -4.1581  -0.2860   6.6485   9.1766   9.9910

     occupation numbers 
     1.0000   1.0000   1.0000   1.0000   0.0000   0.0000   0.0000   0.0000

          k = 0.0933 0.5697 0.0000 (  5179 PWs)   bands (ev):

   -15.9304 -15.0627  -9.0374  -4.1358  -0.3129   6.6472   9.3726   9.7892

     occupation numbers 
     1.0000   1.0000   1.0000   1.0000   0.0000   0.0000   0.0000   0.0000

          k = 0.0933 0.5774 0.0000 (  5178 PWs)   bands (ev):

   -15.9057 -15.0889  -9.0385  -4.1284  -0.3219   6.6467   9.5278   9.6326

     occupation numbers 
     1.0000   1.0000   1.0000   1.0000   0.0000   0.0000   0.0000   0.0000

          k = 0.1000 0.1732 0.0000 (  5136 PWs)   bands (ev):

   -20.7018  -8.8640  -7.1768  -6.3954   2.3753   3.4312   3.8399   5.7087

     occupation numbers 
     1.0000   1.0000   1.0000   1.0000   0.0000   0.0000   0.0000   0.0000

          k = 0.1000 0.1809 0.0000 (  5140 PWs)   bands (ev):

   -20.6535  -8.8061  -7.2969  -6.4833   2.4416   3.4979   3.9079   5.7748

     occupation numbers 
     1.0000   1.0000   1.0000   1.0000   0.0000   0.0000   0.0000   0.0000

          k = 0.1000 0.1886 0.0000 (  5136 PWs)   bands (ev):

   -20.6032  -8.7457  -7.4209  -6.5718   2.5107   3.5675   3.9788   5.8437

     occupation numbers 
     1.0000   1.0000   1.0000   1.0000   0.0000   0.0000   0.0000   0.0000

          k = 0.1000 0.1963 0.0000 (  5140 PWs)   bands (ev):

   -20.5507  -8.6829  -7.5487  -6.6605   2.5827   3.6399   4.0526   5.9153

     occupation numbers 
     1.0000   1.0000   1.0000   1.0000   0.0000   0.0000   0.0000   0.0000

          k = 0.1000 0.2040 0.0000 (  5142 PWs)   bands (ev):

   -20.4962  -8.6178  -7.6803  -6.7490   2.6576   3.7151   4.1294   5.9896

     occupation numbers 
     1.0000   1.0000   1.0000   1.0000   0.0000   0.0000   0.0000   0.0000

          k = 0.1000 0.2117 0.0000 (  5146 PWs)   bands (ev):

   -20.4397  -8.5502  -7.8155  -6.8370   2.7353   3.7932   4.2092   6.0665

     occupation numbers 
     1.0000   1.0000   1.0000   1.0000   0.0000   0.0000   0.0000   0.0000

          k = 0.1000 0.2194 0.0000 (  5148 PWs)   bands (ev):

   -20.3811  -8.4802  -7.9542  -6.9245   2.8159   3.8741   4.2919   6.1454

     occupation numbers 
     1.0000   1.0000   1.0000   1.0000   0.0000   0.0000   0.0000   0.0000

          k = 0.1000 0.2271 0.0000 (  5150 PWs)   bands (ev):

   -20.3204  -8.4079  -8.0962  -7.0111   2.8993   3.9578   4.3775   6.2242

     occupation numbers 
     1.0000   1.0000   1.0000   1.0000   0.0000   0.0000   0.0000   0.0000

          k = 0.1000 0.2348 0.0000 (  5149 PWs)   bands (ev):

   -20.2577  -8.3333  -8.2414  -7.0966   2.9856   4.0442   4.4662   6.2689

     occupation numbers 
     1.0000   1.0000   1.0000   1.0000   0.0000   0.0000   0.0000   0.0000

          k = 0.1000 0.2425 0.0000 (  5145 PWs)   bands (ev):

   -20.1930  -8.3896  -8.2564  -7.1811   3.0748   4.1333   4.5577   6.1379

     occupation numbers 
     1.0000   1.0000   1.0000   1.0000   0.0000   0.0000   0.0000   0.0000

          k = 0.1000 0.2502 0.0000 (  5149 PWs)   bands (ev):

   -20.1263  -8.5406  -8.1771  -7.2643   3.1668   4.2251   4.6522   5.9814

     occupation numbers 
     1.0000   1.0000   1.0000   1.0000   0.0000   0.0000   0.0000   0.0000

          k = 0.1000 0.2579 0.0000 (  5149 PWs)   bands (ev):

   -20.0575  -8.6941  -8.0956  -7.3461   3.2616   4.3193   4.7496   5.8204

     occupation numbers 
     1.0000   1.0000   1.0000   1.0000   0.0000   0.0000   0.0000   0.0000

          k = 0.1000 0.2656 0.0000 (  5150 PWs)   bands (ev):

   -19.9866  -8.8500  -8.0118  -7.4266   3.3593   4.4158   4.8500   5.6572

     occupation numbers 
     1.0000   1.0000   1.0000   1.0000   0.0000   0.0000   0.0000   0.0000

          k = 0.1000 0.2733 0.0000 (  5144 PWs)   bands (ev):

   -19.9138  -9.0080  -7.9258  -7.5055   3.4598   4.5140   4.9534   5.4927

     occupation numbers 
     1.0000   1.0000   1.0000   1.0000   0.0000   0.0000   0.0000   0.0000

          k = 0.1000 0.2810 0.0000 (  5152 PWs)   bands (ev):

   -19.8390  -9.1679  -7.8377  -7.5829   3.5631   4.6127   5.0596   5.3285

     occupation numbers 
     1.0000   1.0000   1.0000   1.0000   0.0000   0.0000   0.0000   0.0000

          k = 0.1000 0.2887 0.0000 (  5158 PWs)   bands (ev):

   -19.7622  -9.3296  -7.7473  -7.6588   3.6693   4.7077   5.1688   5.1691

     occupation numbers 
     1.0000   1.0000   1.0000   1.0000   0.0000   0.0000   0.0000   0.0000

          k = 0.1000 0.2964 0.0000 (  5161 PWs)   bands (ev):

   -19.6833  -9.4928  -7.7330  -7.6549   3.7783   4.7771   5.0363   5.2809

     occupation numbers 
     1.0000   1.0000   1.0000   1.0000   0.0000   0.0000   0.0000   0.0000

          k = 0.1000 0.3041 0.0000 (  5157 PWs)   bands (ev):

   -19.6025  -9.6574  -7.8055  -7.5603   3.8901   4.7318   5.0195   5.3960

     occupation numbers 
     1.0000   1.0000   1.0000   1.0000   0.0000   0.0000   0.0000   0.0000

          k = 0.1000 0.3118 0.0000 (  5151 PWs)   bands (ev):

   -19.5197  -9.8232  -7.8764  -7.4637   4.0047   4.5871   5.1037   5.5140

     occupation numbers 
     1.0000   1.0000   1.0000   1.0000   0.0000   0.0000   0.0000   0.0000

          k = 0.1000 0.3195 0.0000 (  5154 PWs)   bands (ev):

   -19.4350  -9.9900  -7.9455  -7.3651   4.1221   4.4202   5.2117   5.6348

     occupation numbers 
     1.0000   1.0000   1.0000   1.0000   0.0000   0.0000   0.0000   0.0000

          k = 0.1000 0.3272 0.0000 (  5158 PWs)   bands (ev):

   -19.3483 -10.1576  -8.0129  -7.2645   4.2423   4.2470   5.3277   5.7586

     occupation numbers 
     1.0000   1.0000   1.0000   1.0000   0.0000   0.0000   0.0000   0.0000

          k = 0.1000 0.3349 0.0000 (  5167 PWs)   bands (ev):

   -19.2596 -10.3260  -8.0785  -7.1620   4.0710   4.3653   5.4485   5.8852

     occupation numbers 
     1.0000   1.0000   1.0000   1.0000   0.0000   0.0000   0.0000   0.0000

          k = 0.1000 0.3426 0.0000 (  5169 PWs)   bands (ev):

   -19.1690 -10.4949  -8.1423  -7.0577   3.8933   4.4910   5.5730   6.0147

     occupation numbers 
     1.0000   1.0000   1.0000   1.0000   0.0000   0.0000   0.0000   0.0000

          k = 0.1000 0.3503 0.0000 (  5171 PWs)   bands (ev):

   -19.0765 -10.6642  -8.2043  -6.9516   3.7146   4.6195   5.7008   6.1470

     occupation numbers 
     1.0000   1.0000   1.0000   1.0000   0.0000   0.0000   0.0000   0.0000

          k = 0.1000 0.3580 0.0000 (  5175 PWs)   bands (ev):

   -18.9820 -10.8338  -8.2644  -6.8438   3.5353   4.7508   5.8316   6.2820

     occupation numbers 
     1.0000   1.0000   1.0000   1.0000   0.0000   0.0000   0.0000   0.0000

          k = 0.1000 0.3657 0.0000 (  5171 PWs)   bands (ev):

   -18.8857 -11.0035  -8.3226  -6.7343   3.3557   4.8847   5.9653   6.4195

     occupation numbers 
     1.0000   1.0000   1.0000   1.0000   0.0000   0.0000   0.0000   0.0000

          k = 0.1000 0.3734 0.0000 (  5173 PWs)   bands (ev):

   -18.7875 -11.1733  -8.3789  -6.6233   3.1759   5.0214   6.1018   6.5591

     occupation numbers 
     1.0000   1.0000   1.0000   1.0000   0.0000   0.0000   0.0000   0.0000

          k = 0.1000 0.3811 0.0000 (  5166 PWs)   bands (ev):

   -18.6874 -11.3431  -8.4334  -6.5108   2.9963   5.1607   6.2410   6.7000

     occupation numbers 
     1.0000   1.0000   1.0000   1.0000   0.0000   0.0000   0.0000   0.0000

          k = 0.1000 0.3887 0.0000 (  5164 PWs)   bands (ev):

   -18.5855 -11.5126  -8.4858  -6.3969   2.8170   5.3027   6.3829   6.8383

     occupation numbers 
     1.0000   1.0000   1.0000   1.0000   0.0000   0.0000   0.0000   0.0000

          k = 0.1000 0.3964 0.0000 (  5164 PWs)   bands (ev):

   -18.4817 -11.6819  -8.5363  -6.2819   2.6383   5.4472   6.5275   6.9734

     occupation numbers 
     1.0000   1.0000   1.0000   1.0000   0.0000   0.0000   0.0000   0.0000

          k = 0.1000 0.4041 0.0000 (  5168 PWs)   bands (ev):

   -18.3761 -11.8507  -8.5849  -6.1657   2.4605   5.5943   6.6746   6.9898

     occupation numbers 
     1.0000   1.0000   1.0000   1.0000   0.0000   0.0000   0.0000   0.0000

          k = 0.1000 0.4118 0.0000 (  5174 PWs)   bands (ev):

   -18.2687 -12.0191  -8.6314  -6.0486   2.2838   5.7438   6.8242   6.9856

     occupation numbers 
     1.0000   1.0000   1.0000   1.0000   0.0000   0.0000   0.0000   0.0000

          k = 0.1000 0.4195 0.0000 (  5172 PWs)   bands (ev):

   -18.1596 -12.1869  -8.6760  -5.9307   2.1084   5.8956   6.9747   6.9764

     occupation numbers 
     1.0000   1.0000   1.0000   1.0000   0.0000   0.0000   0.0000   0.0000

          k = 0.1000 0.4272 0.0000 (  5170 PWs)   bands (ev):

   -18.0487 -12.3541  -8.7185  -5.8123   1.9346   6.0494   6.9626   7.1309

     occupation numbers 
     1.0000   1.0000   1.0000   1.0000   0.0000   0.0000   0.0000   0.0000

          k = 0.1000 0.4349 0.0000 (  5170 PWs)   bands (ev):

   -17.9361 -12.5205  -8.7590  -5.6934   1.7627   6.2047   6.9512   7.2879

     occupation numbers 
     1.0000   1.0000   1.0000   1.0000   0.0000   0.0000   0.0000   0.0000

          k = 0.1000 0.4426 0.0000 (  5174 PWs)   bands (ev):

   -17.8219 -12.6860  -8.7974  -5.5745   1.5931   6.3605   6.9420   7.4471

     occupation numbers 
     1.0000   1.0000   1.0000   1.0000   0.0000   0.0000   0.0000   0.0000

          k = 0.1000 0.4503 0.0000 (  5178 PWs)   bands (ev):

   -17.7060 -12.8505  -8.8337  -5.4558   1.4261   6.5142   6.9379   7.6085

     occupation numbers 
     1.0000   1.0000   1.0000   1.0000   0.0000   0.0000   0.0000   0.0000

          k = 0.1000 0.4580 0.0000 (  5176 PWs)   bands (ev):

   -17.5885 -13.0140  -8.8680  -5.3377   1.2622   6.6575   6.9472   7.7720

     occupation numbers 
     1.0000   1.0000   1.0000   1.0000   0.0000   0.0000   0.0000   0.0000

          k = 0.1000 0.4657 0.0000 (  5180 PWs)   bands (ev):

   -17.4696 -13.1764  -8.9002  -5.2204   1.1018   6.7644   6.9962   7.9375

     occupation numbers 
     1.0000   1.0000   1.0000   1.0000   0.0000   0.0000   0.0000   0.0000

          k = 0.1000 0.4734 0.0000 (  5180 PWs)   bands (ev):

   -17.3492 -13.3374  -8.9303  -5.1046   0.9453   6.8090   7.1106   8.1048

     occupation numbers 
     1.0000   1.0000   1.0000   1.0000   0.0000   0.0000   0.0000   0.0000

          k = 0.1000 0.4811 0.0000 (  5180 PWs)   bands (ev):

   -17.2274 -13.4970  -8.9583  -4.9907   0.7935   6.8186   7.2633   8.2738

     occupation numbers 
     1.0000   1.0000   1.0000   1.0000   0.0000   0.0000   0.0000   0.0000

          k = 0.1000 0.4888 0.0000 (  5182 PWs)   bands (ev):

   -17.1045 -13.6551  -8.9841  -4.8793   0.6469   6.8171   7.4303   8.4443

     occupation numbers 
     1.0000   1.0000   1.0000   1.0000   0.0000   0.0000   0.0000   0.0000

          k = 0.1000 0.4965 0.0000 (  5182 PWs)   bands (ev):

   -16.9805 -13.8114  -9.0079  -4.7712   0.5064   6.8120   7.6041   8.6160

     occupation numbers 
     1.0000   1.0000   1.0000   1.0000   0.0000   0.0000   0.0000   0.0000

          k = 0.1000 0.5042 0.0000 (  5182 PWs)   bands (ev):

   -16.8557 -13.9656  -9.0295  -4.6672   0.3727   6.8057   7.7824   8.7886

     occupation numbers 
     1.0000   1.0000   1.0000   1.0000   0.0000   0.0000   0.0000   0.0000

          k = 0.1000 0.5119 0.0000 (  5178 PWs)   bands (ev):

   -16.7304 -14.1175  -9.0489  -4.5682   0.2469   6.7992   7.9640   8.9617

     occupation numbers 
     1.0000   1.0000   1.0000   1.0000   0.0000   0.0000   0.0000   0.0000

          k = 0.1000 0.5196 0.0000 (  5174 PWs)   bands (ev):

   -16.6050 -14.2666  -9.0663  -4.4753   0.1301   6.7930   8.1486   9.1347

     occupation numbers 
     1.0000   1.0000   1.0000   1.0000   0.0000   0.0000   0.0000   0.0000

          k = 0.1000 0.5273 0.0000 (  5176 PWs)   bands (ev):

   -16.4802 -14.4122  -9.0814  -4.3896   0.0235   6.7873   8.3358   9.3067

     occupation numbers 
     1.0000   1.0000   1.0000   1.0000   0.0000   0.0000   0.0000   0.0000

          k = 0.1000 0.5350 0.0000 (  5180 PWs)   bands (ev):

   -16.3570 -14.5532  -9.0944  -4.3126  -0.0716   6.7822   8.5254   9.4766

     occupation numbers 
     1.0000   1.0000   1.0000   1.0000   0.0000   0.0000   0.0000   0.0000

          k = 0.1000 0.5427 0.0000 (  5182 PWs)   bands (ev):

   -16.2371 -14.6879  -9.1053  -4.2455  -0.1538   6.7779   8.7171   9.6424

     occupation numbers 
     1.0000   1.0000   1.0000   1.0000   0.0000   0.0000   0.0000   0.0000

          k = 0.1000 0.5504 0.0000 (  5182 PWs)   bands (ev):

   -16.1235 -14.8134  -9.1140  -4.1897  -0.2216   6.7744   8.9108   9.8008

     occupation numbers 
     1.0000   1.0000   1.0000   1.0000   0.0000   0.0000   0.0000   0.0000

          k = 0.1000 0.5581 0.0000 (  5183 PWs)   bands (ev):

   -16.0214 -14.9245  -9.1205  -4.1465  -0.2739   6.7717   9.1062   9.9458

     occupation numbers 
     1.0000   1.0000   1.0000   1.0000   0.0000   0.0000   0.0000   0.0000

          k = 0.1000 0.5658 0.0000 (  5186 PWs)   bands (ev):

   -15.9399 -15.0120  -9.1248  -4.1170  -0.3095   6.7699   9.3023   9.9150

     occupation numbers 
     1.0000   1.0000   1.0000   1.0000   0.0000   0.0000   0.0000   0.0000

          k = 0.1000 0.5735 0.0000 (  5184 PWs)   bands (ev):

   -15.8927 -15.0622  -9.1270  -4.1020  -0.3275   6.7690   9.4934   9.7211

     occupation numbers 
     1.0000   1.0000   1.0000   1.0000   0.0000   0.0000   0.0000   0.0000

          k = 0.1067 0.1848 0.0000 (  5136 PWs)   bands (ev):

   -20.6042  -8.7470  -7.4150  -6.5740   2.5093   3.5660   3.9773   5.8423

     occupation numbers 
     1.0000   1.0000   1.0000   1.0000   0.0000   0.0000   0.0000   0.0000

          k = 0.1067 0.1925 0.0000 (  5140 PWs)   bands (ev):

   -20.5528  -8.6854  -7.5368  -6.6651   2.5798   3.6370   4.0497   5.9126

     occupation numbers 
     1.0000   1.0000   1.0000   1.0000   0.0000   0.0000   0.0000   0.0000

          k = 0.1067 0.2001 0.0000 (  5144 PWs)   bands (ev):

   -20.4994  -8.6215  -7.6623  -6.7564   2.6533   3.7108   4.1250   5.9856

     occupation numbers 
     1.0000   1.0000   1.0000   1.0000   0.0000   0.0000   0.0000   0.0000

          k = 0.1067 0.2078 0.0000 (  5146 PWs)   bands (ev):

   -20.4439  -8.5552  -7.7916  -6.8475   2.7296   3.7875   4.2033   6.0613

     occupation numbers 
     1.0000   1.0000   1.0000   1.0000   0.0000   0.0000   0.0000   0.0000

          k = 0.1067 0.2155 0.0000 (  5144 PWs)   bands (ev):

   -20.3863  -8.4865  -7.9244  -6.9380   2.8087   3.8670   4.2845   6.1394

     occupation numbers 
     1.0000   1.0000   1.0000   1.0000   0.0000   0.0000   0.0000   0.0000

          k = 0.1067 0.2232 0.0000 (  5138 PWs)   bands (ev):

   -20.3267  -8.4154  -8.0608  -7.0278   2.8907   3.9493   4.3687   6.2189

     occupation numbers 
     1.0000   1.0000   1.0000   1.0000   0.0000   0.0000   0.0000   0.0000

          k = 0.1067 0.2309 0.0000 (  5146 PWs)   bands (ev):

   -20.2651  -8.3420  -8.2006  -7.1165   2.9756   4.0343   4.4559   6.2835

     occupation numbers 
     1.0000   1.0000   1.0000   1.0000   0.0000   0.0000   0.0000   0.0000

          k = 0.1067 0.2386 0.0000 (  5141 PWs)   bands (ev):

   -20.2014  -8.3436  -8.2662  -7.2041   3.0633   4.1221   4.5459   6.1653

     occupation numbers 
     1.0000   1.0000   1.0000   1.0000   0.0000   0.0000   0.0000   0.0000

          k = 0.1067 0.2463 0.0000 (  5145 PWs)   bands (ev):

   -20.1356  -8.4896  -8.1882  -7.2903   3.1539   4.2126   4.6390   6.0105

     occupation numbers 
     1.0000   1.0000   1.0000   1.0000   0.0000   0.0000   0.0000   0.0000

          k = 0.1067 0.2540 0.0000 (  5143 PWs)   bands (ev):

   -20.0679  -8.6386  -8.1078  -7.3751   3.2473   4.3057   4.7350   5.8516

     occupation numbers 
     1.0000   1.0000   1.0000   1.0000   0.0000   0.0000   0.0000   0.0000

          k = 0.1067 0.2617 0.0000 (  5146 PWs)   bands (ev):

   -19.9981  -8.7902  -8.0252  -7.4584   3.3436   4.4011   4.8339   5.6905

     occupation numbers 
     1.0000   1.0000   1.0000   1.0000   0.0000   0.0000   0.0000   0.0000

          k = 0.1067 0.2694 0.0000 (  5140 PWs)   bands (ev):

   -19.9263  -8.9442  -7.9404  -7.5400   3.4427   4.4986   4.9357   5.5278

     occupation numbers 
     1.0000   1.0000   1.0000   1.0000   0.0000   0.0000   0.0000   0.0000

          k = 0.1067 0.2771 0.0000 (  5152 PWs)   bands (ev):

   -19.8525  -9.1005  -7.8534  -7.6200   3.5447   4.5974   5.0406   5.3647

     occupation numbers 
     1.0000   1.0000   1.0000   1.0000   0.0000   0.0000   0.0000   0.0000

          k = 0.1067 0.2848 0.0000 (  5158 PWs)   bands (ev):

   -19.7767  -9.2588  -7.7642  -7.6983   3.6494   4.6947   5.1483   5.2039

     occupation numbers 
     1.0000   1.0000   1.0000   1.0000   0.0000   0.0000   0.0000   0.0000

          k = 0.1067 0.2925 0.0000 (  5160 PWs)   bands (ev):

   -19.6989  -9.4189  -7.7749  -7.6728   3.7570   4.7781   5.0581   5.2590

     occupation numbers 
     1.0000   1.0000   1.0000   1.0000   0.0000   0.0000   0.0000   0.0000

          k = 0.1067 0.3002 0.0000 (  5159 PWs)   bands (ev):

   -19.6191  -9.5807  -7.8496  -7.5794   3.8674   4.7715   5.0035   5.3726

     occupation numbers 
     1.0000   1.0000   1.0000   1.0000   0.0000   0.0000   0.0000   0.0000

          k = 0.1067 0.3079 0.0000 (  5156 PWs)   bands (ev):

   -19.5373  -9.7438  -7.9226  -7.4839   3.9806   4.6381   5.0771   5.4891

     occupation numbers 
     1.0000   1.0000   1.0000   1.0000   0.0000   0.0000   0.0000   0.0000

          k = 0.1067 0.3156 0.0000 (  5152 PWs)   bands (ev):

   -19.4536  -9.9083  -7.9937  -7.3863   4.0966   4.4742   5.1828   5.6086

     occupation numbers 
     1.0000   1.0000   1.0000   1.0000   0.0000   0.0000   0.0000   0.0000

          k = 0.1067 0.3233 0.0000 (  5156 PWs)   bands (ev):

   -19.3679 -10.0738  -8.0630  -7.2868   4.2154   4.3030   5.2974   5.7309

     occupation numbers 
     1.0000   1.0000   1.0000   1.0000   0.0000   0.0000   0.0000   0.0000

          k = 0.1067 0.3310 0.0000 (  5158 PWs)   bands (ev):

   -19.2803 -10.2402  -8.1305  -7.1853   4.1288   4.3370   5.4168   5.8562

     occupation numbers 
     1.0000   1.0000   1.0000   1.0000   0.0000   0.0000   0.0000   0.0000

          k = 0.1067 0.3387 0.0000 (  5162 PWs)   bands (ev):

   -19.1907 -10.4073  -8.1960  -7.0819   3.9529   4.4614   5.5400   5.9843

     occupation numbers 
     1.0000   1.0000   1.0000   1.0000   0.0000   0.0000   0.0000   0.0000

          k = 0.1067 0.3464 0.0000 (  5164 PWs)   bands (ev):

   -19.0992 -10.5751  -8.2597  -6.9768   3.7758   4.5885   5.6663   6.1153

     occupation numbers 
     1.0000   1.0000   1.0000   1.0000   0.0000   0.0000   0.0000   0.0000

          k = 0.1067 0.3541 0.0000 (  5170 PWs)   bands (ev):

   -19.0057 -10.7433  -8.3215  -6.8699   3.5980   4.7184   5.7957   6.2490

     occupation numbers 
     1.0000   1.0000   1.0000   1.0000   0.0000   0.0000   0.0000   0.0000

          k = 0.1067 0.3618 0.0000 (  5166 PWs)   bands (ev):

   -18.9104 -10.9118  -8.3813  -6.7613   3.4198   4.8510   5.9279   6.3855

     occupation numbers 
     1.0000   1.0000   1.0000   1.0000   0.0000   0.0000   0.0000   0.0000

          k = 0.1067 0.3695 0.0000 (  5168 PWs)   bands (ev):

   -18.8132 -11.0805  -8.4391  -6.6510   3.2413   4.9863   6.0629   6.5245

     occupation numbers 
     1.0000   1.0000   1.0000   1.0000   0.0000   0.0000   0.0000   0.0000

          k = 0.1067 0.3772 0.0000 (  5170 PWs)   bands (ev):

   -18.7141 -11.2492  -8.4950  -6.5393   3.0629   5.1244   6.2007   6.6658

     occupation numbers 
     1.0000   1.0000   1.0000   1.0000   0.0000   0.0000   0.0000   0.0000

          k = 0.1067 0.3849 0.0000 (  5164 PWs)   bands (ev):

   -18.6131 -11.4179  -8.5490  -6.4262   2.8847   5.2650   6.3411   6.8083

     occupation numbers 
     1.0000   1.0000   1.0000   1.0000   0.0000   0.0000   0.0000   0.0000

          k = 0.1067 0.3926 0.0000 (  5164 PWs)   bands (ev):

   -18.5103 -11.5865  -8.6009  -6.3118   2.7069   5.4084   6.4841   6.9488

     occupation numbers 
     1.0000   1.0000   1.0000   1.0000   0.0000   0.0000   0.0000   0.0000

          k = 0.1067 0.4003 0.0000 (  5168 PWs)   bands (ev):

   -18.4057 -11.7547  -8.6508  -6.1962   2.5298   5.5543   6.6297   7.0685

     occupation numbers 
     1.0000   1.0000   1.0000   1.0000   0.0000   0.0000   0.0000   0.0000

          k = 0.1067 0.4080 0.0000 (  5174 PWs)   bands (ev):

   -18.2992 -11.9226  -8.6987  -6.0796   2.3536   5.7027   6.7778   7.1070

     occupation numbers 
     1.0000   1.0000   1.0000   1.0000   0.0000   0.0000   0.0000   0.0000

          k = 0.1067 0.4157 0.0000 (  5170 PWs)   bands (ev):

   -18.1910 -12.0900  -8.7446  -5.9621   2.1786   5.8536   6.9283   7.1041

     occupation numbers 
     1.0000   1.0000   1.0000   1.0000   0.0000   0.0000   0.0000   0.0000

          k = 0.1067 0.4234 0.0000 (  5162 PWs)   bands (ev):

   -18.0811 -12.2568  -8.7884  -5.8439   2.0050   6.0067   7.0813   7.0936

     occupation numbers 
     1.0000   1.0000   1.0000   1.0000   0.0000   0.0000   0.0000   0.0000

          k = 0.1067 0.4311 0.0000 (  5166 PWs)   bands (ev):

   -17.9694 -12.4230  -8.8302  -5.7252   1.8331   6.1619   7.0817   7.2366

     occupation numbers 
     1.0000   1.0000   1.0000   1.0000   0.0000   0.0000   0.0000   0.0000

          k = 0.1067 0.4388 0.0000 (  5172 PWs)   bands (ev):

   -17.8561 -12.5883  -8.8698  -5.6063   1.6632   6.3187   7.0705   7.3941

     occupation numbers 
     1.0000   1.0000   1.0000   1.0000   0.0000   0.0000   0.0000   0.0000

          k = 0.1067 0.4465 0.0000 (  5174 PWs)   bands (ev):

   -17.7411 -12.7528  -8.9074  -5.4875   1.4958   6.4760   7.0614   7.5538

     occupation numbers 
     1.0000   1.0000   1.0000   1.0000   0.0000   0.0000   0.0000   0.0000

          k = 0.1067 0.4542 0.0000 (  5166 PWs)   bands (ev):

   -17.6245 -12.9164  -8.9430  -5.3689   1.3310   6.6315   7.0572   7.7156

     occupation numbers 
     1.0000   1.0000   1.0000   1.0000   0.0000   0.0000   0.0000   0.0000

          k = 0.1067 0.4619 0.0000 (  5170 PWs)   bands (ev):

   -17.5064 -13.0788  -8.9764  -5.2511   1.1695   6.7771   7.0659   7.8794

     occupation numbers 
     1.0000   1.0000   1.0000   1.0000   0.0000   0.0000   0.0000   0.0000

          k = 0.1067 0.4696 0.0000 (  5172 PWs)   bands (ev):

   -17.3868 -13.2400  -9.0077  -5.1345   1.0116   6.8867   7.1136   8.0449

     occupation numbers 
     1.0000   1.0000   1.0000   1.0000   0.0000   0.0000   0.0000   0.0000

          k = 0.1067 0.4773 0.0000 (  5172 PWs)   bands (ev):

   -17.2658 -13.4000  -9.0369  -5.0194   0.8580   6.9325   7.2285   8.2121

     occupation numbers 
     1.0000   1.0000   1.0000   1.0000   0.0000   0.0000   0.0000   0.0000

          k = 0.1067 0.4850 0.0000 (  5180 PWs)   bands (ev):

   -17.1436 -13.5584  -9.0639  -4.9066   0.7092   6.9423   7.3824   8.3807

     occupation numbers 
     1.0000   1.0000   1.0000   1.0000   0.0000   0.0000   0.0000   0.0000

          k = 0.1067 0.4927 0.0000 (  5174 PWs)   bands (ev):

   -17.0202 -13.7152  -9.0888  -4.7966   0.5660   6.9411   7.5507   8.5504

     occupation numbers 
     1.0000   1.0000   1.0000   1.0000   0.0000   0.0000   0.0000   0.0000

          k = 0.1067 0.5004 0.0000 (  5176 PWs)   bands (ev):

   -16.8959 -13.8702  -9.1116  -4.6903   0.4291   6.9363   7.7258   8.7210

     occupation numbers 
     1.0000   1.0000   1.0000   1.0000   0.0000   0.0000   0.0000   0.0000

          k = 0.1067 0.5081 0.0000 (  5172 PWs)   bands (ev):

   -16.7709 -14.0230  -9.1322  -4.5885   0.2996   6.9303   7.9051   8.8919

     occupation numbers 
     1.0000   1.0000   1.0000   1.0000   0.0000   0.0000   0.0000   0.0000

          k = 0.1067 0.5158 0.0000 (  5172 PWs)   bands (ev):

   -16.6456 -14.1732  -9.1507  -4.4922   0.1783   6.9242   8.0878   9.0627

     occupation numbers 
     1.0000   1.0000   1.0000   1.0000   0.0000   0.0000   0.0000   0.0000

          k = 0.1067 0.5235 0.0000 (  5172 PWs)   bands (ev):

   -16.5206 -14.3203  -9.1670  -4.4025   0.0666   6.9184   8.2734   9.2325

     occupation numbers 
     1.0000   1.0000   1.0000   1.0000   0.0000   0.0000   0.0000   0.0000

          k = 0.1067 0.5312 0.0000 (  5176 PWs)   bands (ev):

   -16.3966 -14.4635  -9.1811  -4.3208  -0.0343   6.9131   8.4614   9.4002

     occupation numbers 
     1.0000   1.0000   1.0000   1.0000   0.0000   0.0000   0.0000   0.0000

          k = 0.1067 0.5389 0.0000 (  5181 PWs)   bands (ev):

   -16.2750 -14.6013  -9.1931  -4.2483  -0.1231   6.9084   8.6518   9.5640

     occupation numbers 
     1.0000   1.0000   1.0000   1.0000   0.0000   0.0000   0.0000   0.0000

          k = 0.1067 0.5466 0.0000 (  5183 PWs)   bands (ev):

   -16.1580 -14.7316  -9.2029  -4.1864  -0.1983   6.9045   8.8442   9.7212

     occupation numbers 
     1.0000   1.0000   1.0000   1.0000   0.0000   0.0000   0.0000   0.0000

          k = 0.1067 0.5543 0.0000 (  5178 PWs)   bands (ev):

   -16.0495 -14.8505  -9.2105  -4.1365  -0.2585   6.9015   9.0384   9.8669

     occupation numbers 
     1.0000   1.0000   1.0000   1.0000   0.0000   0.0000   0.0000   0.0000

          k = 0.1067 0.5620 0.0000 (  5184 PWs)   bands (ev):

   -15.9564 -14.9509  -9.2160  -4.0999  -0.3026   6.8992   9.2338   9.9927

     occupation numbers 
     1.0000   1.0000   1.0000   1.0000   0.0000   0.0000   0.0000   0.0000

          k = 0.1067 0.5697 0.0000 (  5180 PWs)   bands (ev):

   -15.8903 -15.0215  -9.2192  -4.0775  -0.3295   6.8979   9.4286   9.8442

     occupation numbers 
     1.0000   1.0000   1.0000   1.0000   0.0000   0.0000   0.0000   0.0000

          k = 0.1067 0.5774 0.0000 (  5184 PWs)   bands (ev):

   -15.8657 -15.0475  -9.2203  -4.0699  -0.3385   6.8975   9.5813   9.6903

     occupation numbers 
     1.0000   1.0000   1.0000   1.0000   0.0000   0.0000   0.0000   0.0000

          k = 0.1133 0.1963 0.0000 (  5140 PWs)   bands (ev):

   -20.5004  -8.6227  -7.6563  -6.7590   2.6518   3.7094   4.1235   5.9842

     occupation numbers 
     1.0000   1.0000   1.0000   1.0000   0.0000   0.0000   0.0000   0.0000

          k = 0.1133 0.2040 0.0000 (  5144 PWs)   bands (ev):

   -20.4460  -8.5577  -7.7793  -6.8530   2.7267   3.7846   4.2003   6.0587

     occupation numbers 
     1.0000   1.0000   1.0000   1.0000   0.0000   0.0000   0.0000   0.0000

          k = 0.1133 0.2117 0.0000 (  5146 PWs)   bands (ev):

   -20.3895  -8.4902  -7.9060  -6.9468   2.8044   3.8627   4.2801   6.1357

     occupation numbers 
     1.0000   1.0000   1.0000   1.0000   0.0000   0.0000   0.0000   0.0000

          k = 0.1133 0.2194 0.0000 (  5148 PWs)   bands (ev):

   -20.3309  -8.4203  -8.0362  -7.0400   2.8850   3.9436   4.3628   6.2150

     occupation numbers 
     1.0000   1.0000   1.0000   1.0000   0.0000   0.0000   0.0000   0.0000

          k = 0.1133 0.2271 0.0000 (  5144 PWs)   bands (ev):

   -20.2703  -8.3481  -8.1700  -7.1322   2.9685   4.0273   4.4485   6.2898

     occupation numbers 
     1.0000   1.0000   1.0000   1.0000   0.0000   0.0000   0.0000   0.0000

          k = 0.1133 0.2348 0.0000 (  5146 PWs)   bands (ev):

   -20.2076  -8.3071  -8.2736  -7.2233   3.0548   4.1137   4.5371   6.1867

     occupation numbers 
     1.0000   1.0000   1.0000   1.0000   0.0000   0.0000   0.0000   0.0000

          k = 0.1133 0.2425 0.0000 (  5141 PWs)   bands (ev):

   -20.1430  -8.4476  -8.1968  -7.3131   3.1439   4.2029   4.6287   6.0336

     occupation numbers 
     1.0000   1.0000   1.0000   1.0000   0.0000   0.0000   0.0000   0.0000

          k = 0.1133 0.2502 0.0000 (  5139 PWs)   bands (ev):

   -20.0762  -8.5913  -8.1176  -7.4013   3.2359   4.2947   4.7232   5.8771

     occupation numbers 
     1.0000   1.0000   1.0000   1.0000   0.0000   0.0000   0.0000   0.0000

          k = 0.1133 0.2579 0.0000 (  5143 PWs)   bands (ev):

   -20.0075  -8.7379  -8.0362  -7.4879   3.3308   4.3890   4.8207   5.7183

     occupation numbers 
     1.0000   1.0000   1.0000   1.0000   0.0000   0.0000   0.0000   0.0000

          k = 0.1133 0.2656 0.0000 (  5142 PWs)   bands (ev):

   -19.9367  -8.8873  -7.9526  -7.5727   3.4285   4.4857   4.9211   5.5577

     occupation numbers 
     1.0000   1.0000   1.0000   1.0000   0.0000   0.0000   0.0000   0.0000

          k = 0.1133 0.2733 0.0000 (  5150 PWs)   bands (ev):

   -19.8640  -9.0392  -7.8667  -7.6558   3.5290   4.5840   5.0244   5.3961

     occupation numbers 
     1.0000   1.0000   1.0000   1.0000   0.0000   0.0000   0.0000   0.0000

          k = 0.1133 0.2810 0.0000 (  5150 PWs)   bands (ev):

   -19.7892  -9.1935  -7.7786  -7.7370   3.6323   4.6825   5.1307   5.2353

     occupation numbers 
     1.0000   1.0000   1.0000   1.0000   0.0000   0.0000   0.0000   0.0000

          k = 0.1133 0.2887 0.0000 (  5158 PWs)   bands (ev):

   -19.7124  -9.3500  -7.8163  -7.6884   3.7385   4.7739   5.0826   5.2399

     occupation numbers 
     1.0000   1.0000   1.0000   1.0000   0.0000   0.0000   0.0000   0.0000

          k = 0.1133 0.2964 0.0000 (  5154 PWs)   bands (ev):

   -19.6337  -9.5084  -7.8936  -7.5961   3.8475   4.8030   4.9934   5.3521

     occupation numbers 
     1.0000   1.0000   1.0000   1.0000   0.0000   0.0000   0.0000   0.0000

          k = 0.1133 0.3041 0.0000 (  5150 PWs)   bands (ev):

   -19.5529  -9.6685  -7.9691  -7.5017   3.9593   4.6846   5.0529   5.4672

     occupation numbers 
     1.0000   1.0000   1.0000   1.0000   0.0000   0.0000   0.0000   0.0000

          k = 0.1133 0.3118 0.0000 (  5152 PWs)   bands (ev):

   -19.4702  -9.8301  -8.0426  -7.4052   4.0739   4.5236   5.1565   5.5852

     occupation numbers 
     1.0000   1.0000   1.0000   1.0000   0.0000   0.0000   0.0000   0.0000

          k = 0.1133 0.3195 0.0000 (  5156 PWs)   bands (ev):

   -19.3855  -9.9930  -8.1141  -7.3067   4.1913   4.3545   5.2698   5.7061

     occupation numbers 
     1.0000   1.0000   1.0000   1.0000   0.0000   0.0000   0.0000   0.0000

          k = 0.1133 0.3272 0.0000 (  5152 PWs)   bands (ev):

   -19.2989 -10.1571  -8.1836  -7.2063   4.1822   4.3115   5.3879   5.8299

     occupation numbers 
     1.0000   1.0000   1.0000   1.0000   0.0000   0.0000   0.0000   0.0000

          k = 0.1133 0.3349 0.0000 (  5162 PWs)   bands (ev):

   -19.2103 -10.3221  -8.2512  -7.1039   4.0081   4.4345   5.5097   5.9567

     occupation numbers 
     1.0000   1.0000   1.0000   1.0000   0.0000   0.0000   0.0000   0.0000

          k = 0.1133 0.3426 0.0000 (  5168 PWs)   bands (ev):

   -19.1198 -10.4880  -8.3168  -6.9997   3.8329   4.5603   5.6347   6.0863

     occupation numbers 
     1.0000   1.0000   1.0000   1.0000   0.0000   0.0000   0.0000   0.0000

          k = 0.1133 0.3503 0.0000 (  5168 PWs)   bands (ev):

   -19.0274 -10.6545  -8.3804  -6.8937   3.6568   4.6888   5.7626   6.2187

     occupation numbers 
     1.0000   1.0000   1.0000   1.0000   0.0000   0.0000   0.0000   0.0000

          k = 0.1133 0.3580 0.0000 (  5166 PWs)   bands (ev):

   -18.9330 -10.8215  -8.4419  -6.7860   3.4801   4.8200   5.8934   6.3540

     occupation numbers 
     1.0000   1.0000   1.0000   1.0000   0.0000   0.0000   0.0000   0.0000

          k = 0.1133 0.3657 0.0000 (  5164 PWs)   bands (ev):

   -18.8368 -10.9888  -8.5015  -6.6767   3.3032   4.9540   6.0269   6.4920

     occupation numbers 
     1.0000   1.0000   1.0000   1.0000   0.0000   0.0000   0.0000   0.0000

          k = 0.1133 0.3734 0.0000 (  5166 PWs)   bands (ev):

   -18.7387 -11.1564  -8.5590  -6.5657   3.1261   5.0907   6.1632   6.6326

     occupation numbers 
     1.0000   1.0000   1.0000   1.0000   0.0000   0.0000   0.0000   0.0000

          k = 0.1133 0.3811 0.0000 (  5163 PWs)   bands (ev):

   -18.6387 -11.3240  -8.6145  -6.4534   2.9491   5.2301   6.3021   6.7754

     occupation numbers 
     1.0000   1.0000   1.0000   1.0000   0.0000   0.0000   0.0000   0.0000

          k = 0.1133 0.3887 0.0000 (  5165 PWs)   bands (ev):

   -18.5369 -11.4916  -8.6680  -6.3396   2.7724   5.3722   6.4435   6.9196

     occupation numbers 
     1.0000   1.0000   1.0000   1.0000   0.0000   0.0000   0.0000   0.0000

          k = 0.1133 0.3964 0.0000 (  5163 PWs)   bands (ev):

   -18.4332 -11.6591  -8.7194  -6.2246   2.5962   5.5168   6.5876   7.0625

     occupation numbers 
     1.0000   1.0000   1.0000   1.0000   0.0000   0.0000   0.0000   0.0000

          k = 0.1133 0.4041 0.0000 (  5163 PWs)   bands (ev):

   -18.3278 -11.8263  -8.7687  -6.1086   2.4208   5.6641   6.7341   7.1859

     occupation numbers 
     1.0000   1.0000   1.0000   1.0000   0.0000   0.0000   0.0000   0.0000

          k = 0.1133 0.4118 0.0000 (  5175 PWs)   bands (ev):

   -18.2205 -11.9931  -8.8160  -5.9915   2.2463   5.8139   6.8830   7.2306

     occupation numbers 
     1.0000   1.0000   1.0000   1.0000   0.0000   0.0000   0.0000   0.0000

          k = 0.1133 0.4195 0.0000 (  5167 PWs)   bands (ev):

   -18.1115 -12.1595  -8.8612  -5.8737   2.0731   5.9661   7.0344   7.2286

     occupation numbers 
     1.0000   1.0000   1.0000   1.0000   0.0000   0.0000   0.0000   0.0000

          k = 0.1133 0.4272 0.0000 (  5167 PWs)   bands (ev):

   -18.0008 -12.3252  -8.9043  -5.7552   1.9014   6.1206   7.1880   7.2185

     occupation numbers 
     1.0000   1.0000   1.0000   1.0000   0.0000   0.0000   0.0000   0.0000

          k = 0.1133 0.4349 0.0000 (  5173 PWs)   bands (ev):

   -17.8883 -12.4903  -8.9454  -5.6364   1.7315   6.2772   7.2070   7.3439

     occupation numbers 
     1.0000   1.0000   1.0000   1.0000   0.0000   0.0000   0.0000   0.0000

          k = 0.1133 0.4426 0.0000 (  5178 PWs)   bands (ev):

   -17.7743 -12.6546  -8.9843  -5.5175   1.5638   6.4354   7.1960   7.5019

     occupation numbers 
     1.0000   1.0000   1.0000   1.0000   0.0000   0.0000   0.0000   0.0000

          k = 0.1133 0.4503 0.0000 (  5166 PWs)   bands (ev):

   -17.6585 -12.8181  -9.0211  -5.3987   1.3985   6.5943   7.1870   7.6619

     occupation numbers 
     1.0000   1.0000   1.0000   1.0000   0.0000   0.0000   0.0000   0.0000

          k = 0.1133 0.4580 0.0000 (  5168 PWs)   bands (ev):

   -17.5413 -12.9805  -9.0557  -5.2805   1.2361   6.7516   7.1825   7.8239

     occupation numbers 
     1.0000   1.0000   1.0000   1.0000   0.0000   0.0000   0.0000   0.0000

          k = 0.1133 0.4657 0.0000 (  5172 PWs)   bands (ev):

   -17.4225 -13.1419  -9.0883  -5.1631   1.0771   6.8998   7.1902   7.9876

     occupation numbers 
     1.0000   1.0000   1.0000   1.0000   0.0000   0.0000   0.0000   0.0000

          k = 0.1133 0.4734 0.0000 (  5172 PWs)   bands (ev):

   -17.3023 -13.3020  -9.1187  -5.0471   0.9220   7.0135   7.2355   8.1529

     occupation numbers 
     1.0000   1.0000   1.0000   1.0000   0.0000   0.0000   0.0000   0.0000

          k = 0.1133 0.4811 0.0000 (  5170 PWs)   bands (ev):

   -17.1808 -13.4607  -9.1470  -4.9330   0.7713   7.0617   7.3495   8.3195

     occupation numbers 
     1.0000   1.0000   1.0000   1.0000   0.0000   0.0000   0.0000   0.0000

          k = 0.1133 0.4888 0.0000 (  5172 PWs)   bands (ev):

   -17.0581 -13.6180  -9.1731  -4.8214   0.6257   7.0721   7.5044   8.4872

     occupation numbers 
     1.0000   1.0000   1.0000   1.0000   0.0000   0.0000   0.0000   0.0000

          k = 0.1133 0.4965 0.0000 (  5172 PWs)   bands (ev):

   -16.9344 -13.7735  -9.1971  -4.7129   0.4859   7.0712   7.6738   8.6557

     occupation numbers 
     1.0000   1.0000   1.0000   1.0000   0.0000   0.0000   0.0000   0.0000

          k = 0.1133 0.5042 0.0000 (  5170 PWs)   bands (ev):

   -16.8098 -13.9270  -9.2189  -4.6086   0.3530   7.0667   7.8499   8.8245

     occupation numbers 
     1.0000   1.0000   1.0000   1.0000   0.0000   0.0000   0.0000   0.0000

          k = 0.1133 0.5119 0.0000 (  5173 PWs)   bands (ev):

   -16.6848 -14.0782  -9.2385  -4.5091   0.2277   7.0611   8.0304   8.9929

     occupation numbers 
     1.0000   1.0000   1.0000   1.0000   0.0000   0.0000   0.0000   0.0000

          k = 0.1133 0.5196 0.0000 (  5177 PWs)   bands (ev):

   -16.5597 -14.2266  -9.2560  -4.4158   0.1113   7.0554   8.2140   9.1603

     occupation numbers 
     1.0000   1.0000   1.0000   1.0000   0.0000   0.0000   0.0000   0.0000

          k = 0.1133 0.5273 0.0000 (  5175 PWs)   bands (ev):

   -16.4352 -14.3715  -9.2712  -4.3297   0.0049   7.0500   8.4004   9.3256

     occupation numbers 
     1.0000   1.0000   1.0000   1.0000   0.0000   0.0000   0.0000   0.0000

          k = 0.1133 0.5350 0.0000 (  5183 PWs)   bands (ev):

   -16.3124 -14.5119  -9.2844  -4.2521  -0.0901   7.0451   8.5893   9.4871

     occupation numbers 
     1.0000   1.0000   1.0000   1.0000   0.0000   0.0000   0.0000   0.0000

          k = 0.1133 0.5427 0.0000 (  5182 PWs)   bands (ev):

   -16.1929 -14.6460  -9.2953  -4.1845  -0.1722   7.0409   8.7803   9.6424

     occupation numbers 
     1.0000   1.0000   1.0000   1.0000   0.0000   0.0000   0.0000   0.0000

          k = 0.1133 0.5504 0.0000 (  5182 PWs)   bands (ev):

   -16.0797 -14.7709  -9.3040  -4.1282  -0.2402   7.0374   8.9732   9.7876

     occupation numbers 
     1.0000   1.0000   1.0000   1.0000   0.0000   0.0000   0.0000   0.0000

          k = 0.1133 0.5581 0.0000 (  5182 PWs)   bands (ev):

   -15.9781 -14.8814  -9.3106  -4.0846  -0.2925   7.0348   9.1677   9.9161

     occupation numbers 
     1.0000   1.0000   1.0000   1.0000   0.0000   0.0000   0.0000   0.0000

          k = 0.1133 0.5658 0.0000 (  5182 PWs)   bands (ev):

   -15.8969 -14.9684  -9.3150  -4.0549  -0.3281   7.0331   9.3627   9.9738

     occupation numbers 
     1.0000   1.0000   1.0000   1.0000   0.0000   0.0000   0.0000   0.0000

          k = 0.1133 0.5735 0.0000 (  5182 PWs)   bands (ev):

   -15.8500 -15.0183  -9.3172  -4.0397  -0.3462   7.0322   9.5520   9.7808

     occupation numbers 
     1.0000   1.0000   1.0000   1.0000   0.0000   0.0000   0.0000   0.0000

          k = 0.1200 0.2078 0.0000 (  5144 PWs)   bands (ev):

   -20.3905  -8.4914  -7.8997  -6.9498   2.8030   3.8613   4.2786   6.1345

     occupation numbers 
     1.0000   1.0000   1.0000   1.0000   0.0000   0.0000   0.0000   0.0000

          k = 0.1200 0.2155 0.0000 (  5150 PWs)   bands (ev):

   -20.3330  -8.4228  -8.0236  -7.0464   2.8822   3.9408   4.3599   6.2136

     occupation numbers 
     1.0000   1.0000   1.0000   1.0000   0.0000   0.0000   0.0000   0.0000

          k = 0.1200 0.2232 0.0000 (  5150 PWs)   bands (ev):

   -20.2734  -8.3518  -8.1509  -7.1423   2.9642   4.0230   4.4441   6.2931

     occupation numbers 
     1.0000   1.0000   1.0000   1.0000   0.0000   0.0000   0.0000   0.0000

          k = 0.1200 0.2309 0.0000 (  5148 PWs)   bands (ev):

   -20.2118  -8.2818  -8.2785  -7.2372   3.0491   4.1081   4.5312   6.2020

     occupation numbers 
     1.0000   1.0000   1.0000   1.0000   0.0000   0.0000   0.0000   0.0000

          k = 0.1200 0.2386 0.0000 (  5152 PWs)   bands (ev):

   -20.1482  -8.4162  -8.2029  -7.3308   3.1368   4.1959   4.6213   6.0505

     occupation numbers 
     1.0000   1.0000   1.0000   1.0000   0.0000   0.0000   0.0000   0.0000

          k = 0.1200 0.2463 0.0000 (  5145 PWs)   bands (ev):

   -20.0825  -8.5538  -8.1250  -7.4229   3.2274   4.2865   4.7144   5.8964

     occupation numbers 
     1.0000   1.0000   1.0000   1.0000   0.0000   0.0000   0.0000   0.0000

          k = 0.1200 0.2540 0.0000 (  5141 PWs)   bands (ev):

   -20.0148  -8.6948  -8.0448  -7.5134   3.3208   4.3796   4.8104   5.7401

     occupation numbers 
     1.0000   1.0000   1.0000   1.0000   0.0000   0.0000   0.0000   0.0000

          k = 0.1200 0.2617 0.0000 (  5138 PWs)   bands (ev):

   -19.9451  -8.8388  -7.9623  -7.6020   3.4171   4.4752   4.9093   5.5820

     occupation numbers 
     1.0000   1.0000   1.0000   1.0000   0.0000   0.0000   0.0000   0.0000

          k = 0.1200 0.2694 0.0000 (  5146 PWs)   bands (ev):

   -19.8733  -8.9857  -7.8776  -7.6886   3.5162   4.5729   5.0112   5.4224

     occupation numbers 
     1.0000   1.0000   1.0000   1.0000   0.0000   0.0000   0.0000   0.0000

          k = 0.1200 0.2771 0.0000 (  5144 PWs)   bands (ev):

   -19.7996  -9.1353  -7.7907  -7.7732   3.6181   4.6717   5.1160   5.2625

     occupation numbers 
     1.0000   1.0000   1.0000   1.0000   0.0000   0.0000   0.0000   0.0000

          k = 0.1200 0.2848 0.0000 (  5150 PWs)   bands (ev):

   -19.7239  -9.2873  -7.8558  -7.7016   3.7229   4.7675   5.1067   5.2238

     occupation numbers 
     1.0000   1.0000   1.0000   1.0000   0.0000   0.0000   0.0000   0.0000

          k = 0.1200 0.2925 0.0000 (  5149 PWs)   bands (ev):

   -19.6461  -9.4417  -7.9363  -7.6104   3.8305   4.8252   4.9900   5.3345

     occupation numbers 
     1.0000   1.0000   1.0000   1.0000   0.0000   0.0000   0.0000   0.0000

          k = 0.1200 0.3002 0.0000 (  5152 PWs)   bands (ev):

   -19.5664  -9.5981  -8.0147  -7.5171   3.9409   4.7265   5.0308   5.4481

     occupation numbers 
     1.0000   1.0000   1.0000   1.0000   0.0000   0.0000   0.0000   0.0000

          k = 0.1200 0.3079 0.0000 (  5154 PWs)   bands (ev):

   -19.4847  -9.7563  -8.0909  -7.4217   4.0541   4.5682   5.1327   5.5647

     occupation numbers 
     1.0000   1.0000   1.0000   1.0000   0.0000   0.0000   0.0000   0.0000

          k = 0.1200 0.3156 0.0000 (  5156 PWs)   bands (ev):

   -19.4010  -9.9162  -8.1650  -7.3243   4.1701   4.4011   5.2448   5.6842

     occupation numbers 
     1.0000   1.0000   1.0000   1.0000   0.0000   0.0000   0.0000   0.0000

          k = 0.1200 0.3233 0.0000 (  5158 PWs)   bands (ev):

   -19.3154 -10.0775  -8.2371  -7.2249   4.2309   4.2889   5.3618   5.8066

     occupation numbers 
     1.0000   1.0000   1.0000   1.0000   0.0000   0.0000   0.0000   0.0000

          k = 0.1200 0.3310 0.0000 (  5156 PWs)   bands (ev):

   -19.2279 -10.2400  -8.3069  -7.1236   4.0588   4.4105   5.4823   5.9319

     occupation numbers 
     1.0000   1.0000   1.0000   1.0000   0.0000   0.0000   0.0000   0.0000

          k = 0.1200 0.3387 0.0000 (  5162 PWs)   bands (ev):

   -19.1384 -10.4035  -8.3747  -7.0204   3.8855   4.5348   5.6059   6.0601

     occupation numbers 
     1.0000   1.0000   1.0000   1.0000   0.0000   0.0000   0.0000   0.0000

          k = 0.1200 0.3464 0.0000 (  5166 PWs)   bands (ev):

   -19.0469 -10.5680  -8.4404  -6.9153   3.7112   4.6620   5.7324   6.1912

     occupation numbers 
     1.0000   1.0000   1.0000   1.0000   0.0000   0.0000   0.0000   0.0000

          k = 0.1200 0.3541 0.0000 (  5168 PWs)   bands (ev):

   -18.9536 -10.7331  -8.5040  -6.8085   3.5364   4.7919   5.8617   6.3252

     occupation numbers 
     1.0000   1.0000   1.0000   1.0000   0.0000   0.0000   0.0000   0.0000

          k = 0.1200 0.3618 0.0000 (  5170 PWs)   bands (ev):

   -18.8584 -10.8988  -8.5654  -6.7001   3.3611   4.9245   5.9938   6.4619

     occupation numbers 
     1.0000   1.0000   1.0000   1.0000   0.0000   0.0000   0.0000   0.0000

          k = 0.1200 0.3695 0.0000 (  5170 PWs)   bands (ev):

   -18.7613 -11.0648  -8.6248  -6.5900   3.1855   5.0598   6.1285   6.6014

     occupation numbers 
     1.0000   1.0000   1.0000   1.0000   0.0000   0.0000   0.0000   0.0000

          k = 0.1200 0.3772 0.0000 (  5166 PWs)   bands (ev):

   -18.6623 -11.2312  -8.6820  -6.4784   3.0099   5.1979   6.2659   6.7435

     occupation numbers 
     1.0000   1.0000   1.0000   1.0000   0.0000   0.0000   0.0000   0.0000

          k = 0.1200 0.3849 0.0000 (  5169 PWs)   bands (ev):

   -18.5614 -11.3976  -8.7371  -6.3654   2.8345   5.3386   6.4058   6.8879

     occupation numbers 
     1.0000   1.0000   1.0000   1.0000   0.0000   0.0000   0.0000   0.0000

          k = 0.1200 0.3926 0.0000 (  5167 PWs)   bands (ev):

   -18.4587 -11.5641  -8.7902  -6.2511   2.6595   5.4820   6.5483   7.0339

     occupation numbers 
     1.0000   1.0000   1.0000   1.0000   0.0000   0.0000   0.0000   0.0000

          k = 0.1200 0.4003 0.0000 (  5165 PWs)   bands (ev):

   -18.3543 -11.7304  -8.8411  -6.1356   2.4850   5.6281   6.6932   7.1788

     occupation numbers 
     1.0000   1.0000   1.0000   1.0000   0.0000   0.0000   0.0000   0.0000

          k = 0.1200 0.4080 0.0000 (  5167 PWs)   bands (ev):

   -18.2480 -11.8965  -8.8899  -6.0190   2.3113   5.7767   6.8405   7.3084

     occupation numbers 
     1.0000   1.0000   1.0000   1.0000   0.0000   0.0000   0.0000   0.0000

          k = 0.1200 0.4157 0.0000 (  5167 PWs)   bands (ev):

   -18.1399 -12.0622  -8.9366  -5.9016   2.1387   5.9278   6.9902   7.3595

     occupation numbers 
     1.0000   1.0000   1.0000   1.0000   0.0000   0.0000   0.0000   0.0000

          k = 0.1200 0.4234 0.0000 (  5167 PWs)   bands (ev):

   -18.0301 -12.2274  -8.9811  -5.7834   1.9674   6.0814   7.1422   7.3591

     occupation numbers 
     1.0000   1.0000   1.0000   1.0000   0.0000   0.0000   0.0000   0.0000

          k = 0.1200 0.4311 0.0000 (  5169 PWs)   bands (ev):

   -17.9186 -12.3921  -9.0235  -5.6648   1.7977   6.2372   7.2964   7.3494

     occupation numbers 
     1.0000   1.0000   1.0000   1.0000   0.0000   0.0000   0.0000   0.0000

          k = 0.1200 0.4388 0.0000 (  5169 PWs)   bands (ev):

   -17.8054 -12.5561  -9.0638  -5.5459   1.6299   6.3952   7.3382   7.4527

     occupation numbers 
     1.0000   1.0000   1.0000   1.0000   0.0000   0.0000   0.0000   0.0000

          k = 0.1200 0.4465 0.0000 (  5169 PWs)   bands (ev):

   -17.6906 -12.7194  -9.1019  -5.4270   1.4643   6.5548   7.3274   7.6109

     occupation numbers 
     1.0000   1.0000   1.0000   1.0000   0.0000   0.0000   0.0000   0.0000

          k = 0.1200 0.4542 0.0000 (  5167 PWs)   bands (ev):

   -17.5742 -12.8817  -9.1379  -5.3084   1.3014   6.7153   7.3185   7.7711

     occupation numbers 
     1.0000   1.0000   1.0000   1.0000   0.0000   0.0000   0.0000   0.0000

          k = 0.1200 0.4619 0.0000 (  5169 PWs)   bands (ev):

   -17.4563 -13.0430  -9.1718  -5.1905   1.1415   6.8745   7.3137   7.9329

     occupation numbers 
     1.0000   1.0000   1.0000   1.0000   0.0000   0.0000   0.0000   0.0000

          k = 0.1200 0.4696 0.0000 (  5171 PWs)   bands (ev):

   -17.3369 -13.2032  -9.2035  -5.0737   0.9851   7.0256   7.3200   8.0963

     occupation numbers 
     1.0000   1.0000   1.0000   1.0000   0.0000   0.0000   0.0000   0.0000

          k = 0.1200 0.4773 0.0000 (  5165 PWs)   bands (ev):

   -17.2162 -13.3622  -9.2330  -4.9584   0.8327   7.1443   7.3618   8.2609

     occupation numbers 
     1.0000   1.0000   1.0000   1.0000   0.0000   0.0000   0.0000   0.0000

          k = 0.1200 0.4850 0.0000 (  5169 PWs)   bands (ev):

   -17.0942 -13.5197  -9.2604  -4.8453   0.6851   7.1962   7.4736   8.4265

     occupation numbers 
     1.0000   1.0000   1.0000   1.0000   0.0000   0.0000   0.0000   0.0000

          k = 0.1200 0.4927 0.0000 (  5168 PWs)   bands (ev):

   -16.9711 -13.6756  -9.2856  -4.7350   0.5428   7.2076   7.6290   8.5928

     occupation numbers 
     1.0000   1.0000   1.0000   1.0000   0.0000   0.0000   0.0000   0.0000

          k = 0.1200 0.5004 0.0000 (  5167 PWs)   bands (ev):

   -16.8470 -13.8297  -9.3086  -4.6283   0.4068   7.2071   7.7994   8.7593

     occupation numbers 
     1.0000   1.0000   1.0000   1.0000   0.0000   0.0000   0.0000   0.0000

          k = 0.1200 0.5081 0.0000 (  5169 PWs)   bands (ev):

   -16.7224 -13.9817  -9.3294  -4.5261   0.2779   7.2030   7.9766   8.9253

     occupation numbers 
     1.0000   1.0000   1.0000   1.0000   0.0000   0.0000   0.0000   0.0000

          k = 0.1200 0.5158 0.0000 (  5171 PWs)   bands (ev):

   -16.5974 -14.1312  -9.3481  -4.4293   0.1571   7.1978   8.1579   9.0902

     occupation numbers 
     1.0000   1.0000   1.0000   1.0000   0.0000   0.0000   0.0000   0.0000

          k = 0.1200 0.5235 0.0000 (  5179 PWs)   bands (ev):

   -16.4726 -14.2776  -9.3645  -4.3391   0.0457   7.1925   8.3425   9.2529

     occupation numbers 
     1.0000   1.0000   1.0000   1.0000   0.0000   0.0000   0.0000   0.0000

          k = 0.1200 0.5312 0.0000 (  5186 PWs)   bands (ev):

   -16.3490 -14.4201  -9.3788  -4.2569  -0.0550   7.1875   8.5297   9.4118

     occupation numbers 
     1.0000   1.0000   1.0000   1.0000   0.0000   0.0000   0.0000   0.0000

          k = 0.1200 0.5389 0.0000 (  5182 PWs)   bands (ev):

   -16.2278 -14.5573  -9.3909  -4.1838  -0.1438   7.1830   8.7192   9.5648

     occupation numbers 
     1.0000   1.0000   1.0000   1.0000   0.0000   0.0000   0.0000   0.0000

          k = 0.1200 0.5466 0.0000 (  5184 PWs)   bands (ev):

   -16.1112 -14.6869  -9.4008  -4.1214  -0.2190   7.1793   8.9108   9.7085

     occupation numbers 
     1.0000   1.0000   1.0000   1.0000   0.0000   0.0000   0.0000   0.0000

          k = 0.1200 0.5543 0.0000 (  5184 PWs)   bands (ev):

   -16.0032 -14.8052  -9.4085  -4.0711  -0.2793   7.1763   9.1040   9.8378

     occupation numbers 
     1.0000   1.0000   1.0000   1.0000   0.0000   0.0000   0.0000   0.0000

          k = 0.1200 0.5620 0.0000 (  5184 PWs)   bands (ev):

   -15.9106 -14.9050  -9.4140  -4.0341  -0.3235   7.1741   9.2984   9.9446

     occupation numbers 
     1.0000   1.0000   1.0000   1.0000   0.0000   0.0000   0.0000   0.0000

          k = 0.1200 0.5697 0.0000 (  5180 PWs)   bands (ev):

   -15.8449 -14.9751  -9.4173  -4.0114  -0.3504   7.1728   9.4918   9.9076

     occupation numbers 
     1.0000   1.0000   1.0000   1.0000   0.0000   0.0000   0.0000   0.0000

          k = 0.1200 0.5774 0.0000 (  5180 PWs)   bands (ev):

   -15.8205 -15.0010  -9.4184  -4.0038  -0.3595   7.1723   9.6415   9.7553

     occupation numbers 
     1.0000   1.0000   1.0000   1.0000   0.0000   0.0000   0.0000   0.0000

          k = 0.1267 0.2194 0.0000 (  5148 PWs)   bands (ev):

   -20.2745  -8.3531  -8.1445  -7.1457   2.9628   4.0216   4.4426   6.2931

     occupation numbers 
     1.0000   1.0000   1.0000   1.0000   0.0000   0.0000   0.0000   0.0000

          k = 0.1267 0.2271 0.0000 (  5150 PWs)   bands (ev):

   -20.2139  -8.2810  -8.2688  -7.2445   3.0462   4.1053   4.5283   6.2096

     occupation numbers 
     1.0000   1.0000   1.0000   1.0000   0.0000   0.0000   0.0000   0.0000

          k = 0.1267 0.2348 0.0000 (  5150 PWs)   bands (ev):

   -20.1513  -8.3966  -8.2066  -7.3422   3.1325   4.1918   4.6169   6.0607

     occupation numbers 
     1.0000   1.0000   1.0000   1.0000   0.0000   0.0000   0.0000   0.0000

          k = 0.1267 0.2425 0.0000 (  5146 PWs)   bands (ev):

   -20.0867  -8.5278  -8.1299  -7.4385   3.2217   4.2810   4.7085   5.9095

     occupation numbers 
     1.0000   1.0000   1.0000   1.0000   0.0000   0.0000   0.0000   0.0000

          k = 0.1267 0.2502 0.0000 (  5141 PWs)   bands (ev):

   -20.0200  -8.6624  -8.0509  -7.5332   3.3137   4.3729   4.8030   5.7560

     occupation numbers 
     1.0000   1.0000   1.0000   1.0000   0.0000   0.0000   0.0000   0.0000

          k = 0.1267 0.2579 0.0000 (  5135 PWs)   bands (ev):

   -19.9513  -8.8003  -7.9696  -7.6261   3.4085   4.4674   4.9005   5.6004

     occupation numbers 
     1.0000   1.0000   1.0000   1.0000   0.0000   0.0000   0.0000   0.0000

          k = 0.1267 0.2656 0.0000 (  5140 PWs)   bands (ev):

   -19.8806  -8.9414  -7.8861  -7.7169   3.5062   4.5642   5.0009   5.4431

     occupation numbers 
     1.0000   1.0000   1.0000   1.0000   0.0000   0.0000   0.0000   0.0000

          k = 0.1267 0.2733 0.0000 (  5144 PWs)   bands (ev):

   -19.8079  -9.0855  -7.8055  -7.8004   3.6068   4.6628   5.1043   5.2849

     occupation numbers 
     1.0000   1.0000   1.0000   1.0000   0.0000   0.0000   0.0000   0.0000

          k = 0.1267 0.2810 0.0000 (  5146 PWs)   bands (ev):

   -19.7332  -9.2324  -7.8920  -7.7124   3.7101   4.7607   5.1282   5.2106

     occupation numbers 
     1.0000   1.0000   1.0000   1.0000   0.0000   0.0000   0.0000   0.0000

          k = 0.1267 0.2887 0.0000 (  5153 PWs)   bands (ev):

   -19.6565  -9.3820  -7.9761  -7.6224   3.8163   4.8383   4.9929   5.3198

     occupation numbers 
     1.0000   1.0000   1.0000   1.0000   0.0000   0.0000   0.0000   0.0000

          k = 0.1267 0.2964 0.0000 (  5157 PWs)   bands (ev):

   -19.5778  -9.5340  -8.0580  -7.5302   3.9253   4.7637   5.0108   5.4320

     occupation numbers 
     1.0000   1.0000   1.0000   1.0000   0.0000   0.0000   0.0000   0.0000

          k = 0.1267 0.3041 0.0000 (  5158 PWs)   bands (ev):

   -19.4971  -9.6882  -8.1375  -7.4359   4.0371   4.6078   5.1114   5.5471

     occupation numbers 
     1.0000   1.0000   1.0000   1.0000   0.0000   0.0000   0.0000   0.0000

          k = 0.1267 0.3118 0.0000 (  5160 PWs)   bands (ev):

   -19.4145  -9.8443  -8.2147  -7.3396   4.1517   4.4427   5.2227   5.6652

     occupation numbers 
     1.0000   1.0000   1.0000   1.0000   0.0000   0.0000   0.0000   0.0000

          k = 0.1267 0.3195 0.0000 (  5164 PWs)   bands (ev):

   -19.3299 -10.0022  -8.2896  -7.2412   4.2691   4.2745   5.3385   5.7861

     occupation numbers 
     1.0000   1.0000   1.0000   1.0000   0.0000   0.0000   0.0000   0.0000

          k = 0.1267 0.3272 0.0000 (  5158 PWs)   bands (ev):

   -19.2434 -10.1617  -8.3623  -7.1409   4.1045   4.3893   5.4577   5.9100

     occupation numbers 
     1.0000   1.0000   1.0000   1.0000   0.0000   0.0000   0.0000   0.0000

          k = 0.1267 0.3349 0.0000 (  5156 PWs)   bands (ev):

   -19.1549 -10.3224  -8.4326  -7.0387   3.9333   4.5122   5.5800   6.0368

     occupation numbers 
     1.0000   1.0000   1.0000   1.0000   0.0000   0.0000   0.0000   0.0000

          k = 0.1267 0.3426 0.0000 (  5172 PWs)   bands (ev):

   -19.0645 -10.4844  -8.5007  -6.9347   3.7611   4.6380   5.7051   6.1665

     occupation numbers 
     1.0000   1.0000   1.0000   1.0000   0.0000   0.0000   0.0000   0.0000

          k = 0.1267 0.3503 0.0000 (  5166 PWs)   bands (ev):

   -18.9721 -10.6472  -8.5665  -6.8288   3.5882   4.7665   5.8330   6.2991

     occupation numbers 
     1.0000   1.0000   1.0000   1.0000   0.0000   0.0000   0.0000   0.0000

          k = 0.1267 0.3580 0.0000 (  5172 PWs)   bands (ev):

   -18.8779 -10.8109  -8.6302  -6.7213   3.4147   4.8977   5.9635   6.4345

     occupation numbers 
     1.0000   1.0000   1.0000   1.0000   0.0000   0.0000   0.0000   0.0000

          k = 0.1267 0.3657 0.0000 (  5170 PWs)   bands (ev):

   -18.7818 -10.9752  -8.6916  -6.6121   3.2409   5.0317   6.0968   6.5728

     occupation numbers 
     1.0000   1.0000   1.0000   1.0000   0.0000   0.0000   0.0000   0.0000

          k = 0.1267 0.3734 0.0000 (  5170 PWs)   bands (ev):

   -18.6838 -11.1399  -8.7508  -6.5013   3.0669   5.1684   6.2326   6.7138

     occupation numbers 
     1.0000   1.0000   1.0000   1.0000   0.0000   0.0000   0.0000   0.0000

          k = 0.1267 0.3811 0.0000 (  5167 PWs)   bands (ev):

   -18.5839 -11.3049  -8.8078  -6.3890   2.8929   5.3078   6.3710   6.8574

     occupation numbers 
     1.0000   1.0000   1.0000   1.0000   0.0000   0.0000   0.0000   0.0000

          k = 0.1267 0.3887 0.0000 (  5163 PWs)   bands (ev):

   -18.4822 -11.4701  -8.8626  -6.2754   2.7192   5.4499   6.5118   7.0035

     occupation numbers 
     1.0000   1.0000   1.0000   1.0000   0.0000   0.0000   0.0000   0.0000

          k = 0.1267 0.3964 0.0000 (  5159 PWs)   bands (ev):

   -18.3787 -11.6353  -8.9152  -6.1605   2.5459   5.5947   6.6552   7.1513

     occupation numbers 
     1.0000   1.0000   1.0000   1.0000   0.0000   0.0000   0.0000   0.0000

          k = 0.1267 0.4041 0.0000 (  5163 PWs)   bands (ev):

   -18.2734 -11.8004  -8.9656  -6.0445   2.3732   5.7420   6.8009   7.2985

     occupation numbers 
     1.0000   1.0000   1.0000   1.0000   0.0000   0.0000   0.0000   0.0000

          k = 0.1267 0.4118 0.0000 (  5165 PWs)   bands (ev):

   -18.1663 -11.9653  -9.0139  -5.9276   2.2014   5.8920   6.9489   7.4322

     occupation numbers 
     1.0000   1.0000   1.0000   1.0000   0.0000   0.0000   0.0000   0.0000

          k = 0.1267 0.4195 0.0000 (  5167 PWs)   bands (ev):

   -18.0575 -12.1299  -9.0600  -5.8098   2.0308   6.0444   7.0992   7.4933

     occupation numbers 
     1.0000   1.0000   1.0000   1.0000   0.0000   0.0000   0.0000   0.0000

          k = 0.1267 0.4272 0.0000 (  5167 PWs)   bands (ev):

   -17.9469 -12.2940  -9.1039  -5.6914   1.8615   6.1993   7.2517   7.4996

     occupation numbers 
     1.0000   1.0000   1.0000   1.0000   0.0000   0.0000   0.0000   0.0000

          k = 0.1267 0.4349 0.0000 (  5169 PWs)   bands (ev):

   -17.8347 -12.4575  -9.1457  -5.5726   1.6938   6.3565   7.4062   7.4858

     occupation numbers 
     1.0000   1.0000   1.0000   1.0000   0.0000   0.0000   0.0000   0.0000

          k = 0.1267 0.4426 0.0000 (  5169 PWs)   bands (ev):

   -17.7208 -12.6204  -9.1852  -5.4536   1.5282   6.5158   7.4749   7.5627

     occupation numbers 
     1.0000   1.0000   1.0000   1.0000   0.0000   0.0000   0.0000   0.0000

          k = 0.1267 0.4503 0.0000 (  5167 PWs)   bands (ev):

   -17.6052 -12.7825  -9.2226  -5.3348   1.3649   6.6769   7.4644   7.7210

     occupation numbers 
     1.0000   1.0000   1.0000   1.0000   0.0000   0.0000   0.0000   0.0000

          k = 0.1267 0.4580 0.0000 (  5163 PWs)   bands (ev):

   -17.4882 -12.9437  -9.2578  -5.2165   1.2043   6.8389   7.4554   7.8809

     occupation numbers 
     1.0000   1.0000   1.0000   1.0000   0.0000   0.0000   0.0000   0.0000

          k = 0.1267 0.4657 0.0000 (  5171 PWs)   bands (ev):

   -17.3696 -13.1038  -9.2908  -5.0990   1.0470   7.0000   7.4503   8.0423

     occupation numbers 
     1.0000   1.0000   1.0000   1.0000   0.0000   0.0000   0.0000   0.0000

          k = 0.1267 0.4734 0.0000 (  5170 PWs)   bands (ev):

   -17.2497 -13.2628  -9.3217  -4.9828   0.8933   7.1542   7.4551   8.2049

     occupation numbers 
     1.0000   1.0000   1.0000   1.0000   0.0000   0.0000   0.0000   0.0000

          k = 0.1267 0.4811 0.0000 (  5174 PWs)   bands (ev):

   -17.1284 -13.4205  -9.3503  -4.8684   0.7439   7.2787   7.4926   8.3683

     occupation numbers 
     1.0000   1.0000   1.0000   1.0000   0.0000   0.0000   0.0000   0.0000

          k = 0.1267 0.4888 0.0000 (  5168 PWs)   bands (ev):

   -17.0060 -13.5768  -9.3768  -4.7565   0.5995   7.3356   7.6009   8.5324

     occupation numbers 
     1.0000   1.0000   1.0000   1.0000   0.0000   0.0000   0.0000   0.0000

          k = 0.1267 0.4965 0.0000 (  5166 PWs)   bands (ev):

   -16.8825 -13.7314  -9.4010  -4.6477   0.4607   7.3485   7.7562   8.6964

     occupation numbers 
     1.0000   1.0000   1.0000   1.0000   0.0000   0.0000   0.0000   0.0000

          k = 0.1267 0.5042 0.0000 (  5166 PWs)   bands (ev):

   -16.7583 -13.8840  -9.4231  -4.5429   0.3285   7.3486   7.9275   8.8600

     occupation numbers 
     1.0000   1.0000   1.0000   1.0000   0.0000   0.0000   0.0000   0.0000

          k = 0.1267 0.5119 0.0000 (  5164 PWs)   bands (ev):

   -16.6335 -14.0344  -9.4430  -4.4430   0.2038   7.3449   8.1056   9.0222

     occupation numbers 
     1.0000   1.0000   1.0000   1.0000   0.0000   0.0000   0.0000   0.0000

          k = 0.1267 0.5196 0.0000 (  5169 PWs)   bands (ev):

   -16.5088 -14.1820  -9.4606  -4.3491   0.0878   7.3401   8.2878   9.1821

     occupation numbers 
     1.0000   1.0000   1.0000   1.0000   0.0000   0.0000   0.0000   0.0000

          k = 0.1267 0.5273 0.0000 (  5177 PWs)   bands (ev):

   -16.3847 -14.3262  -9.4761  -4.2624  -0.0183   7.3352   8.4732   9.3382

     occupation numbers 
     1.0000   1.0000   1.0000   1.0000   0.0000   0.0000   0.0000   0.0000

          k = 0.1267 0.5350 0.0000 (  5179 PWs)   bands (ev):

   -16.2622 -14.4658  -9.4894  -4.1842  -0.1132   7.3306   8.6611   9.4885

     occupation numbers 
     1.0000   1.0000   1.0000   1.0000   0.0000   0.0000   0.0000   0.0000

          k = 0.1267 0.5427 0.0000 (  5181 PWs)   bands (ev):

   -16.1432 -14.5993  -9.5004  -4.1160  -0.1953   7.3266   8.8512   9.6300

     occupation numbers 
     1.0000   1.0000   1.0000   1.0000   0.0000   0.0000   0.0000   0.0000

          k = 0.1267 0.5504 0.0000 (  5185 PWs)   bands (ev):

   -16.0305 -14.7235  -9.5093  -4.0592  -0.2633   7.3232   9.0431   9.7586

     occupation numbers 
     1.0000   1.0000   1.0000   1.0000   0.0000   0.0000   0.0000   0.0000

          k = 0.1267 0.5581 0.0000 (  5187 PWs)   bands (ev):

   -15.9293 -14.8333  -9.5159  -4.0152  -0.3157   7.3207   9.2365   9.8681

     occupation numbers 
     1.0000   1.0000   1.0000   1.0000   0.0000   0.0000   0.0000   0.0000

          k = 0.1267 0.5658 0.0000 (  5186 PWs)   bands (ev):

   -15.8487 -14.9198  -9.5203  -3.9851  -0.3515   7.3189   9.4302   9.9519

     occupation numbers 
     1.0000   1.0000   1.0000   1.0000   0.0000   0.0000   0.0000   0.0000

          k = 0.1267 0.5735 0.0000 (  5176 PWs)   bands (ev):

   -15.8021 -14.9692  -9.5225  -3.9698  -0.3696   7.3181   9.6174   9.8476

     occupation numbers 
     1.0000   1.0000   1.0000   1.0000   0.0000   0.0000   0.0000   0.0000

          k = 0.1333 0.2309 0.0000 (  5142 PWs)   bands (ev):

   -20.1524  -8.3899  -8.2078  -7.3461   3.1311   4.1904   4.6155   6.0642

     occupation numbers 
     1.0000   1.0000   1.0000   1.0000   0.0000   0.0000   0.0000   0.0000

          k = 0.1333 0.2386 0.0000 (  5146 PWs)   bands (ev):

   -20.0888  -8.5144  -8.1323  -7.4467   3.2188   4.2782   4.7056   5.9161

     occupation numbers 
     1.0000   1.0000   1.0000   1.0000   0.0000   0.0000   0.0000   0.0000

          k = 0.1333 0.2463 0.0000 (  5142 PWs)   bands (ev):

   -20.0231  -8.6422  -8.0545  -7.5459   3.3094   4.3688   4.7986   5.7655

     occupation numbers 
     1.0000   1.0000   1.0000   1.0000   0.0000   0.0000   0.0000   0.0000

          k = 0.1333 0.2540 0.0000 (  5133 PWs)   bands (ev):

   -19.9555  -8.7734  -7.9745  -7.6433   3.4028   4.4621   4.8946   5.6128

     occupation numbers 
     1.0000   1.0000   1.0000   1.0000   0.0000   0.0000   0.0000   0.0000

          k = 0.1333 0.2617 0.0000 (  5134 PWs)   bands (ev):

   -19.8858  -8.9080  -7.8921  -7.7388   3.4991   4.5579   4.9936   5.4581

     occupation numbers 
     1.0000   1.0000   1.0000   1.0000   0.0000   0.0000   0.0000   0.0000

          k = 0.1333 0.2694 0.0000 (  5142 PWs)   bands (ev):

   -19.8142  -9.0459  -7.8320  -7.8076   3.5982   4.6559   5.0955   5.3020

     occupation numbers 
     1.0000   1.0000   1.0000   1.0000   0.0000   0.0000   0.0000   0.0000

          k = 0.1333 0.2771 0.0000 (  5143 PWs)   bands (ev):

   -19.7405  -9.1869  -7.9230  -7.7208   3.7001   4.7548   5.1458   5.2003

     occupation numbers 
     1.0000   1.0000   1.0000   1.0000   0.0000   0.0000   0.0000   0.0000

          k = 0.1333 0.2848 0.0000 (  5147 PWs)   bands (ev):

   -19.6648  -9.3309  -8.0114  -7.6319   3.8049   4.8443   4.9999   5.3081

     occupation numbers 
     1.0000   1.0000   1.0000   1.0000   0.0000   0.0000   0.0000   0.0000

          k = 0.1333 0.2925 0.0000 (  5157 PWs)   bands (ev):

   -19.5872  -9.4777  -8.0974  -7.5409   3.9125   4.7962   4.9928   5.4188

     occupation numbers 
     1.0000   1.0000   1.0000   1.0000   0.0000   0.0000   0.0000   0.0000

          k = 0.1333 0.3002 0.0000 (  5157 PWs)   bands (ev):

   -19.5075  -9.6270  -8.1808  -7.4477   4.0229   4.6420   5.0929   5.5325

     occupation numbers 
     1.0000   1.0000   1.0000   1.0000   0.0000   0.0000   0.0000   0.0000

          k = 0.1333 0.3079 0.0000 (  5164 PWs)   bands (ev):

   -19.4259  -9.7788  -8.2617  -7.3525   4.1361   4.4787   5.2035   5.6491

     occupation numbers 
     1.0000   1.0000   1.0000   1.0000   0.0000   0.0000   0.0000   0.0000

          k = 0.1333 0.3156 0.0000 (  5162 PWs)   bands (ev):

   -19.3423  -9.9326  -8.3401  -7.2552   4.2521   4.3127   5.3182   5.7686

     occupation numbers 
     1.0000   1.0000   1.0000   1.0000   0.0000   0.0000   0.0000   0.0000

          k = 0.1333 0.3233 0.0000 (  5160 PWs)   bands (ev):

   -19.2568 -10.0883  -8.4159  -7.1560   4.1450   4.3709   5.4362   5.8910

     occupation numbers 
     1.0000   1.0000   1.0000   1.0000   0.0000   0.0000   0.0000   0.0000

          k = 0.1333 0.3310 0.0000 (  5158 PWs)   bands (ev):

   -19.1693 -10.2457  -8.4893  -7.0548   3.9760   4.4924   5.5570   6.0164

     occupation numbers 
     1.0000   1.0000   1.0000   1.0000   0.0000   0.0000   0.0000   0.0000

          k = 0.1333 0.3387 0.0000 (  5164 PWs)   bands (ev):

   -19.0799 -10.4046  -8.5602  -6.9518   3.8060   4.6168   5.6807   6.1447

     occupation numbers 
     1.0000   1.0000   1.0000   1.0000   0.0000   0.0000   0.0000   0.0000

          k = 0.1333 0.3464 0.0000 (  5168 PWs)   bands (ev):

   -18.9886 -10.5647  -8.6288  -6.8469   3.6352   4.7439   5.8072   6.2759

     occupation numbers 
     1.0000   1.0000   1.0000   1.0000   0.0000   0.0000   0.0000   0.0000

          k = 0.1333 0.3541 0.0000 (  5164 PWs)   bands (ev):

   -18.8954 -10.7259  -8.6949  -6.7403   3.4637   4.8738   5.9362   6.4099

     occupation numbers 
     1.0000   1.0000   1.0000   1.0000   0.0000   0.0000   0.0000   0.0000

          k = 0.1333 0.3618 0.0000 (  5166 PWs)   bands (ev):

   -18.8003 -10.8879  -8.7586  -6.6320   3.2918   5.0064   6.0679   6.5468

     occupation numbers 
     1.0000   1.0000   1.0000   1.0000   0.0000   0.0000   0.0000   0.0000

          k = 0.1333 0.3695 0.0000 (  5168 PWs)   bands (ev):

   -18.7033 -11.0507  -8.8201  -6.5220   3.1197   5.1417   6.2022   6.6866

     occupation numbers 
     1.0000   1.0000   1.0000   1.0000   0.0000   0.0000   0.0000   0.0000

          k = 0.1333 0.3772 0.0000 (  5168 PWs)   bands (ev):

   -18.6044 -11.2139  -8.8792  -6.4106   2.9474   5.2798   6.3390   6.8291

     occupation numbers 
     1.0000   1.0000   1.0000   1.0000   0.0000   0.0000   0.0000   0.0000

          k = 0.1333 0.3849 0.0000 (  5165 PWs)   bands (ev):

   -18.5037 -11.3776  -8.9360  -6.2977   2.7752   5.4206   6.4783   6.9743

     occupation numbers 
     1.0000   1.0000   1.0000   1.0000   0.0000   0.0000   0.0000   0.0000

          k = 0.1333 0.3926 0.0000 (  5165 PWs)   bands (ev):

   -18.4012 -11.5414  -8.9905  -6.1835   2.6032   5.5640   6.6200   7.1219

     occupation numbers 
     1.0000   1.0000   1.0000   1.0000   0.0000   0.0000   0.0000   0.0000

          k = 0.1333 0.4003 0.0000 (  5163 PWs)   bands (ev):

   -18.2968 -11.7053  -9.0428  -6.0681   2.4318   5.7100   6.7641   7.2714

     occupation numbers 
     1.0000   1.0000   1.0000   1.0000   0.0000   0.0000   0.0000   0.0000

          k = 0.1333 0.4080 0.0000 (  5169 PWs)   bands (ev):

   -18.1907 -11.8691  -9.0928  -5.9517   2.2610   5.8587   6.9105   7.4211

     occupation numbers 
     1.0000   1.0000   1.0000   1.0000   0.0000   0.0000   0.0000   0.0000

          k = 0.1333 0.4157 0.0000 (  5167 PWs)   bands (ev):

   -18.0828 -12.0328  -9.1406  -5.8343   2.0911   6.0100   7.0591   7.5608

     occupation numbers 
     1.0000   1.0000   1.0000   1.0000   0.0000   0.0000   0.0000   0.0000

          k = 0.1333 0.4234 0.0000 (  5173 PWs)   bands (ev):

   -17.9732 -12.1961  -9.1861  -5.7162   1.9225   6.1637   7.2098   7.6317

     occupation numbers 
     1.0000   1.0000   1.0000   1.0000   0.0000   0.0000   0.0000   0.0000

          k = 0.1333 0.4311 0.0000 (  5169 PWs)   bands (ev):

   -17.8619 -12.3590  -9.2294  -5.5976   1.7552   6.3199   7.3626   7.6386

     occupation numbers 
     1.0000   1.0000   1.0000   1.0000   0.0000   0.0000   0.0000   0.0000

          k = 0.1333 0.4388 0.0000 (  5169 PWs)   bands (ev):

   -17.7489 -12.5214  -9.2705  -5.4787   1.5898   6.4785   7.5172   7.6274

     occupation numbers 
     1.0000   1.0000   1.0000   1.0000   0.0000   0.0000   0.0000   0.0000

          k = 0.1333 0.4465 0.0000 (  5169 PWs)   bands (ev):

   -17.6343 -12.6831  -9.3094  -5.3597   1.4264   6.6391   7.6169   7.6736

     occupation numbers 
     1.0000   1.0000   1.0000   1.0000   0.0000   0.0000   0.0000   0.0000

          k = 0.1333 0.4542 0.0000 (  5168 PWs)   bands (ev):

   -17.5181 -12.8440  -9.3460  -5.2411   1.2655   6.8016   7.6066   7.8316

     occupation numbers 
     1.0000   1.0000   1.0000   1.0000   0.0000   0.0000   0.0000   0.0000

          k = 0.1333 0.4619 0.0000 (  5172 PWs)   bands (ev):

   -17.4004 -13.0040  -9.3804  -5.1230   1.1074   6.9651   7.5977   7.9910

     occupation numbers 
     1.0000   1.0000   1.0000   1.0000   0.0000   0.0000   0.0000   0.0000

          k = 0.1333 0.4696 0.0000 (  5174 PWs)   bands (ev):

   -17.2813 -13.1629  -9.4126  -5.0060   0.9527   7.1282   7.5922   8.1515

     occupation numbers 
     1.0000   1.0000   1.0000   1.0000   0.0000   0.0000   0.0000   0.0000

          k = 0.1333 0.4773 0.0000 (  5172 PWs)   bands (ev):

   -17.1608 -13.3207  -9.4426  -4.8906   0.8019   7.2853   7.5954   8.3127

     occupation numbers 
     1.0000   1.0000   1.0000   1.0000   0.0000   0.0000   0.0000   0.0000

          k = 0.1333 0.4850 0.0000 (  5172 PWs)   bands (ev):

   -17.0391 -13.4771  -9.4704  -4.7772   0.6555   7.4163   7.6280   8.4744

     occupation numbers 
     1.0000   1.0000   1.0000   1.0000   0.0000   0.0000   0.0000   0.0000

          k = 0.1333 0.4927 0.0000 (  5164 PWs)   bands (ev):

   -16.9162 -13.6320  -9.4959  -4.6666   0.5144   7.4796   7.7312   8.6361

     occupation numbers 
     1.0000   1.0000   1.0000   1.0000   0.0000   0.0000   0.0000   0.0000

          k = 0.1333 0.5004 0.0000 (  5162 PWs)   bands (ev):

   -16.7925 -13.7851  -9.5193  -4.5594   0.3793   7.4944   7.8861   8.7970

     occupation numbers 
     1.0000   1.0000   1.0000   1.0000   0.0000   0.0000   0.0000   0.0000

          k = 0.1333 0.5081 0.0000 (  5170 PWs)   bands (ev):

   -16.6681 -13.9362  -9.5404  -4.4567   0.2511   7.4951   8.0580   8.9565

     occupation numbers 
     1.0000   1.0000   1.0000   1.0000   0.0000   0.0000   0.0000   0.0000

          k = 0.1333 0.5158 0.0000 (  5177 PWs)   bands (ev):

   -16.5435 -14.0848  -9.5593  -4.3594   0.1309   7.4919   8.2369   9.1134

     occupation numbers 
     1.0000   1.0000   1.0000   1.0000   0.0000   0.0000   0.0000   0.0000

          k = 0.1333 0.5235 0.0000 (  5176 PWs)   bands (ev):

   -16.4192 -14.2304  -9.5760  -4.2686   0.0198   7.4875   8.4200   9.2664

     occupation numbers 
     1.0000   1.0000   1.0000   1.0000   0.0000   0.0000   0.0000   0.0000

          k = 0.1333 0.5312 0.0000 (  5180 PWs)   bands (ev):

   -16.2959 -14.3721  -9.5904  -4.1856  -0.0807   7.4831   8.6060   9.4137

     occupation numbers 
     1.0000   1.0000   1.0000   1.0000   0.0000   0.0000   0.0000   0.0000

          k = 0.1333 0.5389 0.0000 (  5186 PWs)   bands (ev):

   -16.1751 -14.5085  -9.6027  -4.1119  -0.1694   7.4789   8.7945   9.5526

     occupation numbers 
     1.0000   1.0000   1.0000   1.0000   0.0000   0.0000   0.0000   0.0000

          k = 0.1333 0.5466 0.0000 (  5184 PWs)   bands (ev):

   -16.0590 -14.6374  -9.6127  -4.0489  -0.2447   7.4753   8.9850   9.6795

     occupation numbers 
     1.0000   1.0000   1.0000   1.0000   0.0000   0.0000   0.0000   0.0000

          k = 0.1333 0.5543 0.0000 (  5186 PWs)   bands (ev):

   -15.9515 -14.7550  -9.6205  -3.9981  -0.3051   7.4724   9.1772   9.7896

     occupation numbers 
     1.0000   1.0000   1.0000   1.0000   0.0000   0.0000   0.0000   0.0000

          k = 0.1333 0.5620 0.0000 (  5184 PWs)   bands (ev):

   -15.8594 -14.8542  -9.6260  -3.9606  -0.3494   7.4703   9.3702   9.8766

     occupation numbers 
     1.0000   1.0000   1.0000   1.0000   0.0000   0.0000   0.0000   0.0000

          k = 0.1333 0.5697 0.0000 (  5186 PWs)   bands (ev):

   -15.7941 -14.9238  -9.6294  -3.9377  -0.3764   7.4690   9.5619   9.9336

     occupation numbers 
     1.0000   1.0000   1.0000   1.0000   0.0000   0.0000   0.0000   0.0000

          k = 0.1333 0.5774 0.0000 (  5184 PWs)   bands (ev):

   -15.7699 -14.9494  -9.6305  -3.9300  -0.3855   7.4686   9.7083   9.8278

     occupation numbers 
     1.0000   1.0000   1.0000   1.0000   0.0000   0.0000   0.0000   0.0000

          k = 0.1400 0.2425 0.0000 (  5146 PWs)   bands (ev):

   -20.0242  -8.6354  -8.0558  -7.5502   3.3080   4.3675   4.7972   5.7687

     occupation numbers 
     1.0000   1.0000   1.0000   1.0000   0.0000   0.0000   0.0000   0.0000

          k = 0.1400 0.2502 0.0000 (  5138 PWs)   bands (ev):

   -19.9576  -8.7596  -7.9769  -7.6523   3.4000   4.4594   4.8917   5.6190

     occupation numbers 
     1.0000   1.0000   1.0000   1.0000   0.0000   0.0000   0.0000   0.0000

          k = 0.1400 0.2579 0.0000 (  5134 PWs)   bands (ev):

   -19.8890  -8.8873  -7.8958  -7.7527   3.4948   4.5541   4.9892   5.4672

     occupation numbers 
     1.0000   1.0000   1.0000   1.0000   0.0000   0.0000   0.0000   0.0000

          k = 0.1400 0.2656 0.0000 (  5139 PWs)   bands (ev):

   -19.8183  -9.0183  -7.8510  -7.8124   3.5925   4.6512   5.0896   5.3135

     occupation numbers 
     1.0000   1.0000   1.0000   1.0000   0.0000   0.0000   0.0000   0.0000

          k = 0.1400 0.2733 0.0000 (  5139 PWs)   bands (ev):

   -19.7457  -9.1527  -7.9469  -7.7269   3.6930   4.7502   5.1588   5.1930

     occupation numbers 
     1.0000   1.0000   1.0000   1.0000   0.0000   0.0000   0.0000   0.0000

          k = 0.1400 0.2810 0.0000 (  5147 PWs)   bands (ev):

   -19.6710  -9.2903  -8.0403  -7.6391   3.7964   4.8463   5.0079   5.2993

     occupation numbers 
     1.0000   1.0000   1.0000   1.0000   0.0000   0.0000   0.0000   0.0000

          k = 0.1400 0.2887 0.0000 (  5149 PWs)   bands (ev):

   -19.5944  -9.4310  -8.1311  -7.5492   3.9025   4.8238   4.9766   5.4086

     occupation numbers 
     1.0000   1.0000   1.0000   1.0000   0.0000   0.0000   0.0000   0.0000

          k = 0.1400 0.2964 0.0000 (  5153 PWs)   bands (ev):

   -19.5158  -9.5747  -8.2191  -7.4572   4.0115   4.6703   5.0774   5.5208

     occupation numbers 
     1.0000   1.0000   1.0000   1.0000   0.0000   0.0000   0.0000   0.0000

          k = 0.1400 0.3041 0.0000 (  5156 PWs)   bands (ev):

   -19.4352  -9.7211  -8.3043  -7.3631   4.1233   4.5089   5.1873   5.6359

     occupation numbers 
     1.0000   1.0000   1.0000   1.0000   0.0000   0.0000   0.0000   0.0000

          k = 0.1400 0.3118 0.0000 (  5164 PWs)   bands (ev):

   -19.3527  -9.8700  -8.3868  -7.2669   4.2379   4.3452   5.3010   5.7540

     occupation numbers 
     1.0000   1.0000   1.0000   1.0000   0.0000   0.0000   0.0000   0.0000

          k = 0.1400 0.3195 0.0000 (  5160 PWs)   bands (ev):

   -19.2682 -10.0213  -8.4665  -7.1687   4.1799   4.3553   5.4176   5.8750

     occupation numbers 
     1.0000   1.0000   1.0000   1.0000   0.0000   0.0000   0.0000   0.0000

          k = 0.1400 0.3272 0.0000 (  5162 PWs)   bands (ev):

   -19.1817 -10.1746  -8.5435  -7.0686   4.0133   4.4755   5.5372   5.9989

     occupation numbers 
     1.0000   1.0000   1.0000   1.0000   0.0000   0.0000   0.0000   0.0000

          k = 0.1400 0.3349 0.0000 (  5164 PWs)   bands (ev):

   -19.0933 -10.3298  -8.6178  -6.9666   3.8457   4.5984   5.6594   6.1257

     occupation numbers 
     1.0000   1.0000   1.0000   1.0000   0.0000   0.0000   0.0000   0.0000

          k = 0.1400 0.3426 0.0000 (  5166 PWs)   bands (ev):

   -19.0030 -10.4866  -8.6895  -6.8627   3.6772   4.7241   5.7844   6.2555

     occupation numbers 
     1.0000   1.0000   1.0000   1.0000   0.0000   0.0000   0.0000   0.0000

          k = 0.1400 0.3503 0.0000 (  5166 PWs)   bands (ev):

   -18.9108 -10.6447  -8.7585  -6.7571   3.5079   4.8526   5.9119   6.3881

     occupation numbers 
     1.0000   1.0000   1.0000   1.0000   0.0000   0.0000   0.0000   0.0000

          k = 0.1400 0.3580 0.0000 (  5162 PWs)   bands (ev):

   -18.8167 -10.8040  -8.8250  -6.6497   3.3381   4.9839   6.0421   6.5237

     occupation numbers 
     1.0000   1.0000   1.0000   1.0000   0.0000   0.0000   0.0000   0.0000

          k = 0.1400 0.3657 0.0000 (  5164 PWs)   bands (ev):

   -18.7207 -10.9643  -8.8890  -6.5406   3.1679   5.1178   6.1748   6.6621

     occupation numbers 
     1.0000   1.0000   1.0000   1.0000   0.0000   0.0000   0.0000   0.0000

          k = 0.1400 0.3734 0.0000 (  5164 PWs)   bands (ev):

   -18.6229 -11.1254  -8.9506  -6.4300   2.9975   5.2545   6.3101   6.8033

     occupation numbers 
     1.0000   1.0000   1.0000   1.0000   0.0000   0.0000   0.0000   0.0000

          k = 0.1400 0.3811 0.0000 (  5159 PWs)   bands (ev):

   -18.5231 -11.2871  -9.0097  -6.3179   2.8270   5.3939   6.4478   6.9474

     occupation numbers 
     1.0000   1.0000   1.0000   1.0000   0.0000   0.0000   0.0000   0.0000

          k = 0.1400 0.3887 0.0000 (  5159 PWs)   bands (ev):

   -18.4216 -11.4492  -9.0663  -6.2044   2.6566   5.5360   6.5879   7.0941

     occupation numbers 
     1.0000   1.0000   1.0000   1.0000   0.0000   0.0000   0.0000   0.0000

          k = 0.1400 0.3964 0.0000 (  5165 PWs)   bands (ev):

   -18.3182 -11.6116  -9.1207  -6.0897   2.4866   5.6807   6.7303   7.2432

     occupation numbers 
     1.0000   1.0000   1.0000   1.0000   0.0000   0.0000   0.0000   0.0000

          k = 0.1400 0.4041 0.0000 (  5165 PWs)   bands (ev):

   -18.2131 -11.7741  -9.1726  -5.9738   2.3170   5.8281   6.8750   7.3944

     occupation numbers 
     1.0000   1.0000   1.0000   1.0000   0.0000   0.0000   0.0000   0.0000

          k = 0.1400 0.4118 0.0000 (  5169 PWs)   bands (ev):

   -18.1062 -11.9366  -9.2222  -5.8569   2.1482   5.9781   7.0219   7.5459

     occupation numbers 
     1.0000   1.0000   1.0000   1.0000   0.0000   0.0000   0.0000   0.0000

          k = 0.1400 0.4195 0.0000 (  5167 PWs)   bands (ev):

   -17.9975 -12.0989  -9.2696  -5.7392   1.9804   6.1307   7.1708   7.6903

     occupation numbers 
     1.0000   1.0000   1.0000   1.0000   0.0000   0.0000   0.0000   0.0000

          k = 0.1400 0.4272 0.0000 (  5170 PWs)   bands (ev):

   -17.8871 -12.2610  -9.3146  -5.6209   1.8138   6.2857   7.3218   7.7742

     occupation numbers 
     1.0000   1.0000   1.0000   1.0000   0.0000   0.0000   0.0000   0.0000

          k = 0.1400 0.4349 0.0000 (  5169 PWs)   bands (ev):

   -17.7751 -12.4226  -9.3573  -5.5021   1.6488   6.4432   7.4746   7.7818

     occupation numbers 
     1.0000   1.0000   1.0000   1.0000   0.0000   0.0000   0.0000   0.0000

          k = 0.1400 0.4426 0.0000 (  5167 PWs)   bands (ev):

   -17.6614 -12.5837  -9.3977  -5.3831   1.4856   6.6030   7.6291   7.7739

     occupation numbers 
     1.0000   1.0000   1.0000   1.0000   0.0000   0.0000   0.0000   0.0000

          k = 0.1400 0.4503 0.0000 (  5177 PWs)   bands (ev):

   -17.5461 -12.7442  -9.4359  -5.2642   1.3245   6.7650   7.7638   7.7851

     occupation numbers 
     1.0000   1.0000   1.0000   1.0000   0.0000   0.0000   0.0000   0.0000

          k = 0.1400 0.4580 0.0000 (  5171 PWs)   bands (ev):

   -17.4293 -12.9038  -9.4718  -5.1458   1.1660   6.9288   7.7537   7.9424

     occupation numbers 
     1.0000   1.0000   1.0000   1.0000   0.0000   0.0000   0.0000   0.0000

          k = 0.1400 0.4657 0.0000 (  5171 PWs)   bands (ev):

   -17.3110 -13.0626  -9.5055  -5.0281   1.0106   7.0939   7.7448   8.1007

     occupation numbers 
     1.0000   1.0000   1.0000   1.0000   0.0000   0.0000   0.0000   0.0000

          k = 0.1400 0.4734 0.0000 (  5163 PWs)   bands (ev):

   -17.1913 -13.2203  -9.5369  -4.9117   0.8586   7.2587   7.7390   8.2598

     occupation numbers 
     1.0000   1.0000   1.0000   1.0000   0.0000   0.0000   0.0000   0.0000

          k = 0.1400 0.4811 0.0000 (  5167 PWs)   bands (ev):

   -17.0703 -13.3767  -9.5660  -4.7971   0.7107   7.4189   7.7408   8.4191

     occupation numbers 
     1.0000   1.0000   1.0000   1.0000   0.0000   0.0000   0.0000   0.0000

          k = 0.1400 0.4888 0.0000 (  5165 PWs)   bands (ev):

   -16.9481 -13.5318  -9.5929  -4.6848   0.5676   7.5564   7.7682   8.5782

     occupation numbers 
     1.0000   1.0000   1.0000   1.0000   0.0000   0.0000   0.0000   0.0000

          k = 0.1400 0.4965 0.0000 (  5167 PWs)   bands (ev):

   -16.8250 -13.6853  -9.6176  -4.5756   0.4299   7.6277   7.8648   8.7364

     occupation numbers 
     1.0000   1.0000   1.0000   1.0000   0.0000   0.0000   0.0000   0.0000

          k = 0.1400 0.5042 0.0000 (  5170 PWs)   bands (ev):

   -16.7011 -13.8369  -9.6400  -4.4703   0.2985   7.6450   8.0185   8.8930

     occupation numbers 
     1.0000   1.0000   1.0000   1.0000   0.0000   0.0000   0.0000   0.0000

          k = 0.1400 0.5119 0.0000 (  5180 PWs)   bands (ev):

   -16.5767 -13.9863  -9.6602  -4.3698   0.1745   7.6465   8.1909   9.0468

     occupation numbers 
     1.0000   1.0000   1.0000   1.0000   0.0000   0.0000   0.0000   0.0000

          k = 0.1400 0.5196 0.0000 (  5180 PWs)   bands (ev):

   -16.4523 -14.1331  -9.6781  -4.2753   0.0590   7.6438   8.3705   9.1966

     occupation numbers 
     1.0000   1.0000   1.0000   1.0000   0.0000   0.0000   0.0000   0.0000

          k = 0.1400 0.5273 0.0000 (  5182 PWs)   bands (ev):

   -16.3286 -14.2764  -9.6938  -4.1879  -0.0468   7.6398   8.5543   9.3406

     occupation numbers 
     1.0000   1.0000   1.0000   1.0000   0.0000   0.0000   0.0000   0.0000

          k = 0.1400 0.5350 0.0000 (  5188 PWs)   bands (ev):

   -16.2066 -14.4152  -9.7072  -4.1091  -0.1416   7.6358   8.7409   9.4763

     occupation numbers 
     1.0000   1.0000   1.0000   1.0000   0.0000   0.0000   0.0000   0.0000

          k = 0.1400 0.5427 0.0000 (  5190 PWs)   bands (ev):

   -16.0881 -14.5478  -9.7184  -4.0402  -0.2237   7.6320   8.9298   9.6009

     occupation numbers 
     1.0000   1.0000   1.0000   1.0000   0.0000   0.0000   0.0000   0.0000

          k = 0.1400 0.5504 0.0000 (  5190 PWs)   bands (ev):

   -15.9759 -14.6713  -9.7274  -3.9827  -0.2918   7.6289   9.1206   9.7102

     occupation numbers 
     1.0000   1.0000   1.0000   1.0000   0.0000   0.0000   0.0000   0.0000

          k = 0.1400 0.5581 0.0000 (  5190 PWs)   bands (ev):

   -15.8752 -14.7804  -9.7341  -3.9381  -0.3444   7.6264   9.3126   9.7995

     occupation numbers 
     1.0000   1.0000   1.0000   1.0000   0.0000   0.0000   0.0000   0.0000

          k = 0.1400 0.5658 0.0000 (  5186 PWs)   bands (ev):

   -15.7951 -14.8662  -9.7386  -3.9076  -0.3803   7.6248   9.5048   9.8634

     occupation numbers 
     1.0000   1.0000   1.0000   1.0000   0.0000   0.0000   0.0000   0.0000

          k = 0.1400 0.5735 0.0000 (  5184 PWs)   bands (ev):

   -15.7488 -14.9153  -9.7408  -3.8921  -0.3984   7.6239   9.6894   9.8973

     occupation numbers 
     1.0000   1.0000   1.0000   1.0000   0.0000   0.0000   0.0000   0.0000

          k = 0.1467 0.2540 0.0000 (  5136 PWs)   bands (ev):

   -19.8900  -8.8802  -7.8970  -7.7575   3.4934   4.5528   4.9877   5.4702

     occupation numbers 
     1.0000   1.0000   1.0000   1.0000   0.0000   0.0000   0.0000   0.0000

          k = 0.1467 0.2617 0.0000 (  5135 PWs)   bands (ev):

   -19.8204  -9.0041  -7.8609  -7.8148   3.5897   4.6489   5.0867   5.3194

     occupation numbers 
     1.0000   1.0000   1.0000   1.0000   0.0000   0.0000   0.0000   0.0000

          k = 0.1467 0.2694 0.0000 (  5141 PWs)   bands (ev):

   -19.7488  -9.1313  -7.9621  -7.7305   3.6888   4.7473   5.1668   5.1886

     occupation numbers 
     1.0000   1.0000   1.0000   1.0000   0.0000   0.0000   0.0000   0.0000

          k = 0.1467 0.2771 0.0000 (  5137 PWs)   bands (ev):

   -19.6752  -9.2618  -8.0609  -7.6439   3.7907   4.8464   5.0145   5.2934

     occupation numbers 
     1.0000   1.0000   1.0000   1.0000   0.0000   0.0000   0.0000   0.0000

          k = 0.1467 0.2848 0.0000 (  5143 PWs)   bands (ev):

   -19.5996  -9.3958  -8.1570  -7.5551   3.8954   4.8461   4.9626   5.4012

     occupation numbers 
     1.0000   1.0000   1.0000   1.0000   0.0000   0.0000   0.0000   0.0000

          k = 0.1467 0.2925 0.0000 (  5149 PWs)   bands (ev):

   -19.5220  -9.5329  -8.2503  -7.4643   4.0030   4.6923   5.0651   5.5120

     occupation numbers 
     1.0000   1.0000   1.0000   1.0000   0.0000   0.0000   0.0000   0.0000

          k = 0.1467 0.3002 0.0000 (  5153 PWs)   bands (ev):

   -19.4425  -9.6732  -8.3406  -7.3713   4.1134   4.5330   5.1744   5.6256

     occupation numbers 
     1.0000   1.0000   1.0000   1.0000   0.0000   0.0000   0.0000   0.0000

          k = 0.1467 0.3079 0.0000 (  5158 PWs)   bands (ev):

   -19.3610  -9.8163  -8.4280  -7.2763   4.2266   4.3717   5.2869   5.7423

     occupation numbers 
     1.0000   1.0000   1.0000   1.0000   0.0000   0.0000   0.0000   0.0000

          k = 0.1467 0.3156 0.0000 (  5162 PWs)   bands (ev):

   -19.2775  -9.9622  -8.5123  -7.1792   4.2090   4.3425   5.4023   5.8618

     occupation numbers 
     1.0000   1.0000   1.0000   1.0000   0.0000   0.0000   0.0000   0.0000

          k = 0.1467 0.3233 0.0000 (  5163 PWs)   bands (ev):

   -19.1921 -10.1106  -8.5936  -7.0801   4.0450   4.4613   5.5204   5.9843

     occupation numbers 
     1.0000   1.0000   1.0000   1.0000   0.0000   0.0000   0.0000   0.0000

          k = 0.1467 0.3310 0.0000 (  5161 PWs)   bands (ev):

   -19.1047 -10.2613  -8.6719  -6.9792   3.8798   4.5829   5.6412   6.1097

     occupation numbers 
     1.0000   1.0000   1.0000   1.0000   0.0000   0.0000   0.0000   0.0000

          k = 0.1467 0.3387 0.0000 (  5167 PWs)   bands (ev):

   -19.0154 -10.4140  -8.7473  -6.8763   3.7138   4.7072   5.7647   6.2380

     occupation numbers 
     1.0000   1.0000   1.0000   1.0000   0.0000   0.0000   0.0000   0.0000

          k = 0.1467 0.3464 0.0000 (  5163 PWs)   bands (ev):

   -18.9242 -10.5684  -8.8199  -6.7716   3.5469   4.8343   5.8907   6.3692

     occupation numbers 
     1.0000   1.0000   1.0000   1.0000   0.0000   0.0000   0.0000   0.0000

          k = 0.1467 0.3541 0.0000 (  5161 PWs)   bands (ev):

   -18.8311 -10.7244  -8.8896  -6.6652   3.3794   4.9641   6.0193   6.5034

     occupation numbers 
     1.0000   1.0000   1.0000   1.0000   0.0000   0.0000   0.0000   0.0000

          k = 0.1467 0.3618 0.0000 (  5159 PWs)   bands (ev):

   -18.7361 -10.8817  -8.9567  -6.5570   3.2114   5.0967   6.1505   6.6404

     occupation numbers 
     1.0000   1.0000   1.0000   1.0000   0.0000   0.0000   0.0000   0.0000

          k = 0.1467 0.3695 0.0000 (  5157 PWs)   bands (ev):

   -18.6393 -11.0401  -9.0210  -6.4473   3.0430   5.2320   6.2841   6.7803

     occupation numbers 
     1.0000   1.0000   1.0000   1.0000   0.0000   0.0000   0.0000   0.0000

          k = 0.1467 0.3772 0.0000 (  5159 PWs)   bands (ev):

   -18.5405 -11.1993  -9.0828  -6.3360   2.8744   5.3700   6.4202   6.9230

     occupation numbers 
     1.0000   1.0000   1.0000   1.0000   0.0000   0.0000   0.0000   0.0000

          k = 0.1467 0.3849 0.0000 (  5156 PWs)   bands (ev):

   -18.4400 -11.3593  -9.1419  -6.2233   2.7058   5.5108   6.5587   7.0685

     occupation numbers 
     1.0000   1.0000   1.0000   1.0000   0.0000   0.0000   0.0000   0.0000

          k = 0.1467 0.3926 0.0000 (  5156 PWs)   bands (ev):

   -18.3376 -11.5198  -9.1986  -6.1092   2.5373   5.6542   6.6994   7.2168

     occupation numbers 
     1.0000   1.0000   1.0000   1.0000   0.0000   0.0000   0.0000   0.0000

          k = 0.1467 0.4003 0.0000 (  5158 PWs)   bands (ev):

   -18.2334 -11.6806  -9.2527  -5.9940   2.3692   5.8002   6.8424   7.3675

     occupation numbers 
     1.0000   1.0000   1.0000   1.0000   0.0000   0.0000   0.0000   0.0000

          k = 0.1467 0.4080 0.0000 (  5161 PWs)   bands (ev):

   -18.1275 -11.8417  -9.3044  -5.8776   2.2017   5.9489   6.9876   7.5203

     occupation numbers 
     1.0000   1.0000   1.0000   1.0000   0.0000   0.0000   0.0000   0.0000

          k = 0.1467 0.4157 0.0000 (  5169 PWs)   bands (ev):

   -18.0198 -12.0027  -9.3537  -5.7604   2.0350   6.1002   7.1348   7.6740

     occupation numbers 
     1.0000   1.0000   1.0000   1.0000   0.0000   0.0000   0.0000   0.0000

          k = 0.1467 0.4234 0.0000 (  5171 PWs)   bands (ev):

   -17.9104 -12.1637  -9.4006  -5.6423   1.8693   6.2540   7.2839   7.8238

     occupation numbers 
     1.0000   1.0000   1.0000   1.0000   0.0000   0.0000   0.0000   0.0000

          k = 0.1467 0.4311 0.0000 (  5171 PWs)   bands (ev):

   -17.7992 -12.3244  -9.4451  -5.5238   1.7049   6.4103   7.4349   7.9207

     occupation numbers 
     1.0000   1.0000   1.0000   1.0000   0.0000   0.0000   0.0000   0.0000

          k = 0.1467 0.4388 0.0000 (  5179 PWs)   bands (ev):

   -17.6865 -12.4847  -9.4873  -5.4049   1.5421   6.5691   7.5874   7.9316

     occupation numbers 
     1.0000   1.0000   1.0000   1.0000   0.0000   0.0000   0.0000   0.0000

          k = 0.1467 0.4465 0.0000 (  5181 PWs)   bands (ev):

   -17.5721 -12.6445  -9.5271  -5.2859   1.3812   6.7302   7.7414   7.9249

     occupation numbers 
     1.0000   1.0000   1.0000   1.0000   0.0000   0.0000   0.0000   0.0000

          k = 0.1467 0.4542 0.0000 (  5171 PWs)   bands (ev):

   -17.4562 -12.8037  -9.5646  -5.1671   1.2225   6.8934   7.8967   7.9152

     occupation numbers 
     1.0000   1.0000   1.0000   1.0000   0.0000   0.0000   0.0000   0.0000

          k = 0.1467 0.4619 0.0000 (  5167 PWs)   bands (ev):

   -17.3387 -12.9621  -9.5998  -5.0490   1.0666   7.0586   7.9053   8.0528

     occupation numbers 
     1.0000   1.0000   1.0000   1.0000   0.0000   0.0000   0.0000   0.0000

          k = 0.1467 0.4696 0.0000 (  5167 PWs)   bands (ev):

   -17.2198 -13.1195  -9.6327  -4.9318   0.9138   7.2251   7.8966   8.2095

     occupation numbers 
     1.0000   1.0000   1.0000   1.0000   0.0000   0.0000   0.0000   0.0000

          k = 0.1467 0.4773 0.0000 (  5163 PWs)   bands (ev):

   -17.0996 -13.2759  -9.6633  -4.8161   0.7647   7.3917   7.8904   8.3664

     occupation numbers 
     1.0000   1.0000   1.0000   1.0000   0.0000   0.0000   0.0000   0.0000

          k = 0.1467 0.4850 0.0000 (  5167 PWs)   bands (ev):

   -16.9782 -13.4310  -9.6916  -4.7024   0.6198   7.5546   7.8909   8.5228

     occupation numbers 
     1.0000   1.0000   1.0000   1.0000   0.0000   0.0000   0.0000   0.0000

          k = 0.1467 0.4927 0.0000 (  5168 PWs)   bands (ev):

   -16.8557 -13.5847  -9.7177  -4.5913   0.4800   7.6986   7.9132   8.6783

     occupation numbers 
     1.0000   1.0000   1.0000   1.0000   0.0000   0.0000   0.0000   0.0000

          k = 0.1467 0.5004 0.0000 (  5170 PWs)   bands (ev):

   -16.7323 -13.7367  -9.7414  -4.4837   0.3459   7.7793   8.0017   8.8318

     occupation numbers 
     1.0000   1.0000   1.0000   1.0000   0.0000   0.0000   0.0000   0.0000

          k = 0.1467 0.5081 0.0000 (  5172 PWs)   bands (ev):

   -16.6083 -13.8867  -9.7629  -4.3804   0.2185   7.7998   8.1534   8.9825

     occupation numbers 
     1.0000   1.0000   1.0000   1.0000   0.0000   0.0000   0.0000   0.0000

          k = 0.1467 0.5158 0.0000 (  5186 PWs)   bands (ev):

   -16.4841 -14.0343  -9.7822  -4.2824   0.0989   7.8023   8.3261   9.1289

     occupation numbers 
     1.0000   1.0000   1.0000   1.0000   0.0000   0.0000   0.0000   0.0000

          k = 0.1467 0.5235 0.0000 (  5188 PWs)   bands (ev):

   -16.3601 -14.1789  -9.7991  -4.1909  -0.0118   7.8001   8.5063   9.2693

     occupation numbers 
     1.0000   1.0000   1.0000   1.0000   0.0000   0.0000   0.0000   0.0000

          k = 0.1467 0.5312 0.0000 (  5188 PWs)   bands (ev):

   -16.2373 -14.3197  -9.8138  -4.1072  -0.1122   7.7966   8.6906   9.4016

     occupation numbers 
     1.0000   1.0000   1.0000   1.0000   0.0000   0.0000   0.0000   0.0000

          k = 0.1467 0.5389 0.0000 (  5194 PWs)   bands (ev):

   -16.1170 -14.4552  -9.8262  -4.0328  -0.2008   7.7930   8.8777   9.5232

     occupation numbers 
     1.0000   1.0000   1.0000   1.0000   0.0000   0.0000   0.0000   0.0000

          k = 0.1467 0.5466 0.0000 (  5194 PWs)   bands (ev):

   -16.0014 -14.5833  -9.8364  -3.9690  -0.2762   7.7897   9.0669   9.6307

     occupation numbers 
     1.0000   1.0000   1.0000   1.0000   0.0000   0.0000   0.0000   0.0000

          k = 0.1467 0.5543 0.0000 (  5198 PWs)   bands (ev):

   -15.8945 -14.7001  -9.8443  -3.9175  -0.3367   7.7870   9.2576   9.7204

     occupation numbers 
     1.0000   1.0000   1.0000   1.0000   0.0000   0.0000   0.0000   0.0000

          k = 0.1467 0.5620 0.0000 (  5190 PWs)   bands (ev):

   -15.8029 -14.7986  -9.8500  -3.8795  -0.3812   7.7849   9.4491   9.7884

     occupation numbers 
     1.0000   1.0000   1.0000   1.0000   0.0000   0.0000   0.0000   0.0000

          k = 0.1467 0.5697 0.0000 (  5194 PWs)   bands (ev):

   -15.7381 -14.8676  -9.8534  -3.8562  -0.4083   7.7837   9.6388   9.8311

     occupation numbers 
     1.0000   1.0000   1.0000   1.0000   0.0000   0.0000   0.0000   0.0000

          k = 0.1467 0.5774 0.0000 (  5192 PWs)   bands (ev):

   -15.7141 -14.8930  -9.8545  -3.8484  -0.4175   7.7833   9.7812   9.8456

     occupation numbers 
     1.0000   1.0000   1.0000   1.0000   0.0000   0.0000   0.0000   0.0000

          k = 0.1533 0.2656 0.0000 (  5136 PWs)   bands (ev):

   -19.7498  -9.1240  -7.9673  -7.7317   3.6874   4.7463   5.1695   5.1871

     occupation numbers 
     1.0000   1.0000   1.0000   1.0000   0.0000   0.0000   0.0000   0.0000

          k = 0.1533 0.2733 0.0000 (  5136 PWs)   bands (ev):

   -19.6773  -9.2472  -8.0717  -7.6463   3.7879   4.8462   5.0181   5.2905

     occupation numbers 
     1.0000   1.0000   1.0000   1.0000   0.0000   0.0000   0.0000   0.0000

          k = 0.1533 0.2810 0.0000 (  5140 PWs)   bands (ev):

   -19.6027  -9.3737  -8.1735  -7.5587   3.8912   4.8616   4.9521   5.3968

     occupation numbers 
     1.0000   1.0000   1.0000   1.0000   0.0000   0.0000   0.0000   0.0000

          k = 0.1533 0.2887 0.0000 (  5148 PWs)   bands (ev):

   -19.5262  -9.5037  -8.2726  -7.4690   3.9973   4.7074   5.0566   5.5061

     occupation numbers 
     1.0000   1.0000   1.0000   1.0000   0.0000   0.0000   0.0000   0.0000

          k = 0.1533 0.2964 0.0000 (  5152 PWs)   bands (ev):

   -19.4477  -9.6369  -8.3686  -7.3772   4.1063   4.5504   5.1650   5.6183

     occupation numbers 
     1.0000   1.0000   1.0000   1.0000   0.0000   0.0000   0.0000   0.0000

          k = 0.1533 0.3041 0.0000 (  5152 PWs)   bands (ev):

   -19.3672  -9.7735  -8.4615  -7.2833   4.2181   4.3919   5.2763   5.7335

     occupation numbers 
     1.0000   1.0000   1.0000   1.0000   0.0000   0.0000   0.0000   0.0000

          k = 0.1533 0.3118 0.0000 (  5161 PWs)   bands (ev):

   -19.2847  -9.9131  -8.5512  -7.1873   4.2319   4.3326   5.3902   5.8516

     occupation numbers 
     1.0000   1.0000   1.0000   1.0000   0.0000   0.0000   0.0000   0.0000

          k = 0.1533 0.3195 0.0000 (  5161 PWs)   bands (ev):

   -19.2003 -10.0556  -8.6376  -7.0894   4.0706   4.4500   5.5069   5.9726

     occupation numbers 
     1.0000   1.0000   1.0000   1.0000   0.0000   0.0000   0.0000   0.0000

          k = 0.1533 0.3272 0.0000 (  5161 PWs)   bands (ev):

   -19.1140 -10.2008  -8.7207  -6.9894   3.9082   4.5701   5.6262   6.0965

     occupation numbers 
     1.0000   1.0000   1.0000   1.0000   0.0000   0.0000   0.0000   0.0000

          k = 0.1533 0.3349 0.0000 (  5159 PWs)   bands (ev):

   -19.0257 -10.3485  -8.8006  -6.8876   3.7448   4.6931   5.7481   6.2234

     occupation numbers 
     1.0000   1.0000   1.0000   1.0000   0.0000   0.0000   0.0000   0.0000

          k = 0.1533 0.3426 0.0000 (  5167 PWs)   bands (ev):

   -18.9355 -10.4984  -8.8774  -6.7839   3.5805   4.8188   5.8726   6.3532

     occupation numbers 
     1.0000   1.0000   1.0000   1.0000   0.0000   0.0000   0.0000   0.0000

          k = 0.1533 0.3503 0.0000 (  5161 PWs)   bands (ev):

   -18.8434 -10.6503  -8.9510  -6.6785   3.4154   4.9472   5.9997   6.4859

     occupation numbers 
     1.0000   1.0000   1.0000   1.0000   0.0000   0.0000   0.0000   0.0000

          k = 0.1533 0.3580 0.0000 (  5163 PWs)   bands (ev):

   -18.7495 -10.8039  -9.0217  -6.5713   3.2497   5.0784   6.1293   6.6215

     occupation numbers 
     1.0000   1.0000   1.0000   1.0000   0.0000   0.0000   0.0000   0.0000

          k = 0.1533 0.3657 0.0000 (  5157 PWs)   bands (ev):

   -18.6536 -10.9590  -9.0894  -6.4624   3.0835   5.2123   6.2613   6.7600

     occupation numbers 
     1.0000   1.0000   1.0000   1.0000   0.0000   0.0000   0.0000   0.0000

          k = 0.1533 0.3734 0.0000 (  5159 PWs)   bands (ev):

   -18.5559 -11.1153  -9.1542  -6.3520   2.9170   5.3490   6.3957   6.9014

     occupation numbers 
     1.0000   1.0000   1.0000   1.0000   0.0000   0.0000   0.0000   0.0000

          k = 0.1533 0.3811 0.0000 (  5156 PWs)   bands (ev):

   -18.4563 -11.2726  -9.2163  -6.2401   2.7504   5.4883   6.5325   7.0456

     occupation numbers 
     1.0000   1.0000   1.0000   1.0000   0.0000   0.0000   0.0000   0.0000

          k = 0.1533 0.3887 0.0000 (  5157 PWs)   bands (ev):

   -18.3550 -11.4307  -9.2756  -6.1268   2.5838   5.6303   6.6716   7.1926

     occupation numbers 
     1.0000   1.0000   1.0000   1.0000   0.0000   0.0000   0.0000   0.0000

          k = 0.1533 0.3964 0.0000 (  5161 PWs)   bands (ev):

   -18.2518 -11.5895  -9.3323  -6.0122   2.4173   5.7750   6.8129   7.3424

     occupation numbers 
     1.0000   1.0000   1.0000   1.0000   0.0000   0.0000   0.0000   0.0000

          k = 0.1533 0.4041 0.0000 (  5163 PWs)   bands (ev):

   -18.1468 -11.7487  -9.3864  -5.8964   2.2513   5.9224   6.9563   7.4947

     occupation numbers 
     1.0000   1.0000   1.0000   1.0000   0.0000   0.0000   0.0000   0.0000

          k = 0.1533 0.4118 0.0000 (  5165 PWs)   bands (ev):

   -18.0401 -11.9081  -9.4379  -5.7797   2.0859   6.0723   7.1017   7.6492

     occupation numbers 
     1.0000   1.0000   1.0000   1.0000   0.0000   0.0000   0.0000   0.0000

          k = 0.1533 0.4195 0.0000 (  5169 PWs)   bands (ev):

   -17.9316 -12.0677  -9.4869  -5.6621   1.9213   6.2249   7.2490   7.8048

     occupation numbers 
     1.0000   1.0000   1.0000   1.0000   0.0000   0.0000   0.0000   0.0000

          k = 0.1533 0.4272 0.0000 (  5177 PWs)   bands (ev):

   -17.8214 -12.2272  -9.5334  -5.5438   1.7578   6.3800   7.3981   7.9566

     occupation numbers 
     1.0000   1.0000   1.0000   1.0000   0.0000   0.0000   0.0000   0.0000

          k = 0.1533 0.4349 0.0000 (  5179 PWs)   bands (ev):

   -17.7096 -12.3865  -9.5775  -5.4250   1.5956   6.5376   7.5487   8.0676

     occupation numbers 
     1.0000   1.0000   1.0000   1.0000   0.0000   0.0000   0.0000   0.0000

          k = 0.1533 0.4426 0.0000 (  5179 PWs)   bands (ev):

   -17.5961 -12.5454  -9.6191  -5.3060   1.4351   6.6976   7.7007   8.1252

     occupation numbers 
     1.0000   1.0000   1.0000   1.0000   0.0000   0.0000   0.0000   0.0000

          k = 0.1533 0.4503 0.0000 (  5183 PWs)   bands (ev):

   -17.4811 -12.7038  -9.6584  -5.1871   1.2766   6.8599   7.8538   8.0801

     occupation numbers 
     1.0000   1.0000   1.0000   1.0000   0.0000   0.0000   0.0000   0.0000

          k = 0.1533 0.4580 0.0000 (  5173 PWs)   bands (ev):

   -17.3645 -12.8616  -9.6953  -5.0685   1.1204   7.0244   8.0077   8.0708

     occupation numbers 
     1.0000   1.0000   1.0000   1.0000   0.0000   0.0000   0.0000   0.0000

          k = 0.1533 0.4657 0.0000 (  5163 PWs)   bands (ev):

   -17.2465 -13.0187  -9.7298  -4.9507   0.9671   7.1908   8.0612   8.1620

     occupation numbers 
     1.0000   1.0000   1.0000   1.0000   0.0000   0.0000   0.0000   0.0000

          k = 0.1533 0.4734 0.0000 (  5163 PWs)   bands (ev):

   -17.1271 -13.1748  -9.7619  -4.8341   0.8171   7.3587   8.0525   8.3164

     occupation numbers 
     1.0000   1.0000   1.0000   1.0000   0.0000   0.0000   0.0000   0.0000

          k = 0.1533 0.4811 0.0000 (  5166 PWs)   bands (ev):

   -17.0064 -13.3298  -9.7917  -4.7191   0.6709   7.5269   8.0462   8.4702

     occupation numbers 
     1.0000   1.0000   1.0000   1.0000   0.0000   0.0000   0.0000   0.0000

          k = 0.1533 0.4888 0.0000 (  5170 PWs)   bands (ev):

   -16.8846 -13.4835  -9.8192  -4.6065   0.5292   7.6924   8.0455   8.6227

     occupation numbers 
     1.0000   1.0000   1.0000   1.0000   0.0000   0.0000   0.0000   0.0000

          k = 0.1533 0.4965 0.0000 (  5174 PWs)   bands (ev):

   -16.7618 -13.6357  -9.8444  -4.4968   0.3927   7.8425   8.0630   8.7732

     occupation numbers 
     1.0000   1.0000   1.0000   1.0000   0.0000   0.0000   0.0000   0.0000

          k = 0.1533 0.5042 0.0000 (  5180 PWs)   bands (ev):

   -16.6383 -13.7861  -9.8673  -4.3909   0.2623   7.9339   8.1421   8.9205

     occupation numbers 
     1.0000   1.0000   1.0000   1.0000   0.0000   0.0000   0.0000   0.0000

          k = 0.1533 0.5119 0.0000 (  5182 PWs)   bands (ev):

   -16.5143 -13.9344  -9.8879  -4.2898   0.1391   7.9585   8.2909   9.0633

     occupation numbers 
     1.0000   1.0000   1.0000   1.0000   0.0000   0.0000   0.0000   0.0000

          k = 0.1533 0.5196 0.0000 (  5188 PWs)   bands (ev):

   -16.3903 -14.0800  -9.9061  -4.1945   0.0240   7.9621   8.4635   9.2001

     occupation numbers 
     1.0000   1.0000   1.0000   1.0000   0.0000   0.0000   0.0000   0.0000

          k = 0.1533 0.5273 0.0000 (  5192 PWs)   bands (ev):

   -16.2671 -14.2223  -9.9221  -4.1064  -0.0815   7.9605   8.6441   9.3287

     occupation numbers 
     1.0000   1.0000   1.0000   1.0000   0.0000   0.0000   0.0000   0.0000

          k = 0.1533 0.5350 0.0000 (  5198 PWs)   bands (ev):

   -16.1456 -14.3602  -9.9358  -4.0267  -0.1762   7.9575   8.8288   9.4468

     occupation numbers 
     1.0000   1.0000   1.0000   1.0000   0.0000   0.0000   0.0000   0.0000

          k = 0.1533 0.5427 0.0000 (  5196 PWs)   bands (ev):

   -16.0275 -14.4919  -9.9472  -3.9569  -0.2584   7.9543   9.0162   9.5517

     occupation numbers 
     1.0000   1.0000   1.0000   1.0000   0.0000   0.0000   0.0000   0.0000

          k = 0.1533 0.5504 0.0000 (  5196 PWs)   bands (ev):

   -15.9159 -14.6145  -9.9563  -3.8987  -0.3266   7.9514   9.2055   9.6405

     occupation numbers 
     1.0000   1.0000   1.0000   1.0000   0.0000   0.0000   0.0000   0.0000

          k = 0.1533 0.5581 0.0000 (  5192 PWs)   bands (ev):

   -15.8158 -14.7229  -9.9632  -3.8535  -0.3794   7.9491   9.3959   9.7103

     occupation numbers 
     1.0000   1.0000   1.0000   1.0000   0.0000   0.0000   0.0000   0.0000

          k = 0.1533 0.5658 0.0000 (  5194 PWs)   bands (ev):

   -15.7362 -14.8080  -9.9677  -3.8225  -0.4154   7.9476   9.5861   9.7584

     occupation numbers 
     1.0000   1.0000   1.0000   1.0000   0.0000   0.0000   0.0000   0.0000

          k = 0.1533 0.5735 0.0000 (  5196 PWs)   bands (ev):

   -15.6903 -14.8566  -9.9700  -3.8067  -0.4337   7.9468   9.7678   9.7832

     occupation numbers 
     1.0000   1.0000   1.0000   1.0000   0.0000   0.0000   0.0000   0.0000

          k = 0.1600 0.2771 0.0000 (  5144 PWs)   bands (ev):

   -19.6038  -9.3663  -8.1792  -7.5599   3.8898   4.8674   4.9479   5.3954

     occupation numbers 
     1.0000   1.0000   1.0000   1.0000   0.0000   0.0000   0.0000   0.0000

          k = 0.1600 0.2848 0.0000 (  5142 PWs)   bands (ev):

   -19.5283  -9.4886  -8.2842  -7.4714   3.9945   4.7151   5.0522   5.5032

     occupation numbers 
     1.0000   1.0000   1.0000   1.0000   0.0000   0.0000   0.0000   0.0000

          k = 0.1600 0.2925 0.0000 (  5146 PWs)   bands (ev):

   -19.4508  -9.6143  -8.3863  -7.3807   4.1020   4.5610   5.1593   5.6139

     occupation numbers 
     1.0000   1.0000   1.0000   1.0000   0.0000   0.0000   0.0000   0.0000

          k = 0.1600 0.3002 0.0000 (  5160 PWs)   bands (ev):

   -19.3713  -9.7434  -8.4854  -7.2879   4.2124   4.4055   5.2691   5.7276

     occupation numbers 
     1.0000   1.0000   1.0000   1.0000   0.0000   0.0000   0.0000   0.0000

          k = 0.1600 0.3079 0.0000 (  5161 PWs)   bands (ev):

   -19.2899  -9.8759  -8.5811  -7.1931   4.2484   4.3255   5.3815   5.8442

     occupation numbers 
     1.0000   1.0000   1.0000   1.0000   0.0000   0.0000   0.0000   0.0000

          k = 0.1600 0.3156 0.0000 (  5163 PWs)   bands (ev):

   -19.2065 -10.0116  -8.6734  -7.0963   4.0901   4.4415   5.4967   5.9638

     occupation numbers 
     1.0000   1.0000   1.0000   1.0000   0.0000   0.0000   0.0000   0.0000

          k = 0.1600 0.3233 0.0000 (  5161 PWs)   bands (ev):

   -19.1212 -10.1504  -8.7622  -6.9974   3.9305   4.5602   5.6144   6.0863

     occupation numbers 
     1.0000   1.0000   1.0000   1.0000   0.0000   0.0000   0.0000   0.0000

          k = 0.1600 0.3310 0.0000 (  5159 PWs)   bands (ev):

   -19.0340 -10.2921  -8.8474  -6.8967   3.7699   4.6818   5.7348   6.2117

     occupation numbers 
     1.0000   1.0000   1.0000   1.0000   0.0000   0.0000   0.0000   0.0000

          k = 0.1600 0.3387 0.0000 (  5163 PWs)   bands (ev):

   -18.9448 -10.4366  -8.9292  -6.7940   3.6083   4.8060   5.8577   6.3401

     occupation numbers 
     1.0000   1.0000   1.0000   1.0000   0.0000   0.0000   0.0000   0.0000

          k = 0.1600 0.3464 0.0000 (  5161 PWs)   bands (ev):

   -18.8537 -10.5834  -9.0075  -6.6896   3.4458   4.9331   5.9832   6.4713

     occupation numbers 
     1.0000   1.0000   1.0000   1.0000   0.0000   0.0000   0.0000   0.0000

          k = 0.1600 0.3541 0.0000 (  5157 PWs)   bands (ev):

   -18.7608 -10.7325  -9.0825  -6.5833   3.2826   5.0629   6.1112   6.6055

     occupation numbers 
     1.0000   1.0000   1.0000   1.0000   0.0000   0.0000   0.0000   0.0000

          k = 0.1600 0.3618 0.0000 (  5159 PWs)   bands (ev):

   -18.6659 -10.8834  -9.1542  -6.4754   3.1189   5.1954   6.2416   6.7426

     occupation numbers 
     1.0000   1.0000   1.0000   1.0000   0.0000   0.0000   0.0000   0.0000

          k = 0.1600 0.3695 0.0000 (  5160 PWs)   bands (ev):

   -18.5692 -11.0361  -9.2228  -6.3659   2.9547   5.3307   6.3744   6.8825

     occupation numbers 
     1.0000   1.0000   1.0000   1.0000   0.0000   0.0000   0.0000   0.0000

          k = 0.1600 0.3772 0.0000 (  5160 PWs)   bands (ev):

   -18.4707 -11.1901  -9.2883  -6.2548   2.7902   5.4686   6.5095   7.0254

     occupation numbers 
     1.0000   1.0000   1.0000   1.0000   0.0000   0.0000   0.0000   0.0000

          k = 0.1600 0.3849 0.0000 (  5159 PWs)   bands (ev):

   -18.3703 -11.3453  -9.3508  -6.1423   2.6256   5.6093   6.6469   7.1711

     occupation numbers 
     1.0000   1.0000   1.0000   1.0000   0.0000   0.0000   0.0000   0.0000

          k = 0.1600 0.3926 0.0000 (  5165 PWs)   bands (ev):

   -18.2681 -11.5014  -9.4105  -6.0284   2.4610   5.7526   6.7865   7.3196

     occupation numbers 
     1.0000   1.0000   1.0000   1.0000   0.0000   0.0000   0.0000   0.0000

          k = 0.1600 0.4003 0.0000 (  5167 PWs)   bands (ev):

   -18.1641 -11.6583  -9.4673  -5.9133   2.2967   5.8986   6.9281   7.4709

     occupation numbers 
     1.0000   1.0000   1.0000   1.0000   0.0000   0.0000   0.0000   0.0000

          k = 0.1600 0.4080 0.0000 (  5171 PWs)   bands (ev):

   -18.0583 -11.8157  -9.5214  -5.7971   2.1328   6.0472   7.0717   7.6247

     occupation numbers 
     1.0000   1.0000   1.0000   1.0000   0.0000   0.0000   0.0000   0.0000

          k = 0.1600 0.4157 0.0000 (  5173 PWs)   bands (ev):

   -17.9508 -11.9735  -9.5728  -5.6799   1.9695   6.1985   7.2172   7.7809

     occupation numbers 
     1.0000   1.0000   1.0000   1.0000   0.0000   0.0000   0.0000   0.0000

          k = 0.1600 0.4234 0.0000 (  5173 PWs)   bands (ev):

   -17.8416 -12.1314  -9.6215  -5.5620   1.8071   6.3523   7.3643   7.9384

     occupation numbers 
     1.0000   1.0000   1.0000   1.0000   0.0000   0.0000   0.0000   0.0000

          k = 0.1600 0.4311 0.0000 (  5175 PWs)   bands (ev):

   -17.7307 -12.2894  -9.6677  -5.4435   1.6458   6.5086   7.5130   8.0935

     occupation numbers 
     1.0000   1.0000   1.0000   1.0000   0.0000   0.0000   0.0000   0.0000

          k = 0.1600 0.4388 0.0000 (  5181 PWs)   bands (ev):

   -17.6182 -12.4472  -9.7114  -5.3246   1.4860   6.6674   7.6629   8.2168

     occupation numbers 
     1.0000   1.0000   1.0000   1.0000   0.0000   0.0000   0.0000   0.0000

          k = 0.1600 0.4465 0.0000 (  5183 PWs)   bands (ev):

   -17.5041 -12.6046  -9.7526  -5.2056   1.3278   6.8286   7.8139   8.2458

     occupation numbers 
     1.0000   1.0000   1.0000   1.0000   0.0000   0.0000   0.0000   0.0000

          k = 0.1600 0.4542 0.0000 (  5171 PWs)   bands (ev):

   -17.3884 -12.7616  -9.7913  -5.0868   1.1718   6.9921   7.9655   8.2391

     occupation numbers 
     1.0000   1.0000   1.0000   1.0000   0.0000   0.0000   0.0000   0.0000

          k = 0.1600 0.4619 0.0000 (  5165 PWs)   bands (ev):

   -17.2712 -12.9180  -9.8275  -4.9685   1.0182   7.1578   8.1175   8.2303

     occupation numbers 
     1.0000   1.0000   1.0000   1.0000   0.0000   0.0000   0.0000   0.0000

          k = 0.1600 0.4696 0.0000 (  5162 PWs)   bands (ev):

   -17.1527 -13.0736  -9.8613  -4.8511   0.8675   7.3255   8.2210   8.2692

     occupation numbers 
     1.0000   1.0000   1.0000   1.0000   0.0000   0.0000   0.0000   0.0000

          k = 0.1600 0.4773 0.0000 (  5168 PWs)   bands (ev):

   -17.0328 -13.2283  -9.8928  -4.7351   0.7203   7.4946   8.2124   8.4203

     occupation numbers 
     1.0000   1.0000   1.0000   1.0000   0.0000   0.0000   0.0000   0.0000

          k = 0.1600 0.4850 0.0000 (  5174 PWs)   bands (ev):

   -16.9117 -13.3819  -9.9218  -4.6210   0.5771   7.6644   8.2059   8.5699

     occupation numbers 
     1.0000   1.0000   1.0000   1.0000   0.0000   0.0000   0.0000   0.0000

          k = 0.1600 0.4927 0.0000 (  5174 PWs)   bands (ev):

   -16.7895 -13.5341  -9.9485  -4.5095   0.4387   7.8322   8.2041   8.7172

     occupation numbers 
     1.0000   1.0000   1.0000   1.0000   0.0000   0.0000   0.0000   0.0000

          k = 0.1600 0.5004 0.0000 (  5176 PWs)   bands (ev):

   -16.6665 -13.6847  -9.9728  -4.4013   0.3058   7.9878   8.2174   8.8610

     occupation numbers 
     1.0000   1.0000   1.0000   1.0000   0.0000   0.0000   0.0000   0.0000

          k = 0.1600 0.5081 0.0000 (  5180 PWs)   bands (ev):

   -16.5429 -13.8335  -9.9948  -4.2974   0.1793   8.0908   8.2861   9.0002

     occupation numbers 
     1.0000   1.0000   1.0000   1.0000   0.0000   0.0000   0.0000   0.0000

          k = 0.1600 0.5158 0.0000 (  5190 PWs)   bands (ev):

   -16.4191 -13.9799 -10.0145  -4.1986   0.0603   8.1207   8.4307   9.1330

     occupation numbers 
     1.0000   1.0000   1.0000   1.0000   0.0000   0.0000   0.0000   0.0000

          k = 0.1600 0.5235 0.0000 (  5188 PWs)   bands (ev):

   -16.2956 -14.1234 -10.0318  -4.1063  -0.0500   8.1256   8.6030   9.2576

     occupation numbers 
     1.0000   1.0000   1.0000   1.0000   0.0000   0.0000   0.0000   0.0000

          k = 0.1600 0.5312 0.0000 (  5194 PWs)   bands (ev):

   -16.1733 -14.2631 -10.0468  -4.0217  -0.1501   8.1246   8.7839   9.3720

     occupation numbers 
     1.0000   1.0000   1.0000   1.0000   0.0000   0.0000   0.0000   0.0000

          k = 0.1600 0.5389 0.0000 (  5200 PWs)   bands (ev):

   -16.0535 -14.3977 -10.0595  -3.9464  -0.2388   8.1221   8.9689   9.4738

     occupation numbers 
     1.0000   1.0000   1.0000   1.0000   0.0000   0.0000   0.0000   0.0000

          k = 0.1600 0.5466 0.0000 (  5196 PWs)   bands (ev):

   -15.9385 -14.5249 -10.0699  -3.8818  -0.3143   8.1193   9.1563   9.5607

     occupation numbers 
     1.0000   1.0000   1.0000   1.0000   0.0000   0.0000   0.0000   0.0000

          k = 0.1600 0.5543 0.0000 (  5192 PWs)   bands (ev):

   -15.8321 -14.6407 -10.0779  -3.8294  -0.3751   8.1169   9.3454   9.6307

     occupation numbers 
     1.0000   1.0000   1.0000   1.0000   0.0000   0.0000   0.0000   0.0000

          k = 0.1600 0.5620 0.0000 (  5192 PWs)   bands (ev):

   -15.7411 -14.7385 -10.0837  -3.7908  -0.4197   8.1150   9.5350   9.6819

     occupation numbers 
     1.0000   1.0000   1.0000   1.0000   0.0000   0.0000   0.0000   0.0000

          k = 0.1600 0.5697 0.0000 (  5198 PWs)   bands (ev):

   -15.6767 -14.8069 -10.0872  -3.7672  -0.4470   8.1139   9.7131   9.7222

     occupation numbers 
     1.0000   1.0000   1.0000   1.0000   0.0000   0.0000   0.0000   0.0000

          k = 0.1600 0.5774 0.0000 (  5192 PWs)   bands (ev):

   -15.6529 -14.8321 -10.0883  -3.7592  -0.4562   8.1135   9.7239   9.8619

     occupation numbers 
     1.0000   1.0000   1.0000   1.0000   0.0000   0.0000   0.0000   0.0000

          k = 0.1667 0.2887 0.0000 (  5152 PWs)   bands (ev):

   -19.4518  -9.6066  -8.3924  -7.3819   4.1006   4.5646   5.1573   5.6125

     occupation numbers 
     1.0000   1.0000   1.0000   1.0000   0.0000   0.0000   0.0000   0.0000

          k = 0.1667 0.2964 0.0000 (  5152 PWs)   bands (ev):

   -19.3734  -9.7279  -8.4978  -7.2903   4.2096   4.4123   5.2654   5.7247

     occupation numbers 
     1.0000   1.0000   1.0000   1.0000   0.0000   0.0000   0.0000   0.0000

          k = 0.1667 0.3041 0.0000 (  5160 PWs)   bands (ev):

   -19.2930  -9.8525  -8.6001  -7.1966   4.2585   4.3213   5.3763   5.8398

     occupation numbers 
     1.0000   1.0000   1.0000   1.0000   0.0000   0.0000   0.0000   0.0000

          k = 0.1667 0.3118 0.0000 (  5161 PWs)   bands (ev):

   -19.2107  -9.9807  -8.6989  -7.1009   4.1032   4.4358   5.4898   5.9579

     occupation numbers 
     1.0000   1.0000   1.0000   1.0000   0.0000   0.0000   0.0000   0.0000

          k = 0.1667 0.3195 0.0000 (  5165 PWs)   bands (ev):

   -19.1264 -10.1122  -8.7940  -7.0032   3.9466   4.5532   5.6060   6.0790

     occupation numbers 
     1.0000   1.0000   1.0000   1.0000   0.0000   0.0000   0.0000   0.0000

          k = 0.1667 0.3272 0.0000 (  5159 PWs)   bands (ev):

   -19.0402 -10.2470  -8.8855  -6.9035   3.7889   4.6733   5.7247   6.2029

     occupation numbers 
     1.0000   1.0000   1.0000   1.0000   0.0000   0.0000   0.0000   0.0000

          k = 0.1667 0.3349 0.0000 (  5159 PWs)   bands (ev):

   -18.9520 -10.3849  -8.9731  -6.8019   3.6302   4.7961   5.8461   6.3298

     occupation numbers 
     1.0000   1.0000   1.0000   1.0000   0.0000   0.0000   0.0000   0.0000

          k = 0.1667 0.3426 0.0000 (  5163 PWs)   bands (ev):

   -18.8620 -10.5257  -9.0570  -6.6985   3.4705   4.9218   5.9699   6.4596

     occupation numbers 
     1.0000   1.0000   1.0000   1.0000   0.0000   0.0000   0.0000   0.0000

          k = 0.1667 0.3503 0.0000 (  5158 PWs)   bands (ev):

   -18.7700 -10.6692  -9.1372  -6.5932   3.3099   5.0502   6.0963   6.5924

     occupation numbers 
     1.0000   1.0000   1.0000   1.0000   0.0000   0.0000   0.0000   0.0000

          k = 0.1667 0.3580 0.0000 (  5158 PWs)   bands (ev):

   -18.6762 -10.8151  -9.2138  -6.4863   3.1488   5.1813   6.2250   6.7280

     occupation numbers 
     1.0000   1.0000   1.0000   1.0000   0.0000   0.0000   0.0000   0.0000

          k = 0.1667 0.3657 0.0000 (  5164 PWs)   bands (ev):

   -18.5805 -10.9632  -9.2868  -6.3776   2.9870   5.3152   6.3562   6.8666

     occupation numbers 
     1.0000   1.0000   1.0000   1.0000   0.0000   0.0000   0.0000   0.0000

          k = 0.1667 0.3734 0.0000 (  5166 PWs)   bands (ev):

   -18.4829 -11.1131  -9.3564  -6.2674   2.8249   5.4518   6.4896   7.0080

     occupation numbers 
     1.0000   1.0000   1.0000   1.0000   0.0000   0.0000   0.0000   0.0000

          k = 0.1667 0.3811 0.0000 (  5161 PWs)   bands (ev):

   -18.3835 -11.2646  -9.4228  -6.1557   2.6624   5.5910   6.6253   7.1523

     occupation numbers 
     1.0000   1.0000   1.0000   1.0000   0.0000   0.0000   0.0000   0.0000

          k = 0.1667 0.3887 0.0000 (  5165 PWs)   bands (ev):

   -18.2823 -11.4175  -9.4859  -6.0426   2.4999   5.7330   6.7632   7.2995

     occupation numbers 
     1.0000   1.0000   1.0000   1.0000   0.0000   0.0000   0.0000   0.0000

          k = 0.1667 0.3964 0.0000 (  5169 PWs)   bands (ev):

   -18.1793 -11.5715  -9.5460  -5.9282   2.3375   5.8776   6.9031   7.4495

     occupation numbers 
     1.0000   1.0000   1.0000   1.0000   0.0000   0.0000   0.0000   0.0000

          k = 0.1667 0.4041 0.0000 (  5173 PWs)   bands (ev):

   -18.0746 -11.7263  -9.6031  -5.8126   2.1753   6.0249   7.0449   7.6023

     occupation numbers 
     1.0000   1.0000   1.0000   1.0000   0.0000   0.0000   0.0000   0.0000

          k = 0.1667 0.4118 0.0000 (  5173 PWs)   bands (ev):

   -17.9680 -11.8818  -9.6573  -5.6960   2.0136   6.1747   7.1885   7.7577

     occupation numbers 
     1.0000   1.0000   1.0000   1.0000   0.0000   0.0000   0.0000   0.0000

          k = 0.1667 0.4195 0.0000 (  5177 PWs)   bands (ev):

   -17.8598 -12.0378  -9.7087  -5.5785   1.8526   6.3272   7.3337   7.9154

     occupation numbers 
     1.0000   1.0000   1.0000   1.0000   0.0000   0.0000   0.0000   0.0000

          k = 0.1667 0.4272 0.0000 (  5175 PWs)   bands (ev):

   -17.7499 -12.1940  -9.7573  -5.4603   1.6924   6.4822   7.4803   8.0748

     occupation numbers 
     1.0000   1.0000   1.0000   1.0000   0.0000   0.0000   0.0000   0.0000

          k = 0.1667 0.4349 0.0000 (  5177 PWs)   bands (ev):

   -17.6383 -12.3503  -9.8033  -5.3416   1.5335   6.6398   7.6282   8.2328

     occupation numbers 
     1.0000   1.0000   1.0000   1.0000   0.0000   0.0000   0.0000   0.0000

          k = 0.1667 0.4426 0.0000 (  5175 PWs)   bands (ev):

   -17.5251 -12.5065  -9.8466  -5.2226   1.3760   6.7997   7.7770   8.3684

     occupation numbers 
     1.0000   1.0000   1.0000   1.0000   0.0000   0.0000   0.0000   0.0000

          k = 0.1667 0.4503 0.0000 (  5173 PWs)   bands (ev):

   -17.4103 -12.6624  -9.8873  -5.1036   1.2203   6.9621   7.9263   8.4044

     occupation numbers 
     1.0000   1.0000   1.0000   1.0000   0.0000   0.0000   0.0000   0.0000

          k = 0.1667 0.4580 0.0000 (  5169 PWs)   bands (ev):

   -17.2940 -12.8179  -9.9255  -4.9850   1.0668   7.1268   8.0758   8.4014

     occupation numbers 
     1.0000   1.0000   1.0000   1.0000   0.0000   0.0000   0.0000   0.0000

          k = 0.1667 0.4657 0.0000 (  5172 PWs)   bands (ev):

   -17.1763 -12.9729  -9.9612  -4.8670   0.9158   7.2937   8.2250   8.3932

     occupation numbers 
     1.0000   1.0000   1.0000   1.0000   0.0000   0.0000   0.0000   0.0000

          k = 0.1667 0.4734 0.0000 (  5170 PWs)   bands (ev):

   -17.0572 -13.1270  -9.9943  -4.7501   0.7679   7.4625   8.3733   8.3842

     occupation numbers 
     1.0000   1.0000   1.0000   1.0000   0.0000   0.0000   0.0000   0.0000

          k = 0.1667 0.4811 0.0000 (  5170 PWs)   bands (ev):

   -16.9369 -13.2802 -10.0251  -4.6348   0.6236   7.6329   8.3757   8.5199

     occupation numbers 
     1.0000   1.0000   1.0000   1.0000   0.0000   0.0000   0.0000   0.0000

          k = 0.1667 0.4888 0.0000 (  5174 PWs)   bands (ev):

   -16.8154 -13.4322 -10.0534  -4.5217   0.4835   7.8041   8.3691   8.6639

     occupation numbers 
     1.0000   1.0000   1.0000   1.0000   0.0000   0.0000   0.0000   0.0000

          k = 0.1667 0.4965 0.0000 (  5178 PWs)   bands (ev):

   -16.6930 -13.5829 -10.0793  -4.4115   0.3484   7.9739   8.3665   8.8042

     occupation numbers 
     1.0000   1.0000   1.0000   1.0000   0.0000   0.0000   0.0000   0.0000

          k = 0.1667 0.5042 0.0000 (  5180 PWs)   bands (ev):

   -16.5699 -13.7319 -10.1027  -4.3050   0.2191   8.1342   8.3762   8.9395

     occupation numbers 
     1.0000   1.0000   1.0000   1.0000   0.0000   0.0000   0.0000   0.0000

          k = 0.1667 0.5119 0.0000 (  5180 PWs)   bands (ev):

   -16.4463 -13.8788 -10.1238  -4.2031   0.0966   8.2492   8.4341   9.0683

     occupation numbers 
     1.0000   1.0000   1.0000   1.0000   0.0000   0.0000   0.0000   0.0000

          k = 0.1667 0.5196 0.0000 (  5186 PWs)   bands (ev):

   -16.3228 -14.0232 -10.1426  -4.1070  -0.0179   8.2858   8.5729   9.1888

     occupation numbers 
     1.0000   1.0000   1.0000   1.0000   0.0000   0.0000   0.0000   0.0000

          k = 0.1667 0.5273 0.0000 (  5194 PWs)   bands (ev):

   -16.2001 -14.1644 -10.1590  -4.0179  -0.1231   8.2923   8.7446   9.2991

     occupation numbers 
     1.0000   1.0000   1.0000   1.0000   0.0000   0.0000   0.0000   0.0000

          k = 0.1667 0.5350 0.0000 (  5204 PWs)   bands (ev):

   -16.0791 -14.3012 -10.1730  -3.9372  -0.2177   8.2920   8.9255   9.3974

     occupation numbers 
     1.0000   1.0000   1.0000   1.0000   0.0000   0.0000   0.0000   0.0000

          k = 0.1667 0.5427 0.0000 (  5198 PWs)   bands (ev):

   -15.9616 -14.4319 -10.1846  -3.8665  -0.3000   8.2900   9.1105   9.4817

     occupation numbers 
     1.0000   1.0000   1.0000   1.0000   0.0000   0.0000   0.0000   0.0000

          k = 0.1667 0.5504 0.0000 (  5196 PWs)   bands (ev):

   -15.8505 -14.5536 -10.1940  -3.8074  -0.3685   8.2877   9.2978   9.5507

     occupation numbers 
     1.0000   1.0000   1.0000   1.0000   0.0000   0.0000   0.0000   0.0000

          k = 0.1667 0.5581 0.0000 (  5190 PWs)   bands (ev):

   -15.7510 -14.6610 -10.2010  -3.7613  -0.4215   8.2857   9.4862   9.6032

     occupation numbers 
     1.0000   1.0000   1.0000   1.0000   0.0000   0.0000   0.0000   0.0000

          k = 0.1667 0.5658 0.0000 (  5194 PWs)   bands (ev):

   -15.6719 -14.7454 -10.2056  -3.7298  -0.4577   8.2842   9.6384   9.6742

     occupation numbers 
     1.0000   1.0000   1.0000   1.0000   0.0000   0.0000   0.0000   0.0000

          k = 0.1667 0.5735 0.0000 (  5194 PWs)   bands (ev):

   -15.6264 -14.7936 -10.2080  -3.7137  -0.4761   8.2835   9.6561   9.8522

     occupation numbers 
     1.0000   1.0000   1.0000   1.0000   0.0000   0.0000   0.0000   0.0000

          k = 0.1733 0.3002 0.0000 (  5156 PWs)   bands (ev):

   -19.2940  -9.8446  -8.6066  -7.1978   4.2618   4.3199   5.3745   5.8384

     occupation numbers 
     1.0000   1.0000   1.0000   1.0000   0.0000   0.0000   0.0000   0.0000

          k = 0.1733 0.3079 0.0000 (  5160 PWs)   bands (ev):

   -19.2127  -9.9647  -8.7121  -7.1032   4.1098   4.4330   5.4864   5.9550

     occupation numbers 
     1.0000   1.0000   1.0000   1.0000   0.0000   0.0000   0.0000   0.0000

          k = 0.1733 0.3156 0.0000 (  5167 PWs)   bands (ev):

   -19.1295 -10.0882  -8.8142  -7.0066   3.9564   4.5489   5.6009   6.0746

     occupation numbers 
     1.0000   1.0000   1.0000   1.0000   0.0000   0.0000   0.0000   0.0000

          k = 0.1733 0.3233 0.0000 (  5171 PWs)   bands (ev):

   -19.0443 -10.2152  -8.9125  -6.9080   3.8017   4.6676   5.7180   6.1971

     occupation numbers 
     1.0000   1.0000   1.0000   1.0000   0.0000   0.0000   0.0000   0.0000

          k = 0.1733 0.3310 0.0000 (  5164 PWs)   bands (ev):

   -18.9572 -10.3456  -9.0069  -6.8075   3.6459   4.7891   5.8377   6.3225

     occupation numbers 
     1.0000   1.0000   1.0000   1.0000   0.0000   0.0000   0.0000   0.0000

          k = 0.1733 0.3387 0.0000 (  5158 PWs)   bands (ev):

   -18.8681 -10.4794  -9.0973  -6.7051   3.4891   4.9133   5.9599   6.4509

     occupation numbers 
     1.0000   1.0000   1.0000   1.0000   0.0000   0.0000   0.0000   0.0000

          k = 0.1733 0.3464 0.0000 (  5160 PWs)   bands (ev):

   -18.7772 -10.6162  -9.1836  -6.6009   3.3314   5.0403   6.0846   6.5822

     occupation numbers 
     1.0000   1.0000   1.0000   1.0000   0.0000   0.0000   0.0000   0.0000

          k = 0.1733 0.3541 0.0000 (  5164 PWs)   bands (ev):

   -18.6844 -10.7560  -9.2659  -6.4949   3.1729   5.1700   6.2118   6.7164

     occupation numbers 
     1.0000   1.0000   1.0000   1.0000   0.0000   0.0000   0.0000   0.0000

          k = 0.1733 0.3618 0.0000 (  5166 PWs)   bands (ev):

   -18.5897 -10.8985  -9.3444  -6.3873   3.0138   5.3025   6.3412   6.8535

     occupation numbers 
     1.0000   1.0000   1.0000   1.0000   0.0000   0.0000   0.0000   0.0000

          k = 0.1733 0.3695 0.0000 (  5164 PWs)   bands (ev):

   -18.4932 -11.0433  -9.4190  -6.2780   2.8542   5.4377   6.4730   6.9935

     occupation numbers 
     1.0000   1.0000   1.0000   1.0000   0.0000   0.0000   0.0000   0.0000

          k = 0.1733 0.3772 0.0000 (  5164 PWs)   bands (ev):

   -18.3948 -11.1903  -9.4899  -6.1671   2.6941   5.5756   6.6070   7.1364

     occupation numbers 
     1.0000   1.0000   1.0000   1.0000   0.0000   0.0000   0.0000   0.0000

          k = 0.1733 0.3849 0.0000 (  5163 PWs)   bands (ev):

   -18.2946 -11.3391  -9.5573  -6.0548   2.5339   5.7161   6.7431   7.2822

     occupation numbers 
     1.0000   1.0000   1.0000   1.0000   0.0000   0.0000   0.0000   0.0000

          k = 0.1733 0.3926 0.0000 (  5167 PWs)   bands (ev):

   -18.1926 -11.4894  -9.6213  -5.9411   2.3735   5.8594   6.8812   7.4309

     occupation numbers 
     1.0000   1.0000   1.0000   1.0000   0.0000   0.0000   0.0000   0.0000

          k = 0.1733 0.4003 0.0000 (  5173 PWs)   bands (ev):

   -18.0888 -11.6410  -9.6820  -5.8262   2.2133   6.0053   7.0212   7.5823

     occupation numbers 
     1.0000   1.0000   1.0000   1.0000   0.0000   0.0000   0.0000   0.0000

          k = 0.1733 0.4080 0.0000 (  5175 PWs)   bands (ev):

   -17.9832 -11.7937  -9.7395  -5.7102   2.0534   6.1538   7.1629   7.7366

     occupation numbers 
     1.0000   1.0000   1.0000   1.0000   0.0000   0.0000   0.0000   0.0000

          k = 0.1733 0.4157 0.0000 (  5173 PWs)   bands (ev):

   -17.8760 -11.9471  -9.7939  -5.5932   1.8939   6.3049   7.3062   7.8935

     occupation numbers 
     1.0000   1.0000   1.0000   1.0000   0.0000   0.0000   0.0000   0.0000

          k = 0.1733 0.4234 0.0000 (  5175 PWs)   bands (ev):

   -17.7670 -12.1011  -9.8454  -5.4754   1.7351   6.4586   7.4508   8.0528

     occupation numbers 
     1.0000   1.0000   1.0000   1.0000   0.0000   0.0000   0.0000   0.0000

          k = 0.1733 0.4311 0.0000 (  5173 PWs)   bands (ev):

   -17.6564 -12.2555  -9.8940  -5.3569   1.5773   6.6148   7.5966   8.2139

     occupation numbers 
     1.0000   1.0000   1.0000   1.0000   0.0000   0.0000   0.0000   0.0000

          k = 0.1733 0.4388 0.0000 (  5175 PWs)   bands (ev):

   -17.5441 -12.4100  -9.9397  -5.2381   1.4207   6.7735   7.7432   8.3745

     occupation numbers 
     1.0000   1.0000   1.0000   1.0000   0.0000   0.0000   0.0000   0.0000

          k = 0.1733 0.4465 0.0000 (  5171 PWs)   bands (ev):

   -17.4302 -12.5646  -9.9828  -5.1191   1.2656   6.9346   7.8902   8.5187

     occupation numbers 
     1.0000   1.0000   1.0000   1.0000   0.0000   0.0000   0.0000   0.0000

          k = 0.1733 0.4542 0.0000 (  5174 PWs)   bands (ev):

   -17.3149 -12.7189 -10.0231  -5.0002   1.1124   7.0981   8.0373   8.6845

     occupation numbers 
     1.0000   1.0000   1.0000   1.0000   0.0000   0.0000   0.0000   0.0000

          k = 0.1733 0.4619 0.0000 (  5174 PWs)   bands (ev):

   -17.1980 -12.8728 -10.0608  -4.8817   0.9615   7.2639   8.1839   8.5669

     occupation numbers 
     1.0000   1.0000   1.0000   1.0000   0.0000   0.0000   0.0000   0.0000

          k = 0.1733 0.4696 0.0000 (  5178 PWs)   bands (ev):

   -17.0798 -13.0262 -10.0959  -4.7641   0.8132   7.4319   8.3293   8.5591

     occupation numbers 
     1.0000   1.0000   1.0000   1.0000   0.0000   0.0000   0.0000   0.0000

          k = 0.1733 0.4773 0.0000 (  5180 PWs)   bands (ev):

   -16.9602 -13.1788 -10.1285  -4.6478   0.6681   7.6018   8.4728   8.5504

     occupation numbers 
     1.0000   1.0000   1.0000   1.0000   0.0000   0.0000   0.0000   0.0000

          k = 0.1733 0.4850 0.0000 (  5176 PWs)   bands (ev):

   -16.8395 -13.3304 -10.1585  -4.5333   0.5267   7.7734   8.5422   8.6135

     occupation numbers 
     1.0000   1.0000   1.0000   1.0000   0.0000   0.0000   0.0000   0.0000

          k = 0.1733 0.4927 0.0000 (  5178 PWs)   bands (ev):

   -16.7177 -13.4809 -10.1861  -4.4213   0.3898   7.9459   8.5355   8.7502

     occupation numbers 
     1.0000   1.0000   1.0000   1.0000   0.0000   0.0000   0.0000   0.0000

          k = 0.1733 0.5004 0.0000 (  5178 PWs)   bands (ev):

   -16.5951 -13.6299 -10.2112  -4.3125   0.2582   8.1175   8.5323   8.8816

     occupation numbers 
     1.0000   1.0000   1.0000   1.0000   0.0000   0.0000   0.0000   0.0000

          k = 0.1733 0.5081 0.0000 (  5180 PWs)   bands (ev):

   -16.4720 -13.7771 -10.2339  -4.2078   0.1327   8.2818   8.5390   9.0062

     occupation numbers 
     1.0000   1.0000   1.0000   1.0000   0.0000   0.0000   0.0000   0.0000

          k = 0.1733 0.5158 0.0000 (  5182 PWs)   bands (ev):

   -16.3486 -13.9221 -10.2541  -4.1082   0.0144   8.4084   8.5862   9.1224

     occupation numbers 
     1.0000   1.0000   1.0000   1.0000   0.0000   0.0000   0.0000   0.0000

          k = 0.1733 0.5235 0.0000 (  5190 PWs)   bands (ev):

   -16.2256 -14.0643 -10.2719  -4.0149  -0.0954   8.4534   8.7176   9.2285

     occupation numbers 
     1.0000   1.0000   1.0000   1.0000   0.0000   0.0000   0.0000   0.0000

          k = 0.1733 0.5312 0.0000 (  5194 PWs)   bands (ev):

   -16.1038 -14.2028 -10.2873  -3.9293  -0.1955   8.4618   8.8880   9.3229

     occupation numbers 
     1.0000   1.0000   1.0000   1.0000   0.0000   0.0000   0.0000   0.0000

          k = 0.1733 0.5389 0.0000 (  5196 PWs)   bands (ev):

   -15.9846 -14.3363 -10.3003  -3.8529  -0.2842   8.4623   9.0687   9.4041

     occupation numbers 
     1.0000   1.0000   1.0000   1.0000   0.0000   0.0000   0.0000   0.0000

          k = 0.1733 0.5466 0.0000 (  5198 PWs)   bands (ev):

   -15.8702 -14.4624 -10.3110  -3.7872  -0.3599   8.4607   9.2535   9.4713

     occupation numbers 
     1.0000   1.0000   1.0000   1.0000   0.0000   0.0000   0.0000   0.0000

          k = 0.1733 0.5543 0.0000 (  5194 PWs)   bands (ev):

   -15.7643 -14.5773 -10.3193  -3.7340  -0.4210   8.4589   9.4403   9.5236

     occupation numbers 
     1.0000   1.0000   1.0000   1.0000   0.0000   0.0000   0.0000   0.0000

          k = 0.1733 0.5620 0.0000 (  5194 PWs)   bands (ev):

   -15.6740 -14.6742 -10.3252  -3.6946  -0.4659   8.4573   9.5610   9.6276

     occupation numbers 
     1.0000   1.0000   1.0000   1.0000   0.0000   0.0000   0.0000   0.0000

          k = 0.1733 0.5697 0.0000 (  5194 PWs)   bands (ev):

   -15.6101 -14.7420 -10.3287  -3.6705  -0.4934   8.4563   9.5834   9.8118

     occupation numbers 
     1.0000   1.0000   1.0000   1.0000   0.0000   0.0000   0.0000   0.0000

          k = 0.1733 0.5774 0.0000 (  5196 PWs)   bands (ev):

   -15.5864 -14.7670 -10.3299  -3.6623  -0.5027   8.4560   9.5908   9.9447

     occupation numbers 
     1.0000   1.0000   1.0000   1.0000   0.0000   0.0000   0.0000   0.0000

          k = 0.1800 0.3118 0.0000 (  5172 PWs)   bands (ev):

   -19.1305 -10.0800  -8.8211  -7.0077   3.9596   4.5475   5.5992   6.0731

     occupation numbers 
     1.0000   1.0000   1.0000   1.0000   0.0000   0.0000   0.0000   0.0000

          k = 0.1800 0.3195 0.0000 (  5172 PWs)   bands (ev):

   -19.0463 -10.1988  -8.9266  -6.9103   3.8081   4.6648   5.7146   6.1942

     occupation numbers 
     1.0000   1.0000   1.0000   1.0000   0.0000   0.0000   0.0000   0.0000

          k = 0.1800 0.3272 0.0000 (  5164 PWs)   bands (ev):

   -18.9603 -10.3210  -9.0283  -6.8109   3.6554   4.7848   5.8327   6.3181

     occupation numbers 
     1.0000   1.0000   1.0000   1.0000   0.0000   0.0000   0.0000   0.0000

          k = 0.1800 0.3349 0.0000 (  5166 PWs)   bands (ev):

   -18.8722 -10.4467  -9.1259  -6.7096   3.5017   4.9077   5.9532   6.4450

     occupation numbers 
     1.0000   1.0000   1.0000   1.0000   0.0000   0.0000   0.0000   0.0000

          k = 0.1800 0.3426 0.0000 (  5166 PWs)   bands (ev):

   -18.7823 -10.5759  -9.2192  -6.6064   3.3469   5.0332   6.0763   6.5749

     occupation numbers 
     1.0000   1.0000   1.0000   1.0000   0.0000   0.0000   0.0000   0.0000

          k = 0.1800 0.3503 0.0000 (  5170 PWs)   bands (ev):

   -18.6905 -10.7085  -9.3083  -6.5015   3.1913   5.1616   6.2017   6.7076

     occupation numbers 
     1.0000   1.0000   1.0000   1.0000   0.0000   0.0000   0.0000   0.0000

          k = 0.1800 0.3580 0.0000 (  5172 PWs)   bands (ev):

   -18.5969 -10.8442  -9.3932  -6.3948   3.0349   5.2926   6.3295   6.8433

     occupation numbers 
     1.0000   1.0000   1.0000   1.0000   0.0000   0.0000   0.0000   0.0000

          k = 0.1800 0.3657 0.0000 (  5168 PWs)   bands (ev):

   -18.5013 -10.9829  -9.4738  -6.2864   2.8779   5.4264   6.4596   6.9819

     occupation numbers 
     1.0000   1.0000   1.0000   1.0000   0.0000   0.0000   0.0000   0.0000

          k = 0.1800 0.3734 0.0000 (  5166 PWs)   bands (ev):

   -18.4040 -11.1242  -9.5503  -6.1764   2.7204   5.5629   6.5919   7.1234

     occupation numbers 
     1.0000   1.0000   1.0000   1.0000   0.0000   0.0000   0.0000   0.0000

          k = 0.1800 0.3811 0.0000 (  5165 PWs)   bands (ev):

   -18.3048 -11.2679  -9.6228  -6.0650   2.5626   5.7021   6.7262   7.2677

     occupation numbers 
     1.0000   1.0000   1.0000   1.0000   0.0000   0.0000   0.0000   0.0000

          k = 0.1800 0.3887 0.0000 (  5165 PWs)   bands (ev):

   -18.2038 -11.4136  -9.6915  -5.9521   2.4045   5.8439   6.8626   7.4150

     occupation numbers 
     1.0000   1.0000   1.0000   1.0000   0.0000   0.0000   0.0000   0.0000

          k = 0.1800 0.3964 0.0000 (  5175 PWs)   bands (ev):

   -18.1010 -11.5612  -9.7565  -5.8379   2.2464   5.9884   7.0007   7.5651

     occupation numbers 
     1.0000   1.0000   1.0000   1.0000   0.0000   0.0000   0.0000   0.0000

          k = 0.1800 0.4041 0.0000 (  5169 PWs)   bands (ev):

   -17.9964 -11.7102  -9.8180  -5.7225   2.0884   6.1356   7.1406   7.7180

     occupation numbers 
     1.0000   1.0000   1.0000   1.0000   0.0000   0.0000   0.0000   0.0000

          k = 0.1800 0.4118 0.0000 (  5175 PWs)   bands (ev):

   -17.8901 -11.8605  -9.8761  -5.6061   1.9307   6.2853   7.2819   7.8738

     occupation numbers 
     1.0000   1.0000   1.0000   1.0000   0.0000   0.0000   0.0000   0.0000

          k = 0.1800 0.4195 0.0000 (  5173 PWs)   bands (ev):

   -17.7821 -12.0117  -9.9309  -5.4888   1.7736   6.4376   7.4246   8.0322

     occupation numbers 
     1.0000   1.0000   1.0000   1.0000   0.0000   0.0000   0.0000   0.0000

          k = 0.1800 0.4272 0.0000 (  5173 PWs)   bands (ev):

   -17.6724 -12.1636  -9.9825  -5.3707   1.6172   6.5925   7.5683   8.1930

     occupation numbers 
     1.0000   1.0000   1.0000   1.0000   0.0000   0.0000   0.0000   0.0000

          k = 0.1800 0.4349 0.0000 (  5173 PWs)   bands (ev):

   -17.5611 -12.3160 -10.0312  -5.2520   1.4617   6.7499   7.7126   8.3559

     occupation numbers 
     1.0000   1.0000   1.0000   1.0000   0.0000   0.0000   0.0000   0.0000

          k = 0.1800 0.4426 0.0000 (  5172 PWs)   bands (ev):

   -17.4482 -12.4687 -10.0768  -5.1331   1.3075   6.9098   7.8574   8.5188

     occupation numbers 
     1.0000   1.0000   1.0000   1.0000   0.0000   0.0000   0.0000   0.0000

          k = 0.1800 0.4503 0.0000 (  5178 PWs)   bands (ev):

   -17.3337 -12.6214 -10.1196  -5.0141   1.1549   7.0720   8.0020   8.6693

     occupation numbers 
     1.0000   1.0000   1.0000   1.0000   0.0000   0.0000   0.0000   0.0000

          k = 0.1800 0.4580 0.0000 (  5174 PWs)   bands (ev):

   -17.2178 -12.7740 -10.1597  -4.8953   1.0042   7.2366   8.1459   8.7337

     occupation numbers 
     1.0000   1.0000   1.0000   1.0000   0.0000   0.0000   0.0000   0.0000

          k = 0.1800 0.4657 0.0000 (  5178 PWs)   bands (ev):

   -17.1004 -12.9262 -10.1969  -4.7771   0.8559   7.4035   8.2884   8.7349

     occupation numbers 
     1.0000   1.0000   1.0000   1.0000   0.0000   0.0000   0.0000   0.0000

          k = 0.1800 0.4734 0.0000 (  5180 PWs)   bands (ev):

   -16.9817 -13.0780 -10.2316  -4.6599   0.7103   7.5725   8.4289   8.7279

     occupation numbers 
     1.0000   1.0000   1.0000   1.0000   0.0000   0.0000   0.0000   0.0000

          k = 0.1800 0.4811 0.0000 (  5186 PWs)   bands (ev):

   -16.8617 -13.2289 -10.2635  -4.5443   0.5681   7.7434   8.5661   8.7193

     occupation numbers 
     1.0000   1.0000   1.0000   1.0000   0.0000   0.0000   0.0000   0.0000

          k = 0.1800 0.4888 0.0000 (  5182 PWs)   bands (ev):

   -16.7407 -13.3789 -10.2929  -4.4307   0.4298   7.9160   8.6991   8.7113

     occupation numbers 
     1.0000   1.0000   1.0000   1.0000   0.0000   0.0000   0.0000   0.0000

          k = 0.1800 0.4965 0.0000 (  5184 PWs)   bands (ev):

   -16.6187 -13.5277 -10.3198  -4.3199   0.2962   8.0897   8.7046   8.8266

     occupation numbers 
     1.0000   1.0000   1.0000   1.0000   0.0000   0.0000   0.0000   0.0000

          k = 0.1800 0.5042 0.0000 (  5180 PWs)   bands (ev):

   -16.4960 -13.6750 -10.3441  -4.2126   0.1681   8.2629   8.7008   8.9470

     occupation numbers 
     1.0000   1.0000   1.0000   1.0000   0.0000   0.0000   0.0000   0.0000

          k = 0.1800 0.5119 0.0000 (  5180 PWs)   bands (ev):

   -16.3729 -13.8203 -10.3659  -4.1099   0.0465   8.4305   8.7053   9.0588

     occupation numbers 
     1.0000   1.0000   1.0000   1.0000   0.0000   0.0000   0.0000   0.0000

          k = 0.1800 0.5196 0.0000 (  5182 PWs)   bands (ev):

   -16.2499 -13.9633 -10.3853  -4.0128  -0.0675   8.5677   8.7427   9.1605

     occupation numbers 
     1.0000   1.0000   1.0000   1.0000   0.0000   0.0000   0.0000   0.0000

          k = 0.1800 0.5273 0.0000 (  5182 PWs)   bands (ev):

   -16.1276 -14.1031 -10.4022  -3.9226  -0.1725   8.6229   8.8645   9.2507

     occupation numbers 
     1.0000   1.0000   1.0000   1.0000   0.0000   0.0000   0.0000   0.0000

          k = 0.1800 0.5350 0.0000 (  5190 PWs)   bands (ev):

   -16.0072 -14.2386 -10.4167  -3.8408  -0.2670   8.6337   9.0332   9.3285

     occupation numbers 
     1.0000   1.0000   1.0000   1.0000   0.0000   0.0000   0.0000   0.0000

          k = 0.1800 0.5427 0.0000 (  5194 PWs)   bands (ev):

   -15.8903 -14.3681 -10.4287  -3.7690  -0.3495   8.6349   9.2134   9.3932

     occupation numbers 
     1.0000   1.0000   1.0000   1.0000   0.0000   0.0000   0.0000   0.0000

          k = 0.1800 0.5504 0.0000 (  5194 PWs)   bands (ev):

   -15.7798 -14.4887 -10.4383  -3.7087  -0.4183   8.6339   9.3977   9.4445

     occupation numbers 
     1.0000   1.0000   1.0000   1.0000   0.0000   0.0000   0.0000   0.0000

          k = 0.1800 0.5581 0.0000 (  5194 PWs)   bands (ev):

   -15.6810 -14.5953 -10.4455  -3.6618  -0.4717   8.6326   9.4825   9.5836

     occupation numbers 
     1.0000   1.0000   1.0000   1.0000   0.0000   0.0000   0.0000   0.0000

          k = 0.1800 0.5658 0.0000 (  5198 PWs)   bands (ev):

   -15.6024 -14.6789 -10.4503  -3.6295  -0.5082   8.6314   9.5077   9.7686

     occupation numbers 
     1.0000   1.0000   1.0000   1.0000   0.0000   0.0000   0.0000   0.0000

          k = 0.1800 0.5735 0.0000 (  5196 PWs)   bands (ev):

   -15.5572 -14.7266 -10.4527  -3.6131  -0.5268   8.6308   9.5201   9.9423

     occupation numbers 
     1.0000   1.0000   1.0000   1.0000   0.0000   0.0000   0.0000   0.0000

          k = 0.1867 0.3233 0.0000 (  5168 PWs)   bands (ev):

   -18.9613 -10.3126  -9.0356  -6.8120   3.6586   4.7834   5.8310   6.3167

     occupation numbers 
     1.0000   1.0000   1.0000   1.0000   0.0000   0.0000   0.0000   0.0000

          k = 0.1867 0.3310 0.0000 (  5162 PWs)   bands (ev):

   -18.8743 -10.4298  -9.1408  -6.7118   3.5080   4.9048   5.9499   6.4421

     occupation numbers 
     1.0000   1.0000   1.0000   1.0000   0.0000   0.0000   0.0000   0.0000

          k = 0.1867 0.3387 0.0000 (  5166 PWs)   bands (ev):

   -18.7854 -10.5506  -9.2418  -6.6097   3.3562   5.0290   6.0713   6.5705

     occupation numbers 
     1.0000   1.0000   1.0000   1.0000   0.0000   0.0000   0.0000   0.0000

          k = 0.1867 0.3464 0.0000 (  5162 PWs)   bands (ev):

   -18.6947 -10.6750  -9.3385  -6.5058   3.2036   5.1559   6.1950   6.7018

     occupation numbers 
     1.0000   1.0000   1.0000   1.0000   0.0000   0.0000   0.0000   0.0000

          k = 0.1867 0.3541 0.0000 (  5166 PWs)   bands (ev):

   -18.6020 -10.8029  -9.4307  -6.4001   3.0501   5.2856   6.3212   6.8360

     occupation numbers 
     1.0000   1.0000   1.0000   1.0000   0.0000   0.0000   0.0000   0.0000

          k = 0.1867 0.3618 0.0000 (  5176 PWs)   bands (ev):

   -18.5075 -10.9342  -9.5183  -6.2927   2.8959   5.4179   6.4495   6.9731

     occupation numbers 
     1.0000   1.0000   1.0000   1.0000   0.0000   0.0000   0.0000   0.0000

          k = 0.1867 0.3695 0.0000 (  5176 PWs)   bands (ev):

   -18.4111 -11.0687  -9.6014  -6.1837   2.7411   5.5530   6.5801   7.1132

     occupation numbers 
     1.0000   1.0000   1.0000   1.0000   0.0000   0.0000   0.0000   0.0000

          k = 0.1867 0.3772 0.0000 (  5168 PWs)   bands (ev):

   -18.3129 -11.2061  -9.6801  -6.0731   2.5858   5.6908   6.7127   7.2561

     occupation numbers 
     1.0000   1.0000   1.0000   1.0000   0.0000   0.0000   0.0000   0.0000

          k = 0.1867 0.3849 0.0000 (  5171 PWs)   bands (ev):

   -18.2129 -11.3462  -9.7545  -5.9611   2.4302   5.8313   6.8472   7.4020

     occupation numbers 
     1.0000   1.0000   1.0000   1.0000   0.0000   0.0000   0.0000   0.0000

          k = 0.1867 0.3926 0.0000 (  5167 PWs)   bands (ev):

   -18.1111 -11.4886  -9.8248  -5.8477   2.2744   5.9744   6.9836   7.5507

     occupation numbers 
     1.0000   1.0000   1.0000   1.0000   0.0000   0.0000   0.0000   0.0000

          k = 0.1867 0.4003 0.0000 (  5173 PWs)   bands (ev):

   -18.0076 -11.6330  -9.8911  -5.7330   2.1186   6.1201   7.1216   7.7023

     occupation numbers 
     1.0000   1.0000   1.0000   1.0000   0.0000   0.0000   0.0000   0.0000

          k = 0.1867 0.4080 0.0000 (  5179 PWs)   bands (ev):

   -17.9023 -11.7792  -9.9536  -5.6172   1.9629   6.2685   7.2610   7.8567

     occupation numbers 
     1.0000   1.0000   1.0000   1.0000   0.0000   0.0000   0.0000   0.0000

          k = 0.1867 0.4157 0.0000 (  5175 PWs)   bands (ev):

   -17.7952 -11.9269 -10.0124  -5.5004   1.8075   6.4195   7.4016   8.0139

     occupation numbers 
     1.0000   1.0000   1.0000   1.0000   0.0000   0.0000   0.0000   0.0000

          k = 0.1867 0.4234 0.0000 (  5171 PWs)   bands (ev):

   -17.6865 -12.0756 -10.0678  -5.3827   1.6527   6.5730   7.5432   8.1737

     occupation numbers 
     1.0000   1.0000   1.0000   1.0000   0.0000   0.0000   0.0000   0.0000

          k = 0.1867 0.4311 0.0000 (  5174 PWs)   bands (ev):

   -17.5762 -12.2253 -10.1198  -5.2644   1.4987   6.7290   7.6854   8.3362

     occupation numbers 
     1.0000   1.0000   1.0000   1.0000   0.0000   0.0000   0.0000   0.0000

          k = 0.1867 0.4388 0.0000 (  5178 PWs)   bands (ev):

   -17.4642 -12.3756 -10.1686  -5.1456   1.3456   6.8875   7.8278   8.5006

     occupation numbers 
     1.0000   1.0000   1.0000   1.0000   0.0000   0.0000   0.0000   0.0000

          k = 0.1867 0.4465 0.0000 (  5178 PWs)   bands (ev):

   -17.3506 -12.5262 -10.2143  -5.0266   1.1939   7.0485   7.9699   8.6656

     occupation numbers 
     1.0000   1.0000   1.0000   1.0000   0.0000   0.0000   0.0000   0.0000

          k = 0.1867 0.4542 0.0000 (  5176 PWs)   bands (ev):

   -17.2356 -12.6771 -10.2570  -4.9076   1.0438   7.2119   8.1112   8.8219

     occupation numbers 
     1.0000   1.0000   1.0000   1.0000   0.0000   0.0000   0.0000   0.0000

          k = 0.1867 0.4619 0.0000 (  5180 PWs)   bands (ev):

   -17.1191 -12.8278 -10.2967  -4.7890   0.8957   7.3775   8.2509   8.9034

     occupation numbers 
     1.0000   1.0000   1.0000   1.0000   0.0000   0.0000   0.0000   0.0000

          k = 0.1867 0.4696 0.0000 (  5184 PWs)   bands (ev):

   -17.0012 -12.9783 -10.3336  -4.6712   0.7500   7.5454   8.3881   8.9050

     occupation numbers 
     1.0000   1.0000   1.0000   1.0000   0.0000   0.0000   0.0000   0.0000

          k = 0.1867 0.4773 0.0000 (  5186 PWs)   bands (ev):

   -16.8820 -13.1283 -10.3678  -4.5545   0.6072   7.7154   8.5220   8.8985

     occupation numbers 
     1.0000   1.0000   1.0000   1.0000   0.0000   0.0000   0.0000   0.0000

          k = 0.1867 0.4850 0.0000 (  5184 PWs)   bands (ev):

   -16.7617 -13.2775 -10.3992  -4.4396   0.4679   7.8873   8.6513   8.8904

     occupation numbers 
     1.0000   1.0000   1.0000   1.0000   0.0000   0.0000   0.0000   0.0000

          k = 0.1867 0.4927 0.0000 (  5186 PWs)   bands (ev):

   -16.6404 -13.4258 -10.4280  -4.3270   0.3327   8.0608   8.7747   8.8826

     occupation numbers 
     1.0000   1.0000   1.0000   1.0000   0.0000   0.0000   0.0000   0.0000

          k = 0.1867 0.5004 0.0000 (  5190 PWs)   bands (ev):

   -16.5182 -13.5728 -10.4542  -4.2175   0.2025   8.2355   8.8759   8.8908

     occupation numbers 
     1.0000   1.0000   1.0000   1.0000   0.0000   0.0000   0.0000   0.0000

          k = 0.1867 0.5081 0.0000 (  5184 PWs)   bands (ev):

   -16.3956 -13.7182 -10.4777  -4.1119   0.0780   8.4100   8.8718   8.9981

     occupation numbers 
     1.0000   1.0000   1.0000   1.0000   0.0000   0.0000   0.0000   0.0000

          k = 0.1867 0.5158 0.0000 (  5178 PWs)   bands (ev):

   -16.2727 -13.8616 -10.4987  -4.0114  -0.0396   8.5802   8.8744   9.0953

     occupation numbers 
     1.0000   1.0000   1.0000   1.0000   0.0000   0.0000   0.0000   0.0000

          k = 0.1867 0.5235 0.0000 (  5180 PWs)   bands (ev):

   -16.1502 -14.0022 -10.5172  -3.9170  -0.1490   8.7266   8.9034   9.1813

     occupation numbers 
     1.0000   1.0000   1.0000   1.0000   0.0000   0.0000   0.0000   0.0000

          k = 0.1867 0.5312 0.0000 (  5182 PWs)   bands (ev):

   -16.0290 -14.1393 -10.5332  -3.8302  -0.2489   8.7937   9.0139   9.2553

     occupation numbers 
     1.0000   1.0000   1.0000   1.0000   0.0000   0.0000   0.0000   0.0000

          k = 0.1867 0.5389 0.0000 (  5192 PWs)   bands (ev):

   -15.9104 -14.2715 -10.5467  -3.7525  -0.3378   8.8074   9.1799   9.3171

     occupation numbers 
     1.0000   1.0000   1.0000   1.0000   0.0000   0.0000   0.0000   0.0000

          k = 0.1867 0.5466 0.0000 (  5194 PWs)   bands (ev):

   -15.7965 -14.3964 -10.5577  -3.6856  -0.4138   8.8096   9.3593   9.3666

     occupation numbers 
     1.0000   1.0000   1.0000   1.0000   0.0000   0.0000   0.0000   0.0000

          k = 0.1867 0.5543 0.0000 (  5190 PWs)   bands (ev):

   -15.6914 -14.5103 -10.5663  -3.6312  -0.4753   8.8091   9.4043   9.5427

     occupation numbers 
     1.0000   1.0000   1.0000   1.0000   0.0000   0.0000   0.0000   0.0000

          k = 0.1867 0.5620 0.0000 (  5194 PWs)   bands (ev):

   -15.6016 -14.6063 -10.5724  -3.5909  -0.5207   8.8082   9.4306   9.7269

     occupation numbers 
     1.0000   1.0000   1.0000   1.0000   0.0000   0.0000   0.0000   0.0000

          k = 0.1867 0.5697 0.0000 (  5190 PWs)   bands (ev):

   -15.5381 -14.6734 -10.5761  -3.5662  -0.5485   8.8074   9.4462   9.9074

     occupation numbers 
     1.0000   1.0000   1.0000   1.0000   0.0000   0.0000   0.0000   0.0000

          k = 0.1867 0.5774 0.0000 (  5196 PWs)   bands (ev):

   -15.5147 -14.6981 -10.5773  -3.5578  -0.5579   8.8072   9.4514  10.0359

     occupation numbers 
     1.0000   1.0000   1.0000   1.0000   0.0000   0.0000   0.0000   0.0000

          k = 0.1933 0.3349 0.0000 (  5164 PWs)   bands (ev):

   -18.7865 -10.5419  -9.2495  -6.6108   3.3594   5.0276   6.0696   6.5690

     occupation numbers 
     1.0000   1.0000   1.0000   1.0000   0.0000   0.0000   0.0000   0.0000

          k = 0.1933 0.3426 0.0000 (  5168 PWs)   bands (ev):

   -18.6967 -10.6576  -9.3542  -6.5080   3.2098   5.1531   6.1917   6.6989

     occupation numbers 
     1.0000   1.0000   1.0000   1.0000   0.0000   0.0000   0.0000   0.0000

          k = 0.1933 0.3503 0.0000 (  5170 PWs)   bands (ev):

   -18.6051 -10.7769  -9.4544  -6.4033   3.0592   5.2813   6.3161   6.8316

     occupation numbers 
     1.0000   1.0000   1.0000   1.0000   0.0000   0.0000   0.0000   0.0000

          k = 0.1933 0.3580 0.0000 (  5168 PWs)   bands (ev):

   -18.5116 -10.8998  -9.5499  -6.2970   2.9079   5.4123   6.4428   6.9673

     occupation numbers 
     1.0000   1.0000   1.0000   1.0000   0.0000   0.0000   0.0000   0.0000

          k = 0.1933 0.3657 0.0000 (  5174 PWs)   bands (ev):

   -18.4162 -11.0263  -9.6407  -6.1889   2.7559   5.5460   6.5716   7.1059

     occupation numbers 
     1.0000   1.0000   1.0000   1.0000   0.0000   0.0000   0.0000   0.0000

          k = 0.1933 0.3734 0.0000 (  5176 PWs)   bands (ev):

   -18.3191 -11.1562  -9.7267  -6.0793   2.6034   5.6824   6.7025   7.2474

     occupation numbers 
     1.0000   1.0000   1.0000   1.0000   0.0000   0.0000   0.0000   0.0000

          k = 0.1933 0.3811 0.0000 (  5169 PWs)   bands (ev):

   -18.2201 -11.2894  -9.8080  -5.9681   2.4504   5.8214   6.8353   7.3918

     occupation numbers 
     1.0000   1.0000   1.0000   1.0000   0.0000   0.0000   0.0000   0.0000

          k = 0.1933 0.3887 0.0000 (  5175 PWs)   bands (ev):

   -18.1193 -11.4254  -9.8846  -5.8555   2.2971   5.9631   6.9698   7.5391

     occupation numbers 
     1.0000   1.0000   1.0000   1.0000   0.0000   0.0000   0.0000   0.0000

          k = 0.1933 0.3964 0.0000 (  5179 PWs)   bands (ev):

   -18.0167 -11.5642  -9.9567  -5.7416   2.1436   6.1075   7.1059   7.6893

     occupation numbers 
     1.0000   1.0000   1.0000   1.0000   0.0000   0.0000   0.0000   0.0000

          k = 0.1933 0.4041 0.0000 (  5173 PWs)   bands (ev):

   -17.9124 -11.7053 -10.0246  -5.6265   1.9901   6.2545   7.2434   7.8423

     occupation numbers 
     1.0000   1.0000   1.0000   1.0000   0.0000   0.0000   0.0000   0.0000

          k = 0.1933 0.4118 0.0000 (  5171 PWs)   bands (ev):

   -17.8063 -11.8483 -10.0884  -5.5102   1.8367   6.4041   7.3821   7.9982

     occupation numbers 
     1.0000   1.0000   1.0000   1.0000   0.0000   0.0000   0.0000   0.0000

          k = 0.1933 0.4195 0.0000 (  5168 PWs)   bands (ev):

   -17.6986 -11.9931 -10.1482  -5.3931   1.6837   6.5562   7.5216   8.1568

     occupation numbers 
     1.0000   1.0000   1.0000   1.0000   0.0000   0.0000   0.0000   0.0000

          k = 0.1933 0.4272 0.0000 (  5174 PWs)   bands (ev):

   -17.5892 -12.1392 -10.2043  -5.2751   1.5313   6.7109   7.6616   8.3182

     occupation numbers 
     1.0000   1.0000   1.0000   1.0000   0.0000   0.0000   0.0000   0.0000

          k = 0.1933 0.4349 0.0000 (  5178 PWs)   bands (ev):

   -17.4782 -12.2864 -10.2568  -5.1566   1.3797   6.8681   7.8017   8.4821

     occupation numbers 
     1.0000   1.0000   1.0000   1.0000   0.0000   0.0000   0.0000   0.0000

          k = 0.1933 0.4426 0.0000 (  5180 PWs)   bands (ev):

   -17.3656 -12.4344 -10.3059  -5.0377   1.2291   7.0277   7.9413   8.6482

     occupation numbers 
     1.0000   1.0000   1.0000   1.0000   0.0000   0.0000   0.0000   0.0000

          k = 0.1933 0.4503 0.0000 (  5180 PWs)   bands (ev):

   -17.2514 -12.5829 -10.3517  -4.9186   1.0798   7.1897   8.0799   8.8151

     occupation numbers 
     1.0000   1.0000   1.0000   1.0000   0.0000   0.0000   0.0000   0.0000

          k = 0.1933 0.4580 0.0000 (  5182 PWs)   bands (ev):

   -17.1358 -12.7316 -10.3944  -4.7998   0.9323   7.3541   8.2167   8.9763

     occupation numbers 
     1.0000   1.0000   1.0000   1.0000   0.0000   0.0000   0.0000   0.0000

          k = 0.1933 0.4657 0.0000 (  5184 PWs)   bands (ev):

   -17.0188 -12.8805 -10.4340  -4.6814   0.7868   7.5207   8.3509   9.0696

     occupation numbers 
     1.0000   1.0000   1.0000   1.0000   0.0000   0.0000   0.0000   0.0000

          k = 0.1933 0.4734 0.0000 (  5186 PWs)   bands (ev):

   -16.9005 -13.0291 -10.4706  -4.5640   0.6438   7.6896   8.4813   9.0769

     occupation numbers 
     1.0000   1.0000   1.0000   1.0000   0.0000   0.0000   0.0000   0.0000

          k = 0.1933 0.4811 0.0000 (  5186 PWs)   bands (ev):

   -16.7809 -13.1772 -10.5044  -4.4479   0.5038   7.8604   8.6069   9.0710

     occupation numbers 
     1.0000   1.0000   1.0000   1.0000   0.0000   0.0000   0.0000   0.0000

          k = 0.1933 0.4888 0.0000 (  5186 PWs)   bands (ev):

   -16.6603 -13.3246 -10.5353  -4.3338   0.3675   8.0332   8.7262   9.0632

     occupation numbers 
     1.0000   1.0000   1.0000   1.0000   0.0000   0.0000   0.0000   0.0000

          k = 0.1933 0.4965 0.0000 (  5188 PWs)   bands (ev):

   -16.5388 -13.4711 -10.5635  -4.2223   0.2355   8.2076   8.8380   9.0556

     occupation numbers 
     1.0000   1.0000   1.0000   1.0000   0.0000   0.0000   0.0000   0.0000

          k = 0.1933 0.5042 0.0000 (  5186 PWs)   bands (ev):

   -16.4166 -13.6162 -10.5890  -4.1142   0.1086   8.3831   8.9408   9.0490

     occupation numbers 
     1.0000   1.0000   1.0000   1.0000   0.0000   0.0000   0.0000   0.0000

          k = 0.1933 0.5119 0.0000 (  5186 PWs)   bands (ev):

   -16.2940 -13.7596 -10.6118  -4.0105  -0.0121   8.5587   9.0334   9.0446

     occupation numbers 
     1.0000   1.0000   1.0000   1.0000   0.0000   0.0000   0.0000   0.0000

          k = 0.1933 0.5196 0.0000 (  5184 PWs)   bands (ev):

   -16.1715 -13.9008 -10.6320  -3.9123  -0.1255   8.7310   9.0459   9.1150

     occupation numbers 
     1.0000   1.0000   1.0000   1.0000   0.0000   0.0000   0.0000   0.0000

          k = 0.1933 0.5273 0.0000 (  5188 PWs)   bands (ev):

   -16.0499 -14.0390 -10.6497  -3.8209  -0.2303   8.8848   9.0679   9.1851

     occupation numbers 
     1.0000   1.0000   1.0000   1.0000   0.0000   0.0000   0.0000   0.0000

          k = 0.1933 0.5350 0.0000 (  5184 PWs)   bands (ev):

   -15.9300 -14.1730 -10.6647  -3.7377  -0.3249   8.9651   9.1656   9.2435

     occupation numbers 
     1.0000   1.0000   1.0000   1.0000   0.0000   0.0000   0.0000   0.0000

          k = 0.1933 0.5427 0.0000 (  5190 PWs)   bands (ev):

   -15.8137 -14.3012 -10.6772  -3.6645  -0.4077   8.9824   9.2907   9.3280

     occupation numbers 
     1.0000   1.0000   1.0000   1.0000   0.0000   0.0000   0.0000   0.0000

          k = 0.1933 0.5504 0.0000 (  5190 PWs)   bands (ev):

   -15.7039 -14.4206 -10.6872  -3.6029  -0.4770   8.9856   9.3272   9.5061

     occupation numbers 
     1.0000   1.0000   1.0000   1.0000   0.0000   0.0000   0.0000   0.0000

          k = 0.1933 0.5581 0.0000 (  5192 PWs)   bands (ev):

   -15.6056 -14.5261 -10.6947  -3.5548  -0.5309   8.9858   9.3538   9.6880

     occupation numbers 
     1.0000   1.0000   1.0000   1.0000   0.0000   0.0000   0.0000   0.0000

          k = 0.1933 0.5658 0.0000 (  5196 PWs)   bands (ev):

   -15.5276 -14.6089 -10.6997  -3.5217  -0.5678   8.9852   9.3711   9.8693

     occupation numbers 
     1.0000   1.0000   1.0000   1.0000   0.0000   0.0000   0.0000   0.0000

          k = 0.1933 0.5735 0.0000 (  5194 PWs)   bands (ev):

   -15.4828 -14.6562 -10.7022  -3.5049  -0.5866   8.9849   9.3796  10.0376

     occupation numbers 
     1.0000   1.0000   1.0000   1.0000   0.0000   0.0000   0.0000   0.0000

          k = 0.2000 0.3464 0.0000 (  5164 PWs)   bands (ev):

   -18.6061 -10.7680  -9.4625  -6.4044   3.0623   5.2799   6.3144   6.8302

     occupation numbers 
     1.0000   1.0000   1.0000   1.0000   0.0000   0.0000   0.0000   0.0000

          k = 0.2000 0.3541 0.0000 (  5174 PWs)   bands (ev):

   -18.5136 -10.8819  -9.5664  -6.2991   2.9140   5.4095   6.4394   6.9644

     occupation numbers 
     1.0000   1.0000   1.0000   1.0000   0.0000   0.0000   0.0000   0.0000

          k = 0.2000 0.3618 0.0000 (  5172 PWs)   bands (ev):

   -18.4193 -10.9995  -9.6656  -6.1920   2.7649   5.5418   6.5665   7.1015

     occupation numbers 
     1.0000   1.0000   1.0000   1.0000   0.0000   0.0000   0.0000   0.0000

          k = 0.2000 0.3695 0.0000 (  5174 PWs)   bands (ev):

   -18.3231 -11.1209  -9.7598  -6.0833   2.6152   5.6767   6.6957   7.2416

     occupation numbers 
     1.0000   1.0000   1.0000   1.0000   0.0000   0.0000   0.0000   0.0000

          k = 0.2000 0.3772 0.0000 (  5178 PWs)   bands (ev):

   -18.2252 -11.2459  -9.8490  -5.9731   2.4649   5.8144   6.8267   7.3845

     occupation numbers 
     1.0000   1.0000   1.0000   1.0000   0.0000   0.0000   0.0000   0.0000

          k = 0.2000 0.3849 0.0000 (  5175 PWs)   bands (ev):

   -18.1254 -11.3744  -9.9332  -5.8614   2.3142   5.9547   6.9594   7.5304

     occupation numbers 
     1.0000   1.0000   1.0000   1.0000   0.0000   0.0000   0.0000   0.0000

          k = 0.2000 0.3926 0.0000 (  5175 PWs)   bands (ev):

   -18.0238 -11.5061 -10.0124  -5.7483   2.1632   6.0977   7.0937   7.6791

     occupation numbers 
     1.0000   1.0000   1.0000   1.0000   0.0000   0.0000   0.0000   0.0000

          k = 0.2000 0.4003 0.0000 (  5175 PWs)   bands (ev):

   -17.9205 -11.6408 -10.0868  -5.6339   2.0121   6.2433   7.2293   7.8308

     occupation numbers 
     1.0000   1.0000   1.0000   1.0000   0.0000   0.0000   0.0000   0.0000

          k = 0.2000 0.4080 0.0000 (  5172 PWs)   bands (ev):

   -17.8154 -11.7781 -10.1565  -5.5183   1.8610   6.3914   7.3660   7.9852

     occupation numbers 
     1.0000   1.0000   1.0000   1.0000   0.0000   0.0000   0.0000   0.0000

          k = 0.2000 0.4157 0.0000 (  5168 PWs)   bands (ev):

   -17.7087 -11.9177 -10.2219  -5.4017   1.7100   6.5422   7.5034   8.1426

     occupation numbers 
     1.0000   1.0000   1.0000   1.0000   0.0000   0.0000   0.0000   0.0000

          k = 0.2000 0.4234 0.0000 (  5174 PWs)   bands (ev):

   -17.6002 -12.0593 -10.2829  -5.2843   1.5594   6.6955   7.6412   8.3027

     occupation numbers 
     1.0000   1.0000   1.0000   1.0000   0.0000   0.0000   0.0000   0.0000

          k = 0.2000 0.4311 0.0000 (  5178 PWs)   bands (ev):

   -17.4902 -12.2025 -10.3400  -5.1661   1.4094   6.8513   7.7790   8.4655

     occupation numbers 
     1.0000   1.0000   1.0000   1.0000   0.0000   0.0000   0.0000   0.0000

          k = 0.2000 0.4388 0.0000 (  5180 PWs)   bands (ev):

   -17.3785 -12.3470 -10.3932  -5.0474   1.2602   7.0096   7.9162   8.6309

     occupation numbers 
     1.0000   1.0000   1.0000   1.0000   0.0000   0.0000   0.0000   0.0000

          k = 0.2000 0.4465 0.0000 (  5182 PWs)   bands (ev):

   -17.2653 -12.4925 -10.4428  -4.9284   1.1121   7.1703   8.0522   8.7985

     occupation numbers 
     1.0000   1.0000   1.0000   1.0000   0.0000   0.0000   0.0000   0.0000

          k = 0.2000 0.4542 0.0000 (  5180 PWs)   bands (ev):

   -17.1506 -12.6387 -10.4889  -4.8094   0.9653   7.3333   8.1861   8.9673

     occupation numbers 
     1.0000   1.0000   1.0000   1.0000   0.0000   0.0000   0.0000   0.0000

          k = 0.2000 0.4619 0.0000 (  5180 PWs)   bands (ev):

   -17.0345 -12.7852 -10.5317  -4.6907   0.8203   7.4987   8.3172   9.1318

     occupation numbers 
     1.0000   1.0000   1.0000   1.0000   0.0000   0.0000   0.0000   0.0000

          k = 0.2000 0.4696 0.0000 (  5182 PWs)   bands (ev):

   -16.9170 -12.9320 -10.5712  -4.5726   0.6775   7.6663   8.4442   9.2387

     occupation numbers 
     1.0000   1.0000   1.0000   1.0000   0.0000   0.0000   0.0000   0.0000

          k = 0.2000 0.4773 0.0000 (  5186 PWs)   bands (ev):

   -16.7983 -13.0786 -10.6076  -4.4556   0.5372   7.8360   8.5660   9.2499

     occupation numbers 
     1.0000   1.0000   1.0000   1.0000   0.0000   0.0000   0.0000   0.0000

          k = 0.2000 0.4850 0.0000 (  5188 PWs)   bands (ev):

   -16.6784 -13.2248 -10.6410  -4.3402   0.4001   8.0077   8.6813   9.2447

     occupation numbers 
     1.0000   1.0000   1.0000   1.0000   0.0000   0.0000   0.0000   0.0000

          k = 0.2000 0.4927 0.0000 (  5184 PWs)   bands (ev):

   -16.5575 -13.3703 -10.6715  -4.2270   0.2667   8.1812   8.7888   9.2372

     occupation numbers 
     1.0000   1.0000   1.0000   1.0000   0.0000   0.0000   0.0000   0.0000

          k = 0.2000 0.5004 0.0000 (  5186 PWs)   bands (ev):

   -16.4359 -13.5148 -10.6992  -4.1167   0.1379   8.3563   8.8871   9.2298

     occupation numbers 
     1.0000   1.0000   1.0000   1.0000   0.0000   0.0000   0.0000   0.0000

          k = 0.2000 0.5081 0.0000 (  5184 PWs)   bands (ev):

   -16.3137 -13.6579 -10.7240  -4.0101   0.0146   8.5325   8.9751   9.2232

     occupation numbers 
     1.0000   1.0000   1.0000   1.0000   0.0000   0.0000   0.0000   0.0000

          k = 0.2000 0.5158 0.0000 (  5184 PWs)   bands (ev):

   -16.1914 -13.7992 -10.7461  -3.9084  -0.1022   8.7089   9.0523   9.2187

     occupation numbers 
     1.0000   1.0000   1.0000   1.0000   0.0000   0.0000   0.0000   0.0000

          k = 0.2000 0.5235 0.0000 (  5184 PWs)   bands (ev):

   -16.0695 -13.9380 -10.7655  -3.8128  -0.2113   8.8828   9.1182   9.2189

     occupation numbers 
     1.0000   1.0000   1.0000   1.0000   0.0000   0.0000   0.0000   0.0000

          k = 0.2000 0.5312 0.0000 (  5186 PWs)   bands (ev):

   -15.9489 -14.0734 -10.7823  -3.7245  -0.3113   9.0423   9.1731   9.2356

     occupation numbers 
     1.0000   1.0000   1.0000   1.0000   0.0000   0.0000   0.0000   0.0000

          k = 0.2000 0.5389 0.0000 (  5188 PWs)   bands (ev):

   -15.8309 -14.2040 -10.7964  -3.6453  -0.4004   9.1362   9.2175   9.3197

     occupation numbers 
     1.0000   1.0000   1.0000   1.0000   0.0000   0.0000   0.0000   0.0000

          k = 0.2000 0.5466 0.0000 (  5194 PWs)   bands (ev):

   -15.7177 -14.3275 -10.8080  -3.5770  -0.4769   9.1582   9.2523   9.4773

     occupation numbers 
     1.0000   1.0000   1.0000   1.0000   0.0000   0.0000   0.0000   0.0000

          k = 0.2000 0.5543 0.0000 (  5198 PWs)   bands (ev):

   -15.6131 -14.4402 -10.8169  -3.5212  -0.5390   9.1626   9.2782   9.6534

     occupation numbers 
     1.0000   1.0000   1.0000   1.0000   0.0000   0.0000   0.0000   0.0000

          k = 0.2000 0.5620 0.0000 (  5198 PWs)   bands (ev):

   -15.5239 -14.5352 -10.8233  -3.4799  -0.5849   9.1633   9.2960   9.8330

     occupation numbers 
     1.0000   1.0000   1.0000   1.0000   0.0000   0.0000   0.0000   0.0000

          k = 0.2000 0.5697 0.0000 (  5194 PWs)   bands (ev):

   -15.4609 -14.6017 -10.8271  -3.4544  -0.6131   9.1632   9.3065  10.0086

     occupation numbers 
     1.0000   1.0000   1.0000   1.0000   0.0000   0.0000   0.0000   0.0000

          k = 0.2000 0.5774 0.0000 (  5200 PWs)   bands (ev):

   -15.4376 -14.6262 -10.8284  -3.4458  -0.6226   9.1631   9.3099  10.1771

     occupation numbers 
     1.0000   1.0000   1.0000   1.0000   0.0000   0.0000   0.0000   0.0000

          k = 0.2067 0.3580 0.0000 (  5180 PWs)   bands (ev):

   -18.4203 -10.9904  -9.6741  -6.1931   2.7679   5.5404   6.5648   7.1001

     occupation numbers 
     1.0000   1.0000   1.0000   1.0000   0.0000   0.0000   0.0000   0.0000

          k = 0.2067 0.3657 0.0000 (  5172 PWs)   bands (ev):

   -18.3252 -11.1026  -9.7771  -6.0854   2.6211   5.6739   6.6923   7.2387

     occupation numbers 
     1.0000   1.0000   1.0000   1.0000   0.0000   0.0000   0.0000   0.0000

          k = 0.2067 0.3734 0.0000 (  5174 PWs)   bands (ev):

   -18.2282 -11.2185  -9.8750  -5.9761   2.4737   5.8102   6.8215   7.3802

     occupation numbers 
     1.0000   1.0000   1.0000   1.0000   0.0000   0.0000   0.0000   0.0000

          k = 0.2067 0.3811 0.0000 (  5175 PWs)   bands (ev):

   -18.1294 -11.3382  -9.9677  -5.8653   2.3257   5.9491   6.9525   7.5246

     occupation numbers 
     1.0000   1.0000   1.0000   1.0000   0.0000   0.0000   0.0000   0.0000

          k = 0.2067 0.3887 0.0000 (  5171 PWs)   bands (ev):

   -18.0289 -11.4616 -10.0552  -5.7530   2.1774   6.0906   7.0849   7.6719

     occupation numbers 
     1.0000   1.0000   1.0000   1.0000   0.0000   0.0000   0.0000   0.0000

          k = 0.2067 0.3964 0.0000 (  5174 PWs)   bands (ev):

   -17.9266 -11.5886 -10.1373  -5.6394   2.0288   6.2348   7.2186   7.8221

     occupation numbers 
     1.0000   1.0000   1.0000   1.0000   0.0000   0.0000   0.0000   0.0000

          k = 0.2067 0.4041 0.0000 (  5172 PWs)   bands (ev):

   -17.8225 -11.7188 -10.2143  -5.5246   1.8800   6.3816   7.3534   7.9751

     occupation numbers 
     1.0000   1.0000   1.0000   1.0000   0.0000   0.0000   0.0000   0.0000

          k = 0.2067 0.4118 0.0000 (  5172 PWs)   bands (ev):

   -17.7167 -11.8520 -10.2863  -5.4087   1.7313   6.5310   7.4888   8.1311

     occupation numbers 
     1.0000   1.0000   1.0000   1.0000   0.0000   0.0000   0.0000   0.0000

          k = 0.2067 0.4195 0.0000 (  5172 PWs)   bands (ev):

   -17.6093 -11.9878 -10.3536  -5.2917   1.5827   6.6829   7.6245   8.2898

     occupation numbers 
     1.0000   1.0000   1.0000   1.0000   0.0000   0.0000   0.0000   0.0000

          k = 0.2067 0.4272 0.0000 (  5178 PWs)   bands (ev):

   -17.5002 -12.1259 -10.4162  -5.1740   1.4345   6.8373   7.7600   8.4514

     occupation numbers 
     1.0000   1.0000   1.0000   1.0000   0.0000   0.0000   0.0000   0.0000

          k = 0.2067 0.4349 0.0000 (  5180 PWs)   bands (ev):

   -17.3895 -12.2659 -10.4745  -5.0556   1.2870   6.9942   7.8948   8.6156

     occupation numbers 
     1.0000   1.0000   1.0000   1.0000   0.0000   0.0000   0.0000   0.0000

          k = 0.2067 0.4426 0.0000 (  5184 PWs)   bands (ev):

   -17.2772 -12.4074 -10.5287  -4.9368   1.1402   7.1536   8.0281   8.7825

     occupation numbers 
     1.0000   1.0000   1.0000   1.0000   0.0000   0.0000   0.0000   0.0000

          k = 0.2067 0.4503 0.0000 (  5180 PWs)   bands (ev):

   -17.1635 -12.5502 -10.5789  -4.8178   0.9946   7.3153   8.1593   8.9516

     occupation numbers 
     1.0000   1.0000   1.0000   1.0000   0.0000   0.0000   0.0000   0.0000

          k = 0.2067 0.4580 0.0000 (  5180 PWs)   bands (ev):

   -17.0482 -12.6938 -10.6255  -4.6988   0.8504   7.4793   8.2872   9.1221

     occupation numbers 
     1.0000   1.0000   1.0000   1.0000   0.0000   0.0000   0.0000   0.0000

          k = 0.2067 0.4657 0.0000 (  5178 PWs)   bands (ev):

   -16.9316 -12.8380 -10.6684  -4.5803   0.7080   7.6456   8.4109   9.2902

     occupation numbers 
     1.0000   1.0000   1.0000   1.0000   0.0000   0.0000   0.0000   0.0000

          k = 0.2067 0.4734 0.0000 (  5188 PWs)   bands (ev):

   -16.8137 -12.9825 -10.7080  -4.4625   0.5677   7.8140   8.5290   9.4084

     occupation numbers 
     1.0000   1.0000   1.0000   1.0000   0.0000   0.0000   0.0000   0.0000

          k = 0.2067 0.4811 0.0000 (  5190 PWs)   bands (ev):

   -16.6946 -13.1269 -10.7443  -4.3461   0.4302   7.9845   8.6403   9.4341

     occupation numbers 
     1.0000   1.0000   1.0000   1.0000   0.0000   0.0000   0.0000   0.0000

          k = 0.2067 0.4888 0.0000 (  5186 PWs)   bands (ev):

   -16.5745 -13.2710 -10.7775  -4.2314   0.2960   8.1570   8.7435   9.4190

     occupation numbers 
     1.0000   1.0000   1.0000   1.0000   0.0000   0.0000   0.0000   0.0000

          k = 0.2067 0.4965 0.0000 (  5182 PWs)   bands (ev):

   -16.4534 -13.4145 -10.8076  -4.1191   0.1657   8.3312   8.8373   9.4118

     occupation numbers 
     1.0000   1.0000   1.0000   1.0000   0.0000   0.0000   0.0000   0.0000

          k = 0.2067 0.5042 0.0000 (  5190 PWs)   bands (ev):

   -16.3318 -13.5569 -10.8347  -4.0101   0.0402   8.5068   8.9207   9.4046

     occupation numbers 
     1.0000   1.0000   1.0000   1.0000   0.0000   0.0000   0.0000   0.0000

          k = 0.2067 0.5119 0.0000 (  5184 PWs)   bands (ev):

   -16.2097 -13.6979 -10.8590  -3.9053  -0.0796   8.6836   8.9934   9.3981

     occupation numbers 
     1.0000   1.0000   1.0000   1.0000   0.0000   0.0000   0.0000   0.0000

          k = 0.2067 0.5196 0.0000 (  5188 PWs)   bands (ev):

   -16.0879 -13.8369 -10.8804  -3.8058  -0.1925   8.8606   9.0551   9.3935

     occupation numbers 
     1.0000   1.0000   1.0000   1.0000   0.0000   0.0000   0.0000   0.0000

          k = 0.2067 0.5273 0.0000 (  5186 PWs)   bands (ev):

   -15.9668 -13.9731 -10.8990  -3.7129  -0.2972   9.0355   9.1063   9.3930

     occupation numbers 
     1.0000   1.0000   1.0000   1.0000   0.0000   0.0000   0.0000   0.0000

          k = 0.2067 0.5350 0.0000 (  5184 PWs)   bands (ev):

   -15.8476 -14.1053 -10.9149  -3.6281  -0.3920   9.1477   9.1991   9.4056

     occupation numbers 
     1.0000   1.0000   1.0000   1.0000   0.0000   0.0000   0.0000   0.0000

          k = 0.2067 0.5427 0.0000 (  5190 PWs)   bands (ev):

   -15.7320 -14.2320 -10.9281  -3.5533  -0.4753   9.1802   9.3064   9.4761

     occupation numbers 
     1.0000   1.0000   1.0000   1.0000   0.0000   0.0000   0.0000   0.0000

          k = 0.2067 0.5504 0.0000 (  5196 PWs)   bands (ev):

   -15.6228 -14.3500 -10.9386  -3.4901  -0.5452   9.2047   9.3341   9.6272

     occupation numbers 
     1.0000   1.0000   1.0000   1.0000   0.0000   0.0000   0.0000   0.0000

          k = 0.2067 0.5581 0.0000 (  5198 PWs)   bands (ev):

   -15.5251 -14.4543 -10.9465  -3.4407  -0.5998   9.2223   9.3398   9.8006

     occupation numbers 
     1.0000   1.0000   1.0000   1.0000   0.0000   0.0000   0.0000   0.0000

          k = 0.2067 0.5658 0.0000 (  5198 PWs)   bands (ev):

   -15.4476 -14.5363 -10.9517  -3.4065  -0.6373   9.2336   9.3410   9.9763

     occupation numbers 
     1.0000   1.0000   1.0000   1.0000   0.0000   0.0000   0.0000   0.0000

          k = 0.2067 0.5735 0.0000 (  5200 PWs)   bands (ev):

   -15.4031 -14.5831 -10.9543  -3.3891  -0.6564   9.2391   9.3413  10.1511

     occupation numbers 
     1.0000   1.0000   1.0000   1.0000   0.0000   0.0000   0.0000   0.0000

          k = 0.2133 0.3695 0.0000 (  5160 PWs)   bands (ev):

   -18.2292 -11.2091  -9.8839  -5.9771   2.4766   5.8088   6.8198   7.3787

     occupation numbers 
     1.0000   1.0000   1.0000   1.0000   0.0000   0.0000   0.0000   0.0000

          k = 0.2133 0.3772 0.0000 (  5172 PWs)   bands (ev):

   -18.1315 -11.3194  -9.9858  -5.8672   2.3315   5.9463   6.9490   7.5217

     occupation numbers 
     1.0000   1.0000   1.0000   1.0000   0.0000   0.0000   0.0000   0.0000

          k = 0.2133 0.3849 0.0000 (  5175 PWs)   bands (ev):

   -18.0319 -11.4335 -10.0823  -5.7559   2.1859   6.0864   7.0796   7.6675

     occupation numbers 
     1.0000   1.0000   1.0000   1.0000   0.0000   0.0000   0.0000   0.0000

          k = 0.2133 0.3926 0.0000 (  5172 PWs)   bands (ev):

   -17.9306 -11.5515 -10.1733  -5.6432   2.0399   6.2292   7.2115   7.8163

     occupation numbers 
     1.0000   1.0000   1.0000   1.0000   0.0000   0.0000   0.0000   0.0000

          k = 0.2133 0.4003 0.0000 (  5170 PWs)   bands (ev):

   -17.8275 -11.6733 -10.2588  -5.5291   1.8937   6.3746   7.3443   7.9679

     occupation numbers 
     1.0000   1.0000   1.0000   1.0000   0.0000   0.0000   0.0000   0.0000

          k = 0.2133 0.4080 0.0000 (  5170 PWs)   bands (ev):

   -17.7228 -11.7986 -10.3388  -5.4139   1.7474   6.5226   7.4777   8.1224

     occupation numbers 
     1.0000   1.0000   1.0000   1.0000   0.0000   0.0000   0.0000   0.0000

          k = 0.2133 0.4157 0.0000 (  5170 PWs)   bands (ev):

   -17.6163 -11.9273 -10.4134  -5.2976   1.6010   6.6731   7.6113   8.2798

     occupation numbers 
     1.0000   1.0000   1.0000   1.0000   0.0000   0.0000   0.0000   0.0000

          k = 0.2133 0.4234 0.0000 (  5174 PWs)   bands (ev):

   -17.5082 -12.0589 -10.4829  -5.1804   1.4549   6.8261   7.7447   8.4400

     occupation numbers 
     1.0000   1.0000   1.0000   1.0000   0.0000   0.0000   0.0000   0.0000

          k = 0.2133 0.4311 0.0000 (  5178 PWs)   bands (ev):

   -17.3985 -12.1931 -10.5474  -5.0624   1.3092   6.9817   7.8771   8.6029

     occupation numbers 
     1.0000   1.0000   1.0000   1.0000   0.0000   0.0000   0.0000   0.0000

          k = 0.2133 0.4388 0.0000 (  5182 PWs)   bands (ev):

   -17.2872 -12.3296 -10.6073  -4.9438   1.1641   7.1396   8.0079   8.7686

     occupation numbers 
     1.0000   1.0000   1.0000   1.0000   0.0000   0.0000   0.0000   0.0000

          k = 0.2133 0.4465 0.0000 (  5180 PWs)   bands (ev):

   -17.1743 -12.4678 -10.6627  -4.8249   1.0198   7.3000   8.1363   8.9369

     occupation numbers 
     1.0000   1.0000   1.0000   1.0000   0.0000   0.0000   0.0000   0.0000

          k = 0.2133 0.4542 0.0000 (  5174 PWs)   bands (ev):

   -17.0600 -12.6076 -10.7138  -4.7059   0.8767   7.4626   8.2612   9.1076

     occupation numbers 
     1.0000   1.0000   1.0000   1.0000   0.0000   0.0000   0.0000   0.0000

          k = 0.2133 0.4619 0.0000 (  5178 PWs)   bands (ev):

   -16.9443 -12.7484 -10.7610  -4.5871   0.7350   7.6276   8.3816   9.2797

     occupation numbers 
     1.0000   1.0000   1.0000   1.0000   0.0000   0.0000   0.0000   0.0000

          k = 0.2133 0.4696 0.0000 (  5184 PWs)   bands (ev):

   -16.8273 -12.8901 -10.8044  -4.4688   0.5952   7.7947   8.4961   9.4493

     occupation numbers 
     1.0000   1.0000   1.0000   1.0000   0.0000   0.0000   0.0000   0.0000

          k = 0.2133 0.4773 0.0000 (  5190 PWs)   bands (ev):

   -16.7090 -13.0321 -10.8441  -4.3514   0.4576   7.9640   8.6035   9.5781

     occupation numbers 
     1.0000   1.0000   1.0000   1.0000   0.0000   0.0000   0.0000   0.0000

          k = 0.2133 0.4850 0.0000 (  5186 PWs)   bands (ev):

   -16.5896 -13.1743 -10.8804  -4.2355   0.3228   8.1352   8.7024   9.5973

     occupation numbers 
     1.0000   1.0000   1.0000   1.0000   0.0000   0.0000   0.0000   0.0000

          k = 0.2133 0.4927 0.0000 (  5182 PWs)   bands (ev):

   -16.4692 -13.3161 -10.9134  -4.1216   0.1915   8.3082   8.7917   9.5933

     occupation numbers 
     1.0000   1.0000   1.0000   1.0000   0.0000   0.0000   0.0000   0.0000

          k = 0.2133 0.5004 0.0000 (  5184 PWs)   bands (ev):

   -16.3481 -13.4574 -10.9432  -4.0104   0.0642   8.4830   8.8706   9.5864

     occupation numbers 
     1.0000   1.0000   1.0000   1.0000   0.0000   0.0000   0.0000   0.0000

          k = 0.2133 0.5081 0.0000 (  5186 PWs)   bands (ev):

   -16.2265 -13.5976 -10.9699  -3.9028  -0.0580   8.6591   8.9388   9.5793

     occupation numbers 
     1.0000   1.0000   1.0000   1.0000   0.0000   0.0000   0.0000   0.0000

          k = 0.2133 0.5158 0.0000 (  5180 PWs)   bands (ev):

   -16.1048 -13.7363 -10.9935  -3.7998  -0.1741   8.8362   8.9963   9.5730

     occupation numbers 
     1.0000   1.0000   1.0000   1.0000   0.0000   0.0000   0.0000   0.0000

          k = 0.2133 0.5235 0.0000 (  5186 PWs)   bands (ev):

   -15.9836 -13.8727 -11.0143  -3.7026  -0.2829   9.0134   9.0436   9.5684

     occupation numbers 
     1.0000   1.0000   1.0000   1.0000   0.0000   0.0000   0.0000   0.0000

          k = 0.2133 0.5312 0.0000 (  5184 PWs)   bands (ev):

   -15.8636 -14.0060 -11.0321  -3.6127  -0.3830   9.0817   9.1889   9.5672

     occupation numbers 
     1.0000   1.0000   1.0000   1.0000   0.0000   0.0000   0.0000   0.0000

          k = 0.2133 0.5389 0.0000 (  5188 PWs)   bands (ev):

   -15.7462 -14.1348 -11.0472  -3.5318  -0.4725   9.1116   9.3554   9.5768

     occupation numbers 
     1.0000   1.0000   1.0000   1.0000   0.0000   0.0000   0.0000   0.0000

          k = 0.2133 0.5466 0.0000 (  5190 PWs)   bands (ev):

   -15.6337 -14.2568 -11.0594  -3.4616  -0.5498   9.1343   9.4746   9.6346

     occupation numbers 
     1.0000   1.0000   1.0000   1.0000   0.0000   0.0000   0.0000   0.0000

          k = 0.2133 0.5543 0.0000 (  5196 PWs)   bands (ev):

   -15.5298 -14.3681 -11.0689  -3.4042  -0.6127   9.1509   9.5094   9.7775

     occupation numbers 
     1.0000   1.0000   1.0000   1.0000   0.0000   0.0000   0.0000   0.0000

          k = 0.2133 0.5620 0.0000 (  5200 PWs)   bands (ev):

   -15.4411 -14.4621 -11.0757  -3.3615  -0.6593   9.1621   9.5165   9.9469

     occupation numbers 
     1.0000   1.0000   1.0000   1.0000   0.0000   0.0000   0.0000   0.0000

          k = 0.2133 0.5697 0.0000 (  5200 PWs)   bands (ev):

   -15.3785 -14.5278 -11.0797  -3.3351  -0.6881   9.1686   9.5183  10.1155

     occupation numbers 
     1.0000   1.0000   1.0000   1.0000   0.0000   0.0000   0.0000   0.0000

          k = 0.2133 0.5774 0.0000 (  5194 PWs)   bands (ev):

   -15.3553 -14.5521 -11.0811  -3.3262  -0.6978   9.1708   9.5187  10.2274

     occupation numbers 
     1.0000   1.0000   1.0000   1.0000   0.0000   0.0000   0.0000   0.0000

          k = 0.2200 0.3811 0.0000 (  5172 PWs)   bands (ev):

   -18.0329 -11.4239 -10.0916  -5.7569   2.1888   6.0850   7.0779   7.6661

     occupation numbers 
     1.0000   1.0000   1.0000   1.0000   0.0000   0.0000   0.0000   0.0000

          k = 0.2200 0.3887 0.0000 (  5168 PWs)   bands (ev):

   -17.9326 -11.5322 -10.1921  -5.6450   2.0456   6.2264   7.2079   7.8134

     occupation numbers 
     1.0000   1.0000   1.0000   1.0000   0.0000   0.0000   0.0000   0.0000

          k = 0.2200 0.3964 0.0000 (  5164 PWs)   bands (ev):

   -17.8306 -11.6445 -10.2870  -5.5318   1.9020   6.3704   7.3389   7.9636

     occupation numbers 
     1.0000   1.0000   1.0000   1.0000   0.0000   0.0000   0.0000   0.0000

          k = 0.2200 0.4041 0.0000 (  5168 PWs)   bands (ev):

   -17.7268 -11.7607 -10.3762  -5.4174   1.7582   6.5170   7.4704   8.1166

     occupation numbers 
     1.0000   1.0000   1.0000   1.0000   0.0000   0.0000   0.0000   0.0000

          k = 0.2200 0.4118 0.0000 (  5168 PWs)   bands (ev):

   -17.6213 -11.8807 -10.4596  -5.3018   1.6143   6.6661   7.6019   8.2726

     occupation numbers 
     1.0000   1.0000   1.0000   1.0000   0.0000   0.0000   0.0000   0.0000

          k = 0.2200 0.4195 0.0000 (  5168 PWs)   bands (ev):

   -17.5142 -12.0044 -10.5372  -5.1851   1.4704   6.8177   7.7331   8.4314

     occupation numbers 
     1.0000   1.0000   1.0000   1.0000   0.0000   0.0000   0.0000   0.0000

          k = 0.2200 0.4272 0.0000 (  5174 PWs)   bands (ev):

   -17.4055 -12.1314 -10.6094  -5.0677   1.3267   6.9719   7.8632   8.5930

     occupation numbers 
     1.0000   1.0000   1.0000   1.0000   0.0000   0.0000   0.0000   0.0000

          k = 0.2200 0.4349 0.0000 (  5178 PWs)   bands (ev):

   -17.2951 -12.2614 -10.6761  -4.9495   1.1834   7.1284   7.9916   8.7574

     occupation numbers 
     1.0000   1.0000   1.0000   1.0000   0.0000   0.0000   0.0000   0.0000

          k = 0.2200 0.4426 0.0000 (  5182 PWs)   bands (ev):

   -17.1832 -12.3939 -10.7379  -4.8308   1.0408   7.2874   8.1173   8.9245

     occupation numbers 
     1.0000   1.0000   1.0000   1.0000   0.0000   0.0000   0.0000   0.0000

          k = 0.2200 0.4503 0.0000 (  5180 PWs)   bands (ev):

   -17.0699 -12.5286 -10.7947  -4.7118   0.8990   7.4487   8.2393   9.0942

     occupation numbers 
     1.0000   1.0000   1.0000   1.0000   0.0000   0.0000   0.0000   0.0000

          k = 0.2200 0.4580 0.0000 (  5178 PWs)   bands (ev):

   -16.9550 -12.6650 -10.8471  -4.5928   0.7583   7.6123   8.3564   9.2663

     occupation numbers 
     1.0000   1.0000   1.0000   1.0000   0.0000   0.0000   0.0000   0.0000

          k = 0.2200 0.4657 0.0000 (  5180 PWs)   bands (ev):

   -16.8389 -12.8028 -10.8951  -4.4742   0.6192   7.7781   8.4674   9.4399

     occupation numbers 
     1.0000   1.0000   1.0000   1.0000   0.0000   0.0000   0.0000   0.0000

          k = 0.2200 0.4734 0.0000 (  5186 PWs)   bands (ev):

   -16.7214 -12.9417 -10.9391  -4.3561   0.4819   7.9460   8.5709   9.6168

     occupation numbers 
     1.0000   1.0000   1.0000   1.0000   0.0000   0.0000   0.0000   0.0000

          k = 0.2200 0.4811 0.0000 (  5186 PWs)   bands (ev):

   -16.6028 -13.0811 -10.9792  -4.2392   0.3470   8.1160   8.6657   9.7466

     occupation numbers 
     1.0000   1.0000   1.0000   1.0000   0.0000   0.0000   0.0000   0.0000

          k = 0.2200 0.4888 0.0000 (  5186 PWs)   bands (ev):

   -16.4832 -13.2207 -11.0156  -4.1239   0.2150   8.2878   8.7507   9.7705

     occupation numbers 
     1.0000   1.0000   1.0000   1.0000   0.0000   0.0000   0.0000   0.0000

          k = 0.2200 0.4965 0.0000 (  5184 PWs)   bands (ev):

   -16.3627 -13.3602 -11.0485  -4.0109   0.0865   8.4614   8.8251   9.7670

     occupation numbers 
     1.0000   1.0000   1.0000   1.0000   0.0000   0.0000   0.0000   0.0000

          k = 0.2200 0.5042 0.0000 (  5182 PWs)   bands (ev):

   -16.2416 -13.4991 -11.0781  -3.9008  -0.0376   8.6365   8.8888   9.7603

     occupation numbers 
     1.0000   1.0000   1.0000   1.0000   0.0000   0.0000   0.0000   0.0000

          k = 0.2200 0.5119 0.0000 (  5178 PWs)   bands (ev):

   -16.1202 -13.6369 -11.1043  -3.7947  -0.1565   8.8128   8.9420   9.7534

     occupation numbers 
     1.0000   1.0000   1.0000   1.0000   0.0000   0.0000   0.0000   0.0000

          k = 0.2200 0.5196 0.0000 (  5184 PWs)   bands (ev):

   -15.9990 -13.7730 -11.1275  -3.6937  -0.2689   8.9855   8.9900   9.7471

     occupation numbers 
     1.0000   1.0000   1.0000   1.0000   0.0000   0.0000   0.0000   0.0000

          k = 0.2200 0.5273 0.0000 (  5188 PWs)   bands (ev):

   -15.8786 -13.9067 -11.1476  -3.5991  -0.3735   9.0201   9.1673   9.7424

     occupation numbers 
     1.0000   1.0000   1.0000   1.0000   0.0000   0.0000   0.0000   0.0000

          k = 0.2200 0.5350 0.0000 (  5190 PWs)   bands (ev):

   -15.7601 -14.0368 -11.1647  -3.5125  -0.4688   9.0471   9.3430   9.7409

     occupation numbers 
     1.0000   1.0000   1.0000   1.0000   0.0000   0.0000   0.0000   0.0000

          k = 0.2200 0.5427 0.0000 (  5192 PWs)   bands (ev):

   -15.6451 -14.1615 -11.1788  -3.4356  -0.5529   9.0676   9.5110   9.7481

     occupation numbers 
     1.0000   1.0000   1.0000   1.0000   0.0000   0.0000   0.0000   0.0000

          k = 0.2200 0.5504 0.0000 (  5192 PWs)   bands (ev):

   -15.5366 -14.2780 -11.1901  -3.3706  -0.6237   9.0826   9.6403   9.7948

     occupation numbers 
     1.0000   1.0000   1.0000   1.0000   0.0000   0.0000   0.0000   0.0000

          k = 0.2200 0.5581 0.0000 (  5194 PWs)   bands (ev):

   -15.4395 -14.3810 -11.1985  -3.3194  -0.6792   9.0932   9.6832   9.9273

     occupation numbers 
     1.0000   1.0000   1.0000   1.0000   0.0000   0.0000   0.0000   0.0000

          k = 0.2200 0.5658 0.0000 (  5196 PWs)   bands (ev):

   -15.3624 -14.4621 -11.2041  -3.2840  -0.7175   9.0998   9.6920  10.0907

     occupation numbers 
     1.0000   1.0000   1.0000   1.0000   0.0000   0.0000   0.0000   0.0000

          k = 0.2200 0.5735 0.0000 (  5200 PWs)   bands (ev):

   -15.3181 -14.5084 -11.2069  -3.2658  -0.7371   9.1030   9.6941  10.2422

     occupation numbers 
     1.0000   1.0000   1.0000   1.0000   0.0000   0.0000   0.0000   0.0000

          k = 0.2267 0.3926 0.0000 (  5162 PWs)   bands (ev):

   -17.8316 -11.6346 -10.2967  -5.5327   1.9048   6.3690   7.3371   7.9621

     occupation numbers 
     1.0000   1.0000   1.0000   1.0000   0.0000   0.0000   0.0000   0.0000

          k = 0.2267 0.4003 0.0000 (  5160 PWs)   bands (ev):

   -17.7288 -11.7409 -10.3957  -5.4191   1.7636   6.5142   7.4667   8.1138

     occupation numbers 
     1.0000   1.0000   1.0000   1.0000   0.0000   0.0000   0.0000   0.0000

          k = 0.2267 0.4080 0.0000 (  5158 PWs)   bands (ev):

   -17.6244 -11.8512 -10.4888  -5.3043   1.6222   6.6619   7.5963   8.2682

     occupation numbers 
     1.0000   1.0000   1.0000   1.0000   0.0000   0.0000   0.0000   0.0000

          k = 0.2267 0.4157 0.0000 (  5168 PWs)   bands (ev):

   -17.5182 -11.9656 -10.5760  -5.1883   1.4807   6.8121   7.7253   8.4256

     occupation numbers 
     1.0000   1.0000   1.0000   1.0000   0.0000   0.0000   0.0000   0.0000

          k = 0.2267 0.4234 0.0000 (  5172 PWs)   bands (ev):

   -17.4105 -12.0839 -10.6571  -5.0714   1.3393   6.9649   7.8533   8.5858

     occupation numbers 
     1.0000   1.0000   1.0000   1.0000   0.0000   0.0000   0.0000   0.0000

          k = 0.2267 0.4311 0.0000 (  5178 PWs)   bands (ev):

   -17.3011 -12.2058 -10.7322  -4.9537   1.1981   7.1200   7.9792   8.7488

     occupation numbers 
     1.0000   1.0000   1.0000   1.0000   0.0000   0.0000   0.0000   0.0000

          k = 0.2267 0.4388 0.0000 (  5178 PWs)   bands (ev):

   -17.1902 -12.3310 -10.8017  -4.8354   1.0573   7.2776   8.1023   8.9146

     occupation numbers 
     1.0000   1.0000   1.0000   1.0000   0.0000   0.0000   0.0000   0.0000

          k = 0.2267 0.4465 0.0000 (  5182 PWs)   bands (ev):

   -17.0777 -12.4592 -10.8657  -4.7166   0.9171   7.4376   8.2215   9.0831

     occupation numbers 
     1.0000   1.0000   1.0000   1.0000   0.0000   0.0000   0.0000   0.0000

          k = 0.2267 0.4542 0.0000 (  5180 PWs)   bands (ev):

   -16.9638 -12.5899 -10.9244  -4.5976   0.7778   7.5998   8.3356   9.2543

     occupation numbers 
     1.0000   1.0000   1.0000   1.0000   0.0000   0.0000   0.0000   0.0000

          k = 0.2267 0.4619 0.0000 (  5184 PWs)   bands (ev):

   -16.8486 -12.7228 -10.9782  -4.4787   0.6396   7.7642   8.4432   9.4277

     occupation numbers 
     1.0000   1.0000   1.0000   1.0000   0.0000   0.0000   0.0000   0.0000

          k = 0.2267 0.4696 0.0000 (  5188 PWs)   bands (ev):

   -16.7320 -12.8572 -11.0274  -4.3602   0.5030   7.9308   8.5430   9.6028

     occupation numbers 
     1.0000   1.0000   1.0000   1.0000   0.0000   0.0000   0.0000   0.0000

          k = 0.2267 0.4773 0.0000 (  5184 PWs)   bands (ev):

   -16.6142 -12.9930 -11.0721  -4.2425   0.3683   8.0994   8.6337   9.7793

     occupation numbers 
     1.0000   1.0000   1.0000   1.0000   0.0000   0.0000   0.0000   0.0000

          k = 0.2267 0.4850 0.0000 (  5186 PWs)   bands (ev):

   -16.4954 -13.1295 -11.1128  -4.1261   0.2360   8.2699   8.7145   9.9157

     occupation numbers 
     1.0000   1.0000   1.0000   1.0000   0.0000   0.0000   0.0000   0.0000

          k = 0.2267 0.4927 0.0000 (  5178 PWs)   bands (ev):

   -16.3756 -13.2664 -11.1495  -4.0114   0.1067   8.4423   8.7845   9.9432

     occupation numbers 
     1.0000   1.0000   1.0000   1.0000   0.0000   0.0000   0.0000   0.0000

          k = 0.2267 0.5004 0.0000 (  5180 PWs)   bands (ev):

   -16.2551 -13.4033 -11.1824  -3.8993  -0.0188   8.6162   8.8438   9.9398

     occupation numbers 
     1.0000   1.0000   1.0000   1.0000   0.0000   0.0000   0.0000   0.0000

          k = 0.2267 0.5081 0.0000 (  5180 PWs)   bands (ev):

   -16.1341 -13.5396 -11.2118  -3.7905  -0.1399   8.7915   8.8928   9.9327

     occupation numbers 
     1.0000   1.0000   1.0000   1.0000   0.0000   0.0000   0.0000   0.0000

          k = 0.2267 0.5158 0.0000 (  5184 PWs)   bands (ev):

   -16.0130 -13.6748 -11.2378  -3.6860  -0.2554   8.9322   8.9680   9.9258

     occupation numbers 
     1.0000   1.0000   1.0000   1.0000   0.0000   0.0000   0.0000   0.0000

          k = 0.2267 0.5235 0.0000 (  5196 PWs)   bands (ev):

   -15.8924 -13.8083 -11.2605  -3.5871  -0.3640   8.9633   9.1450   9.9196

     occupation numbers 
     1.0000   1.0000   1.0000   1.0000   0.0000   0.0000   0.0000   0.0000

          k = 0.2267 0.5312 0.0000 (  5190 PWs)   bands (ev):

   -15.7732 -13.9389 -11.2799  -3.4952  -0.4644   8.9872   9.3220   9.9149

     occupation numbers 
     1.0000   1.0000   1.0000   1.0000   0.0000   0.0000   0.0000   0.0000

          k = 0.2267 0.5389 0.0000 (  5190 PWs)   bands (ev):

   -15.6565 -14.0654 -11.2962  -3.4122  -0.5547   9.0051   9.4973   9.9131

     occupation numbers 
     1.0000   1.0000   1.0000   1.0000   0.0000   0.0000   0.0000   0.0000

          k = 0.2267 0.5466 0.0000 (  5196 PWs)   bands (ev):

   -15.5446 -14.1854 -11.3095  -3.3398  -0.6330   9.0182   9.6660   9.9185

     occupation numbers 
     1.0000   1.0000   1.0000   1.0000   0.0000   0.0000   0.0000   0.0000

          k = 0.2267 0.5543 0.0000 (  5196 PWs)   bands (ev):

   -15.4413 -14.2951 -11.3198  -3.2804  -0.6970   9.0274   9.8029   9.9555

     occupation numbers 
     1.0000   1.0000   1.0000   1.0000   0.0000   0.0000   0.0000   0.0000

          k = 0.2267 0.5620 0.0000 (  5190 PWs)   bands (ev):

   -15.3531 -14.3880 -11.3271  -3.2359  -0.7448   9.0335   9.8547  10.0756

     occupation numbers 
     1.0000   1.0000   1.0000   1.0000   0.0000   0.0000   0.0000   0.0000

          k = 0.2267 0.5697 0.0000 (  5196 PWs)   bands (ev):

   -15.2908 -14.4531 -11.3315  -3.2084  -0.7743   9.0369   9.8652  10.2286

     occupation numbers 
     1.0000   1.0000   1.0000   1.0000   0.0000   0.0000   0.0000   0.0000

          k = 0.2267 0.5774 0.0000 (  5198 PWs)   bands (ev):

   -15.2677 -14.4770 -11.3329  -3.1991  -0.7843   9.0380   9.8672  10.3294

     occupation numbers 
     1.0000   1.0000   1.0000   1.0000   0.0000   0.0000   0.0000   0.0000

          k = 0.2333 0.4041 0.0000 (  5162 PWs)   bands (ev):

   -17.6254 -11.8411 -10.4989  -5.3051   1.6249   6.6605   7.5944   8.2668

     occupation numbers 
     1.0000   1.0000   1.0000   1.0000   0.0000   0.0000   0.0000   0.0000

          k = 0.2333 0.4118 0.0000 (  5166 PWs)   bands (ev):

   -17.5202 -11.9453 -10.5962  -5.1899   1.4859   6.8093   7.7215   8.4227

     occupation numbers 
     1.0000   1.0000   1.0000   1.0000   0.0000   0.0000   0.0000   0.0000

          k = 0.2333 0.4195 0.0000 (  5168 PWs)   bands (ev):

   -17.4134 -12.0537 -10.6874  -5.0737   1.3469   6.9607   7.8473   8.5815

     occupation numbers 
     1.0000   1.0000   1.0000   1.0000   0.0000   0.0000   0.0000   0.0000

          k = 0.2333 0.4272 0.0000 (  5170 PWs)   bands (ev):

   -17.3051 -12.1662 -10.7723  -4.9566   1.2079   7.1145   7.9710   8.7431

     occupation numbers 
     1.0000   1.0000   1.0000   1.0000   0.0000   0.0000   0.0000   0.0000

          k = 0.2333 0.4349 0.0000 (  5174 PWs)   bands (ev):

   -17.1951 -12.2826 -10.8509  -4.8387   1.0692   7.2706   8.0916   8.9075

     occupation numbers 
     1.0000   1.0000   1.0000   1.0000   0.0000   0.0000   0.0000   0.0000

          k = 0.2333 0.4426 0.0000 (  5176 PWs)   bands (ev):

   -17.0836 -12.4026 -10.9235  -4.7202   0.9308   7.4292   8.2081   9.0747

     occupation numbers 
     1.0000   1.0000   1.0000   1.0000   0.0000   0.0000   0.0000   0.0000

          k = 0.2333 0.4503 0.0000 (  5178 PWs)   bands (ev):

   -16.9707 -12.5260 -10.9901  -4.6014   0.7931   7.5900   8.3192   9.2446

     occupation numbers 
     1.0000   1.0000   1.0000   1.0000   0.0000   0.0000   0.0000   0.0000

          k = 0.2333 0.4580 0.0000 (  5178 PWs)   bands (ev):

   -16.8563 -12.6524 -11.0510  -4.4824   0.6562   7.7531   8.4236   9.4171

     occupation numbers 
     1.0000   1.0000   1.0000   1.0000   0.0000   0.0000   0.0000   0.0000

          k = 0.2333 0.4657 0.0000 (  5180 PWs)   bands (ev):

   -16.7407 -12.7812 -11.1067  -4.3636   0.5206   7.9183   8.5198   9.5919

     occupation numbers 
     1.0000   1.0000   1.0000   1.0000   0.0000   0.0000   0.0000   0.0000

          k = 0.2333 0.4734 0.0000 (  5184 PWs)   bands (ev):

   -16.6237 -12.9120 -11.1573  -4.2454   0.3864   8.0856   8.6067   9.7683

     occupation numbers 
     1.0000   1.0000   1.0000   1.0000   0.0000   0.0000   0.0000   0.0000

          k = 0.2333 0.4811 0.0000 (  5182 PWs)   bands (ev):

   -16.5057 -13.0443 -11.2031  -4.1280   0.2543   8.2548   8.6833   9.9431

     occupation numbers 
     1.0000   1.0000   1.0000   1.0000   0.0000   0.0000   0.0000   0.0000

          k = 0.2333 0.4888 0.0000 (  5180 PWs)   bands (ev):

   -16.3866 -13.1777 -11.2445  -4.0121   0.1246   8.4258   8.7491  10.0869

     occupation numbers 
     1.0000   1.0000   1.0000   1.0000   0.0000   0.0000   0.0000   0.0000

          k = 0.2333 0.4965 0.0000 (  5178 PWs)   bands (ev):

   -16.2668 -13.3116 -11.2816  -3.8981  -0.0020   8.5985   8.8041  10.1122

     occupation numbers 
     1.0000   1.0000   1.0000   1.0000   0.0000   0.0000   0.0000   0.0000

          k = 0.2333 0.5042 0.0000 (  5182 PWs)   bands (ev):

   -16.1463 -13.4457 -11.3148  -3.7870  -0.1247   8.7726   8.8489  10.1091

     occupation numbers 
     1.0000   1.0000   1.0000   1.0000   0.0000   0.0000   0.0000   0.0000

          k = 0.2333 0.5119 0.0000 (  5182 PWs)   bands (ev):

   -16.0256 -13.5792 -11.3441  -3.6795  -0.2427   8.8844   8.9480  10.1026

     occupation numbers 
     1.0000   1.0000   1.0000   1.0000   0.0000   0.0000   0.0000   0.0000

          k = 0.2333 0.5196 0.0000 (  5192 PWs)   bands (ev):

   -15.9050 -13.7116 -11.3699  -3.5767  -0.3548   8.9117   9.1242  10.0957

     occupation numbers 
     1.0000   1.0000   1.0000   1.0000   0.0000   0.0000   0.0000   0.0000

          k = 0.2333 0.5273 0.0000 (  5194 PWs)   bands (ev):

   -15.7853 -13.8421 -11.3921  -3.4801  -0.4596   8.9323   9.3009  10.0896

     occupation numbers 
     1.0000   1.0000   1.0000   1.0000   0.0000   0.0000   0.0000   0.0000

          k = 0.2333 0.5350 0.0000 (  5190 PWs)   bands (ev):

   -15.6675 -13.9693 -11.4110  -3.3912  -0.5555   8.9474   9.4772  10.0848

     occupation numbers 
     1.0000   1.0000   1.0000   1.0000   0.0000   0.0000   0.0000   0.0000

          k = 0.2333 0.5427 0.0000 (  5198 PWs)   bands (ev):

   -15.5532 -14.0917 -11.4265  -3.3120  -0.6407   8.9582   9.6516  10.0826

     occupation numbers 
     1.0000   1.0000   1.0000   1.0000   0.0000   0.0000   0.0000   0.0000

          k = 0.2333 0.5504 0.0000 (  5196 PWs)   bands (ev):

   -15.4453 -14.2061 -11.4389  -3.2445  -0.7128   8.9657   9.8198  10.0866

     occupation numbers 
     1.0000   1.0000   1.0000   1.0000   0.0000   0.0000   0.0000   0.0000

          k = 0.2333 0.5581 0.0000 (  5194 PWs)   bands (ev):

   -15.3487 -14.3077 -11.4481  -3.1912  -0.7697   8.9707   9.9618  10.1153

     occupation numbers 
     1.0000   1.0000   1.0000   1.0000   0.0000   0.0000   0.0000   0.0000

          k = 0.2333 0.5658 0.0000 (  5192 PWs)   bands (ev):

   -15.2720 -14.3878 -11.4543  -3.1542  -0.8091   8.9736  10.0229  10.2200

     occupation numbers 
     1.0000   1.0000   1.0000   1.0000   0.0000   0.0000   0.0000   0.0000

          k = 0.2333 0.5735 0.0000 (  5194 PWs)   bands (ev):

   -15.2278 -14.4336 -11.4573  -3.1351  -0.8294   8.9750  10.0347  10.3514

     occupation numbers 
     1.0000   1.0000   1.0000   1.0000   0.0000   0.0000   0.0000   0.0000

          k = 0.2400 0.4157 0.0000 (  5174 PWs)   bands (ev):

   -17.4144 -12.0433 -10.6978  -5.0745   1.3495   6.9593   7.8453   8.5801

     occupation numbers 
     1.0000   1.0000   1.0000   1.0000   0.0000   0.0000   0.0000   0.0000

          k = 0.2400 0.4234 0.0000 (  5174 PWs)   bands (ev):

   -17.3071 -12.1454 -10.7932  -4.9580   1.2129   7.1117   7.9668   8.7402

     occupation numbers 
     1.0000   1.0000   1.0000   1.0000   0.0000   0.0000   0.0000   0.0000

          k = 0.2400 0.4311 0.0000 (  5174 PWs)   bands (ev):

   -17.1981 -12.2517 -10.8822  -4.8407   1.0763   7.2664   8.0852   8.9033

     occupation numbers 
     1.0000   1.0000   1.0000   1.0000   0.0000   0.0000   0.0000   0.0000

          k = 0.2400 0.4388 0.0000 (  5176 PWs)   bands (ev):

   -17.0876 -12.3622 -10.9647  -4.7226   0.9400   7.4236   8.1991   9.0691

     occupation numbers 
     1.0000   1.0000   1.0000   1.0000   0.0000   0.0000   0.0000   0.0000

          k = 0.2400 0.4465 0.0000 (  5174 PWs)   bands (ev):

   -16.9756 -12.4767 -11.0407  -4.6041   0.8041   7.5830   8.3075   9.2376

     occupation numbers 
     1.0000   1.0000   1.0000   1.0000   0.0000   0.0000   0.0000   0.0000

          k = 0.2400 0.4542 0.0000 (  5178 PWs)   bands (ev):

   -16.8622 -12.5948 -11.1105  -4.4852   0.6688   7.7447   8.4087   9.4089

     occupation numbers 
     1.0000   1.0000   1.0000   1.0000   0.0000   0.0000   0.0000   0.0000

          k = 0.2400 0.4619 0.0000 (  5180 PWs)   bands (ev):

   -16.7474 -12.7163 -11.1741  -4.3663   0.5344   7.9086   8.5016   9.5827

     occupation numbers 
     1.0000   1.0000   1.0000   1.0000   0.0000   0.0000   0.0000   0.0000

          k = 0.2400 0.4696 0.0000 (  5188 PWs)   bands (ev):

   -16.6314 -12.8407 -11.2319  -4.2477   0.4012   8.0745   8.5848   9.7588

     occupation numbers 
     1.0000   1.0000   1.0000   1.0000   0.0000   0.0000   0.0000   0.0000

          k = 0.2400 0.4773 0.0000 (  5184 PWs)   bands (ev):

   -16.5141 -12.9674 -11.2843  -4.1297   0.2695   8.2423   8.6575   9.9364

     occupation numbers 
     1.0000   1.0000   1.0000   1.0000   0.0000   0.0000   0.0000   0.0000

          k = 0.2400 0.4850 0.0000 (  5180 PWs)   bands (ev):

   -16.3959 -13.0959 -11.3315  -4.0127   0.1399   8.4120   8.7192  10.1123

     occupation numbers 
     1.0000   1.0000   1.0000   1.0000   0.0000   0.0000   0.0000   0.0000

          k = 0.2400 0.4927 0.0000 (  5180 PWs)   bands (ev):

   -16.2767 -13.2259 -11.3738  -3.8973   0.0128   8.5834   8.7700  10.2705

     occupation numbers 
     1.0000   1.0000   1.0000   1.0000   0.0000   0.0000   0.0000   0.0000

          k = 0.2400 0.5004 0.0000 (  5178 PWs)   bands (ev):

   -16.1568 -13.3566 -11.4116  -3.7841  -0.1111   8.7563   8.8107  10.2789

     occupation numbers 
     1.0000   1.0000   1.0000   1.0000   0.0000   0.0000   0.0000   0.0000

          k = 0.2400 0.5081 0.0000 (  5178 PWs)   bands (ev):

   -16.0365 -13.4875 -11.4452  -3.6740  -0.2311   8.8421   8.9304  10.2756

     occupation numbers 
     1.0000   1.0000   1.0000   1.0000   0.0000   0.0000   0.0000   0.0000

          k = 0.2400 0.5158 0.0000 (  5180 PWs)   bands (ev):

   -15.9162 -13.6181 -11.4746  -3.5678  -0.3460   8.8657   9.1056  10.2689

     occupation numbers 
     1.0000   1.0000   1.0000   1.0000   0.0000   0.0000   0.0000   0.0000

          k = 0.2400 0.5235 0.0000 (  5188 PWs)   bands (ev):

   -15.7963 -13.7474 -11.5002  -3.4669  -0.4546   8.8829   9.2814  10.2620

     occupation numbers 
     1.0000   1.0000   1.0000   1.0000   0.0000   0.0000   0.0000   0.0000

          k = 0.2400 0.5312 0.0000 (  5190 PWs)   bands (ev):

   -15.6778 -13.8745 -11.5220  -3.3727  -0.5556   8.8950   9.4572  10.2558

     occupation numbers 
     1.0000   1.0000   1.0000   1.0000   0.0000   0.0000   0.0000   0.0000

          k = 0.2400 0.5389 0.0000 (  5190 PWs)   bands (ev):

   -15.5619 -13.9980 -11.5403  -3.2870  -0.6470   8.9033   9.6324  10.2509

     occupation numbers 
     1.0000   1.0000   1.0000   1.0000   0.0000   0.0000   0.0000   0.0000

          k = 0.2400 0.5466 0.0000 (  5190 PWs)   bands (ev):

   -15.4506 -14.1155 -11.5551  -3.2120  -0.7267   8.9086   9.8053  10.2483

     occupation numbers 
     1.0000   1.0000   1.0000   1.0000   0.0000   0.0000   0.0000   0.0000

          k = 0.2400 0.5543 0.0000 (  5194 PWs)   bands (ev):

   -15.3479 -14.2234 -11.5665  -3.1500  -0.7924   8.9119   9.9722  10.2506

     occupation numbers 
     1.0000   1.0000   1.0000   1.0000   0.0000   0.0000   0.0000   0.0000

          k = 0.2400 0.5620 0.0000 (  5192 PWs)   bands (ev):

   -15.2600 -14.3148 -11.5747  -3.1034  -0.8416   8.9139  10.1168  10.2715

     occupation numbers 
     1.0000   1.0000   1.0000   1.0000   0.0000   0.0000   0.0000   0.0000

          k = 0.2400 0.5697 0.0000 (  5196 PWs)   bands (ev):

   -15.1979 -14.3792 -11.5795  -3.0744  -0.8722   8.9149  10.1865  10.3555

     occupation numbers 
     1.0000   1.0000   1.0000   1.0000   0.0000   0.0000   0.0000   0.0000

          k = 0.2400 0.5774 0.0000 (  5192 PWs)   bands (ev):

   -15.1748 -14.4030 -11.5811  -3.0645  -0.8826   8.9152  10.1980  10.4327

     occupation numbers 
     1.0000   1.0000   1.0000   1.0000   0.0000   0.0000   0.0000   0.0000

          k = 0.2467 0.4272 0.0000 (  5174 PWs)   bands (ev):

   -17.1991 -12.2411 -10.8930  -4.8413   1.0787   7.2650   8.0830   8.9018

     occupation numbers 
     1.0000   1.0000   1.0000   1.0000   0.0000   0.0000   0.0000   0.0000

          k = 0.2467 0.4349 0.0000 (  5176 PWs)   bands (ev):

   -17.0895 -12.3410 -10.9863  -4.7238   0.9447   7.4208   8.1946   9.0662

     occupation numbers 
     1.0000   1.0000   1.0000   1.0000   0.0000   0.0000   0.0000   0.0000

          k = 0.2467 0.4426 0.0000 (  5180 PWs)   bands (ev):

   -16.9785 -12.4452 -11.0730  -4.6057   0.8108   7.5789   8.3004   9.2334

     occupation numbers 
     1.0000   1.0000   1.0000   1.0000   0.0000   0.0000   0.0000   0.0000

          k = 0.2467 0.4503 0.0000 (  5180 PWs)   bands (ev):

   -16.8661 -12.5537 -11.1529  -4.4871   0.6773   7.7391   8.3988   9.4033

     occupation numbers 
     1.0000   1.0000   1.0000   1.0000   0.0000   0.0000   0.0000   0.0000

          k = 0.2467 0.4580 0.0000 (  5184 PWs)   bands (ev):

   -16.7522 -12.6661 -11.2261  -4.3682   0.5444   7.9016   8.4885   9.5759

     occupation numbers 
     1.0000   1.0000   1.0000   1.0000   0.0000   0.0000   0.0000   0.0000

          k = 0.2467 0.4657 0.0000 (  5184 PWs)   bands (ev):

   -16.6371 -12.7823 -11.2928  -4.2494   0.4124   8.0661   8.5683   9.7510

     occupation numbers 
     1.0000   1.0000   1.0000   1.0000   0.0000   0.0000   0.0000   0.0000

          k = 0.2467 0.4734 0.0000 (  5188 PWs)   bands (ev):

   -16.5207 -12.9017 -11.3533  -4.1310   0.2816   8.2326   8.6372   9.9283

     occupation numbers 
     1.0000   1.0000   1.0000   1.0000   0.0000   0.0000   0.0000   0.0000

          k = 0.2467 0.4811 0.0000 (  5188 PWs)   bands (ev):

   -16.4033 -13.0239 -11.4078  -4.0132   0.1524   8.4010   8.6950  10.1071

     occupation numbers 
     1.0000   1.0000   1.0000   1.0000   0.0000   0.0000   0.0000   0.0000

          k = 0.2467 0.4888 0.0000 (  5186 PWs)   bands (ev):

   -16.2849 -13.1484 -11.4567  -3.8967   0.0251   8.5710   8.7418  10.2835

     occupation numbers 
     1.0000   1.0000   1.0000   1.0000   0.0000   0.0000   0.0000   0.0000

          k = 0.2467 0.4965 0.0000 (  5182 PWs)   bands (ev):

   -16.1657 -13.2744 -11.5003  -3.7818  -0.0995   8.7426   8.7783  10.4200

     occupation numbers 
     1.0000   1.0000   1.0000   1.0000   0.0000   0.0000   0.0000   0.0000

          k = 0.2467 0.5042 0.0000 (  5180 PWs)   bands (ev):

   -16.0459 -13.4016 -11.5390  -3.6694  -0.2208   8.8059   8.9154  10.4413

     occupation numbers 
     1.0000   1.0000   1.0000   1.0000   0.0000   0.0000   0.0000   0.0000

          k = 0.2467 0.5119 0.0000 (  5182 PWs)   bands (ev):

   -15.9259 -13.5292 -11.5731  -3.5604  -0.3379   8.8257   9.0894  10.4374

     occupation numbers 
     1.0000   1.0000   1.0000   1.0000   0.0000   0.0000   0.0000   0.0000

          k = 0.2467 0.5196 0.0000 (  5186 PWs)   bands (ev):

   -15.8061 -13.6564 -11.6027  -3.4557  -0.4498   8.8394   9.2641  10.4305

     occupation numbers 
     1.0000   1.0000   1.0000   1.0000   0.0000   0.0000   0.0000   0.0000

          k = 0.2467 0.5273 0.0000 (  5188 PWs)   bands (ev):

   -15.6872 -13.7823 -11.6282  -3.3567  -0.5551   8.8483   9.4390  10.4234

     occupation numbers 
     1.0000   1.0000   1.0000   1.0000   0.0000   0.0000   0.0000   0.0000

          k = 0.2467 0.5350 0.0000 (  5184 PWs)   bands (ev):

   -15.5701 -13.9058 -11.6498  -3.2651  -0.6521   8.8537   9.6137  10.4170

     occupation numbers 
     1.0000   1.0000   1.0000   1.0000   0.0000   0.0000   0.0000   0.0000

          k = 0.2467 0.5427 0.0000 (  5182 PWs)   bands (ev):

   -15.4566 -14.0250 -11.6675  -3.1829  -0.7388   8.8566   9.7872  10.4117

     occupation numbers 
     1.0000   1.0000   1.0000   1.0000   0.0000   0.0000   0.0000   0.0000

          k = 0.2467 0.5504 0.0000 (  5192 PWs)   bands (ev):

   -15.3493 -14.1369 -11.6815  -3.1125  -0.8128   8.8580   9.9579  10.4083

     occupation numbers 
     1.0000   1.0000   1.0000   1.0000   0.0000   0.0000   0.0000   0.0000

          k = 0.2467 0.5581 0.0000 (  5192 PWs)   bands (ev):

   -15.2531 -14.2367 -11.6919  -3.0564  -0.8716   8.8584  10.1222  10.4084

     occupation numbers 
     1.0000   1.0000   1.0000   1.0000   0.0000   0.0000   0.0000   0.0000

          k = 0.2467 0.5658 0.0000 (  5188 PWs)   bands (ev):

   -15.1765 -14.3157 -11.6989  -3.0172  -0.9126   8.8584  10.2672  10.4196

     occupation numbers 
     1.0000   1.0000   1.0000   1.0000   0.0000   0.0000   0.0000   0.0000

          k = 0.2467 0.5735 0.0000 (  5198 PWs)   bands (ev):

   -15.1323 -14.3611 -11.7023  -2.9970  -0.9337   8.8584  10.3442  10.4686

     occupation numbers 
     1.0000   1.0000   1.0000   1.0000   0.0000   0.0000   0.0000   0.0000

          k = 0.2533 0.4388 0.0000 (  5178 PWs)   bands (ev):

   -16.9795 -12.4344 -11.0841  -4.6062   0.8130   7.5775   8.2980   9.2320

     occupation numbers 
     1.0000   1.0000   1.0000   1.0000   0.0000   0.0000   0.0000   0.0000

          k = 0.2533 0.4465 0.0000 (  5176 PWs)   bands (ev):

   -16.8680 -12.5321 -11.1751  -4.4880   0.6815   7.7364   8.3938   9.4005

     occupation numbers 
     1.0000   1.0000   1.0000   1.0000   0.0000   0.0000   0.0000   0.0000

          k = 0.2533 0.4542 0.0000 (  5176 PWs)   bands (ev):

   -16.7551 -12.6341 -11.2592  -4.3694   0.5505   7.8974   8.4806   9.5717

     occupation numbers 
     1.0000   1.0000   1.0000   1.0000   0.0000   0.0000   0.0000   0.0000

          k = 0.2533 0.4619 0.0000 (  5178 PWs)   bands (ev):

   -16.6409 -12.7405 -11.3364  -4.2506   0.4200   8.0606   8.5571   9.7456

     occupation numbers 
     1.0000   1.0000   1.0000   1.0000   0.0000   0.0000   0.0000   0.0000

          k = 0.2533 0.4696 0.0000 (  5186 PWs)   bands (ev):

   -16.5254 -12.8508 -11.4066  -4.1319   0.2903   8.2257   8.6226   9.9220

     occupation numbers 
     1.0000   1.0000   1.0000   1.0000   0.0000   0.0000   0.0000   0.0000

          k = 0.2533 0.4773 0.0000 (  5184 PWs)   bands (ev):

   -16.4088 -12.9649 -11.4700  -4.0137   0.1619   8.3926   8.6766  10.1005

     occupation numbers 
     1.0000   1.0000   1.0000   1.0000   0.0000   0.0000   0.0000   0.0000

          k = 0.2533 0.4850 0.0000 (  5188 PWs)   bands (ev):

   -16.2912 -13.0821 -11.5271  -3.8962   0.0350   8.5613   8.7196  10.2802

     occupation numbers 
     1.0000   1.0000   1.0000   1.0000   0.0000   0.0000   0.0000   0.0000

          k = 0.2533 0.4927 0.0000 (  5190 PWs)   bands (ev):

   -16.1728 -13.2019 -11.5781  -3.7801  -0.0899   8.7316   8.7522  10.4566

     occupation numbers 
     1.0000   1.0000   1.0000   1.0000   0.0000   0.0000   0.0000   0.0000

          k = 0.2533 0.5004 0.0000 (  5190 PWs)   bands (ev):

   -16.0536 -13.3238 -11.6233  -3.6658  -0.2120   8.7758   8.9031  10.5826

     occupation numbers 
     1.0000   1.0000   1.0000   1.0000   0.0000   0.0000   0.0000   0.0000

          k = 0.2533 0.5081 0.0000 (  5186 PWs)   bands (ev):

   -15.9341 -13.4470 -11.6631  -3.5542  -0.3308   8.7919   9.0758  10.5980

     occupation numbers 
     1.0000   1.0000   1.0000   1.0000   0.0000   0.0000   0.0000   0.0000

          k = 0.2533 0.5158 0.0000 (  5186 PWs)   bands (ev):

   -15.8145 -13.5709 -11.6979  -3.4462  -0.4453   8.8020   9.2493  10.5931

     occupation numbers 
     1.0000   1.0000   1.0000   1.0000   0.0000   0.0000   0.0000   0.0000

          k = 0.2533 0.5235 0.0000 (  5186 PWs)   bands (ev):

   -15.6955 -13.6944 -11.7280  -3.3430  -0.5542   8.8076   9.4231  10.5857

     occupation numbers 
     1.0000   1.0000   1.0000   1.0000   0.0000   0.0000   0.0000   0.0000

          k = 0.2533 0.5312 0.0000 (  5184 PWs)   bands (ev):

   -15.5777 -13.8167 -11.7535  -3.2461  -0.6561   8.8099   9.5969  10.5782

     occupation numbers 
     1.0000   1.0000   1.0000   1.0000   0.0000   0.0000   0.0000   0.0000

          k = 0.2533 0.5389 0.0000 (  5184 PWs)   bands (ev):

   -15.4625 -13.9361 -11.7748  -3.1573  -0.7490   8.8102   9.7699  10.5713

     occupation numbers 
     1.0000   1.0000   1.0000   1.0000   0.0000   0.0000   0.0000   0.0000

          k = 0.2533 0.5466 0.0000 (  5188 PWs)   bands (ev):

   -15.3520 -14.0503 -11.7919  -3.0789  -0.8309   8.8092   9.9411  10.5653

     occupation numbers 
     1.0000   1.0000   1.0000   1.0000   0.0000   0.0000   0.0000   0.0000

          k = 0.2533 0.5543 0.0000 (  5192 PWs)   bands (ev):

   -15.2497 -14.1557 -11.8051  -3.0136  -0.8989   8.8078  10.1086  10.5602

     occupation numbers 
     1.0000   1.0000   1.0000   1.0000   0.0000   0.0000   0.0000   0.0000

          k = 0.2533 0.5620 0.0000 (  5190 PWs)   bands (ev):

   -15.1620 -14.2455 -11.8145  -2.9641  -0.9502   8.8064  10.2691  10.5557

     occupation numbers 
     1.0000   1.0000   1.0000   1.0000   0.0000   0.0000   0.0000   0.0000

          k = 0.2533 0.5697 0.0000 (  5198 PWs)   bands (ev):

   -15.0999 -14.3091 -11.8201  -2.9331  -0.9824   8.8054  10.4117  10.5498

     occupation numbers 
     1.0000   1.0000   1.0000   1.0000   0.0000   0.0000   0.0000   0.0000

          k = 0.2533 0.5774 0.0000 (  5200 PWs)   bands (ev):

   -15.0767 -14.3327 -11.8219  -2.9226  -0.9933   8.8050  10.4910  10.5380

     occupation numbers 
     1.0000   1.0000   1.0000   1.0000   0.0000   0.0000   0.0000   0.0000

          k = 0.2600 0.4503 0.0000 (  5174 PWs)   bands (ev):

   -16.7561 -12.6231 -11.2706  -4.3698   0.5525   7.8960   8.4779   9.5703

     occupation numbers 
     1.0000   1.0000   1.0000   1.0000   0.0000   0.0000   0.0000   0.0000

          k = 0.2600 0.4580 0.0000 (  5174 PWs)   bands (ev):

   -16.6428 -12.7185 -11.3592  -4.2512   0.4238   8.0578   8.5516   9.7429

     occupation numbers 
     1.0000   1.0000   1.0000   1.0000   0.0000   0.0000   0.0000   0.0000

          k = 0.2600 0.4657 0.0000 (  5178 PWs)   bands (ev):

   -16.5283 -12.8184 -11.4405  -4.1325   0.2956   8.2215   8.6138   9.9180

     occupation numbers 
     1.0000   1.0000   1.0000   1.0000   0.0000   0.0000   0.0000   0.0000

          k = 0.2600 0.4734 0.0000 (  5182 PWs)   bands (ev):

   -16.4126 -12.9225 -11.5146  -4.0140   0.1683   8.3871   8.6643  10.0955

     occupation numbers 
     1.0000   1.0000   1.0000   1.0000   0.0000   0.0000   0.0000   0.0000

          k = 0.2600 0.4811 0.0000 (  5178 PWs)   bands (ev):

   -16.2958 -13.0307 -11.5815  -3.8959   0.0421   8.5544   8.7036  10.2751

     occupation numbers 
     1.0000   1.0000   1.0000   1.0000   0.0000   0.0000   0.0000   0.0000

          k = 0.2600 0.4888 0.0000 (  5182 PWs)   bands (ev):

   -16.1781 -13.1424 -11.6415  -3.7788  -0.0825   8.7233   8.7324  10.4556

     occupation numbers 
     1.0000   1.0000   1.0000   1.0000   0.0000   0.0000   0.0000   0.0000

          k = 0.2600 0.4965 0.0000 (  5190 PWs)   bands (ev):

   -16.0596 -13.2572 -11.6950  -3.6631  -0.2050   8.7522   8.8935  10.6306

     occupation numbers 
     1.0000   1.0000   1.0000   1.0000   0.0000   0.0000   0.0000   0.0000

          k = 0.2600 0.5042 0.0000 (  5186 PWs)   bands (ev):

   -15.9407 -13.3744 -11.7421  -3.5494  -0.3249   8.7645   9.0649  10.7394

     occupation numbers 
     1.0000   1.0000   1.0000   1.0000   0.0000   0.0000   0.0000   0.0000

          k = 0.2600 0.5119 0.0000 (  5186 PWs)   bands (ev):

   -15.8215 -13.4933 -11.7834  -3.4386  -0.4413   8.7710   9.2371  10.7470

     occupation numbers 
     1.0000   1.0000   1.0000   1.0000   0.0000   0.0000   0.0000   0.0000

          k = 0.2600 0.5196 0.0000 (  5192 PWs)   bands (ev):

   -15.7026 -13.6130 -11.8192  -3.3317  -0.5531   8.7732   9.4097  10.7408

     occupation numbers 
     1.0000   1.0000   1.0000   1.0000   0.0000   0.0000   0.0000   0.0000

          k = 0.2600 0.5273 0.0000 (  5192 PWs)   bands (ev):

   -15.5845 -13.7326 -11.8498  -3.2300  -0.6591   8.7724   9.5824  10.7326

     occupation numbers 
     1.0000   1.0000   1.0000   1.0000   0.0000   0.0000   0.0000   0.0000

          k = 0.2600 0.5350 0.0000 (  5190 PWs)   bands (ev):

   -15.4682 -13.8507 -11.8754  -3.1352  -0.7577   8.7697   9.7545  10.7244

     occupation numbers 
     1.0000   1.0000   1.0000   1.0000   0.0000   0.0000   0.0000   0.0000

          k = 0.2600 0.5427 0.0000 (  5190 PWs)   bands (ev):

   -15.3554 -13.9655 -11.8965  -3.0494  -0.8466   8.7662   9.9251  10.7165

     occupation numbers 
     1.0000   1.0000   1.0000   1.0000   0.0000   0.0000   0.0000   0.0000

          k = 0.2600 0.5504 0.0000 (  5192 PWs)   bands (ev):

   -15.2486 -14.0741 -11.9131  -2.9752  -0.9233   8.7625  10.0931  10.7086

     occupation numbers 
     1.0000   1.0000   1.0000   1.0000   0.0000   0.0000   0.0000   0.0000

          k = 0.2600 0.5581 0.0000 (  5192 PWs)   bands (ev):

   -15.1527 -14.1715 -11.9254  -2.9155  -0.9848   8.7593  10.2564  10.6995

     occupation numbers 
     1.0000   1.0000   1.0000   1.0000   0.0000   0.0000   0.0000   0.0000

          k = 0.2600 0.5658 0.0000 (  5194 PWs)   bands (ev):

   -15.0761 -14.2492 -11.9335  -2.8734  -1.0281   8.7569  10.4110  10.6843

     occupation numbers 
     1.0000   1.0000   1.0000   1.0000   0.0000   0.0000   0.0000   0.0000

          k = 0.2600 0.5735 0.0000 (  5196 PWs)   bands (ev):

   -15.0317 -14.2942 -11.9376  -2.8516  -1.0505   8.7556  10.5465  10.6437

     occupation numbers 
     1.0000   1.0000   1.0000   1.0000   0.0000   0.0000   0.0000   0.0000

          k = 0.2667 0.4619 0.0000 (  5178 PWs)   bands (ev):

   -16.5292 -12.8071 -11.4522  -4.1327   0.2974   8.2201   8.6108   9.9167

     occupation numbers 
     1.0000   1.0000   1.0000   1.0000   0.0000   0.0000   0.0000   0.0000

          k = 0.2667 0.4696 0.0000 (  5182 PWs)   bands (ev):

   -16.4144 -12.9002 -11.5379  -4.0141   0.1715   8.3843   8.6582  10.0930

     occupation numbers 
     1.0000   1.0000   1.0000   1.0000   0.0000   0.0000   0.0000   0.0000

          k = 0.2667 0.4773 0.0000 (  5184 PWs)   bands (ev):

   -16.2985 -12.9978 -11.6162  -3.8958   0.0464   8.5502   8.6939  10.2716

     occupation numbers 
     1.0000   1.0000   1.0000   1.0000   0.0000   0.0000   0.0000   0.0000

          k = 0.2667 0.4850 0.0000 (  5186 PWs)   bands (ev):

   -16.1817 -13.0996 -11.6869  -3.7780  -0.0775   8.7177   8.7191  10.4521

     occupation numbers 
     1.0000   1.0000   1.0000   1.0000   0.0000   0.0000   0.0000   0.0000

          k = 0.2667 0.4927 0.0000 (  5186 PWs)   bands (ev):

   -16.0640 -13.2055 -11.7503  -3.6612  -0.1999   8.7352   8.8866  10.6329

     occupation numbers 
     1.0000   1.0000   1.0000   1.0000   0.0000   0.0000   0.0000   0.0000

          k = 0.2667 0.5004 0.0000 (  5184 PWs)   bands (ev):

   -15.9457 -13.3147 -11.8066  -3.5459  -0.3203   8.7439   9.0566  10.8040

     occupation numbers 
     1.0000   1.0000   1.0000   1.0000   0.0000   0.0000   0.0000   0.0000

          k = 0.2667 0.5081 0.0000 (  5184 PWs)   bands (ev):

   -15.8270 -13.4268 -11.8560  -3.4328  -0.4380   8.7467   9.2275  10.8850

     occupation numbers 
     1.0000   1.0000   1.0000   1.0000   0.0000   0.0000   0.0000   0.0000

          k = 0.2667 0.5158 0.0000 (  5188 PWs)   bands (ev):

   -15.7083 -13.5410 -11.8991  -3.3227  -0.5521   8.7454   9.3989  10.8862

     occupation numbers 
     1.0000   1.0000   1.0000   1.0000   0.0000   0.0000   0.0000   0.0000

          k = 0.2667 0.5235 0.0000 (  5196 PWs)   bands (ev):

   -15.5901 -13.6562 -11.9360  -3.2169  -0.6615   8.7412   9.5704  10.8781

     occupation numbers 
     1.0000   1.0000   1.0000   1.0000   0.0000   0.0000   0.0000   0.0000

          k = 0.2667 0.5312 0.0000 (  5198 PWs)   bands (ev):

   -15.4733 -13.7713 -11.9673  -3.1167  -0.7647   8.7355   9.7414  10.8687

     occupation numbers 
     1.0000   1.0000   1.0000   1.0000   0.0000   0.0000   0.0000   0.0000

          k = 0.2667 0.5389 0.0000 (  5196 PWs)   bands (ev):

   -15.3589 -13.8849 -11.9932  -3.0241  -0.8599   8.7291   9.9111  10.8590

     occupation numbers 
     1.0000   1.0000   1.0000   1.0000   0.0000   0.0000   0.0000   0.0000

          k = 0.2667 0.5466 0.0000 (  5198 PWs)   bands (ev):

   -15.2489 -13.9945 -12.0141  -2.9415  -0.9446   8.7230  10.0786  10.8489

     occupation numbers 
     1.0000   1.0000   1.0000   1.0000   0.0000   0.0000   0.0000   0.0000

          k = 0.2667 0.5543 0.0000 (  5198 PWs)   bands (ev):

   -15.1470 -14.0965 -12.0301  -2.8719  -1.0159   8.7176  10.2424  10.8368

     occupation numbers 
     1.0000   1.0000   1.0000   1.0000   0.0000   0.0000   0.0000   0.0000

          k = 0.2667 0.5620 0.0000 (  5192 PWs)   bands (ev):

   -15.0593 -14.1843 -12.0413  -2.8185  -1.0705   8.7134  10.3999  10.8171

     occupation numbers 
     1.0000   1.0000   1.0000   1.0000   0.0000   0.0000   0.0000   0.0000

          k = 0.2667 0.5697 0.0000 (  5196 PWs)   bands (ev):

   -14.9968 -14.2471 -12.0481  -2.7848  -1.1049   8.7108  10.5455  10.7753

     occupation numbers 
     1.0000   1.0000   1.0000   1.0000   0.0000   0.0000   0.0000   0.0000

          k = 0.2667 0.5774 0.0000 (  5194 PWs)   bands (ev):

   -14.9734 -14.2705 -12.0503  -2.7732  -1.1167   8.7099  10.6439  10.7165

     occupation numbers 
     1.0000   1.0000   1.0000   1.0000   0.0000   0.0000   0.0000   0.0000

          k = 0.2733 0.4734 0.0000 (  5182 PWs)   bands (ev):

   -16.2994 -12.9864 -11.6281  -3.8957   0.0479   8.5489   8.6907  10.2704

     occupation numbers 
     1.0000   1.0000   1.0000   1.0000   0.0000   0.0000   0.0000   0.0000

          k = 0.2733 0.4811 0.0000 (  5186 PWs)   bands (ev):

   -16.1834 -13.0772 -11.7107  -3.7776  -0.0750   8.7125   8.7150  10.4500

     occupation numbers 
     1.0000   1.0000   1.0000   1.0000   0.0000   0.0000   0.0000   0.0000

          k = 0.2733 0.4888 0.0000 (  5186 PWs)   bands (ev):

   -16.0666 -13.1724 -11.7856  -3.6600  -0.1968   8.7250   8.8825  10.6311

     occupation numbers 
     1.0000   1.0000   1.0000   1.0000   0.0000   0.0000   0.0000   0.0000

          k = 0.2733 0.4965 0.0000 (  5188 PWs)   bands (ev):

   -15.9490 -13.2718 -11.8527  -3.5435  -0.3172   8.7300   9.0512  10.8113

     occupation numbers 
     1.0000   1.0000   1.0000   1.0000   0.0000   0.0000   0.0000   0.0000

          k = 0.2733 0.5042 0.0000 (  5184 PWs)   bands (ev):

   -15.8309 -13.3751 -11.9121  -3.4286  -0.4355   8.7292   9.2207  10.9715

     occupation numbers 
     1.0000   1.0000   1.0000   1.0000   0.0000   0.0000   0.0000   0.0000

          k = 0.2733 0.5119 0.0000 (  5186 PWs)   bands (ev):

   -15.7127 -13.4816 -11.9642  -3.3160  -0.5511   8.7243   9.3908  11.0176

     occupation numbers 
     1.0000   1.0000   1.0000   1.0000   0.0000   0.0000   0.0000   0.0000

          k = 0.2733 0.5196 0.0000 (  5190 PWs)   bands (ev):

   -15.5947 -13.5905 -12.0093  -3.2067  -0.6631   8.7168   9.5610  11.0125

     occupation numbers 
     1.0000   1.0000   1.0000   1.0000   0.0000   0.0000   0.0000   0.0000

          k = 0.2733 0.5273 0.0000 (  5190 PWs)   bands (ev):

   -15.4775 -13.7008 -12.0477  -3.1019  -0.7702   8.7078   9.7307  11.0020

     occupation numbers 
     1.0000   1.0000   1.0000   1.0000   0.0000   0.0000   0.0000   0.0000

          k = 0.2733 0.5350 0.0000 (  5198 PWs)   bands (ev):

   -15.3622 -13.8111 -12.0799  -3.0033  -0.8708   8.6985   9.8994  10.9904

     occupation numbers 
     1.0000   1.0000   1.0000   1.0000   0.0000   0.0000   0.0000   0.0000

          k = 0.2733 0.5427 0.0000 (  5198 PWs)   bands (ev):

   -15.2501 -13.9196 -12.1061  -2.9129  -0.9628   8.6895  10.0661  10.9780

     occupation numbers 
     1.0000   1.0000   1.0000   1.0000   0.0000   0.0000   0.0000   0.0000

          k = 0.2733 0.5504 0.0000 (  5196 PWs)   bands (ev):

   -15.1438 -14.0234 -12.1267  -2.8338  -1.0432   8.6816  10.2295  10.9629

     occupation numbers 
     1.0000   1.0000   1.0000   1.0000   0.0000   0.0000   0.0000   0.0000

          k = 0.2733 0.5581 0.0000 (  5194 PWs)   bands (ev):

   -15.0479 -14.1177 -12.1420  -2.7692  -1.1088   8.6753  10.3877  10.9401

     occupation numbers 
     1.0000   1.0000   1.0000   1.0000   0.0000   0.0000   0.0000   0.0000

          k = 0.2733 0.5658 0.0000 (  5200 PWs)   bands (ev):

   -14.9708 -14.1938 -12.1520  -2.7231  -1.1555   8.6709  10.5370  10.8975

     occupation numbers 
     1.0000   1.0000   1.0000   1.0000   0.0000   0.0000   0.0000   0.0000

          k = 0.2733 0.5735 0.0000 (  5200 PWs)   bands (ev):

   -14.9258 -14.2384 -12.1570  -2.6989  -1.1800   8.6687  10.6653  10.8260

     occupation numbers 
     1.0000   1.0000   1.0000   1.0000   0.0000   0.0000   0.0000   0.0000

          k = 0.2800 0.4850 0.0000 (  5182 PWs)   bands (ev):

   -16.0674 -13.1609 -11.7978  -3.6596  -0.1958   8.7216   8.8811  10.6303

     occupation numbers 
     1.0000   1.0000   1.0000   1.0000   0.0000   0.0000   0.0000   0.0000

          k = 0.2800 0.4927 0.0000 (  5186 PWs)   bands (ev):

   -15.9507 -13.2492 -11.8768  -3.5423  -0.3156   8.7230   9.0484  10.8115

     occupation numbers 
     1.0000   1.0000   1.0000   1.0000   0.0000   0.0000   0.0000   0.0000

          k = 0.2800 0.5004 0.0000 (  5184 PWs)   bands (ev):

   -15.8333 -13.3420 -11.9479  -3.4261  -0.4340   8.7187   9.2166  10.9893

     occupation numbers 
     1.0000   1.0000   1.0000   1.0000   0.0000   0.0000   0.0000   0.0000

          k = 0.2800 0.5081 0.0000 (  5180 PWs)   bands (ev):

   -15.7156 -13.4389 -12.0108  -3.3116  -0.5505   8.7102   9.3853  11.1208

     occupation numbers 
     1.0000   1.0000   1.0000   1.0000   0.0000   0.0000   0.0000   0.0000

          k = 0.2800 0.5158 0.0000 (  5188 PWs)   bands (ev):

   -15.5980 -13.5394 -12.0658  -3.1995  -0.6642   8.6992   9.5542  11.1327

     occupation numbers 
     1.0000   1.0000   1.0000   1.0000   0.0000   0.0000   0.0000   0.0000

          k = 0.2800 0.5235 0.0000 (  5192 PWs)   bands (ev):

   -15.4809 -13.6426 -12.1132  -3.0908  -0.7743   8.6869   9.7227  11.1216

     occupation numbers 
     1.0000   1.0000   1.0000   1.0000   0.0000   0.0000   0.0000   0.0000

          k = 0.2800 0.5312 0.0000 (  5194 PWs)   bands (ev):

   -15.3650 -13.7475 -12.1532  -2.9869  -0.8794   8.6743   9.8902  11.1079

     occupation numbers 
     1.0000   1.0000   1.0000   1.0000   0.0000   0.0000   0.0000   0.0000

          k = 0.2800 0.5389 0.0000 (  5196 PWs)   bands (ev):

   -15.2514 -13.8526 -12.1864  -2.8897  -0.9776   8.6624  10.0559  11.0927

     occupation numbers 
     1.0000   1.0000   1.0000   1.0000   0.0000   0.0000   0.0000   0.0000

          k = 0.2800 0.5466 0.0000 (  5194 PWs)   bands (ev):

   -15.1421 -13.9555 -12.2130  -2.8017  -1.0663   8.6518  10.2185  11.0749

     occupation numbers 
     1.0000   1.0000   1.0000   1.0000   0.0000   0.0000   0.0000   0.0000

          k = 0.2800 0.5543 0.0000 (  5194 PWs)   bands (ev):

   -15.0404 -14.0527 -12.2333  -2.7262  -1.1424   8.6431  10.3765  11.0487

     occupation numbers 
     1.0000   1.0000   1.0000   1.0000   0.0000   0.0000   0.0000   0.0000

          k = 0.2800 0.5620 0.0000 (  5200 PWs)   bands (ev):

   -14.9523 -14.1377 -12.2476  -2.6674  -1.2016   8.6366  10.5272  11.0057

     occupation numbers 
     1.0000   1.0000   1.0000   1.0000   0.0000   0.0000   0.0000   0.0000

          k = 0.2800 0.5697 0.0000 (  5204 PWs)   bands (ev):

   -14.8887 -14.1995 -12.2562  -2.6297  -1.2396   8.6326  10.6643  10.9351

     occupation numbers 
     1.0000   1.0000   1.0000   1.0000   0.0000   0.0000   0.0000   0.0000

          k = 0.2800 0.5774 0.0000 (  5194 PWs)   bands (ev):

   -14.8648 -14.2229 -12.2590  -2.6166  -1.2528   8.6312  10.7473  10.8735

     occupation numbers 
     1.0000   1.0000   1.0000   1.0000   0.0000   0.0000   0.0000   0.0000

          k = 0.2867 0.4965 0.0000 (  5178 PWs)   bands (ev):

   -15.8341 -13.3306 -11.9602  -3.4253  -0.4335   8.7151   9.2152  10.9913

     occupation numbers 
     1.0000   1.0000   1.0000   1.0000   0.0000   0.0000   0.0000   0.0000

          k = 0.2867 0.5042 0.0000 (  5182 PWs)   bands (ev):

   -15.7171 -13.4164 -12.0352  -3.3093  -0.5501   8.7031   9.3826  11.1609

     occupation numbers 
     1.0000   1.0000   1.0000   1.0000   0.0000   0.0000   0.0000   0.0000

          k = 0.2867 0.5119 0.0000 (  5184 PWs)   bands (ev):

   -15.6000 -13.5066 -12.1018  -3.1951  -0.6649   8.6886   9.5501  11.2350

     occupation numbers 
     1.0000   1.0000   1.0000   1.0000   0.0000   0.0000   0.0000   0.0000

          k = 0.2867 0.5196 0.0000 (  5198 PWs)   bands (ev):

   -15.4831 -13.6007 -12.1599  -3.0833  -0.7770   8.6728   9.7174  11.2240

     occupation numbers 
     1.0000   1.0000   1.0000   1.0000   0.0000   0.0000   0.0000   0.0000

          k = 0.2867 0.5273 0.0000 (  5196 PWs)   bands (ev):

   -15.3671 -13.6979 -12.2098  -2.9751  -0.8855   8.6570   9.8836  11.2077

     occupation numbers 
     1.0000   1.0000   1.0000   1.0000   0.0000   0.0000   0.0000   0.0000

          k = 0.2867 0.5350 0.0000 (  5194 PWs)   bands (ev):

   -15.2527 -13.7971 -12.2516  -2.8720  -0.9888   8.6419  10.0481  11.1893

     occupation numbers 
     1.0000   1.0000   1.0000   1.0000   0.0000   0.0000   0.0000   0.0000

          k = 0.2867 0.5427 0.0000 (  5194 PWs)   bands (ev):

   -15.1414 -13.8964 -12.2858  -2.7761  -1.0848   8.6284  10.2098  11.1683

     occupation numbers 
     1.0000   1.0000   1.0000   1.0000   0.0000   0.0000   0.0000   0.0000

          k = 0.2867 0.5504 0.0000 (  5190 PWs)   bands (ev):

   -15.0355 -13.9933 -12.3127  -2.6905  -1.1706   8.6170  10.3672  11.1410

     occupation numbers 
     1.0000   1.0000   1.0000   1.0000   0.0000   0.0000   0.0000   0.0000

          k = 0.2867 0.5581 0.0000 (  5194 PWs)   bands (ev):

   -14.9394 -14.0830 -12.3326  -2.6191  -1.2420   8.6080  10.5181  11.0989

     occupation numbers 
     1.0000   1.0000   1.0000   1.0000   0.0000   0.0000   0.0000   0.0000

          k = 0.2867 0.5658 0.0000 (  5200 PWs)   bands (ev):

   -14.8612 -14.1570 -12.3456  -2.5669  -1.2942   8.6019  10.6585  11.0341

     occupation numbers 
     1.0000   1.0000   1.0000   1.0000   0.0000   0.0000   0.0000   0.0000

          k = 0.2867 0.5735 0.0000 (  5204 PWs)   bands (ev):

   -14.8148 -14.2013 -12.3522  -2.5391  -1.3220   8.5988  10.7740  10.9565

     occupation numbers 
     1.0000   1.0000   1.0000   1.0000   0.0000   0.0000   0.0000   0.0000

          k = 0.2933 0.5081 0.0000 (  5190 PWs)   bands (ev):

   -15.6007 -13.4953 -12.1141  -3.1936  -0.6651   8.6851   9.5488  11.3079

     occupation numbers 
     1.0000   1.0000   1.0000   1.0000   0.0000   0.0000   0.0000   0.0000

          k = 0.2933 0.5158 0.0000 (  5190 PWs)   bands (ev):

   -15.4843 -13.5786 -12.1844  -3.0796  -0.7784   8.6658   9.7147  11.3003

     occupation numbers 
     1.0000   1.0000   1.0000   1.0000   0.0000   0.0000   0.0000   0.0000

          k = 0.2933 0.5235 0.0000 (  5192 PWs)   bands (ev):

   -15.3684 -13.6661 -12.2457  -2.9680  -0.8892   8.6465   9.8796  11.2827

     occupation numbers 
     1.0000   1.0000   1.0000   1.0000   0.0000   0.0000   0.0000   0.0000

          k = 0.2933 0.5312 0.0000 (  5192 PWs)   bands (ev):

   -15.2537 -13.7570 -12.2981  -2.8601  -0.9963   8.6282  10.0429  11.2643

     occupation numbers 
     1.0000   1.0000   1.0000   1.0000   0.0000   0.0000   0.0000   0.0000

          k = 0.2933 0.5389 0.0000 (  5192 PWs)   bands (ev):

   -15.1412 -13.8500 -12.3418  -2.7575  -1.0983   8.6115  10.2035  11.2403

     occupation numbers 
     1.0000   1.0000   1.0000   1.0000   0.0000   0.0000   0.0000   0.0000

          k = 0.2933 0.5466 0.0000 (  5192 PWs)   bands (ev):

   -15.0326 -13.9434 -12.3769  -2.6627  -1.1925   8.5972  10.3600  11.2126

     occupation numbers 
     1.0000   1.0000   1.0000   1.0000   0.0000   0.0000   0.0000   0.0000

          k = 0.2933 0.5543 0.0000 (  5196 PWs)   bands (ev):

   -14.9308 -14.0337 -12.4039  -2.5793  -1.2755   8.5855  10.5105  11.1737

     occupation numbers 
     1.0000   1.0000   1.0000   1.0000   0.0000   0.0000   0.0000   0.0000

          k = 0.2933 0.5620 0.0000 (  5200 PWs)   bands (ev):

   -14.8416 -14.1149 -12.4229  -2.5124  -1.3420   8.5770  10.6521  11.1183

     occupation numbers 
     1.0000   1.0000   1.0000   1.0000   0.0000   0.0000   0.0000   0.0000

          k = 0.2933 0.5697 0.0000 (  5200 PWs)   bands (ev):

   -14.7761 -14.1757 -12.4343  -2.4683  -1.3860   8.5718  10.7775  11.0463

     occupation numbers 
     1.0000   1.0000   1.0000   1.0000   0.0000   0.0000   0.0000   0.0000

          k = 0.2933 0.5774 0.0000 (  5202 PWs)   bands (ev):

   -14.7510 -14.1993 -12.4380  -2.4527  -1.4015   8.5701  10.8480  10.9934

     occupation numbers 
     1.0000   1.0000   1.0000   1.0000   0.0000   0.0000   0.0000   0.0000

          k = 0.3000 0.5196 0.0000 (  5194 PWs)   bands (ev):

   -15.3688 -13.6551 -12.2580  -2.9657  -0.8904   8.6430   9.8783  11.3142

     occupation numbers 
     1.0000   1.0000   1.0000   1.0000   0.0000   0.0000   0.0000   0.0000

          k = 0.3000 0.5273 0.0000 (  5198 PWs)   bands (ev):

   -15.2542 -13.7358 -12.3224  -2.8542  -1.0002   8.6213  10.0403  11.3042

     occupation numbers 
     1.0000   1.0000   1.0000   1.0000   0.0000   0.0000   0.0000   0.0000

          k = 0.3000 0.5350 0.0000 (  5198 PWs)   bands (ev):

   -15.1412 -13.8202 -12.3772  -2.7462  -1.1065   8.6013  10.1996  11.2860

     occupation numbers 
     1.0000   1.0000   1.0000   1.0000   0.0000   0.0000   0.0000   0.0000

          k = 0.3000 0.5427 0.0000 (  5192 PWs)   bands (ev):

   -15.0309 -13.9071 -12.4225  -2.6438  -1.2076   8.5839  10.3551  11.2618

     occupation numbers 
     1.0000   1.0000   1.0000   1.0000   0.0000   0.0000   0.0000   0.0000

          k = 0.3000 0.5504 0.0000 (  5192 PWs)   bands (ev):

   -14.9254 -13.9942 -12.4584  -2.5497  -1.3006   8.5694  10.5049  11.2294

     occupation numbers 
     1.0000   1.0000   1.0000   1.0000   0.0000   0.0000   0.0000   0.0000

          k = 0.3000 0.5581 0.0000 (  5192 PWs)   bands (ev):

   -14.8285 -14.0776 -12.4851  -2.4684  -1.3810   8.5582  10.6466  11.1845

     occupation numbers 
     1.0000   1.0000   1.0000   1.0000   0.0000   0.0000   0.0000   0.0000

          k = 0.3000 0.5658 0.0000 (  5198 PWs)   bands (ev):

   -14.7480 -14.1492 -12.5027  -2.4066  -1.4422   8.5506  10.7756  11.1242

     occupation numbers 
     1.0000   1.0000   1.0000   1.0000   0.0000   0.0000   0.0000   0.0000

          k = 0.3000 0.5735 0.0000 (  5198 PWs)   bands (ev):

   -14.6989 -14.1939 -12.5115  -2.3726  -1.4760   8.5467  10.8770  11.0581

     occupation numbers 
     1.0000   1.0000   1.0000   1.0000   0.0000   0.0000   0.0000   0.0000

          k = 0.3067 0.5312 0.0000 (  5198 PWs)   bands (ev):

   -15.1412 -13.8099 -12.3894  -2.7424  -1.1093   8.5979  10.1983  11.3021

     occupation numbers 
     1.0000   1.0000   1.0000   1.0000   0.0000   0.0000   0.0000   0.0000

          k = 0.3067 0.5389 0.0000 (  5192 PWs)   bands (ev):

   -15.0301 -13.8878 -12.4463  -2.6341  -1.2153   8.5772  10.3526  11.2871

     occupation numbers 
     1.0000   1.0000   1.0000   1.0000   0.0000   0.0000   0.0000   0.0000

          k = 0.3067 0.5466 0.0000 (  5190 PWs)   bands (ev):

   -14.9224 -13.9686 -12.4928  -2.5312  -1.3163   8.5596  10.5014  11.2636

     occupation numbers 
     1.0000   1.0000   1.0000   1.0000   0.0000   0.0000   0.0000   0.0000

          k = 0.3067 0.5543 0.0000 (  5190 PWs)   bands (ev):

   -14.8204 -14.0496 -12.5289  -2.4372  -1.4089   8.5455  10.6427  11.2301

     occupation numbers 
     1.0000   1.0000   1.0000   1.0000   0.0000   0.0000   0.0000   0.0000

          k = 0.3067 0.5620 0.0000 (  5194 PWs)   bands (ev):

   -14.7293 -14.1259 -12.5546  -2.3577  -1.4873   8.5352  10.7728  11.1838

     occupation numbers 
     1.0000   1.0000   1.0000   1.0000   0.0000   0.0000   0.0000   0.0000

          k = 0.3067 0.5697 0.0000 (  5198 PWs)   bands (ev):

   -14.6598 -14.1866 -12.5700  -2.3021  -1.5422   8.5290  10.8845  11.1255

     occupation numbers 
     1.0000   1.0000   1.0000   1.0000   0.0000   0.0000   0.0000   0.0000

          k = 0.3067 0.5774 0.0000 (  5202 PWs)   bands (ev):

   -14.6320 -14.2115 -12.5751  -2.2817  -1.5624   8.5269  10.9436  11.0847

     occupation numbers 
     1.0000   1.0000   1.0000   1.0000   0.0000   0.0000   0.0000   0.0000

          k = 0.3133 0.5427 0.0000 (  5186 PWs)   bands (ev):

   -14.9214 -13.9596 -12.5046  -2.5250  -1.3216   8.5563  10.5003  11.2786

     occupation numbers 
     1.0000   1.0000   1.0000   1.0000   0.0000   0.0000   0.0000   0.0000

          k = 0.3133 0.5504 0.0000 (  5188 PWs)   bands (ev):

   -14.8166 -14.0346 -12.5517  -2.4209  -1.4235   8.5391  10.6406  11.2536

     occupation numbers 
     1.0000   1.0000   1.0000   1.0000   0.0000   0.0000   0.0000   0.0000

          k = 0.3133 0.5581 0.0000 (  5192 PWs)   bands (ev):

   -14.7186 -14.1100 -12.5871  -2.3257  -1.5169   8.5260  10.7708  11.2213

     occupation numbers 
     1.0000   1.0000   1.0000   1.0000   0.0000   0.0000   0.0000   0.0000

          k = 0.3133 0.5658 0.0000 (  5196 PWs)   bands (ev):

   -14.6339 -14.1796 -12.6108  -2.2473  -1.5942   8.5170  10.8860  11.1772

     occupation numbers 
     1.0000   1.0000   1.0000   1.0000   0.0000   0.0000   0.0000   0.0000

          k = 0.3133 0.5735 0.0000 (  5202 PWs)   bands (ev):

   -14.5786 -14.2274 -12.6227  -2.2000  -1.6408   8.5126  10.9728  11.1278

     occupation numbers 
     1.0000   1.0000   1.0000   1.0000   0.0000   0.0000   0.0000   0.0000

          k = 0.3200 0.5543 0.0000 (  5196 PWs)   bands (ev):

   -14.7152 -14.1043 -12.5982  -2.3145  -1.5273   8.5229  10.7700  11.2340

     occupation numbers 
     1.0000   1.0000   1.0000   1.0000   0.0000   0.0000   0.0000   0.0000

          k = 0.3200 0.5620 0.0000 (  5202 PWs)   bands (ev):

   -14.6211 -14.1754 -12.6319  -2.2162  -1.6237   8.5111  10.8861  11.2047

     occupation numbers 
     1.0000   1.0000   1.0000   1.0000   0.0000   0.0000   0.0000   0.0000

          k = 0.3200 0.5697 0.0000 (  5204 PWs)   bands (ev):

   -14.5432 -14.2394 -12.6523  -2.1372  -1.7017   8.5039  10.9823  11.1649

     occupation numbers 
     1.0000   1.0000   1.0000   1.0000   0.0000   0.0000   0.0000   0.0000

          k = 0.3200 0.5774 0.0000 (  5208 PWs)   bands (ev):

   -14.5078 -14.2700 -12.6591  -2.1036  -1.7349   8.5015  11.0320  11.1349

     occupation numbers 
     1.0000   1.0000   1.0000   1.0000   0.0000   0.0000   0.0000   0.0000

          k = 0.3267 0.5658 0.0000 (  5204 PWs)   bands (ev):

   -14.5306 -14.2440 -12.6623  -2.1119  -1.7263   8.5010  10.9844  11.1790

     occupation numbers 
     1.0000   1.0000   1.0000   1.0000   0.0000   0.0000   0.0000   0.0000

          k = 0.3267 0.5735 0.0000 (  5212 PWs)   bands (ev):

   -14.4578 -14.3056 -12.6777  -2.0276  -1.8098   8.4959  11.0578  11.1447

     occupation numbers 
     1.0000   1.0000   1.0000   1.0000   0.0000   0.0000   0.0000   0.0000

          k = 0.3333 0.5774 0.0000 (  5220 PWs)   bands (ev):

   -14.3784 -14.3784 -12.6862  -1.9184  -1.9184   8.4933  11.1111  11.1111

     occupation numbers 
     1.0000   1.0000   1.0000   0.5000   0.5000   0.0000   0.0000   0.0000

     the Fermi energy is    -1.9184 ev
     (compare with:    -1.9172 eV, computed in scf)

     Writing all to output data dir ../tmp/graphene.save/ :
     XML data file, pseudopotentials, collected wavefunctions
 
     init_run     :      0.20s CPU      0.26s WALL (       1 calls)
     electrons    :    347.07s CPU    378.62s WALL (       1 calls)

     Called by init_run:
     wfcinit      :      0.00s CPU      0.00s WALL (       1 calls)
     wfcinit:wfcr :      3.37s CPU      3.75s WALL (    1951 calls)
     potinit      :      0.01s CPU      0.01s WALL (       1 calls)
     hinit0       :      0.03s CPU      0.03s WALL (       1 calls)

     Called by electrons:
     c_bands      :    347.04s CPU    378.52s WALL (       1 calls)
     v_of_rho     :      0.00s CPU      0.00s WALL (       1 calls)
     v_h          :      0.00s CPU      0.00s WALL (       1 calls)
     v_xc         :      0.00s CPU      0.00s WALL (       1 calls)
     newd         :      0.01s CPU      0.01s WALL (       1 calls)
     PAW_pot      :      0.00s CPU      0.00s WALL (       1 calls)

     Called by c_bands:
     init_us_2    :      0.10s CPU      0.12s WALL (    1951 calls)
     cegterg      :    342.50s CPU    363.00s WALL (   11075 calls)

     Called by sum_band:

     Called by *egterg:
     cdiaghg      :     32.12s CPU     34.23s WALL (  211402 calls)
     cegterg:over :     12.41s CPU     13.25s WALL (  209451 calls)
     cegterg:upda :      3.99s CPU      4.25s WALL (  209451 calls)
     cegterg:last :      8.83s CPU      9.35s WALL (  164572 calls)
     h_psi        :    272.99s CPU    289.19s WALL (  222477 calls)
     s_psi        :      3.80s CPU      4.06s WALL (  222477 calls)
     g_psi        :      1.79s CPU      1.91s WALL (  209451 calls)

     Called by h_psi:
     h_psi:calbec :      8.52s CPU      9.01s WALL (  222477 calls)
     vloc_psi     :    256.73s CPU    271.96s WALL (  222477 calls)
     add_vuspsi   :      4.16s CPU      4.42s WALL (  222477 calls)

     General routines
     calbec       :      7.48s CPU      7.93s WALL (  222477 calls)
     fft          :      0.00s CPU      0.01s WALL (       6 calls)
     ffts         :      0.00s CPU      0.00s WALL (       1 calls)
     fftw         :    211.31s CPU    223.80s WALL ( 2692160 calls)
     interpolate  :      0.00s CPU      0.00s WALL (       1 calls)
     davcio       :      0.12s CPU      9.82s WALL (    3902 calls)
 
     Parallel routines

     PAW routines
     PAW_pot      :      0.00s CPU      0.00s WALL (       1 calls)
 
     PWSCF        :   5m49.06s CPU   6m38.07s WALL

 
   This run was terminated on:   4:13:53  31Dec2025            

=------------------------------------------------------------------------------=
   JOB DONE.
=------------------------------------------------------------------------------=
