
     Program PWSCF v.7.4.1 starts on  6Jan2026 at  5: 9:18 

     This program is part of the open-source Quantum ESPRESSO suite
     for quantum simulation of materials; please cite
         "P. Giannozzi et al., J. Phys.:Condens. Matter 21 395502 (2009);
         "P. Giannozzi et al., J. Phys.:Condens. Matter 29 465901 (2017);
         "P. Giannozzi et al., J. Chem. Phys. 152 154105 (2020);
          URL http://www.quantum-espresso.org", 
     in publications or presentations arising from this work. More details at
     http://www.quantum-espresso.org/quote

     Parallel version (MPI), running on    20 processors

     MPI processes distributed on     1 nodes
     91141 MiB available memory on the printing compute node when the environment starts
 
     Reading input from 3-agnr_nscf.in

     Current dimensions of program PWSCF are:
     Max number of different atomic species (ntypx) = 10
     Max number of k-points (npk) =  40000
     Max angular momentum in pseudopotentials (lmaxx) =  4
     Message from routine input:
     WARNING: "startingwfc" set to random may spoil restart
     file C.pbe-n-kjpaw_psl.1.0.0.UPF: wavefunction(s)  2S 2P renormalized
     file H.pbe-kjpaw_psl.1.0.0.UPF: wavefunction(s)  1S renormalized
 
     R & G space division:  proc/nbgrp/npool/nimage =      20
     Subspace diagonalization in iterative solution of the eigenvalue problem:
     a serial algorithm will be used

 
     Parallelization info
     --------------------
     sticks:   dense  smooth     PW     G-vecs:    dense   smooth      PW
     Min        1627     651    178               519357   131437   18822
     Max        1629     652    179               519361   131442   18827
     Sum       32551   13023   3575             10387185  2628781  376509
 
     Using Slab Decomposition
 


     bravais-lattice index     =            0
     lattice parameter (alat)  =       8.0993  a.u.
     unit-cell volume          =   33215.6715 (a.u.)^3
     number of atoms/cell      =           16
     number of atomic types    =            2
     number of electrons       =        52.00
     number of Kohn-Sham states=           31
     kinetic-energy cutoff     =      70.0000  Ry
     charge density cutoff     =     700.0000  Ry
     Exchange-correlation= SLA  PW   PBX  PBC
                           (   1   4   3   4   0   0   0)

     celldm(1)=   8.099301  celldm(2)=   0.000000  celldm(3)=   0.000000
     celldm(4)=   0.000000  celldm(5)=   0.000000  celldm(6)=   0.000000

     crystal axes: (cart. coord. in units of alat)
               a(1) = (   0.000000   0.000000   1.000000 )  
               a(2) = (   8.905357   0.000000   0.000000 )  
               a(3) = (   0.000000   7.020193   0.000000 )  

     reciprocal axes: (cart. coord. in units 2 pi/alat)
               b(1) = (  0.000000  0.000000  1.000000 )  
               b(2) = (  0.112292  0.000000  0.000000 )  
               b(3) = (  0.000000  0.142446  0.000000 )  


     PseudoPot. # 1 for C  read from file:
     ../../../PP_C/C.pbe-n-kjpaw_psl.1.0.0.UPF
     MD5 check sum: 5f16ad9a65e90284d1d834d4ab3b0f7d
     Pseudo is Projector augmented-wave + core cor, Zval =  4.0
     Generated using &quot;atomic&quot; code by A. Dal Corso  v.6.3
     Shape of augmentation charge: PSQ
     Using radial grid of 1073 points,  4 beta functions with: 
                l(1) =   0
                l(2) =   0
                l(3) =   1
                l(4) =   1
     Q(r) pseudized with 0 coefficients 


     PseudoPot. # 2 for H  read from file:
     ../../../PP_C/H.pbe-kjpaw_psl.1.0.0.UPF
     MD5 check sum: d81a744832360e4a8af0b0b5b123bc2a
     Pseudo is Projector augmented-wave, Zval =  1.0
     Generated using &quot;atomic&quot; code by A. Dal Corso  v.6.3MaX
     Shape of augmentation charge: PSQ
     Using radial grid of  929 points,  2 beta functions with: 
                l(1) =   0
                l(2) =   0
     Q(r) pseudized with 0 coefficients 


     atomic species   valence    mass     pseudopotential
     C                 4.00    12.01100     C ( 1.00)
     H                 1.00     1.00790     H ( 1.00)

     No symmetry found


                                    s                        frac. trans.

      isym =  1     identity                                     

 cryst.   s( 1) = (     1          0          0      )
                  (     0          1          0      )
                  (     0          0          1      )

 cart.    s( 1) = (  1.0000000  0.0000000  0.0000000 )
                  (  0.0000000  1.0000000  0.0000000 )
                  (  0.0000000  0.0000000  1.0000000 )


   Cartesian axes

     site n.     atom                  positions (alat units)
         1        C      tau(   1) = (   4.8713526   3.4997948   0.0000000  )
         2        C      tau(   2) = (   5.1591806   3.4997948   0.1661775  )
         3        C      tau(   3) = (   5.1591806   3.4997948   0.4985326  )
         4        C      tau(   4) = (   4.8713526   3.4997948   0.6647101  )
         5        C      tau(   5) = (   4.2956968   3.4997948   0.0000000  )
         6        C      tau(   6) = (   4.5835247   3.4997948   0.1661775  )
         7        C      tau(   7) = (   4.5835247   3.4997948   0.4985326  )
         8        C      tau(   8) = (   4.2956968   3.4997948   0.6647101  )
         9        C      tau(   9) = (   3.7200410   3.4997948   0.0000000  )
        10        C      tau(  10) = (   4.0078689   3.4997948   0.1661775  )
        11        C      tau(  11) = (   4.0078689   3.4997948   0.4985326  )
        12        C      tau(  12) = (   3.7200410   3.4997948   0.6647101  )
        13        H      tau(  13) = (   3.4997948   3.4997948   0.1271592  )
        14        H      tau(  14) = (   3.4997948   3.4997948   0.5375509  )
        15        H      tau(  15) = (   5.3794268   3.4997948   0.0390183  )
        16        H      tau(  16) = (   5.3794268   3.4997948   0.6256918  )

   Crystallographic axes

     site n.     atom                  positions (cryst. coord.)
         1        C      tau(   1) = (  0.0000000  0.5470137  0.4985326  )
         2        C      tau(   2) = (  0.1661775  0.5793345  0.4985326  )
         3        C      tau(   3) = (  0.4985326  0.5793345  0.4985326  )
         4        C      tau(   4) = (  0.6647101  0.5470137  0.4985326  )
         5        C      tau(   5) = (  0.0000000  0.4823722  0.4985326  )
         6        C      tau(   6) = (  0.1661775  0.5146930  0.4985326  )
         7        C      tau(   7) = (  0.4985326  0.5146930  0.4985326  )
         8        C      tau(   8) = (  0.6647101  0.4823722  0.4985326  )
         9        C      tau(   9) = (  0.0000000  0.4177307  0.4985326  )
        10        C      tau(  10) = (  0.1661775  0.4500514  0.4985326  )
        11        C      tau(  11) = (  0.4985326  0.4500514  0.4985326  )
        12        C      tau(  12) = (  0.6647101  0.4177307  0.4985326  )
        13        H      tau(  13) = (  0.1271592  0.3929988  0.4985326  )
        14        H      tau(  14) = (  0.5375509  0.3929988  0.4985326  )
        15        H      tau(  15) = (  0.0390183  0.6040664  0.4985326  )
        16        H      tau(  16) = (  0.6256918  0.6040664  0.4985326  )

     number of k points=    76  Gaussian smearing, width (Ry)=  0.0020
                       cart. coord. in units 2pi/alat
        k(    1) = (   0.0000000   0.0000000   0.0000000), wk =   0.0133333
        k(    2) = (   0.0000000   0.0000000   0.0066667), wk =   0.0266667
        k(    3) = (   0.0000000   0.0000000   0.0133333), wk =   0.0266667
        k(    4) = (   0.0000000   0.0000000   0.0200000), wk =   0.0266667
        k(    5) = (   0.0000000   0.0000000   0.0266667), wk =   0.0266667
        k(    6) = (   0.0000000   0.0000000   0.0333333), wk =   0.0266667
        k(    7) = (   0.0000000   0.0000000   0.0400000), wk =   0.0266667
        k(    8) = (   0.0000000   0.0000000   0.0466667), wk =   0.0266667
        k(    9) = (   0.0000000   0.0000000   0.0533333), wk =   0.0266667
        k(   10) = (   0.0000000   0.0000000   0.0600000), wk =   0.0266667
        k(   11) = (   0.0000000   0.0000000   0.0666667), wk =   0.0266667
        k(   12) = (   0.0000000   0.0000000   0.0733333), wk =   0.0266667
        k(   13) = (   0.0000000   0.0000000   0.0800000), wk =   0.0266667
        k(   14) = (   0.0000000   0.0000000   0.0866667), wk =   0.0266667
        k(   15) = (   0.0000000   0.0000000   0.0933333), wk =   0.0266667
        k(   16) = (   0.0000000   0.0000000   0.1000000), wk =   0.0266667
        k(   17) = (   0.0000000   0.0000000   0.1066667), wk =   0.0266667
        k(   18) = (   0.0000000   0.0000000   0.1133333), wk =   0.0266667
        k(   19) = (   0.0000000   0.0000000   0.1200000), wk =   0.0266667
        k(   20) = (   0.0000000   0.0000000   0.1266667), wk =   0.0266667
        k(   21) = (   0.0000000   0.0000000   0.1333333), wk =   0.0266667
        k(   22) = (   0.0000000   0.0000000   0.1400000), wk =   0.0266667
        k(   23) = (   0.0000000   0.0000000   0.1466667), wk =   0.0266667
        k(   24) = (   0.0000000   0.0000000   0.1533333), wk =   0.0266667
        k(   25) = (   0.0000000   0.0000000   0.1600000), wk =   0.0266667
        k(   26) = (   0.0000000   0.0000000   0.1666667), wk =   0.0266667
        k(   27) = (   0.0000000   0.0000000   0.1733333), wk =   0.0266667
        k(   28) = (   0.0000000   0.0000000   0.1800000), wk =   0.0266667
        k(   29) = (   0.0000000   0.0000000   0.1866667), wk =   0.0266667
        k(   30) = (   0.0000000   0.0000000   0.1933333), wk =   0.0266667
        k(   31) = (   0.0000000   0.0000000   0.2000000), wk =   0.0266667
        k(   32) = (   0.0000000   0.0000000   0.2066667), wk =   0.0266667
        k(   33) = (   0.0000000   0.0000000   0.2133333), wk =   0.0266667
        k(   34) = (   0.0000000   0.0000000   0.2200000), wk =   0.0266667
        k(   35) = (   0.0000000   0.0000000   0.2266667), wk =   0.0266667
        k(   36) = (   0.0000000   0.0000000   0.2333333), wk =   0.0266667
        k(   37) = (   0.0000000   0.0000000   0.2400000), wk =   0.0266667
        k(   38) = (   0.0000000   0.0000000   0.2466667), wk =   0.0266667
        k(   39) = (   0.0000000   0.0000000   0.2533333), wk =   0.0266667
        k(   40) = (   0.0000000   0.0000000   0.2600000), wk =   0.0266667
        k(   41) = (   0.0000000   0.0000000   0.2666667), wk =   0.0266667
        k(   42) = (   0.0000000   0.0000000   0.2733333), wk =   0.0266667
        k(   43) = (   0.0000000   0.0000000   0.2800000), wk =   0.0266667
        k(   44) = (   0.0000000   0.0000000   0.2866667), wk =   0.0266667
        k(   45) = (   0.0000000   0.0000000   0.2933333), wk =   0.0266667
        k(   46) = (   0.0000000   0.0000000   0.3000000), wk =   0.0266667
        k(   47) = (   0.0000000   0.0000000   0.3066667), wk =   0.0266667
        k(   48) = (   0.0000000   0.0000000   0.3133333), wk =   0.0266667
        k(   49) = (   0.0000000   0.0000000   0.3200000), wk =   0.0266667
        k(   50) = (   0.0000000   0.0000000   0.3266667), wk =   0.0266667
        k(   51) = (   0.0000000   0.0000000   0.3333333), wk =   0.0266667
        k(   52) = (   0.0000000   0.0000000   0.3400000), wk =   0.0266667
        k(   53) = (   0.0000000   0.0000000   0.3466667), wk =   0.0266667
        k(   54) = (   0.0000000   0.0000000   0.3533333), wk =   0.0266667
        k(   55) = (   0.0000000   0.0000000   0.3600000), wk =   0.0266667
        k(   56) = (   0.0000000   0.0000000   0.3666667), wk =   0.0266667
        k(   57) = (   0.0000000   0.0000000   0.3733333), wk =   0.0266667
        k(   58) = (   0.0000000   0.0000000   0.3800000), wk =   0.0266667
        k(   59) = (   0.0000000   0.0000000   0.3866667), wk =   0.0266667
        k(   60) = (   0.0000000   0.0000000   0.3933333), wk =   0.0266667
        k(   61) = (   0.0000000   0.0000000   0.4000000), wk =   0.0266667
        k(   62) = (   0.0000000   0.0000000   0.4066667), wk =   0.0266667
        k(   63) = (   0.0000000   0.0000000   0.4133333), wk =   0.0266667
        k(   64) = (   0.0000000   0.0000000   0.4200000), wk =   0.0266667
        k(   65) = (   0.0000000   0.0000000   0.4266667), wk =   0.0266667
        k(   66) = (   0.0000000   0.0000000   0.4333333), wk =   0.0266667
        k(   67) = (   0.0000000   0.0000000   0.4400000), wk =   0.0266667
        k(   68) = (   0.0000000   0.0000000   0.4466667), wk =   0.0266667
        k(   69) = (   0.0000000   0.0000000   0.4533333), wk =   0.0266667
        k(   70) = (   0.0000000   0.0000000   0.4600000), wk =   0.0266667
        k(   71) = (   0.0000000   0.0000000   0.4666667), wk =   0.0266667
        k(   72) = (   0.0000000   0.0000000   0.4733333), wk =   0.0266667
        k(   73) = (   0.0000000   0.0000000   0.4800000), wk =   0.0266667
        k(   74) = (   0.0000000   0.0000000   0.4866667), wk =   0.0266667
        k(   75) = (   0.0000000   0.0000000   0.4933333), wk =   0.0266667
        k(   76) = (   0.0000000   0.0000000  -0.5000000), wk =   0.0133333

                       cryst. coord.
        k(    1) = (   0.0000000   0.0000000   0.0000000), wk =   0.0133333
        k(    2) = (   0.0066667   0.0000000   0.0000000), wk =   0.0266667
        k(    3) = (   0.0133333   0.0000000   0.0000000), wk =   0.0266667
        k(    4) = (   0.0200000   0.0000000   0.0000000), wk =   0.0266667
        k(    5) = (   0.0266667   0.0000000   0.0000000), wk =   0.0266667
        k(    6) = (   0.0333333   0.0000000   0.0000000), wk =   0.0266667
        k(    7) = (   0.0400000   0.0000000   0.0000000), wk =   0.0266667
        k(    8) = (   0.0466667   0.0000000   0.0000000), wk =   0.0266667
        k(    9) = (   0.0533333   0.0000000   0.0000000), wk =   0.0266667
        k(   10) = (   0.0600000   0.0000000   0.0000000), wk =   0.0266667
        k(   11) = (   0.0666667   0.0000000   0.0000000), wk =   0.0266667
        k(   12) = (   0.0733333   0.0000000   0.0000000), wk =   0.0266667
        k(   13) = (   0.0800000   0.0000000   0.0000000), wk =   0.0266667
        k(   14) = (   0.0866667   0.0000000   0.0000000), wk =   0.0266667
        k(   15) = (   0.0933333   0.0000000   0.0000000), wk =   0.0266667
        k(   16) = (   0.1000000   0.0000000   0.0000000), wk =   0.0266667
        k(   17) = (   0.1066667   0.0000000   0.0000000), wk =   0.0266667
        k(   18) = (   0.1133333   0.0000000   0.0000000), wk =   0.0266667
        k(   19) = (   0.1200000   0.0000000   0.0000000), wk =   0.0266667
        k(   20) = (   0.1266667   0.0000000   0.0000000), wk =   0.0266667
        k(   21) = (   0.1333333   0.0000000   0.0000000), wk =   0.0266667
        k(   22) = (   0.1400000   0.0000000   0.0000000), wk =   0.0266667
        k(   23) = (   0.1466667   0.0000000   0.0000000), wk =   0.0266667
        k(   24) = (   0.1533333   0.0000000   0.0000000), wk =   0.0266667
        k(   25) = (   0.1600000   0.0000000   0.0000000), wk =   0.0266667
        k(   26) = (   0.1666667   0.0000000   0.0000000), wk =   0.0266667
        k(   27) = (   0.1733333   0.0000000   0.0000000), wk =   0.0266667
        k(   28) = (   0.1800000   0.0000000   0.0000000), wk =   0.0266667
        k(   29) = (   0.1866667   0.0000000   0.0000000), wk =   0.0266667
        k(   30) = (   0.1933333   0.0000000   0.0000000), wk =   0.0266667
        k(   31) = (   0.2000000   0.0000000   0.0000000), wk =   0.0266667
        k(   32) = (   0.2066667   0.0000000   0.0000000), wk =   0.0266667
        k(   33) = (   0.2133333   0.0000000   0.0000000), wk =   0.0266667
        k(   34) = (   0.2200000   0.0000000   0.0000000), wk =   0.0266667
        k(   35) = (   0.2266667   0.0000000   0.0000000), wk =   0.0266667
        k(   36) = (   0.2333333   0.0000000   0.0000000), wk =   0.0266667
        k(   37) = (   0.2400000   0.0000000   0.0000000), wk =   0.0266667
        k(   38) = (   0.2466667   0.0000000   0.0000000), wk =   0.0266667
        k(   39) = (   0.2533333   0.0000000   0.0000000), wk =   0.0266667
        k(   40) = (   0.2600000   0.0000000   0.0000000), wk =   0.0266667
        k(   41) = (   0.2666667   0.0000000   0.0000000), wk =   0.0266667
        k(   42) = (   0.2733333   0.0000000   0.0000000), wk =   0.0266667
        k(   43) = (   0.2800000   0.0000000   0.0000000), wk =   0.0266667
        k(   44) = (   0.2866667   0.0000000   0.0000000), wk =   0.0266667
        k(   45) = (   0.2933333   0.0000000   0.0000000), wk =   0.0266667
        k(   46) = (   0.3000000   0.0000000   0.0000000), wk =   0.0266667
        k(   47) = (   0.3066667   0.0000000   0.0000000), wk =   0.0266667
        k(   48) = (   0.3133333   0.0000000   0.0000000), wk =   0.0266667
        k(   49) = (   0.3200000   0.0000000   0.0000000), wk =   0.0266667
        k(   50) = (   0.3266667   0.0000000   0.0000000), wk =   0.0266667
        k(   51) = (   0.3333333   0.0000000   0.0000000), wk =   0.0266667
        k(   52) = (   0.3400000   0.0000000   0.0000000), wk =   0.0266667
        k(   53) = (   0.3466667   0.0000000   0.0000000), wk =   0.0266667
        k(   54) = (   0.3533333   0.0000000   0.0000000), wk =   0.0266667
        k(   55) = (   0.3600000   0.0000000   0.0000000), wk =   0.0266667
        k(   56) = (   0.3666667   0.0000000   0.0000000), wk =   0.0266667
        k(   57) = (   0.3733333   0.0000000   0.0000000), wk =   0.0266667
        k(   58) = (   0.3800000   0.0000000   0.0000000), wk =   0.0266667
        k(   59) = (   0.3866667   0.0000000   0.0000000), wk =   0.0266667
        k(   60) = (   0.3933333   0.0000000   0.0000000), wk =   0.0266667
        k(   61) = (   0.4000000   0.0000000   0.0000000), wk =   0.0266667
        k(   62) = (   0.4066667   0.0000000   0.0000000), wk =   0.0266667
        k(   63) = (   0.4133333   0.0000000   0.0000000), wk =   0.0266667
        k(   64) = (   0.4200000   0.0000000   0.0000000), wk =   0.0266667
        k(   65) = (   0.4266667   0.0000000   0.0000000), wk =   0.0266667
        k(   66) = (   0.4333333   0.0000000   0.0000000), wk =   0.0266667
        k(   67) = (   0.4400000   0.0000000   0.0000000), wk =   0.0266667
        k(   68) = (   0.4466667   0.0000000   0.0000000), wk =   0.0266667
        k(   69) = (   0.4533333   0.0000000   0.0000000), wk =   0.0266667
        k(   70) = (   0.4600000   0.0000000   0.0000000), wk =   0.0266667
        k(   71) = (   0.4666667   0.0000000   0.0000000), wk =   0.0266667
        k(   72) = (   0.4733333   0.0000000   0.0000000), wk =   0.0266667
        k(   73) = (   0.4800000   0.0000000   0.0000000), wk =   0.0266667
        k(   74) = (   0.4866667   0.0000000   0.0000000), wk =   0.0266667
        k(   75) = (   0.4933333   0.0000000   0.0000000), wk =   0.0266667
        k(   76) = (  -0.5000000   0.0000000   0.0000000), wk =   0.0133333

     Dense  grid: 10387185 G-vectors     FFT dimensions: (  72, 625, 480)

     Smooth grid:  2628781 G-vectors     FFT dimensions: (  45, 400, 320)

     Dynamical RAM for                 wfc:       7.77 MB

     Dynamical RAM for     wfc (w. buffer):       7.77 MB

     Dynamical RAM for           str. fact:      15.85 MB

     Dynamical RAM for           local pot:       0.00 MB

     Dynamical RAM for          nlocal pot:      26.07 MB

     Dynamical RAM for                qrad:       1.21 MB

     Dynamical RAM for          rho,v,vnew:      48.49 MB

     Dynamical RAM for           G-vectors:      30.72 MB

     Dynamical RAM for          h,s,v(r/c):       2.82 MB

     Dynamical RAM for          <psi|beta>:       0.05 MB

     Dynamical RAM for                 psi:      62.16 MB

     Dynamical RAM for                hpsi:      62.16 MB

     Dynamical RAM for                spsi:      62.16 MB

     Dynamical RAM for      wfcinit/wfcrot:      15.56 MB

     Dynamical RAM for           addusdens:     435.86 MB

     Estimated static dynamical RAM per process >     195.08 MB

     Estimated max dynamical RAM per process >     630.95 MB

     Estimated total dynamical RAM >      12.32 GB

     Atomic positions and unit cell read from directory:
     ../tmp/AGNR.save/
 

     The potential is recalculated from file :
     ../tmp/AGNR.save/charge-density


     negative rho (up, down):  1.211E-03 0.000E+00
     Starting wfcs are random
     Checking if some PAW data can be deallocated... 
       PAW data deallocated on    4 nodes for type:  1
       PAW data deallocated on   16 nodes for type:  2

     Band Structure Calculation
     Davidson diagonalization with overlap

     Computing kpt #:     1  of    76
     total cpu time spent up to now is       40.2 secs

     Computing kpt #:     2  of    76
     total cpu time spent up to now is       66.3 secs

     Computing kpt #:     3  of    76
     total cpu time spent up to now is       92.6 secs

     Computing kpt #:     4  of    76
     total cpu time spent up to now is      120.6 secs

     Computing kpt #:     5  of    76
     total cpu time spent up to now is      148.8 secs

     Computing kpt #:     6  of    76
     total cpu time spent up to now is      175.1 secs

     Computing kpt #:     7  of    76
     total cpu time spent up to now is      203.5 secs

     Computing kpt #:     8  of    76
     total cpu time spent up to now is      231.6 secs

     Computing kpt #:     9  of    76
     total cpu time spent up to now is      257.6 secs

     Computing kpt #:    10  of    76
     total cpu time spent up to now is      285.6 secs

     Computing kpt #:    11  of    76
     total cpu time spent up to now is      313.7 secs

     Computing kpt #:    12  of    76
     total cpu time spent up to now is      342.1 secs

     Computing kpt #:    13  of    76
     total cpu time spent up to now is      370.2 secs

     Computing kpt #:    14  of    76
     total cpu time spent up to now is      396.6 secs

     Computing kpt #:    15  of    76
     total cpu time spent up to now is      422.9 secs

     Computing kpt #:    16  of    76
     total cpu time spent up to now is      449.3 secs

     Computing kpt #:    17  of    76
     total cpu time spent up to now is      475.3 secs

     Computing kpt #:    18  of    76
     total cpu time spent up to now is      501.8 secs

     Computing kpt #:    19  of    76
     total cpu time spent up to now is      527.9 secs

     Computing kpt #:    20  of    76
     total cpu time spent up to now is      554.4 secs

     Computing kpt #:    21  of    76
     total cpu time spent up to now is      580.5 secs

     Computing kpt #:    22  of    76
     total cpu time spent up to now is      606.7 secs

     Computing kpt #:    23  of    76
     total cpu time spent up to now is      633.0 secs

     Computing kpt #:    24  of    76
     total cpu time spent up to now is      661.1 secs

     Computing kpt #:    25  of    76
     total cpu time spent up to now is      687.7 secs

     Computing kpt #:    26  of    76
     total cpu time spent up to now is      713.9 secs

     Computing kpt #:    27  of    76
     total cpu time spent up to now is      740.1 secs

     Computing kpt #:    28  of    76
     total cpu time spent up to now is      768.6 secs

     Computing kpt #:    29  of    76
     total cpu time spent up to now is      797.1 secs

     Computing kpt #:    30  of    76
     total cpu time spent up to now is      825.6 secs

     Computing kpt #:    31  of    76
     total cpu time spent up to now is      854.2 secs

     Computing kpt #:    32  of    76
     total cpu time spent up to now is      883.2 secs

     Computing kpt #:    33  of    76
     total cpu time spent up to now is      912.0 secs

     Computing kpt #:    34  of    76
     total cpu time spent up to now is      942.2 secs

     Computing kpt #:    35  of    76
     total cpu time spent up to now is      972.3 secs

     Computing kpt #:    36  of    76
     total cpu time spent up to now is     1002.2 secs

     Computing kpt #:    37  of    76
     total cpu time spent up to now is     1031.9 secs

     Computing kpt #:    38  of    76
     total cpu time spent up to now is     1061.5 secs

     Computing kpt #:    39  of    76
     total cpu time spent up to now is     1091.1 secs

     Computing kpt #:    40  of    76
     total cpu time spent up to now is     1120.5 secs

     Computing kpt #:    41  of    76
     total cpu time spent up to now is     1150.5 secs

     Computing kpt #:    42  of    76
     total cpu time spent up to now is     1180.2 secs

     Computing kpt #:    43  of    76
     total cpu time spent up to now is     1209.3 secs

     Computing kpt #:    44  of    76
     total cpu time spent up to now is     1238.2 secs

     Computing kpt #:    45  of    76
     total cpu time spent up to now is     1266.7 secs

     Computing kpt #:    46  of    76
     total cpu time spent up to now is     1294.9 secs

     Computing kpt #:    47  of    76
     total cpu time spent up to now is     1323.2 secs

     Computing kpt #:    48  of    76
     total cpu time spent up to now is     1351.2 secs

     Computing kpt #:    49  of    76
     total cpu time spent up to now is     1379.2 secs

     Computing kpt #:    50  of    76
     total cpu time spent up to now is     1407.0 secs

     Computing kpt #:    51  of    76
     total cpu time spent up to now is     1432.8 secs

     Computing kpt #:    52  of    76
     total cpu time spent up to now is     1460.6 secs

     Computing kpt #:    53  of    76
     total cpu time spent up to now is     1488.2 secs

     Computing kpt #:    54  of    76
     total cpu time spent up to now is     1513.9 secs

     Computing kpt #:    55  of    76
     total cpu time spent up to now is     1539.8 secs

     Computing kpt #:    56  of    76
     total cpu time spent up to now is     1565.7 secs

     Computing kpt #:    57  of    76
     total cpu time spent up to now is     1591.4 secs

     Computing kpt #:    58  of    76
     total cpu time spent up to now is     1617.1 secs

     Computing kpt #:    59  of    76
     total cpu time spent up to now is     1642.7 secs

     Computing kpt #:    60  of    76
     total cpu time spent up to now is     1668.4 secs

     Computing kpt #:    61  of    76
     total cpu time spent up to now is     1696.2 secs

     Computing kpt #:    62  of    76
     total cpu time spent up to now is     1721.8 secs

     Computing kpt #:    63  of    76
     total cpu time spent up to now is     1747.4 secs

     Computing kpt #:    64  of    76
     total cpu time spent up to now is     1775.4 secs

     Computing kpt #:    65  of    76
     total cpu time spent up to now is     1803.8 secs

     Computing kpt #:    66  of    76
     total cpu time spent up to now is     1831.7 secs

     Computing kpt #:    67  of    76
     total cpu time spent up to now is     1860.1 secs

     Computing kpt #:    68  of    76
     total cpu time spent up to now is     1890.2 secs

     Computing kpt #:    69  of    76
     total cpu time spent up to now is     1919.2 secs

     Computing kpt #:    70  of    76
     total cpu time spent up to now is     1948.7 secs

     Computing kpt #:    71  of    76
     total cpu time spent up to now is     1978.1 secs

     Computing kpt #:    72  of    76
     total cpu time spent up to now is     2009.3 secs

     Computing kpt #:    73  of    76
     total cpu time spent up to now is     2044.8 secs

     Computing kpt #:    74  of    76
     total cpu time spent up to now is     2076.1 secs

     Computing kpt #:    75  of    76
     total cpu time spent up to now is     2111.4 secs

     Computing kpt #:    76  of    76
     total cpu time spent up to now is     2142.6 secs

     ethr =  1.92E-11,  avg # of iterations = 45.4

     total cpu time spent up to now is     2142.6 secs

     End of band structure calculation

          k = 0.0000 0.0000 0.0000 (328551 PWs)   bands (ev):

   -22.6629 -21.4697 -19.7262 -17.6269 -17.5309 -16.4635 -16.4528 -16.0892
   -14.8764 -13.7377 -13.0430 -12.8542 -12.0331 -11.0560 -10.7266 -10.6205
   -10.4535  -9.4234  -8.8575  -8.5145  -7.5004  -7.2513  -7.1135  -5.5147
    -5.2077  -4.1410  -3.1535  -2.0966  -2.0528  -0.4458  -0.4244

     occupation numbers 
     1.0000   1.0000   1.0000   1.0000   1.0000   1.0000   1.0000   1.0000
     1.0000   1.0000   1.0000   1.0000   1.0000   1.0000   1.0000   1.0000
     1.0000   1.0000   1.0000   1.0000   1.0000   1.0000   1.0000   1.0000
     1.0000   1.0000   0.0000   0.0000   0.0000   0.0000   0.0000

          k = 0.0000 0.0000 0.0067 (328579 PWs)   bands (ev):

   -22.6626 -21.4694 -19.7259 -17.6271 -17.5351 -16.4609 -16.4587 -16.0816
   -14.8783 -13.7368 -13.0410 -12.8557 -12.0328 -11.0546 -10.7263 -10.6217
   -10.4531  -9.4231  -8.8568  -8.5153  -7.5002  -7.2517  -7.1141  -5.5166
    -5.2079  -4.1449  -3.1497  -2.0945  -2.0530  -0.4455  -0.4240

     occupation numbers 
     1.0000   1.0000   1.0000   1.0000   1.0000   1.0000   1.0000   1.0000
     1.0000   1.0000   1.0000   1.0000   1.0000   1.0000   1.0000   1.0000
     1.0000   1.0000   1.0000   1.0000   1.0000   1.0000   1.0000   1.0000
     1.0000   1.0000   0.0000   0.0000   0.0000   0.0000   0.0000

          k = 0.0000 0.0000 0.0133 (328589 PWs)   bands (ev):

   -22.6618 -21.4686 -19.7252 -17.6280 -17.5472 -16.4832 -16.4443 -16.0607
   -14.8839 -13.7342 -13.0347 -12.8602 -12.0319 -11.0503 -10.7254 -10.6252
   -10.4519  -9.4222  -8.8549  -8.5180  -7.4995  -7.2529  -7.1159  -5.5221
    -5.2083  -4.1563  -3.1385  -2.0881  -2.0536  -0.4444  -0.4230

     occupation numbers 
     1.0000   1.0000   1.0000   1.0000   1.0000   1.0000   1.0000   1.0000
     1.0000   1.0000   1.0000   1.0000   1.0000   1.0000   1.0000   1.0000
     1.0000   1.0000   1.0000   1.0000   1.0000   1.0000   1.0000   1.0000
     1.0000   1.0000   0.0000   0.0000   0.0000   0.0000   0.0000

          k = 0.0000 0.0000 0.0200 (328555 PWs)   bands (ev):

   -22.6606 -21.4674 -19.7240 -17.6305 -17.5656 -16.5161 -16.4211 -16.0300
   -14.8931 -13.7299 -13.0245 -12.8678 -12.0303 -11.0433 -10.7238 -10.6310
   -10.4500  -9.4208  -8.8516  -8.5224  -7.4983  -7.2549  -7.1189  -5.5312
    -5.2090  -4.1747  -3.1203  -2.0777  -2.0545  -0.4427  -0.4212

     occupation numbers 
     1.0000   1.0000   1.0000   1.0000   1.0000   1.0000   1.0000   1.0000
     1.0000   1.0000   1.0000   1.0000   1.0000   1.0000   1.0000   1.0000
     1.0000   1.0000   1.0000   1.0000   1.0000   1.0000   1.0000   1.0000
     1.0000   1.0000   0.0000   0.0000   0.0000   0.0000   0.0000

          k = 0.0000 0.0000 0.0267 (328531 PWs)   bands (ev):

   -22.6587 -21.4656 -19.7223 -17.6378 -17.5863 -16.5561 -16.3899 -15.9932
   -14.9059 -13.7238 -13.0103 -12.8782 -12.0281 -11.0335 -10.7217 -10.6391
   -10.4472  -9.4187  -8.8471  -8.5285  -7.4966  -7.2578  -7.1230  -5.5439
    -5.2100  -4.1994  -3.0959  -2.0636  -2.0552  -0.4403  -0.4188

     occupation numbers 
     1.0000   1.0000   1.0000   1.0000   1.0000   1.0000   1.0000   1.0000
     1.0000   1.0000   1.0000   1.0000   1.0000   1.0000   1.0000   1.0000
     1.0000   1.0000   1.0000   1.0000   1.0000   1.0000   1.0000   1.0000
     1.0000   1.0000   0.0000   0.0000   0.0000   0.0000   0.0000

          k = 0.0000 0.0000 0.0333 (328547 PWs)   bands (ev):

   -22.6564 -21.4633 -19.7201 -17.6569 -17.6011 -16.6008 -16.3520 -15.9526
   -14.9221 -13.7161 -12.9924 -12.8913 -12.0253 -11.0212 -10.7189 -10.6494
   -10.4437  -9.4161  -8.8414  -8.5363  -7.4945  -7.2616  -7.1283  -5.5601
    -5.2114  -4.2297  -3.0660  -2.0586  -2.0433  -0.4372  -0.4157

     occupation numbers 
     1.0000   1.0000   1.0000   1.0000   1.0000   1.0000   1.0000   1.0000
     1.0000   1.0000   1.0000   1.0000   1.0000   1.0000   1.0000   1.0000
     1.0000   1.0000   1.0000   1.0000   1.0000   1.0000   1.0000   1.0000
     1.0000   1.0000   0.0000   0.0000   0.0000   0.0000   0.0000

          k = 0.0000 0.0000 0.0400 (328597 PWs)   bands (ev):

   -22.6535 -21.4605 -19.7175 -17.6898 -17.6069 -16.6485 -16.3082 -15.9098
   -14.9413 -13.7067 -12.9709 -12.9070 -12.0219 -11.0065 -10.7155 -10.6618
   -10.4393  -9.4128  -8.8346  -8.5458  -7.4918  -7.2662  -7.1348  -5.5796
    -5.2130  -4.2646  -3.0316  -2.0605  -2.0209  -0.4334  -0.4118

     occupation numbers 
     1.0000   1.0000   1.0000   1.0000   1.0000   1.0000   1.0000   1.0000
     1.0000   1.0000   1.0000   1.0000   1.0000   1.0000   1.0000   1.0000
     1.0000   1.0000   1.0000   1.0000   1.0000   1.0000   1.0000   1.0000
     1.0000   1.0000   0.0000   0.0000   0.0000   0.0000   0.0000

          k = 0.0000 0.0000 0.0467 (328649 PWs)   bands (ev):

   -22.6502 -21.4571 -19.7143 -17.7310 -17.6084 -16.6984 -16.2596 -15.8658
   -14.9635 -13.6956 -12.9462 -12.9250 -12.0178 -10.9896 -10.7115 -10.6762
   -10.4341  -9.4090  -8.8268  -8.5570  -7.4887  -7.2717  -7.1424  -5.6022
    -5.2149  -4.3035  -2.9933  -2.0630  -1.9945  -0.4289  -0.4073

     occupation numbers 
     1.0000   1.0000   1.0000   1.0000   1.0000   1.0000   1.0000   1.0000
     1.0000   1.0000   1.0000   1.0000   1.0000   1.0000   1.0000   1.0000
     1.0000   1.0000   1.0000   1.0000   1.0000   1.0000   1.0000   1.0000
     1.0000   1.0000   0.0000   0.0000   0.0000   0.0000   0.0000

          k = 0.0000 0.0000 0.0533 (328651 PWs)   bands (ev):

   -22.6463 -21.4533 -19.7107 -17.7770 -17.6081 -16.7498 -16.2070 -15.8212
   -14.9883 -13.6831 -12.9451 -12.9185 -12.0131 -10.9706 -10.7069 -10.6926
   -10.4281  -9.4046  -8.8181  -8.5698  -7.4851  -7.2781  -7.1512  -5.6280
    -5.2172  -4.3457  -2.9518  -2.0659  -1.9645  -0.4237  -0.4021

     occupation numbers 
     1.0000   1.0000   1.0000   1.0000   1.0000   1.0000   1.0000   1.0000
     1.0000   1.0000   1.0000   1.0000   1.0000   1.0000   1.0000   1.0000
     1.0000   1.0000   1.0000   1.0000   1.0000   1.0000   1.0000   1.0000
     1.0000   1.0000   0.0000   0.0000   0.0000   0.0000   0.0000

          k = 0.0000 0.0000 0.0600 (328641 PWs)   bands (ev):

   -22.6419 -21.4490 -19.7066 -17.8264 -17.6070 -16.8023 -16.1510 -15.7765
   -15.0155 -13.6690 -12.9671 -12.8880 -12.0078 -10.9499 -10.7108 -10.7016
   -10.4212  -9.3996  -8.8085  -8.5842  -7.4811  -7.2855  -7.1611  -5.6567
    -5.2197  -4.3906  -2.9076  -2.0692  -1.9309  -0.4178  -0.3962

     occupation numbers 
     1.0000   1.0000   1.0000   1.0000   1.0000   1.0000   1.0000   1.0000
     1.0000   1.0000   1.0000   1.0000   1.0000   1.0000   1.0000   1.0000
     1.0000   1.0000   1.0000   1.0000   1.0000   1.0000   1.0000   1.0000
     1.0000   1.0000   0.0000   0.0000   0.0000   0.0000   0.0000

          k = 0.0000 0.0000 0.0667 (328547 PWs)   bands (ev):

   -22.6369 -21.4441 -19.7020 -17.8783 -17.6053 -16.8557 -16.0922 -15.7319
   -15.0449 -13.6536 -12.9906 -12.8551 -12.0018 -10.9275 -10.7307 -10.6958
   -10.4133  -9.3940  -8.7983  -8.6001  -7.4766  -7.2939  -7.1721  -5.6880
    -5.2226  -4.4377  -2.8614  -2.0727  -1.8940  -0.4112  -0.3896

     occupation numbers 
     1.0000   1.0000   1.0000   1.0000   1.0000   1.0000   1.0000   1.0000
     1.0000   1.0000   1.0000   1.0000   1.0000   1.0000   1.0000   1.0000
     1.0000   1.0000   1.0000   1.0000   1.0000   1.0000   1.0000   1.0000
     1.0000   1.0000   0.0000   0.0000   0.0000   0.0000   0.0000

          k = 0.0000 0.0000 0.0733 (328513 PWs)   bands (ev):

   -22.6315 -21.4388 -19.6969 -17.9321 -17.6033 -16.9096 -16.0311 -15.6876
   -15.0761 -13.6371 -13.0152 -12.8199 -11.9952 -10.9038 -10.7522 -10.6893
   -10.4046  -9.3878  -8.7874  -8.6175  -7.4716  -7.3033  -7.1842  -5.7220
    -5.2258  -4.4867  -2.8133  -2.0765  -1.8540  -0.4040  -0.3823

     occupation numbers 
     1.0000   1.0000   1.0000   1.0000   1.0000   1.0000   1.0000   1.0000
     1.0000   1.0000   1.0000   1.0000   1.0000   1.0000   1.0000   1.0000
     1.0000   1.0000   1.0000   1.0000   1.0000   1.0000   1.0000   1.0000
     1.0000   1.0000   0.0000   0.0000   0.0000   0.0000   0.0000

          k = 0.0000 0.0000 0.0800 (328483 PWs)   bands (ev):

   -22.6255 -21.4329 -19.6914 -17.9873 -17.6009 -16.9641 -15.9680 -15.6438
   -15.1090 -13.6196 -13.0406 -12.7828 -11.9879 -10.8789 -10.7751 -10.6822
   -10.3949  -9.3811  -8.7761  -8.6363  -7.4661  -7.3138  -7.1975  -5.7583
    -5.2294  -4.5372  -2.7639  -2.0806  -1.8110  -0.3960  -0.3743

     occupation numbers 
     1.0000   1.0000   1.0000   1.0000   1.0000   1.0000   1.0000   1.0000
     1.0000   1.0000   1.0000   1.0000   1.0000   1.0000   1.0000   1.0000
     1.0000   1.0000   1.0000   1.0000   1.0000   1.0000   1.0000   1.0000
     1.0000   1.0000   0.0000   0.0000   0.0000   0.0000   0.0000

          k = 0.0000 0.0000 0.0867 (328527 PWs)   bands (ev):

   -22.6190 -21.4265 -19.6853 -18.0436 -17.5984 -17.0189 -15.9032 -15.6005
   -15.1434 -13.6015 -13.0663 -12.7440 -11.9799 -10.8530 -10.7994 -10.6745
   -10.3842  -9.3737  -8.7644  -8.6566  -7.4601  -7.3253  -7.2117  -5.7969
    -5.2333  -4.5889  -2.7132  -2.0849  -1.7652  -0.3873  -0.3656

     occupation numbers 
     1.0000   1.0000   1.0000   1.0000   1.0000   1.0000   1.0000   1.0000
     1.0000   1.0000   1.0000   1.0000   1.0000   1.0000   1.0000   1.0000
     1.0000   1.0000   1.0000   1.0000   1.0000   1.0000   1.0000   1.0000
     1.0000   1.0000   0.0000   0.0000   0.0000   0.0000   0.0000

          k = 0.0000 0.0000 0.0933 (328459 PWs)   bands (ev):

   -22.6120 -21.4196 -19.6788 -18.1007 -17.5956 -17.0739 -15.8370 -15.5580
   -15.1789 -13.5833 -13.0916 -12.7037 -11.9712 -10.8265 -10.8248 -10.6662
   -10.3724  -9.3658  -8.7524  -8.6781  -7.4537  -7.3380  -7.2270  -5.8375
    -5.2376  -4.6417  -2.6616  -2.0894  -1.7169  -0.3780  -0.3563

     occupation numbers 
     1.0000   1.0000   1.0000   1.0000   1.0000   1.0000   1.0000   1.0000
     1.0000   1.0000   1.0000   1.0000   1.0000   1.0000   1.0000   1.0000
     1.0000   1.0000   1.0000   1.0000   1.0000   1.0000   1.0000   1.0000
     1.0000   1.0000   0.0000   0.0000   0.0000   0.0000   0.0000

          k = 0.0000 0.0000 0.1000 (328417 PWs)   bands (ev):

   -22.6045 -21.4122 -19.6718 -18.1585 -17.5927 -17.1292 -15.7696 -15.5162
   -15.2155 -13.5658 -13.1157 -12.6622 -11.9619 -10.8514 -10.7994 -10.6573
   -10.3596  -9.3573  -8.7403  -8.7010  -7.4469  -7.3518  -7.2434  -5.8799
    -5.2422  -4.6954  -2.6091  -2.0941  -1.6661  -0.3680  -0.3462

     occupation numbers 
     1.0000   1.0000   1.0000   1.0000   1.0000   1.0000   1.0000   1.0000
     1.0000   1.0000   1.0000   1.0000   1.0000   1.0000   1.0000   1.0000
     1.0000   1.0000   1.0000   1.0000   1.0000   1.0000   1.0000   1.0000
     1.0000   1.0000   0.0000   0.0000   0.0000   0.0000   0.0000

          k = 0.0000 0.0000 0.1067 (328425 PWs)   bands (ev):

   -22.5965 -21.4043 -19.6644 -18.2168 -17.5896 -17.1846 -15.7012 -15.4752
   -15.2528 -13.5498 -13.1374 -12.6197 -11.9518 -10.8788 -10.7720 -10.6477
   -10.3456  -9.3482  -8.7282  -8.7251  -7.4395  -7.3668  -7.2607  -5.9242
    -5.2472  -4.7497  -2.5560  -2.0989  -1.6130  -0.3572  -0.3355

     occupation numbers 
     1.0000   1.0000   1.0000   1.0000   1.0000   1.0000   1.0000   1.0000
     1.0000   1.0000   1.0000   1.0000   1.0000   1.0000   1.0000   1.0000
     1.0000   1.0000   1.0000   1.0000   1.0000   1.0000   1.0000   1.0000
     1.0000   1.0000   0.0000   0.0000   0.0000   0.0000   0.0000

          k = 0.0000 0.0000 0.1133 (328459 PWs)   bands (ev):

   -22.5879 -21.3959 -19.6564 -18.2755 -17.5864 -17.2401 -15.6319 -15.4351
   -15.2907 -13.5368 -13.1552 -12.5764 -11.9410 -10.9070 -10.7444 -10.6376
   -10.3305  -9.3385  -8.7504  -8.7162  -7.4317  -7.3830  -7.2790  -5.9700
    -5.2526  -4.8047  -2.5024  -2.1037  -1.5577  -0.3458  -0.3241

     occupation numbers 
     1.0000   1.0000   1.0000   1.0000   1.0000   1.0000   1.0000   1.0000
     1.0000   1.0000   1.0000   1.0000   1.0000   1.0000   1.0000   1.0000
     1.0000   1.0000   1.0000   1.0000   1.0000   1.0000   1.0000   1.0000
     1.0000   1.0000   0.0000   0.0000   0.0000   0.0000   0.0000

          k = 0.0000 0.0000 0.1200 (328415 PWs)   bands (ev):

   -22.5788 -21.3870 -19.6480 -18.3344 -17.5831 -17.2957 -15.5622 -15.3958
   -15.3286 -13.5285 -13.1675 -12.5326 -11.9294 -10.9358 -10.7169 -10.6268
   -10.3142  -9.3282  -8.7768  -8.7043  -7.4234  -7.4004  -7.2983  -6.0172
    -5.2584  -4.8601  -2.4484  -2.1086  -1.5005  -0.3337  -0.3120

     occupation numbers 
     1.0000   1.0000   1.0000   1.0000   1.0000   1.0000   1.0000   1.0000
     1.0000   1.0000   1.0000   1.0000   1.0000   1.0000   1.0000   1.0000
     1.0000   1.0000   1.0000   1.0000   1.0000   1.0000   1.0000   1.0000
     1.0000   1.0000   0.0000   0.0000   0.0000   0.0000   0.0000

          k = 0.0000 0.0000 0.1267 (328467 PWs)   bands (ev):

   -22.5692 -21.3776 -19.6391 -18.3935 -17.5798 -17.3513 -15.4933 -15.3660
   -15.3569 -13.5265 -13.1723 -12.4886 -11.9170 -10.9650 -10.6896 -10.6154
   -10.2967  -9.3173  -8.8042  -8.6928  -7.4192  -7.4147  -7.3185  -6.0658
    -5.2646  -4.9159  -2.3940  -2.1135  -1.4415  -0.3209  -0.2993

     occupation numbers 
     1.0000   1.0000   1.0000   1.0000   1.0000   1.0000   1.0000   1.0000
     1.0000   1.0000   1.0000   1.0000   1.0000   1.0000   1.0000   1.0000
     1.0000   1.0000   1.0000   1.0000   1.0000   1.0000   1.0000   1.0000
     1.0000   1.0000   0.0000   0.0000   0.0000   0.0000   0.0000

          k = 0.0000 0.0000 0.1333 (328455 PWs)   bands (ev):

   -22.5591 -21.3676 -19.6298 -18.4526 -17.5764 -17.4068 -15.4383 -15.3881
   -15.3199 -13.5320 -13.1684 -12.4445 -11.9038 -10.9945 -10.6626 -10.6034
   -10.2780  -9.3059  -8.8327  -8.6816  -7.4392  -7.4055  -7.3396  -6.1155
    -5.2712  -4.9720  -2.3393  -2.1184  -1.3807  -0.3074  -0.2858

     occupation numbers 
     1.0000   1.0000   1.0000   1.0000   1.0000   1.0000   1.0000   1.0000
     1.0000   1.0000   1.0000   1.0000   1.0000   1.0000   1.0000   1.0000
     1.0000   1.0000   1.0000   1.0000   1.0000   1.0000   1.0000   1.0000
     1.0000   1.0000   0.0000   0.0000   0.0000   0.0000   0.0000

          k = 0.0000 0.0000 0.1400 (328395 PWs)   bands (ev):

   -22.5485 -21.3572 -19.6199 -18.5117 -17.5730 -17.4623 -15.4554 -15.3380
   -15.2834 -13.5451 -13.1558 -12.4006 -11.8897 -11.0240 -10.6360 -10.5908
   -10.2581  -9.2939  -8.8621  -8.6709  -7.4606  -7.3958  -7.3616  -6.1663
    -5.2783  -5.0284  -2.2844  -2.1233  -1.3184  -0.2932  -0.2717

     occupation numbers 
     1.0000   1.0000   1.0000   1.0000   1.0000   1.0000   1.0000   1.0000
     1.0000   1.0000   1.0000   1.0000   1.0000   1.0000   1.0000   1.0000
     1.0000   1.0000   1.0000   1.0000   1.0000   1.0000   1.0000   1.0000
     1.0000   1.0000   0.0000   0.0000   0.0000   0.0000   0.0000

          k = 0.0000 0.0000 0.1467 (328383 PWs)   bands (ev):

   -22.5374 -21.3462 -19.6096 -18.5708 -17.5697 -17.5177 -15.4923 -15.2676
   -15.2478 -13.5648 -13.1353 -12.3573 -11.8748 -11.0533 -10.6099 -10.5776
   -10.2370  -9.2813  -8.8923  -8.6607  -7.4832  -7.3857  -7.3844  -6.2180
    -5.2858  -5.0850  -2.2293  -2.1280  -1.2546  -0.2783  -0.2569

     occupation numbers 
     1.0000   1.0000   1.0000   1.0000   1.0000   1.0000   1.0000   1.0000
     1.0000   1.0000   1.0000   1.0000   1.0000   1.0000   1.0000   1.0000
     1.0000   1.0000   1.0000   1.0000   1.0000   1.0000   1.0000   1.0000
     1.0000   1.0000   0.0000   0.0000   0.0000   0.0000   0.0000

          k = 0.0000 0.0000 0.1533 (328387 PWs)   bands (ev):

   -22.5257 -21.3348 -19.5989 -18.6299 -17.5734 -17.5661 -15.5309 -15.2132
   -15.1948 -13.5898 -13.1082 -12.3149 -11.8589 -11.0822 -10.5844 -10.5638
   -10.2148  -9.2681  -8.9235  -8.6512  -7.5073  -7.4080  -7.3752  -6.2707
    -5.2937  -5.1418  -2.1741  -2.1326  -1.1894  -0.2627  -0.2415

     occupation numbers 
     1.0000   1.0000   1.0000   1.0000   1.0000   1.0000   1.0000   1.0000
     1.0000   1.0000   1.0000   1.0000   1.0000   1.0000   1.0000   1.0000
     1.0000   1.0000   1.0000   1.0000   1.0000   1.0000   1.0000   1.0000
     1.0000   1.0000   0.0000   0.0000   0.0000   0.0000   0.0000

          k = 0.0000 0.0000 0.1600 (328371 PWs)   bands (ev):

   -22.5135 -21.3228 -19.5876 -18.6888 -17.6283 -17.5633 -15.5697 -15.1795
   -15.1211 -13.6188 -13.0757 -12.2736 -11.8421 -11.1103 -10.5595 -10.5493
   -10.1915  -9.2543  -8.9553  -8.6424  -7.5327  -7.4325  -7.3642  -6.3240
    -5.3021  -5.1986  -2.1369  -2.1188  -1.1230  -0.2464  -0.2253

     occupation numbers 
     1.0000   1.0000   1.0000   1.0000   1.0000   1.0000   1.0000   1.0000
     1.0000   1.0000   1.0000   1.0000   1.0000   1.0000   1.0000   1.0000
     1.0000   1.0000   1.0000   1.0000   1.0000   1.0000   1.0000   1.0000
     1.0000   1.0000   0.0000   0.0000   0.0000   0.0000   0.0000

          k = 0.0000 0.0000 0.1667 (328425 PWs)   bands (ev):

   -22.5008 -21.3103 -19.5759 -18.7475 -17.6833 -17.5603 -15.6085 -15.1468
   -15.0468 -13.6506 -13.0390 -12.2339 -11.8243 -11.1373 -10.5352 -10.5343
   -10.1674  -9.2400  -8.9879  -8.6345  -7.5595  -7.4577  -7.3527  -6.3781
    -5.3110  -5.2555  -2.1411  -2.0634  -1.0554  -0.2294  -0.2085

     occupation numbers 
     1.0000   1.0000   1.0000   1.0000   1.0000   1.0000   1.0000   1.0000
     1.0000   1.0000   1.0000   1.0000   1.0000   1.0000   1.0000   1.0000
     1.0000   1.0000   1.0000   1.0000   1.0000   1.0000   1.0000   1.0000
     1.0000   1.0000   0.0000   0.0000   0.0000   0.0000   0.0000

          k = 0.0000 0.0000 0.1733 (328415 PWs)   bands (ev):

   -22.4876 -21.2974 -19.5638 -18.8060 -17.7381 -17.5576 -15.6469 -15.1150
   -14.9720 -13.6844 -12.9988 -12.1962 -11.8057 -11.1627 -10.5186 -10.5115
   -10.1424  -9.2251  -9.0212  -8.6273  -7.5876  -7.4836  -7.3408  -6.4327
    -5.3205  -5.3122  -2.1450  -2.0080  -0.9867  -0.2118  -0.1911

     occupation numbers 
     1.0000   1.0000   1.0000   1.0000   1.0000   1.0000   1.0000   1.0000
     1.0000   1.0000   1.0000   1.0000   1.0000   1.0000   1.0000   1.0000
     1.0000   1.0000   1.0000   1.0000   1.0000   1.0000   1.0000   1.0000
     1.0000   1.0000   0.0000   0.0000   0.0000   0.0000   0.0000

          k = 0.0000 0.0000 0.1800 (328423 PWs)   bands (ev):

   -22.4739 -21.2839 -19.5511 -18.8643 -17.7928 -17.5551 -15.6848 -15.0843
   -14.8968 -13.7196 -12.9557 -12.1610 -11.7862 -11.1860 -10.5024 -10.4883
   -10.1167  -9.2096  -9.0550  -8.6211  -7.6172  -7.5103  -7.3285  -6.4879
    -5.3695  -5.3300  -2.1486  -1.9526  -0.9171  -0.1934  -0.1729

     occupation numbers 
     1.0000   1.0000   1.0000   1.0000   1.0000   1.0000   1.0000   1.0000
     1.0000   1.0000   1.0000   1.0000   1.0000   1.0000   1.0000   1.0000
     1.0000   1.0000   1.0000   1.0000   1.0000   1.0000   1.0000   1.0000
     1.0000   1.0000   0.0000   0.0000   0.0000   0.0000   0.0000

          k = 0.0000 0.0000 0.1867 (328393 PWs)   bands (ev):

   -22.4597 -21.2699 -19.5381 -18.9224 -17.8473 -17.5529 -15.7221 -15.0545
   -14.8213 -13.7557 -12.9101 -12.1287 -11.7662 -11.2065 -10.4855 -10.4657
   -10.0905  -9.1935  -9.0893  -8.6159  -7.6481  -7.5376  -7.3157  -6.5435
    -5.4264  -5.3404  -2.1519  -1.8972  -0.8465  -0.1744  -0.1542

     occupation numbers 
     1.0000   1.0000   1.0000   1.0000   1.0000   1.0000   1.0000   1.0000
     1.0000   1.0000   1.0000   1.0000   1.0000   1.0000   1.0000   1.0000
     1.0000   1.0000   1.0000   1.0000   1.0000   1.0000   1.0000   1.0000
     1.0000   1.0000   0.0000   0.0000   0.0000   0.0000   0.0000

          k = 0.0000 0.0000 0.1933 (328379 PWs)   bands (ev):

   -22.4449 -21.2554 -19.5245 -18.9803 -17.9016 -17.5510 -15.7587 -15.0258
   -14.7454 -13.7924 -12.8625 -12.0998 -11.7458 -11.2235 -10.4680 -10.4435
   -10.0640  -9.1768  -9.1240  -8.6118  -7.6804  -7.5656  -7.3025  -6.5995
    -5.4832  -5.3512  -2.1547  -1.8418  -0.7751  -0.1547  -0.1347

     occupation numbers 
     1.0000   1.0000   1.0000   1.0000   1.0000   1.0000   1.0000   1.0000
     1.0000   1.0000   1.0000   1.0000   1.0000   1.0000   1.0000   1.0000
     1.0000   1.0000   1.0000   1.0000   1.0000   1.0000   1.0000   1.0000
     1.0000   1.0000   0.0000   0.0000   0.0000   0.0000   0.0000

          k = 0.0000 0.0000 0.2000 (328407 PWs)   bands (ev):

   -22.4296 -21.2404 -19.5106 -19.0378 -17.9556 -17.5496 -15.7945 -14.9982
   -14.6693 -13.8292 -12.8129 -12.0749 -11.7255 -11.2362 -10.4499 -10.4217
   -10.0373  -9.1596  -9.1590  -8.6087  -7.7141  -7.5943  -7.2889  -6.6558
    -5.5400  -5.3625  -2.1572  -1.7865  -0.7030  -0.1343  -0.1146

     occupation numbers 
     1.0000   1.0000   1.0000   1.0000   1.0000   1.0000   1.0000   1.0000
     1.0000   1.0000   1.0000   1.0000   1.0000   1.0000   1.0000   1.0000
     1.0000   1.0000   1.0000   1.0000   1.0000   1.0000   1.0000   1.0000
     1.0000   1.0000   0.0000   0.0000   0.0000   0.0000   0.0000

          k = 0.0000 0.0000 0.2067 (328337 PWs)   bands (ev):

   -22.4139 -21.2249 -19.4962 -19.0950 -18.0094 -17.5488 -15.8294 -14.9717
   -14.5930 -13.8660 -12.7618 -12.0543 -11.7056 -11.2435 -10.4313 -10.4003
   -10.0106  -9.1943  -9.1418  -8.6068  -7.7491  -7.6235  -7.2748  -6.7123
    -5.5967  -5.3744  -2.1592  -1.7312  -0.6301  -0.1132  -0.0938

     occupation numbers 
     1.0000   1.0000   1.0000   1.0000   1.0000   1.0000   1.0000   1.0000
     1.0000   1.0000   1.0000   1.0000   1.0000   1.0000   1.0000   1.0000
     1.0000   1.0000   1.0000   1.0000   1.0000   1.0000   1.0000   1.0000
     1.0000   1.0000   0.0000   0.0000   0.0000   0.0000   0.0000

          k = 0.0000 0.0000 0.2133 (328279 PWs)   bands (ev):

   -22.3976 -21.2089 -19.4813 -19.1520 -18.0629 -17.5484 -15.8632 -14.9464
   -14.5164 -13.9024 -12.7091 -12.0385 -11.6865 -11.2448 -10.4120 -10.3791
    -9.9842  -9.2297  -9.1234  -8.6061  -7.7855  -7.6533  -7.2604  -6.7691
    -5.6533  -5.3867  -2.1608  -1.6759  -0.5567  -0.0914  -0.0723

     occupation numbers 
     1.0000   1.0000   1.0000   1.0000   1.0000   1.0000   1.0000   1.0000
     1.0000   1.0000   1.0000   1.0000   1.0000   1.0000   1.0000   1.0000
     1.0000   1.0000   1.0000   1.0000   1.0000   1.0000   1.0000   1.0000
     1.0000   1.0000   0.0000   0.0000   0.0000   0.0000   0.0000

          k = 0.0000 0.0000 0.2200 (328308 PWs)   bands (ev):

   -22.3808 -21.1924 -19.4660 -19.2086 -18.1161 -17.5487 -15.8960 -14.9224
   -14.4396 -13.9382 -12.6550 -12.0279 -11.6685 -11.2395 -10.3921 -10.3582
    -9.9582  -9.2651  -9.1045  -8.6066  -7.8232  -7.6836  -7.2455  -6.8261
    -5.7097  -5.3996  -2.1618  -1.6208  -0.4826  -0.0690  -0.0613

     occupation numbers 
     1.0000   1.0000   1.0000   1.0000   1.0000   1.0000   1.0000   1.0000
     1.0000   1.0000   1.0000   1.0000   1.0000   1.0000   1.0000   1.0000
     1.0000   1.0000   1.0000   1.0000   1.0000   1.0000   1.0000   1.0000
     1.0000   1.0000   0.0000   0.0000   0.0000   0.0000   0.0000

          k = 0.0000 0.0000 0.2267 (328304 PWs)   bands (ev):

   -22.3634 -21.1754 -19.4503 -19.2649 -18.1690 -17.5498 -15.9274 -14.9000
   -14.3628 -13.9732 -12.5998 -12.0229 -11.6514 -11.2274 -10.3716 -10.3375
    -9.9329  -9.3002  -9.0850  -8.6084  -7.8622  -7.7145  -7.2302  -6.8831
    -5.7660  -5.4130  -2.1623  -1.5657  -0.4081  -0.0962  -0.0459

     occupation numbers 
     1.0000   1.0000   1.0000   1.0000   1.0000   1.0000   1.0000   1.0000
     1.0000   1.0000   1.0000   1.0000   1.0000   1.0000   1.0000   1.0000
     1.0000   1.0000   1.0000   1.0000   1.0000   1.0000   1.0000   1.0000
     1.0000   1.0000   0.0000   0.0000   0.0000   0.0000   0.0000

          k = 0.0000 0.0000 0.2333 (328336 PWs)   bands (ev):

   -22.3456 -21.1579 -19.4341 -19.3208 -18.2217 -17.5516 -15.9576 -14.8792
   -14.2857 -14.0069 -12.5434 -12.0234 -11.6348 -11.2088 -10.3505 -10.3170
    -9.9086  -9.3349  -9.0649  -8.6116  -7.9025  -7.7458  -7.2144  -6.9403
    -5.8221  -5.4269  -2.1622  -1.5107  -0.3331  -0.1315  -0.0221

     occupation numbers 
     1.0000   1.0000   1.0000   1.0000   1.0000   1.0000   1.0000   1.0000
     1.0000   1.0000   1.0000   1.0000   1.0000   1.0000   1.0000   1.0000
     1.0000   1.0000   1.0000   1.0000   1.0000   1.0000   1.0000   1.0000
     1.0000   1.0000   0.0000   0.0000   0.0000   0.0000   0.0000

          k = 0.0000 0.0000 0.2400 (328312 PWs)   bands (ev):

   -22.3272 -21.1399 -19.4176 -19.3764 -18.2740 -17.5543 -15.9863 -14.8603
   -14.2086 -14.0392 -12.4860 -12.0293 -11.6183 -11.1843 -10.3288 -10.2967
    -9.8856  -9.3688  -9.0443  -8.6160  -7.9440  -7.7777  -7.1983  -6.9974
    -5.8780  -5.4414  -2.1615  -1.4558  -0.2577  -0.1673   0.0024

     occupation numbers 
     1.0000   1.0000   1.0000   1.0000   1.0000   1.0000   1.0000   1.0000
     1.0000   1.0000   1.0000   1.0000   1.0000   1.0000   1.0000   1.0000
     1.0000   1.0000   1.0000   1.0000   1.0000   1.0000   1.0000   1.0000
     1.0000   1.0000   0.0000   0.0000   0.0000   0.0000   0.0000

          k = 0.0000 0.0000 0.2467 (328332 PWs)   bands (ev):

   -22.3084 -21.1214 -19.4316 -19.4006 -18.3259 -17.5579 -16.0134 -14.8435
   -14.1315 -14.0695 -12.4277 -12.0405 -11.6013 -11.1547 -10.3065 -10.2766
    -9.8644  -9.4015  -9.0230  -8.6218  -7.9868  -7.8099  -7.1818  -7.0546
    -5.9338  -5.4564  -2.1602  -1.4010  -0.2034  -0.1819   0.0275

     occupation numbers 
     1.0000   1.0000   1.0000   1.0000   1.0000   1.0000   1.0000   1.0000
     1.0000   1.0000   1.0000   1.0000   1.0000   1.0000   1.0000   1.0000
     1.0000   1.0000   1.0000   1.0000   1.0000   1.0000   1.0000   1.0000
     1.0000   1.0000   0.0000   0.0000   0.0000   0.0000   0.0000

          k = 0.0000 0.0000 0.2533 (328394 PWs)   bands (ev):

   -22.2890 -21.1024 -19.4865 -19.3833 -18.3775 -17.5625 -16.0390 -14.8293
   -14.0978 -14.0541 -12.3685 -12.0563 -11.5835 -11.1209 -10.2836 -10.2568
    -9.8456  -9.4324  -9.0013  -8.6290  -8.0307  -7.8426  -7.1649  -7.1118
    -5.9893  -5.4719  -2.1582  -1.3463  -0.2397  -0.1060   0.0533

     occupation numbers 
     1.0000   1.0000   1.0000   1.0000   1.0000   1.0000   1.0000   1.0000
     1.0000   1.0000   1.0000   1.0000   1.0000   1.0000   1.0000   1.0000
     1.0000   1.0000   1.0000   1.0000   1.0000   1.0000   1.0000   1.0000
     1.0000   1.0000   0.0000   0.0000   0.0000   0.0000   0.0000

          k = 0.0000 0.0000 0.2600 (328376 PWs)   bands (ev):

   -22.2691 -21.0829 -19.5410 -19.3656 -18.4287 -17.5682 -16.0628 -14.8180
   -14.1230 -13.9770 -12.3085 -12.0761 -11.5645 -11.0838 -10.2601 -10.2373
    -9.8299  -9.4608  -8.9789  -8.6375  -8.0759  -7.8756  -7.1689  -7.1475
    -6.0446  -5.4879  -2.1555  -1.2917  -0.2763  -0.0297   0.0798

     occupation numbers 
     1.0000   1.0000   1.0000   1.0000   1.0000   1.0000   1.0000   1.0000
     1.0000   1.0000   1.0000   1.0000   1.0000   1.0000   1.0000   1.0000
     1.0000   1.0000   1.0000   1.0000   1.0000   1.0000   1.0000   1.0000
     1.0000   1.0000   0.0000   0.0000   0.0000   0.0000   0.0000

          k = 0.0000 0.0000 0.2667 (328444 PWs)   bands (ev):

   -22.2487 -21.0629 -19.5950 -19.3475 -18.4795 -17.5751 -16.0849 -14.8099
   -14.1451 -13.8998 -12.2479 -12.0995 -11.5445 -11.0440 -10.2361 -10.2182
    -9.8182  -9.4856  -8.9560  -8.6475  -8.1221  -7.9091  -7.2259  -7.1298
    -6.0996  -5.5045  -2.1522  -1.2372  -0.3132   0.0467   0.1069

     occupation numbers 
     1.0000   1.0000   1.0000   1.0000   1.0000   1.0000   1.0000   1.0000
     1.0000   1.0000   1.0000   1.0000   1.0000   1.0000   1.0000   1.0000
     1.0000   1.0000   1.0000   1.0000   1.0000   1.0000   1.0000   1.0000
     1.0000   1.0000   0.0000   0.0000   0.0000   0.0000   0.0000

          k = 0.0000 0.0000 0.2733 (328446 PWs)   bands (ev):

   -22.2278 -21.0424 -19.6487 -19.3291 -18.5299 -17.5832 -16.1050 -14.8056
   -14.1635 -13.8227 -12.1867 -12.1256 -11.5232 -11.0023 -10.2114 -10.1998
    -9.8115  -9.5057  -8.9325  -8.6589  -8.1693  -7.9428  -7.2828  -7.1118
    -6.1544  -5.5215  -2.1482  -1.1828  -0.3502   0.1233   0.1347

     occupation numbers 
     1.0000   1.0000   1.0000   1.0000   1.0000   1.0000   1.0000   1.0000
     1.0000   1.0000   1.0000   1.0000   1.0000   1.0000   1.0000   1.0000
     1.0000   1.0000   1.0000   1.0000   1.0000   1.0000   1.0000   1.0000
     1.0000   1.0000   0.0000   0.0000   0.0000   0.0000   0.0000

          k = 0.0000 0.0000 0.2800 (328474 PWs)   bands (ev):

   -22.2064 -21.0214 -19.7020 -19.3104 -18.5797 -17.5925 -16.1232 -14.8053
   -14.1778 -13.7457 -12.1543 -12.1247 -11.5007 -10.9590 -10.1861 -10.1823
    -9.8106  -9.5201  -8.9085  -8.6718  -8.2176  -7.9769  -7.3395  -7.0933
    -6.2089  -5.5391  -2.1434  -1.1286  -0.3873   0.1632   0.1782

     occupation numbers 
     1.0000   1.0000   1.0000   1.0000   1.0000   1.0000   1.0000   1.0000
     1.0000   1.0000   1.0000   1.0000   1.0000   1.0000   1.0000   1.0000
     1.0000   1.0000   1.0000   1.0000   1.0000   1.0000   1.0000   1.0000
     1.0000   1.0000   0.0000   0.0000   0.0000   0.0000   0.0000

          k = 0.0000 0.0000 0.2867 (328482 PWs)   bands (ev):

   -22.1845 -21.0000 -19.7549 -19.2915 -18.6290 -17.6031 -16.1395 -14.8093
   -14.1877 -13.6689 -12.1847 -12.0624 -11.4771 -10.9146 -10.1662 -10.1603
    -9.8156  -9.5282  -8.8839  -8.6860  -8.2669  -8.0113  -7.3961  -7.0745
    -6.2631  -5.5572  -2.1379  -1.0745  -0.4246   0.1923   0.2068

     occupation numbers 
     1.0000   1.0000   1.0000   1.0000   1.0000   1.0000   1.0000   1.0000
     1.0000   1.0000   1.0000   1.0000   1.0000   1.0000   1.0000   1.0000
     1.0000   1.0000   1.0000   1.0000   1.0000   1.0000   1.0000   1.0000
     1.0000   1.0000   0.0000   0.0000   0.0000   0.0000   0.0000

          k = 0.0000 0.0000 0.2933 (328478 PWs)   bands (ev):

   -22.1621 -20.9780 -19.8074 -19.2724 -18.6778 -17.6151 -16.1537 -14.8176
   -14.1931 -13.5922 -12.2166 -11.9997 -11.4524 -10.8695 -10.1520 -10.1338
    -9.8256  -9.5304  -8.8588  -8.7017  -8.3171  -8.0460  -7.4525  -7.0554
    -6.3171  -5.5758  -2.1316  -1.0206  -0.4618   0.2220   0.2360

     occupation numbers 
     1.0000   1.0000   1.0000   1.0000   1.0000   1.0000   1.0000   1.0000
     1.0000   1.0000   1.0000   1.0000   1.0000   1.0000   1.0000   1.0000
     1.0000   1.0000   1.0000   1.0000   1.0000   1.0000   1.0000   1.0000
     1.0000   1.0000   0.0000   0.0000   0.0000   0.0000   0.0000

          k = 0.0000 0.0000 0.3000 (328468 PWs)   bands (ev):

   -22.1391 -20.9555 -19.8594 -19.2533 -18.7257 -17.6284 -16.1658 -14.8302
   -14.1941 -13.5159 -12.2497 -11.9365 -11.4267 -10.8238 -10.1409 -10.1068
    -9.8386  -9.5278  -8.8331  -8.7188  -8.3681  -8.0809  -7.5087  -7.0359
    -6.3707  -5.5949  -2.1246  -0.9669  -0.4991   0.2524   0.2659

     occupation numbers 
     1.0000   1.0000   1.0000   1.0000   1.0000   1.0000   1.0000   1.0000
     1.0000   1.0000   1.0000   1.0000   1.0000   1.0000   1.0000   1.0000
     1.0000   1.0000   1.0000   1.0000   1.0000   1.0000   1.0000   1.0000
     1.0000   1.0000   0.0000   0.0000   0.0000   0.0000   0.0000

          k = 0.0000 0.0000 0.3067 (328524 PWs)   bands (ev):

   -22.1157 -20.9326 -19.9111 -19.2343 -18.7728 -17.6431 -16.1759 -14.8467
   -14.1908 -13.4399 -12.2836 -11.8731 -11.4000 -10.7779 -10.1340 -10.0791
    -9.8519  -9.5217  -8.8068  -8.7373  -8.4198  -8.1161  -7.5647  -7.0161
    -6.4240  -5.6144  -2.1168  -0.9136  -0.5361   0.2834   0.2965

     occupation numbers 
     1.0000   1.0000   1.0000   1.0000   1.0000   1.0000   1.0000   1.0000
     1.0000   1.0000   1.0000   1.0000   1.0000   1.0000   1.0000   1.0000
     1.0000   1.0000   1.0000   1.0000   1.0000   1.0000   1.0000   1.0000
     1.0000   1.0000   0.0000   0.0000   0.0000   0.0000   0.0000

          k = 0.0000 0.0000 0.3133 (328510 PWs)   bands (ev):

   -22.0917 -20.9091 -19.9623 -19.2156 -18.8187 -17.6591 -16.1839 -14.8668
   -14.1837 -13.3644 -12.3181 -11.8094 -11.3724 -10.7318 -10.1330 -10.0509
    -9.8628  -9.5135  -8.7800  -8.7571  -8.4723  -8.1515  -7.6204  -6.9959
    -6.4770  -5.6344  -2.1082  -0.8608  -0.5726   0.3151   0.3276

     occupation numbers 
     1.0000   1.0000   1.0000   1.0000   1.0000   1.0000   1.0000   1.0000
     1.0000   1.0000   1.0000   1.0000   1.0000   1.0000   1.0000   1.0000
     1.0000   1.0000   1.0000   1.0000   1.0000   1.0000   1.0000   1.0000
     1.0000   1.0000   0.0000   0.0000   0.0000   0.0000   0.0000

          k = 0.0000 0.0000 0.3200 (328478 PWs)   bands (ev):

   -22.0673 -20.8852 -20.0131 -19.1978 -18.8630 -17.6764 -16.1898 -14.8900
   -14.1732 -13.2895 -12.3528 -11.7455 -11.3439 -10.6859 -10.1392 -10.0221
    -9.8690  -9.5041  -8.7784  -8.7527  -8.5254  -8.1870  -7.6758  -6.9755
    -6.5296  -5.6548  -2.0988  -0.8092  -0.6081   0.3474   0.3594

     occupation numbers 
     1.0000   1.0000   1.0000   1.0000   1.0000   1.0000   1.0000   1.0000
     1.0000   1.0000   1.0000   1.0000   1.0000   1.0000   1.0000   1.0000
     1.0000   1.0000   1.0000   1.0000   1.0000   1.0000   1.0000   1.0000
     1.0000   1.0000   0.0000   0.0000   0.0000   0.0000   0.0000

          k = 0.0000 0.0000 0.3267 (328518 PWs)   bands (ev):

   -22.0423 -20.8608 -20.0634 -19.1818 -18.9048 -17.6950 -16.1937 -14.9158
   -14.1597 -13.2155 -12.3876 -11.6815 -11.3144 -10.6402 -10.1532  -9.9928
    -9.8691  -9.4942  -8.8009  -8.7248  -8.5789  -8.2228  -7.7310  -6.9548
    -6.5818  -5.6757  -2.0886  -0.7613  -0.6399   0.3803   0.3918

     occupation numbers 
     1.0000   1.0000   1.0000   1.0000   1.0000   1.0000   1.0000   1.0000
     1.0000   1.0000   1.0000   1.0000   1.0000   1.0000   1.0000   1.0000
     1.0000   1.0000   1.0000   1.0000   1.0000   1.0000   1.0000   1.0000
     1.0000   1.0000   0.0000   0.0000   0.0000   0.0000   0.0000

          k = 0.0000 0.0000 0.3333 (328568 PWs)   bands (ev):

   -22.0169 -20.8359 -20.1133 -19.1691 -18.9423 -17.7149 -16.1956 -14.9437
   -14.1436 -13.1425 -12.4219 -11.6174 -11.2841 -10.5949 -10.1746  -9.9628
    -9.8633  -9.4845  -8.8248  -8.6963  -8.6329  -8.2587  -7.7859  -6.9340
    -6.6335  -5.6971  -2.0776  -0.7306  -0.6545   0.4138   0.4248

     occupation numbers 
     1.0000   1.0000   1.0000   1.0000   1.0000   1.0000   1.0000   1.0000
     1.0000   1.0000   1.0000   1.0000   1.0000   1.0000   1.0000   1.0000
     1.0000   1.0000   1.0000   1.0000   1.0000   1.0000   1.0000   1.0000
     1.0000   1.0000   0.0000   0.0000   0.0000   0.0000   0.0000

          k = 0.0000 0.0000 0.3400 (328558 PWs)   bands (ev):

   -21.9909 -20.8106 -20.1628 -19.1629 -18.9727 -17.7360 -16.1955 -14.9734
   -14.1253 -13.0712 -12.4552 -11.5533 -11.2529 -10.5501 -10.2019  -9.9323
    -9.8524  -9.4754  -8.8499  -8.6871  -8.6673  -8.2947  -7.8404  -6.9131
    -6.6846  -5.7188  -2.0658  -0.7429  -0.6262   0.4480   0.4585

     occupation numbers 
     1.0000   1.0000   1.0000   1.0000   1.0000   1.0000   1.0000   1.0000
     1.0000   1.0000   1.0000   1.0000   1.0000   1.0000   1.0000   1.0000
     1.0000   1.0000   1.0000   1.0000   1.0000   1.0000   1.0000   1.0000
     1.0000   1.0000   0.0000   0.0000   0.0000   0.0000   0.0000

          k = 0.0000 0.0000 0.3467 (328546 PWs)   bands (ev):

   -21.9644 -20.7847 -20.2118 -19.1675 -18.9914 -17.7582 -16.1935 -15.0045
   -14.1051 -13.0024 -12.4866 -11.4892 -11.2207 -10.5059 -10.2338  -9.9012
    -9.8379  -9.4672  -8.8762  -8.7413  -8.6378  -8.3309  -7.8946  -6.8925
    -6.7348  -5.7409  -2.0532  -0.7740  -0.5789   0.4828   0.4927

     occupation numbers 
     1.0000   1.0000   1.0000   1.0000   1.0000   1.0000   1.0000   1.0000
     1.0000   1.0000   1.0000   1.0000   1.0000   1.0000   1.0000   1.0000
     1.0000   1.0000   1.0000   1.0000   1.0000   1.0000   1.0000   1.0000
     1.0000   1.0000   0.0000   0.0000   0.0000   0.0000   0.0000

          k = 0.0000 0.0000 0.3533 (328616 PWs)   bands (ev):

   -21.9374 -20.7585 -20.2603 -19.1854 -18.9960 -17.7814 -16.1897 -15.0367
   -14.0834 -12.9375 -12.5146 -11.4253 -11.1878 -10.4625 -10.2690  -9.8695
    -9.8206  -9.4601  -8.9036  -8.7955  -8.6077  -8.3671  -7.9485  -6.8737
    -6.7824  -5.7634  -2.0398  -0.8090  -0.5277   0.5181   0.5275

     occupation numbers 
     1.0000   1.0000   1.0000   1.0000   1.0000   1.0000   1.0000   1.0000
     1.0000   1.0000   1.0000   1.0000   1.0000   1.0000   1.0000   1.0000
     1.0000   1.0000   1.0000   1.0000   1.0000   1.0000   1.0000   1.0000
     1.0000   1.0000   0.0000   0.0000   0.0000   0.0000   0.0000

          k = 0.0000 0.0000 0.3600 (328578 PWs)   bands (ev):

   -21.9100 -20.7317 -20.3083 -19.2144 -18.9888 -17.8057 -16.1841 -15.0698
   -14.0602 -12.8798 -12.5360 -11.3616 -11.1539 -10.4200 -10.3067  -9.8372
    -9.8014  -9.4545  -8.9322  -8.8492  -8.5771  -8.4034  -8.0021  -6.8673
    -6.8170  -5.7862  -2.0257  -0.8450  -0.4754   0.5541   0.5629

     occupation numbers 
     1.0000   1.0000   1.0000   1.0000   1.0000   1.0000   1.0000   1.0000
     1.0000   1.0000   1.0000   1.0000   1.0000   1.0000   1.0000   1.0000
     1.0000   1.0000   1.0000   1.0000   1.0000   1.0000   1.0000   1.0000
     1.0000   1.0000   0.0000   0.0000   0.0000   0.0000   0.0000

          k = 0.0000 0.0000 0.3667 (328608 PWs)   bands (ev):

   -21.8820 -20.7045 -20.3559 -19.2498 -18.9743 -17.8308 -16.1768 -15.1035
   -14.0359 -12.8347 -12.5454 -11.2982 -11.1191 -10.3794 -10.3453  -9.8044
    -9.7810  -9.4505  -8.9619  -8.9022  -8.5460  -8.4398  -8.0552  -6.8991
    -6.8128  -5.8094  -2.0107  -0.8813  -0.4227   0.5906   0.5989

     occupation numbers 
     1.0000   1.0000   1.0000   1.0000   1.0000   1.0000   1.0000   1.0000
     1.0000   1.0000   1.0000   1.0000   1.0000   1.0000   1.0000   1.0000
     1.0000   1.0000   1.0000   1.0000   1.0000   1.0000   1.0000   1.0000
     1.0000   1.0000   0.0000   0.0000   0.0000   0.0000   0.0000

          k = 0.0000 0.0000 0.3733 (328612 PWs)   bands (ev):

   -21.8535 -20.6770 -20.4029 -19.2887 -18.9556 -17.8568 -16.1679 -15.1377
   -14.0105 -12.8095 -12.5352 -11.2352 -11.0834 -10.3886 -10.3366  -9.7710
    -9.7599  -9.4484  -8.9928  -8.9539  -8.5143  -8.4762  -8.1080  -6.9453
    -6.7935  -5.8329  -1.9949  -0.9177  -0.3697   0.6277   0.6354

     occupation numbers 
     1.0000   1.0000   1.0000   1.0000   1.0000   1.0000   1.0000   1.0000
     1.0000   1.0000   1.0000   1.0000   1.0000   1.0000   1.0000   1.0000
     1.0000   1.0000   1.0000   1.0000   1.0000   1.0000   1.0000   1.0000
     1.0000   1.0000   0.0000   0.0000   0.0000   0.0000   0.0000

          k = 0.0000 0.0000 0.3800 (328606 PWs)   bands (ev):

   -21.8246 -20.6492 -20.4492 -19.3294 -18.9343 -17.8836 -16.1574 -15.1722
   -13.9842 -12.8070 -12.5030 -11.1728 -11.0468 -10.4301 -10.2980  -9.7386
    -9.7370  -9.4485  -9.0253  -9.0031  -8.5127  -8.4822  -8.1604  -6.9935
    -6.7716  -5.8567  -1.9784  -0.9540  -0.3166   0.6654   0.6725

     occupation numbers 
     1.0000   1.0000   1.0000   1.0000   1.0000   1.0000   1.0000   1.0000
     1.0000   1.0000   1.0000   1.0000   1.0000   1.0000   1.0000   1.0000
     1.0000   1.0000   1.0000   1.0000   1.0000   1.0000   1.0000   1.0000
     1.0000   1.0000   0.0000   0.0000   0.0000   0.0000   0.0000

          k = 0.0000 0.0000 0.3867 (328640 PWs)   bands (ev):

   -21.7951 -20.6215 -20.4945 -19.3710 -18.9114 -17.9111 -16.1454 -15.2070
   -13.9570 -12.8216 -12.4541 -11.1113 -11.0093 -10.4726 -10.2603  -9.7178
    -9.7025  -9.4507  -9.0620  -9.0467  -8.5491  -8.4495  -8.2124  -7.0420
    -6.7488  -5.8808  -1.9611  -0.9902  -0.2635   0.7036   0.7101

     occupation numbers 
     1.0000   1.0000   1.0000   1.0000   1.0000   1.0000   1.0000   1.0000
     1.0000   1.0000   1.0000   1.0000   1.0000   1.0000   1.0000   1.0000
     1.0000   1.0000   1.0000   1.0000   1.0000   1.0000   1.0000   1.0000
     1.0000   1.0000   0.0000   0.0000   0.0000   0.0000   0.0000

          k = 0.0000 0.0000 0.3933 (328582 PWs)   bands (ev):

   -21.7651 -20.5960 -20.5366 -19.4129 -18.8873 -17.9392 -16.1320 -15.2418
   -13.9291 -12.8460 -12.3960 -11.0509 -10.9708 -10.5153 -10.2241  -9.6984
    -9.6674  -9.4552  -9.1040  -9.0827  -8.5855  -8.4163  -8.2639  -7.0904
    -6.7254  -5.9052  -1.9430  -1.0262  -0.2103   0.7423   0.7482

     occupation numbers 
     1.0000   1.0000   1.0000   1.0000   1.0000   1.0000   1.0000   1.0000
     1.0000   1.0000   1.0000   1.0000   1.0000   1.0000   1.0000   1.0000
     1.0000   1.0000   1.0000   1.0000   1.0000   1.0000   1.0000   1.0000
     1.0000   1.0000   0.0000   0.0000   0.0000   0.0000   0.0000

          k = 0.0000 0.0000 0.4000 (328590 PWs)   bands (ev):

   -21.7347 -20.5978 -20.5505 -19.4550 -18.8623 -17.9678 -16.1172 -15.2767
   -13.9006 -12.8756 -12.3331 -10.9923 -10.9313 -10.5577 -10.1898  -9.6817
    -9.6318  -9.4612  -9.1454  -9.1159  -8.6218  -8.3829  -8.3148  -7.1385
    -6.7016  -5.9298  -1.9242  -1.0619  -0.1572   0.7815   0.7868

     occupation numbers 
     1.0000   1.0000   1.0000   1.0000   1.0000   1.0000   1.0000   1.0000
     1.0000   1.0000   1.0000   1.0000   1.0000   1.0000   1.0000   1.0000
     1.0000   1.0000   1.0000   1.0000   1.0000   1.0000   1.0000   1.0000
     1.0000   1.0000   0.0000   0.0000   0.0000   0.0000   0.0000

          k = 0.0000 0.0000 0.4067 (328590 PWs)   bands (ev):

   -21.7038 -20.6368 -20.5263 -19.4970 -18.8366 -17.9970 -16.1012 -15.3115
   -13.8714 -12.9082 -12.2678 -10.9370 -10.8907 -10.5984 -10.1574  -9.6702
    -9.5956  -9.4672  -9.1834  -9.1483  -8.6581  -8.3682  -8.3460  -7.1863
    -6.6776  -5.9546  -1.9046  -1.0973  -0.1040   0.8212   0.8258

     occupation numbers 
     1.0000   1.0000   1.0000   1.0000   1.0000   1.0000   1.0000   1.0000
     1.0000   1.0000   1.0000   1.0000   1.0000   1.0000   1.0000   1.0000
     1.0000   1.0000   1.0000   1.0000   1.0000   1.0000   1.0000   1.0000
     1.0000   1.0000   0.0000   0.0000   0.0000   0.0000   0.0000

          k = 0.0000 0.0000 0.4133 (328572 PWs)   bands (ev):

   -21.6724 -20.6800 -20.4969 -19.5389 -18.8103 -18.0265 -16.0839 -15.3462
   -13.8417 -12.9425 -12.2015 -10.8877 -10.8490 -10.6344 -10.1274  -9.6670
    -9.5589  -9.4704  -9.2174  -9.1796  -8.6943  -8.4169  -8.3128  -7.2337
    -6.6533  -5.9797  -1.8843  -1.1325  -0.0509   0.8613   0.8652

     occupation numbers 
     1.0000   1.0000   1.0000   1.0000   1.0000   1.0000   1.0000   1.0000
     1.0000   1.0000   1.0000   1.0000   1.0000   1.0000   1.0000   1.0000
     1.0000   1.0000   1.0000   1.0000   1.0000   1.0000   1.0000   1.0000
     1.0000   1.0000   0.0000   0.0000   0.0000   0.0000   0.0000

          k = 0.0000 0.0000 0.4200 (328568 PWs)   bands (ev):

   -21.6405 -20.7234 -20.4664 -19.5805 -18.7835 -18.0563 -16.0655 -15.3806
   -13.8114 -12.9778 -12.1347 -10.8519 -10.8066 -10.6582 -10.1000  -9.6752
    -9.5216  -9.4675  -9.2476  -9.2094  -8.7304  -8.4666  -8.2777  -7.2808
    -6.6287  -6.0049  -1.8632  -1.1673   0.0023   0.9018   0.9050

     occupation numbers 
     1.0000   1.0000   1.0000   1.0000   1.0000   1.0000   1.0000   1.0000
     1.0000   1.0000   1.0000   1.0000   1.0000   1.0000   1.0000   1.0000
     1.0000   1.0000   1.0000   1.0000   1.0000   1.0000   1.0000   1.0000
     1.0000   1.0000   0.0000   0.0000   0.0000   0.0000   0.0000

          k = 0.0000 0.0000 0.4267 (328618 PWs)   bands (ev):

   -21.6081 -20.7666 -20.4352 -19.6218 -18.7563 -18.0865 -16.0460 -15.4149
   -13.7806 -13.0136 -12.0679 -10.8426 -10.7638 -10.6564 -10.0757  -9.6958
    -9.4838  -9.4573  -9.2751  -9.2367  -8.7663  -8.5160  -8.2419  -7.3274
    -6.6040  -6.0303  -1.8415  -1.2018   0.0554   0.9427   0.9451

     occupation numbers 
     1.0000   1.0000   1.0000   1.0000   1.0000   1.0000   1.0000   1.0000
     1.0000   1.0000   1.0000   1.0000   1.0000   1.0000   1.0000   1.0000
     1.0000   1.0000   1.0000   1.0000   1.0000   1.0000   1.0000   1.0000
     1.0000   1.0000   0.0000   0.0000   0.0000   0.0000   0.0000

          k = 0.0000 0.0000 0.4333 (328620 PWs)   bands (ev):

   -21.5752 -20.8094 -20.4034 -19.6627 -18.7287 -18.1168 -16.0255 -15.4488
   -13.7494 -13.0497 -12.0015 -10.8629 -10.7201 -10.6265 -10.0549  -9.7269
    -9.4454  -9.4407  -9.3010  -9.2605  -8.8020  -8.5650  -8.2057  -7.3736
    -6.5791  -6.0558  -1.8191  -1.2358   0.1085   0.9837   0.9854

     occupation numbers 
     1.0000   1.0000   1.0000   1.0000   1.0000   1.0000   1.0000   1.0000
     1.0000   1.0000   1.0000   1.0000   1.0000   1.0000   1.0000   1.0000
     1.0000   1.0000   1.0000   1.0000   1.0000   1.0000   1.0000   1.0000
     1.0000   1.0000   0.0000   0.0000   0.0000   0.0000   0.0000

          k = 0.0000 0.0000 0.4400 (328620 PWs)   bands (ev):

   -21.5420 -20.8518 -20.3711 -19.7033 -18.7007 -18.1473 -16.0040 -15.4825
   -13.7178 -13.0861 -11.9355 -10.8997 -10.6754 -10.5821 -10.0382  -9.7656
    -9.4196  -9.4065  -9.3260  -9.2805  -8.8376  -8.6135  -8.1689  -7.4193
    -6.5540  -6.0814  -1.7960  -1.2695   0.1616   1.0249   1.0259

     occupation numbers 
     1.0000   1.0000   1.0000   1.0000   1.0000   1.0000   1.0000   1.0000
     1.0000   1.0000   1.0000   1.0000   1.0000   1.0000   1.0000   1.0000
     1.0000   1.0000   1.0000   1.0000   1.0000   1.0000   1.0000   1.0000
     1.0000   1.0000   0.0000   0.0000   0.0000   0.0000   0.0000

          k = 0.0000 0.0000 0.4467 (328642 PWs)   bands (ev):

   -21.5082 -20.8936 -20.3384 -19.7435 -18.6724 -18.1779 -15.9815 -15.5157
   -13.6858 -13.1224 -11.8702 -10.9438 -10.6296 -10.5323 -10.0262  -9.8095
    -9.3956  -9.3671  -9.3497  -9.2970  -8.8729  -8.6615  -8.1316  -7.4646
    -6.5289  -6.1071  -1.7722  -1.3027   0.2147   1.0639   1.0657

     occupation numbers 
     1.0000   1.0000   1.0000   1.0000   1.0000   1.0000   1.0000   1.0000
     1.0000   1.0000   1.0000   1.0000   1.0000   1.0000   1.0000   1.0000
     1.0000   1.0000   1.0000   1.0000   1.0000   1.0000   1.0000   1.0000
     1.0000   1.0000   0.0000   0.0000   0.0000   0.0000   0.0000

          k = 0.0000 0.0000 0.4533 (328674 PWs)   bands (ev):

   -21.4741 -20.9350 -20.3052 -19.7832 -18.6439 -18.2085 -15.9582 -15.5485
   -13.6534 -13.1587 -11.8056 -10.9916 -10.5828 -10.4811 -10.0194  -9.8569
    -9.3740  -9.3676  -9.3272  -9.3105  -8.9080  -8.7090  -8.0939  -7.5094
    -6.5036  -6.1328  -1.7478  -1.3354   0.2677   1.0118   1.1059

     occupation numbers 
     1.0000   1.0000   1.0000   1.0000   1.0000   1.0000   1.0000   1.0000
     1.0000   1.0000   1.0000   1.0000   1.0000   1.0000   1.0000   1.0000
     1.0000   1.0000   1.0000   1.0000   1.0000   1.0000   1.0000   1.0000
     1.0000   1.0000   0.0000   0.0000   0.0000   0.0000   0.0000

          k = 0.0000 0.0000 0.4600 (328654 PWs)   bands (ev):

   -21.4395 -20.9758 -20.2717 -19.8224 -18.6153 -18.2390 -15.9342 -15.5808
   -13.6207 -13.1948 -11.7418 -11.0415 -10.5352 -10.4299 -10.0183  -9.9065
    -9.3907  -9.3465  -9.3184  -9.2868  -8.9428  -8.7560  -8.0558  -7.5537
    -6.4783  -6.1585  -1.7229  -1.3676   0.3206   0.9596   1.1454

     occupation numbers 
     1.0000   1.0000   1.0000   1.0000   1.0000   1.0000   1.0000   1.0000
     1.0000   1.0000   1.0000   1.0000   1.0000   1.0000   1.0000   1.0000
     1.0000   1.0000   1.0000   1.0000   1.0000   1.0000   1.0000   1.0000
     1.0000   1.0000   0.0000   0.0000   0.0000   0.0000   0.0000

          k = 0.0000 0.0000 0.4667 (328662 PWs)   bands (ev):

   -21.4047 -21.0159 -20.2380 -19.8611 -18.5866 -18.2694 -15.9094 -15.6124
   -13.5878 -13.2307 -11.6789 -11.0931 -10.4869 -10.3798 -10.0234  -9.9574
    -9.4060  -9.3421  -9.3051  -9.2460  -8.9772  -8.8024  -8.0172  -7.5975
    -6.4530  -6.1841  -1.6975  -1.3992   0.3734   0.9073   1.1838

     occupation numbers 
     1.0000   1.0000   1.0000   1.0000   1.0000   1.0000   1.0000   1.0000
     1.0000   1.0000   1.0000   1.0000   1.0000   1.0000   1.0000   1.0000
     1.0000   1.0000   1.0000   1.0000   1.0000   1.0000   1.0000   1.0000
     1.0000   1.0000   0.0000   0.0000   0.0000   0.0000   0.0000

          k = 0.0000 0.0000 0.4733 (328674 PWs)   bands (ev):

   -21.3696 -21.0553 -20.2040 -19.8990 -18.5580 -18.2993 -15.8841 -15.6434
   -13.5548 -13.2662 -11.6172 -11.1457 -10.4380 -10.3316 -10.0348 -10.0085
    -9.4178  -9.3493  -9.2780  -9.2048  -9.0111  -8.8481  -7.9783  -7.6406
    -6.4279  -6.2095  -1.6716  -1.4300   0.4261   0.8551   1.2203

     occupation numbers 
     1.0000   1.0000   1.0000   1.0000   1.0000   1.0000   1.0000   1.0000
     1.0000   1.0000   1.0000   1.0000   1.0000   1.0000   1.0000   1.0000
     1.0000   1.0000   1.0000   1.0000   1.0000   1.0000   1.0000   1.0000
     1.0000   1.0000   0.0000   0.0000   0.0000   0.0000   0.0000

          k = 0.0000 0.0000 0.4800 (328684 PWs)   bands (ev):

   -21.3346 -21.0937 -20.1702 -19.9359 -18.5300 -18.3284 -15.8585 -15.6734
   -13.5219 -13.3010 -11.5568 -11.1992 -10.3889 -10.2863 -10.0621 -10.0492
    -9.4261  -9.3568  -9.2486  -9.1634  -9.0444  -8.8931  -7.9393  -7.6830
    -6.4032  -6.2345  -1.6457  -1.4599   0.4784   0.8031   1.2536

     occupation numbers 
     1.0000   1.0000   1.0000   1.0000   1.0000   1.0000   1.0000   1.0000
     1.0000   1.0000   1.0000   1.0000   1.0000   1.0000   1.0000   1.0000
     1.0000   1.0000   1.0000   1.0000   1.0000   1.0000   1.0000   1.0000
     1.0000   1.0000   0.0000   0.0000   0.0000   0.0000   0.0000

          k = 0.0000 0.0000 0.4867 (328680 PWs)   bands (ev):

   -21.3005 -21.1302 -20.1373 -19.9710 -18.5033 -18.3557 -15.8332 -15.7018
   -13.4898 -13.3344 -11.4983 -11.2527 -10.3402 -10.2456 -10.1107 -10.0712
    -9.4314  -9.3627  -9.2191  -9.1222  -9.0764  -8.9369  -7.9005  -7.7241
    -6.3796  -6.2582  -1.6202  -1.4882   0.5300   0.7518   1.2816

     occupation numbers 
     1.0000   1.0000   1.0000   1.0000   1.0000   1.0000   1.0000   1.0000
     1.0000   1.0000   1.0000   1.0000   1.0000   1.0000   1.0000   1.0000
     1.0000   1.0000   1.0000   1.0000   1.0000   1.0000   1.0000   1.0000
     1.0000   1.0000   0.0000   0.0000   0.0000   0.0000   0.0000

          k = 0.0000 0.0000 0.4933 (328682 PWs)   bands (ev):

   -21.2697 -21.1624 -20.1079 -20.0017 -18.4809 -18.3786 -15.8105 -15.7264
   -13.4608 -13.3643 -11.4442 -11.3038 -10.2949 -10.2153 -10.1534 -10.0929
    -9.4342  -9.3666  -9.1916  -9.1054  -9.0830  -8.9776  -7.8640  -7.7621
    -6.3592  -6.2788  -1.5973  -1.5128   0.5787   0.7031   1.3012

     occupation numbers 
     1.0000   1.0000   1.0000   1.0000   1.0000   1.0000   1.0000   1.0000
     1.0000   1.0000   1.0000   1.0000   1.0000   1.0000   1.0000   1.0000
     1.0000   1.0000   1.0000   1.0000   1.0000   1.0000   1.0000   1.0000
     1.0000   1.0000   0.0000   0.0000   0.0000   0.0000   0.0000

          k = 0.0000 0.0000-0.5000 (328638 PWs)   bands (ev):

   -21.2541 -21.1786 -20.0932 -20.0169 -18.4707 -18.3890 -15.7990 -15.7386
   -13.4457 -13.3797 -11.4128 -11.3342 -10.2695 -10.2097 -10.1695 -10.1042
    -9.4350  -9.3679  -9.1766  -9.1208  -9.0596  -9.0015  -7.8427  -7.7838
    -6.3494  -6.2886  -1.5858  -1.5249   0.6084   0.6735   1.3083

     occupation numbers 
     1.0000   1.0000   1.0000   1.0000   1.0000   1.0000   1.0000   1.0000
     1.0000   1.0000   1.0000   1.0000   1.0000   1.0000   1.0000   1.0000
     1.0000   1.0000   1.0000   1.0000   1.0000   1.0000   1.0000   1.0000
     1.0000   1.0000   0.0000   0.0000   0.0000   0.0000   0.0000

     the Fermi energy is    -3.7823 ev
     (compare with:    -3.7780 eV, computed in scf)

     Writing all to output data dir ../tmp/AGNR.save/ :
     XML data file, pseudopotentials, collected wavefunctions
 
     init_run     :     11.22s CPU     12.03s WALL (       1 calls)
     electrons    :   2095.09s CPU   2130.47s WALL (       1 calls)

     Called by init_run:
     wfcinit      :      0.00s CPU      0.00s WALL (       1 calls)
     wfcinit:wfcr :     73.82s CPU     74.75s WALL (      76 calls)
     potinit      :      1.62s CPU      1.98s WALL (       1 calls)
     hinit0       :      0.34s CPU      0.42s WALL (       1 calls)

     Called by electrons:
     c_bands      :   2095.09s CPU   2130.45s WALL (       1 calls)
     v_of_rho     :      1.19s CPU      1.42s WALL (       1 calls)
     v_h          :      0.13s CPU      0.17s WALL (       1 calls)
     v_xc         :      1.06s CPU      1.24s WALL (       1 calls)
     newd         :      0.84s CPU      1.05s WALL (       1 calls)
     PAW_pot      :      0.05s CPU      0.05s WALL (       1 calls)

     Called by c_bands:
     init_us_2    :      2.87s CPU      2.92s WALL (      76 calls)
     cegterg      :   2015.27s CPU   2048.97s WALL (     208 calls)

     Called by sum_band:

     Called by *egterg:
     cdiaghg      :     18.84s CPU     18.96s WALL (    3523 calls)
     cegterg:over :    129.14s CPU    130.02s WALL (    3447 calls)
     cegterg:upda :    125.53s CPU    128.77s WALL (    3447 calls)
     cegterg:last :     31.49s CPU     31.67s WALL (     360 calls)
     h_psi        :   1683.29s CPU   1708.27s WALL (    3731 calls)
     s_psi        :     69.59s CPU     70.03s WALL (    3731 calls)
     g_psi        :      5.95s CPU      6.03s WALL (    3447 calls)

     Called by h_psi:
     h_psi:calbec :     54.44s CPU     54.80s WALL (    3731 calls)
     vloc_psi     :   1548.29s CPU   1568.89s WALL (    3731 calls)
     add_vuspsi   :     69.30s CPU     69.71s WALL (    3731 calls)

     General routines
     calbec       :     54.40s CPU     54.77s WALL (    3731 calls)
     fft          :      1.03s CPU      1.21s WALL (      13 calls)
     ffts         :      0.02s CPU      0.02s WALL (       1 calls)
     fftw         :    733.79s CPU    743.44s WALL (  112946 calls)
     interpolate  :      0.09s CPU      0.12s WALL (       1 calls)
     davcio       :      0.02s CPU      0.92s WALL (     152 calls)
 
     Parallel routines

     PAW routines
     PAW_pot      :      0.05s CPU      0.05s WALL (       1 calls)
 
     PWSCF        :  35m14.29s CPU  38m 4.55s WALL

 
   This run was terminated on:   5:47:22   6Jan2026            

=------------------------------------------------------------------------------=
   JOB DONE.
=------------------------------------------------------------------------------=
