C  H 
 1.0000000000000000
     0.0000000000000000    0.0000000000000000    4.2859656153173900
    40.6425590093328424    0.0000000000000000    0.0000000000000000
     0.0000000000000000   30.0883046097560971    0.0000000000000000
 C   H  
  16   4
Cartesian
 23.3456910190119657 15.0000000000000000  0.0000000000000000
 24.5793115738264554 15.0000000000000000  0.7122311594000000
 24.5793115738264554 15.0000000000000000  2.1366934782000002
 23.3456910190119657 15.0000000000000000  2.8489246376000001
 20.8784499093829936 15.0000000000000000  0.0000000000000000
 22.1120704641974797 15.0000000000000000  0.7122311594000000
 22.1120704641974797 15.0000000000000000  2.1366934782000002
 20.8784499093829936 15.0000000000000000  2.8489246376000001
 18.4112087997540144 15.0000000000000000  0.0000000000000000
 19.6448293545685040 15.0000000000000000  0.7122311594000000
 19.6448293545685040 15.0000000000000000  2.1366934782000002
 18.4112087997540144 15.0000000000000000  2.8489246376000001
 15.9439676901250404 15.0000000000000000  0.0000000000000000
 17.1775882449395283 15.0000000000000000  0.7122311594000000
 17.1775882449395283 15.0000000000000000  2.1366934782000002
 15.9439676901250404 15.0000000000000000  2.8489246376000001
 15.0000000000000018 15.0000000000000000  0.5450000000000000
 15.0000000000000018 15.0000000000000000  2.3039246376000002
 25.5232792639514940 15.0000000000000000  0.1672311594000000
 25.5232792639514940 15.0000000000000000  2.6816934782000001
