
     Program PWSCF v.7.4.1 starts on 31Dec2025 at  3:12:31 

     This program is part of the open-source Quantum ESPRESSO suite
     for quantum simulation of materials; please cite
         "P. Giannozzi et al., J. Phys.:Condens. Matter 21 395502 (2009);
         "P. Giannozzi et al., J. Phys.:Condens. Matter 29 465901 (2017);
         "P. Giannozzi et al., J. Chem. Phys. 152 154105 (2020);
          URL http://www.quantum-espresso.org", 
     in publications or presentations arising from this work. More details at
     http://www.quantum-espresso.org/quote

     Parallel version (MPI), running on    20 processors

     MPI processes distributed on     1 nodes
     84453 MiB available memory on the printing compute node when the environment starts
 
     Reading input from 1-agnr_scf.in

     Current dimensions of program PWSCF are:
     Max number of different atomic species (ntypx) = 10
     Max number of k-points (npk) =  40000
     Max angular momentum in pseudopotentials (lmaxx) =  4
     file C.pbe-n-kjpaw_psl.1.0.0.UPF: wavefunction(s)  2S 2P renormalized
     file H.pbe-kjpaw_psl.1.0.0.UPF: wavefunction(s)  1S renormalized
 
     R & G space division:  proc/nbgrp/npool/nimage =      20
     Subspace diagonalization in iterative solution of the eigenvalue problem:
     a serial algorithm will be used

 
     Parallelization info
     --------------------
     sticks:   dense  smooth     PW     G-vecs:    dense   smooth      PW
     Min        1416     567    155               451990   114393   16381
     Max        1417     568    156               451997   114400   16388
     Sum       28333   11345   3117              9039883  2287895  327715
 
     Using Slab Decomposition
 


     bravais-lattice index     =            0
     lattice parameter (alat)  =       8.0993  a.u.
     unit-cell volume          =   28908.8086 (a.u.)^3
     number of atoms/cell      =            8
     number of atomic types    =            2
     number of electrons       =        20.00
     number of Kohn-Sham states=           14
     kinetic-energy cutoff     =      70.0000  Ry
     charge density cutoff     =     700.0000  Ry
     scf convergence threshold =      1.0E-08
     mixing beta               =       0.5000
     number of iterations used =            8  plain     mixing
     Exchange-correlation= SLA  PW   PBX  PBC
                           (   1   4   3   4   0   0   0)

     celldm(1)=   8.099301  celldm(2)=   0.000000  celldm(3)=   0.000000
     celldm(4)=   0.000000  celldm(5)=   0.000000  celldm(6)=   0.000000

     crystal axes: (cart. coord. in units of alat)
               a(1) = (   0.000000   0.000000   1.000000 )  
               a(2) = (   7.750657   0.000000   0.000000 )  
               a(3) = (   0.000000   7.020193   0.000000 )  

     reciprocal axes: (cart. coord. in units 2 pi/alat)
               b(1) = (  0.000000  0.000000  1.000000 )  
               b(2) = (  0.129021  0.000000  0.000000 )  
               b(3) = (  0.000000  0.142446  0.000000 )  


     PseudoPot. # 1 for C  read from file:
     ../../../PP_C/C.pbe-n-kjpaw_psl.1.0.0.UPF
     MD5 check sum: 5f16ad9a65e90284d1d834d4ab3b0f7d
     Pseudo is Projector augmented-wave + core cor, Zval =  4.0
     Generated using &quot;atomic&quot; code by A. Dal Corso  v.6.3
     Shape of augmentation charge: PSQ
     Using radial grid of 1073 points,  4 beta functions with: 
                l(1) =   0
                l(2) =   0
                l(3) =   1
                l(4) =   1
     Q(r) pseudized with 0 coefficients 


     PseudoPot. # 2 for H  read from file:
     ../../../PP_C/H.pbe-kjpaw_psl.1.0.0.UPF
     MD5 check sum: d81a744832360e4a8af0b0b5b123bc2a
     Pseudo is Projector augmented-wave, Zval =  1.0
     Generated using &quot;atomic&quot; code by A. Dal Corso  v.6.3MaX
     Shape of augmentation charge: PSQ
     Using radial grid of  929 points,  2 beta functions with: 
                l(1) =   0
                l(2) =   0
     Q(r) pseudized with 0 coefficients 


     atomic species   valence    mass     pseudopotential
     C                 4.00    12.01100     C ( 1.00)
     H                 1.00     1.00790     H ( 1.00)

     No symmetry found


                                    s                        frac. trans.

      isym =  1     identity                                     

 cryst.   s( 1) = (     1          0          0      )
                  (     0          1          0      )
                  (     0          0          1      )

 cart.    s( 1) = (  1.0000000  0.0000000  0.0000000 )
                  (  0.0000000  1.0000000  0.0000000 )
                  (  0.0000000  0.0000000  1.0000000 )


   Cartesian axes

     site n.     atom                  positions (alat units)
         1        C      tau(   1) = (   3.7200410   3.4997948   0.0000000  )
         2        C      tau(   2) = (   4.0078689   3.4997948   0.1661775  )
         3        C      tau(   3) = (   4.0078689   3.4997948   0.4985326  )
         4        C      tau(   4) = (   3.7200410   3.4997948   0.6647101  )
         5        H      tau(   5) = (   3.4997948   3.4997948   0.1271592  )
         6        H      tau(   6) = (   3.4997948   3.4997948   0.5375509  )
         7        H      tau(   7) = (   4.2281151   3.4997948   0.0390183  )
         8        H      tau(   8) = (   4.2281151   3.4997948   0.6256918  )

   Crystallographic axes

     site n.     atom                  positions (cryst. coord.)
         1        C      tau(   1) = (  0.0000000  0.4799646  0.4985326  )
         2        C      tau(   2) = (  0.1661775  0.5171005  0.4985326  )
         3        C      tau(   3) = (  0.4985326  0.5171005  0.4985326  )
         4        C      tau(   4) = (  0.6647101  0.4799646  0.4985326  )
         5        H      tau(   5) = (  0.1271592  0.4515481  0.4985326  )
         6        H      tau(   6) = (  0.5375509  0.4515481  0.4985326  )
         7        H      tau(   7) = (  0.0390183  0.5455170  0.4985326  )
         8        H      tau(   8) = (  0.6256918  0.5455170  0.4985326  )

     number of k points=     7  Gaussian smearing, width (Ry)=  0.0020
                       cart. coord. in units 2pi/alat
        k(    1) = (   0.0000000   0.0000000   0.0000000), wk =   0.1666667
        k(    2) = (   0.0000000   0.0000000   0.0833333), wk =   0.3333333
        k(    3) = (   0.0000000   0.0000000   0.1666667), wk =   0.3333333
        k(    4) = (   0.0000000   0.0000000   0.2500000), wk =   0.3333333
        k(    5) = (   0.0000000   0.0000000   0.3333333), wk =   0.3333333
        k(    6) = (   0.0000000   0.0000000   0.4166667), wk =   0.3333333
        k(    7) = (   0.0000000   0.0000000  -0.5000000), wk =   0.1666667

                       cryst. coord.
        k(    1) = (   0.0000000   0.0000000   0.0000000), wk =   0.1666667
        k(    2) = (   0.0833333   0.0000000   0.0000000), wk =   0.3333333
        k(    3) = (   0.1666667   0.0000000   0.0000000), wk =   0.3333333
        k(    4) = (   0.2500000   0.0000000   0.0000000), wk =   0.3333333
        k(    5) = (   0.3333333   0.0000000   0.0000000), wk =   0.3333333
        k(    6) = (   0.4166667   0.0000000   0.0000000), wk =   0.3333333
        k(    7) = (  -0.5000000   0.0000000   0.0000000), wk =   0.1666667

     Dense  grid:  9039883 G-vectors     FFT dimensions: (  72, 540, 480)

     Smooth grid:  2287895 G-vectors     FFT dimensions: (  45, 360, 320)

     Dynamical RAM for                 wfc:       3.05 MB

     Dynamical RAM for     wfc (w. buffer):      24.43 MB

     Dynamical RAM for           str. fact:      13.79 MB

     Dynamical RAM for           local pot:       0.00 MB

     Dynamical RAM for          nlocal pot:       8.72 MB

     Dynamical RAM for                qrad:       1.21 MB

     Dynamical RAM for          rho,v,vnew:      42.05 MB

     Dynamical RAM for               rhoin:      14.02 MB

     Dynamical RAM for            rho*nmix:     110.35 MB

     Dynamical RAM for           G-vectors:      26.74 MB

     Dynamical RAM for          h,s,v(r/c):       0.04 MB

     Dynamical RAM for          <psi|beta>:       0.01 MB

     Dynamical RAM for                 psi:       6.11 MB

     Dynamical RAM for                hpsi:       6.11 MB

     Dynamical RAM for                spsi:       6.11 MB

     Dynamical RAM for      wfcinit/wfcrot:       6.11 MB

     Dynamical RAM for           addusdens:     324.16 MB

     Dynamical RAM for          addusforce:     368.99 MB

     Dynamical RAM for         addusstress:     344.85 MB

     Estimated static dynamical RAM per process >     187.25 MB

     Estimated max dynamical RAM per process >     666.59 MB

     Estimated total dynamical RAM >      13.02 GB

     Initial potential from superposition of free atoms

     starting charge      19.9998, renormalised to      20.0000

     negative rho (up, down):  5.473E-04 0.000E+00
     Starting wfcs are random
     Checking if some PAW data can be deallocated... 
       PAW data deallocated on    8 nodes for type:  1
       PAW data deallocated on   12 nodes for type:  2

     total cpu time spent up to now is       10.3 secs

     per-process dynamical memory:   218.1 Mb

     Self-consistent Calculation

     iteration #  1     ecut=    70.00 Ry     beta= 0.50
     Davidson diagonalization with overlap

---- Real-time Memory Report at c_bands before calling an iterative solver
           539 MiB given to the printing process from OS
           215 MiB allocation reported by mallinfo(arena+hblkhd)
         79346 MiB available memory on the node where the printing process lives
------------------
     ethr =  1.00E-02,  avg # of iterations = 14.0

     negative rho (up, down):  4.213E-04 0.000E+00

     total cpu time spent up to now is       37.9 secs

     total energy              =     -78.31117458 Ry
     estimated scf accuracy    <       0.77806356 Ry

     iteration #  2     ecut=    70.00 Ry     beta= 0.50
     Davidson diagonalization with overlap

---- Real-time Memory Report at c_bands before calling an iterative solver
           659 MiB given to the printing process from OS
           308 MiB allocation reported by mallinfo(arena+hblkhd)
         77436 MiB available memory on the node where the printing process lives
------------------
     ethr =  3.89E-03,  avg # of iterations =  2.0

     negative rho (up, down):  5.456E-04 0.000E+00

     total cpu time spent up to now is       47.1 secs

     total energy              =     -78.38681940 Ry
     estimated scf accuracy    <       0.05339466 Ry

     iteration #  3     ecut=    70.00 Ry     beta= 0.50
     Davidson diagonalization with overlap

---- Real-time Memory Report at c_bands before calling an iterative solver
           663 MiB given to the printing process from OS
           312 MiB allocation reported by mallinfo(arena+hblkhd)
         76774 MiB available memory on the node where the printing process lives
------------------
     ethr =  2.67E-04,  avg # of iterations =  6.3

     negative rho (up, down):  6.666E-04 0.000E+00

     total cpu time spent up to now is       58.8 secs

     total energy              =     -78.39010507 Ry
     estimated scf accuracy    <       0.00725211 Ry

     iteration #  4     ecut=    70.00 Ry     beta= 0.50
     Davidson diagonalization with overlap

---- Real-time Memory Report at c_bands before calling an iterative solver
           667 MiB given to the printing process from OS
           315 MiB allocation reported by mallinfo(arena+hblkhd)
         76763 MiB available memory on the node where the printing process lives
------------------
     ethr =  3.63E-05,  avg # of iterations = 10.6

     negative rho (up, down):  6.739E-04 0.000E+00

     total cpu time spent up to now is       71.6 secs

     total energy              =     -78.39107704 Ry
     estimated scf accuracy    <       0.00065945 Ry

     iteration #  5     ecut=    70.00 Ry     beta= 0.50
     Davidson diagonalization with overlap

---- Real-time Memory Report at c_bands before calling an iterative solver
           671 MiB given to the printing process from OS
           319 MiB allocation reported by mallinfo(arena+hblkhd)
         76674 MiB available memory on the node where the printing process lives
------------------
     c_bands:  1 eigenvalues not converged
     c_bands:  1 eigenvalues not converged
     ethr =  3.30E-06,  avg # of iterations = 12.7

     negative rho (up, down):  6.820E-04 0.000E+00

     total cpu time spent up to now is       85.7 secs

     total energy              =     -78.39122410 Ry
     estimated scf accuracy    <       0.00004086 Ry

     iteration #  6     ecut=    70.00 Ry     beta= 0.50
     Davidson diagonalization with overlap

---- Real-time Memory Report at c_bands before calling an iterative solver
           675 MiB given to the printing process from OS
           322 MiB allocation reported by mallinfo(arena+hblkhd)
         76596 MiB available memory on the node where the printing process lives
------------------
     c_bands:  1 eigenvalues not converged
     ethr =  2.04E-07,  avg # of iterations =  5.3

     negative rho (up, down):  6.864E-04 0.000E+00

     total cpu time spent up to now is       96.6 secs

     total energy              =     -78.39121560 Ry
     estimated scf accuracy    <       0.00004304 Ry

     iteration #  7     ecut=    70.00 Ry     beta= 0.50
     Davidson diagonalization with overlap

---- Real-time Memory Report at c_bands before calling an iterative solver
           679 MiB given to the printing process from OS
           326 MiB allocation reported by mallinfo(arena+hblkhd)
         76579 MiB available memory on the node where the printing process lives
------------------
     ethr =  2.04E-07,  avg # of iterations =  2.0

     negative rho (up, down):  6.876E-04 0.000E+00

     total cpu time spent up to now is      106.5 secs

     total energy              =     -78.39122702 Ry
     estimated scf accuracy    <       0.00000421 Ry

     iteration #  8     ecut=    70.00 Ry     beta= 0.50
     Davidson diagonalization with overlap

---- Real-time Memory Report at c_bands before calling an iterative solver
           683 MiB given to the printing process from OS
           329 MiB allocation reported by mallinfo(arena+hblkhd)
         76498 MiB available memory on the node where the printing process lives
------------------
     ethr =  2.11E-08,  avg # of iterations =  2.0

     negative rho (up, down):  6.877E-04 0.000E+00

     total cpu time spent up to now is      116.3 secs

     total energy              =     -78.39122791 Ry
     estimated scf accuracy    <       0.00000007 Ry

     iteration #  9     ecut=    70.00 Ry     beta= 0.50
     Davidson diagonalization with overlap

---- Real-time Memory Report at c_bands before calling an iterative solver
           687 MiB given to the printing process from OS
           333 MiB allocation reported by mallinfo(arena+hblkhd)
         76049 MiB available memory on the node where the printing process lives
------------------
     ethr =  3.66E-10,  avg # of iterations =  2.7

     negative rho (up, down):  6.880E-04 0.000E+00

     total cpu time spent up to now is      126.1 secs

     End of self-consistent calculation

          k = 0.0000 0.0000 0.0000 (285921 PWs)   bands (ev):

   -20.7216 -16.6333 -15.7008 -13.0810 -11.5507 -11.3705  -8.9697  -8.8071
    -7.7266  -4.0152  -3.4129  -0.6491  -0.3867   0.0118

     occupation numbers 
     1.0000   1.0000   1.0000   1.0000   1.0000   1.0000   1.0000   1.0000
     1.0000   1.0000   0.0000   0.0000   0.0000   0.0000

          k = 0.0000 0.0000 0.0833 (285883 PWs)   bands (ev):

   -20.6825 -16.8214 -15.6460 -12.8655 -11.7643 -11.2747  -8.8722  -8.7629
    -7.8230  -4.3852  -3.0791  -0.5880  -0.3346   0.0692

     occupation numbers 
     1.0000   1.0000   1.0000   1.0000   1.0000   1.0000   1.0000   1.0000
     1.0000   1.0000   0.0000   0.0000   0.0000   0.0000

          k = 0.0000 0.0000 0.1667 (285837 PWs)   bands (ev):

   -20.5657 -17.2659 -15.5063 -12.3187 -12.1929 -11.1192  -8.6758  -8.6308
    -8.0908  -4.9726  -2.5855  -0.4091  -0.1786   0.2399

     occupation numbers 
     1.0000   1.0000   1.0000   1.0000   1.0000   1.0000   1.0000   1.0000
     1.0000   1.0000   0.0000   0.0000   0.0000   0.0000

          k = 0.0000 0.0000 0.2500 (285760 PWs)   bands (ev):

   -20.3719 -17.8064 -15.2953 -12.7108 -11.6013 -10.9023  -8.5465  -8.4790
    -8.4124  -5.5870  -2.0853  -0.1217   0.0805   0.5231

     occupation numbers 
     1.0000   1.0000   1.0000   1.0000   1.0000   1.0000   1.0000   1.0000
     1.0000   1.0000   0.0000   0.0000   0.0000   0.0000

          k = 0.0000 0.0000 0.3333 (285956 PWs)   bands (ev):

   -20.1031 -18.3573 -15.0129 -13.2484 -10.8247 -10.6157  -8.9311  -8.6021
    -8.1107  -6.1899  -1.5733   0.2653   0.4432   0.6964

     occupation numbers 
     1.0000   1.0000   1.0000   1.0000   1.0000   1.0000   1.0000   1.0000
     1.0000   1.0000   0.0000   0.0000   0.0000   0.0000

          k = 0.0000 0.0000 0.4167 (285986 PWs)   bands (ev):

   -19.7623 -18.8779 -14.6606 -13.7657 -10.2631 -10.0678  -9.3996  -8.8911
    -7.7302  -6.7580  -1.0358   0.1324   0.7406   0.9073

     occupation numbers 
     1.0000   1.0000   1.0000   1.0000   1.0000   1.0000   1.0000   1.0000
     1.0000   1.0000   0.0000   0.0000   0.0000   0.0000

          k = 0.0000 0.0000-0.5000 (286006 PWs)   bands (ev):

   -19.3890 -19.3126 -14.2706 -14.2125  -9.8778  -9.8273  -9.4318  -9.3656
    -7.3045  -7.2473  -0.4940  -0.4351   1.2361   1.2427

     occupation numbers 
     1.0000   1.0000   1.0000   1.0000   1.0000   1.0000   1.0000   1.0000
     1.0000   1.0000   0.0000   0.0000   0.0000   0.0000

     the Fermi energy is    -3.7607 ev

!    total energy              =     -78.39122793 Ry
     total all-electron energy =      -309.447599 Ry
     estimated scf accuracy    <          9.9E-09 Ry
     smearing contrib. (-TS)   =      -0.00000000 Ry
     internal energy E=F+TS    =     -78.39122793 Ry

     The total energy is F=E-TS. E is the sum of the following terms:
     one-electron contribution =    -397.97403270 Ry
     hartree contribution      =     201.52215750 Ry
     xc contribution           =     -21.18968950 Ry
     ewald contribution        =     163.91786060 Ry
     one-center paw contrib.   =     -24.66752384 Ry
      -> PAW hartree energy AE =       8.89167945 Ry
      -> PAW hartree energy PS =      -8.88318946 Ry
      -> PAW xc energy AE      =     -10.53029187 Ry
      -> PAW xc energy PS      =       4.35515948 Ry
      -> total E_H with PAW    =     201.53064749 Ry
      -> total E_XC with PAW   =     -27.36482189 Ry

     convergence has been achieved in   9 iterations

     negative rho (up, down):  6.880E-04 0.000E+00

     Forces acting on atoms (cartesian axes, Ry/au):

     atom    1 type  1   force =     0.03202390   -0.00000716   -0.09970261
     atom    2 type  1   force =    -0.03202347   -0.00000582    0.08181446
     atom    3 type  1   force =    -0.03202064   -0.00000630   -0.08181016
     atom    4 type  1   force =     0.03202266   -0.00000722    0.09970736
     atom    5 type  2   force =     0.00274870    0.00000628   -0.01104873
     atom    6 type  2   force =     0.00274325    0.00000658    0.01104384
     atom    7 type  2   force =    -0.00274566    0.00000686    0.00982443
     atom    8 type  2   force =    -0.00274873    0.00000678   -0.00982858
     The non-local contrib.  to forces
     atom    1 type  1   force =     0.03162050   -0.00000130   -0.05584678
     atom    2 type  1   force =    -0.03189650   -0.00000364    0.03601069
     atom    3 type  1   force =    -0.03190223   -0.00000331   -0.03601577
     atom    4 type  1   force =     0.03160876   -0.00000503    0.05584307
     atom    5 type  2   force =     0.06703453   -0.00000004   -0.03784109
     atom    6 type  2   force =     0.06703448    0.00000000    0.03784108
     atom    7 type  2   force =    -0.06700551    0.00000003    0.03783436
     atom    8 type  2   force =    -0.06700550    0.00000001   -0.03783437
     The ionic contribution  to forces
     atom    1 type  1   force =    -4.64000631   -0.00000000    0.72961810
     atom    2 type  1   force =     4.63987226   -0.00000000   -0.84803705
     atom    3 type  1   force =     4.63987226   -0.00000000    0.84803705
     atom    4 type  1   force =    -4.64000631   -0.00000000   -0.72961810
     atom    5 type  2   force =    -3.19376619   -0.00000000    0.79222952
     atom    6 type  2   force =    -3.19376619   -0.00000000   -0.79222952
     atom    7 type  2   force =     3.19390025   -0.00000000   -0.80428046
     atom    8 type  2   force =     3.19390025   -0.00000000    0.80428046
     The local contribution  to forces
     atom    1 type  1   force =     4.63978226    0.00000177   -0.77390816
     atom    2 type  1   force =    -4.63936642    0.00000757    0.89364712
     atom    3 type  1   force =    -4.63935243    0.00000621   -0.89364813
     atom    4 type  1   force =     4.63979409    0.00000695    0.77391914
     atom    5 type  2   force =     3.12946090   -0.00000044   -0.76542639
     atom    6 type  2   force =     3.12945158    0.00000018    0.76542144
     atom    7 type  2   force =    -3.12962214    0.00000072    0.77626093
     atom    8 type  2   force =    -3.12962657    0.00000046   -0.77626380
     The core correction contribution to forces
     atom    1 type  1   force =     0.00058475   -0.00001448    0.00046847
     atom    2 type  1   force =    -0.00059233   -0.00001440    0.00016385
     atom    3 type  1   force =    -0.00059236   -0.00001438   -0.00015396
     atom    4 type  1   force =     0.00058506   -0.00001453   -0.00046161
     atom    5 type  2   force =     0.00000000    0.00000000    0.00000000
     atom    6 type  2   force =     0.00000000    0.00000000    0.00000000
     atom    7 type  2   force =     0.00000000    0.00000000    0.00000000
     atom    8 type  2   force =     0.00000000    0.00000000    0.00000000
     The Hubbard contrib.    to forces
     atom    1 type  1   force =     0.00000000    0.00000000    0.00000000
     atom    2 type  1   force =     0.00000000    0.00000000    0.00000000
     atom    3 type  1   force =     0.00000000    0.00000000    0.00000000
     atom    4 type  1   force =     0.00000000    0.00000000    0.00000000
     atom    5 type  2   force =     0.00000000    0.00000000    0.00000000
     atom    6 type  2   force =     0.00000000    0.00000000    0.00000000
     atom    7 type  2   force =     0.00000000    0.00000000    0.00000000
     atom    8 type  2   force =     0.00000000    0.00000000    0.00000000
     The SCF correction term to forces
     atom    1 type  1   force =     0.00004094    0.00000039   -0.00003327
     atom    2 type  1   force =    -0.00004224   -0.00000180    0.00003082
     atom    3 type  1   force =    -0.00004764   -0.00000127   -0.00002839
     atom    4 type  1   force =     0.00003931   -0.00000107    0.00002583
     atom    5 type  2   force =     0.00001771    0.00000031   -0.00000980
     atom    6 type  2   force =     0.00002164   -0.00000005    0.00001181
     atom    7 type  2   force =    -0.00002001   -0.00000035    0.00001056
     atom    8 type  2   force =    -0.00001866   -0.00000014   -0.00000990

     Total force =     0.194519     Total SCF correction =     0.000113


     Computing stress (Cartesian axis) and pressure


     negative rho (up, down):  6.880E-04 0.000E+00
          total   stress  (Ry/bohr**3)                   (kbar)     P=       -0.52
  -0.00000637   0.00000000  -0.00000000           -0.94        0.00       -0.00
   0.00000000  -0.00000007   0.00000000            0.00       -0.01        0.00
  -0.00000000   0.00000000  -0.00000421           -0.00        0.00       -0.62

     kinetic stress (kbar)    106.63      0.00     -0.00
                                0.00    121.98      0.00
                               -0.00      0.00    108.91

     local   stress (kbar)   -183.64     -0.00     -0.00
                               -0.00    150.94      0.00
                               -0.00      0.00  -2146.69

     nonloc. stress (kbar)     23.29      0.00     -0.00
                                0.00     21.47     -0.00
                               -0.00     -0.00     23.40

     hartree stress (kbar)     60.96      0.00      0.00
                                0.00    -45.37     -0.00
                                0.00     -0.00   1009.87

     exc-cor stress (kbar)     -6.06      0.00     -0.00
                                0.00     -7.11      0.00
                               -0.00      0.00     -5.90

     corecor stress (kbar)    -22.92     -0.00      0.00
                               -0.00    -22.51      0.00
                                0.00      0.00    -22.93

     ewald   stress (kbar)     20.80      0.00     -0.00
                                0.00   -219.41     -0.00
                               -0.00     -0.00   1032.72

     hubbard stress (kbar)      0.00      0.00      0.00
                                0.00      0.00      0.00
                                0.00      0.00      0.00

     DFT-D   stress (kbar)      0.00      0.00      0.00
                                0.00      0.00      0.00
                                0.00      0.00      0.00

     XDM     stress (kbar)      0.00      0.00      0.00
                                0.00      0.00      0.00
                                0.00      0.00      0.00

     dft-nl  stress (kbar)      0.00      0.00      0.00
                                0.00      0.00      0.00
                                0.00      0.00      0.00

     TS-vdW  stress (kbar)      0.00      0.00      0.00
                                0.00      0.00      0.00
                                0.00      0.00      0.00

     MDB     stress (kbar)      0.00      0.00      0.00
                                0.00      0.00      0.00
                                0.00      0.00      0.00

     3D-RISM stress (kbar)      0.00      0.00      0.00
                                0.00      0.00      0.00
                                0.00      0.00      0.00


     Writing all to output data dir ../tmp/AGNR.save/ :
     XML data file, charge density, pseudopotentials, collected wavefunctions
 
     init_run     :      9.62s CPU     10.16s WALL (       1 calls)
     electrons    :    112.36s CPU    118.57s WALL (       1 calls)
     forces       :      2.24s CPU      2.53s WALL (       1 calls)
     stress       :      6.35s CPU      6.81s WALL (       1 calls)

     Called by init_run:
     wfcinit      :      2.21s CPU      2.25s WALL (       1 calls)
     wfcinit:wfcr :      2.08s CPU      2.11s WALL (       7 calls)
     potinit      :      1.00s CPU      1.22s WALL (       1 calls)
     hinit0       :      0.23s CPU      0.29s WALL (       1 calls)

     Called by electrons:
     c_bands      :     79.32s CPU     80.15s WALL (       9 calls)
     sum_band     :     17.23s CPU     18.12s WALL (       9 calls)
     v_of_rho     :      8.67s CPU      9.77s WALL (      10 calls)
     v_h          :      0.96s CPU      1.12s WALL (      10 calls)
     v_xc         :      9.24s CPU     10.37s WALL (      12 calls)
     newd         :      5.19s CPU      6.18s WALL (      10 calls)
     PAW_pot      :      0.21s CPU      0.23s WALL (      10 calls)
     mix_rho      :      1.81s CPU      1.96s WALL (       9 calls)

     Called by c_bands:
     init_us_2    :      1.50s CPU      1.52s WALL (     147 calls)
     cegterg      :     77.86s CPU     78.66s WALL (      63 calls)

     Called by sum_band:
     sum_band:wei :      0.00s CPU      0.00s WALL (       9 calls)
     sum_band:loo :      8.92s CPU      9.01s WALL (       9 calls)
     sum_band:buf :      0.12s CPU      0.12s WALL (      63 calls)
     sum_band:ini :      0.65s CPU      0.65s WALL (      63 calls)
     sum_band:cal :      0.30s CPU      0.30s WALL (      63 calls)
     sum_band:bec :      0.00s CPU      0.00s WALL (      63 calls)
     addusdens    :      7.02s CPU      7.74s WALL (       9 calls)
                                        0.00s GPU  (       9 calls)
     addusd:skk   :      0.29s CPU      0.30s WALL (      18 calls)
                                        0.00s GPU  (      18 calls)

     Called by *egterg:
     cdiaghg      :      0.20s CPU      0.20s WALL (     466 calls)
     cegterg:over :      2.07s CPU      2.10s WALL (     403 calls)
     cegterg:upda :      1.31s CPU      1.32s WALL (     403 calls)
     cegterg:last :      2.51s CPU      2.53s WALL (     213 calls)
     h_psi        :     70.58s CPU     71.33s WALL (     473 calls)
     s_psi        :      1.85s CPU      1.86s WALL (     473 calls)
     g_psi        :      0.17s CPU      0.17s WALL (     403 calls)

     Called by h_psi:
     h_psi:calbec :      1.57s CPU      1.58s WALL (     473 calls)
     vloc_psi     :     66.76s CPU     67.47s WALL (     473 calls)
     add_vuspsi   :      1.84s CPU      1.85s WALL (     473 calls)

     General routines
     calbec       :      2.45s CPU      2.47s WALL (     655 calls)
     fft          :      9.30s CPU     10.46s WALL (     153 calls)
     ffts         :      0.22s CPU      0.25s WALL (      19 calls)
     fftw         :     42.88s CPU     43.31s WALL (    7802 calls)
     interpolate  :      0.71s CPU      0.80s WALL (      10 calls)
 
     Parallel routines

     PAW routines
     PAW_pot      :      0.21s CPU      0.23s WALL (      10 calls)
 
     PWSCF        :   2m11.34s CPU   2m27.64s WALL

 
   This run was terminated on:   3:14:58  31Dec2025            

=------------------------------------------------------------------------------=
   JOB DONE.
=------------------------------------------------------------------------------=
