Converted from QE input
1.0
    2.4839568380    0.0000000000    0.0000000000
   -1.2419784190    2.1511697236    0.0000000000
    0.0000000000    0.0000000000   14.9037410280
C
2
Direct
    0.0000000000    0.0000000000    0.0000000000
    0.3333333511    0.6666667022    0.0000000000
