
     Program PWSCF v.7.4.1 starts on  6Oct2025 at 21:38:11 

     This program is part of the open-source Quantum ESPRESSO suite
     for quantum simulation of materials; please cite
         "P. Giannozzi et al., J. Phys.:Condens. Matter 21 395502 (2009);
         "P. Giannozzi et al., J. Phys.:Condens. Matter 29 465901 (2017);
         "P. Giannozzi et al., J. Chem. Phys. 152 154105 (2020);
          URL http://www.quantum-espresso.org", 
     in publications or presentations arising from this work. More details at
     http://www.quantum-espresso.org/quote

     Serial version
     23692 MiB available memory on the printing compute node when the environment starts

     Reading input from grap_SOC_scf.in

     Current dimensions of program PWSCF are:
     Max number of different atomic species (ntypx) = 10
     Max number of k-points (npk) =  40000
     Max angular momentum in pseudopotentials (lmaxx) =  4
     file C.rel-pz-n-kjpaw.UPF: wavefunction(s)  2P 2P renormalized


     G-vector sticks info
     --------------------
     sticks:   dense  smooth     PW     G-vecs:    dense   smooth      PW
     Sum        1039     421    139               163611    41503    8097

     Using Slab Decomposition



     bravais-lattice index     =            0
     lattice parameter (alat)  =       4.6223  a.u.
     unit-cell volume          =     522.6524 (a.u.)^3
     number of atoms/cell      =            2
     number of atomic types    =            1
     number of electrons       =         8.00
     number of Kohn-Sham states=           16
     kinetic-energy cutoff     =      70.0000  Ry
     charge density cutoff     =     700.0000  Ry
     scf convergence threshold =      1.0E-08
     mixing beta               =       0.5000
     number of iterations used =            8  plain     mixing
     Exchange-correlation= SLA  PZ   NOGX NOGC
                           (   1   1   0   0   0   0   0)
     Non magnetic calculation with spin-orbit


     celldm(1)=   4.622345  celldm(2)=   0.000000  celldm(3)=   0.000000
     celldm(4)=   0.000000  celldm(5)=   0.000000  celldm(6)=   0.000000

     crystal axes: (cart. coord. in units of alat)
               a(1) = (   1.000000  -0.000000   0.000000 )  
               a(2) = (  -0.500000   0.866025   0.000000 )  
               a(3) = (  -0.000000  -0.000000   6.110762 )  

     reciprocal axes: (cart. coord. in units 2 pi/alat)
               b(1) = (  1.000000  0.577350  0.000000 )  
               b(2) = (  0.000000  1.154701  0.000000 )  
               b(3) = ( -0.000000 -0.000000  0.163646 )  


     PseudoPot. # 1 for C  read from file:
     ../../../../pseudos/C.rel-pz-n-kjpaw.UPF
     MD5 check sum: 1e483360321cab41140f8d0558b5b949
     Pseudo is Projector augmented-wave + core cor, Zval =  4.0
     Generated using "atomic" code by A. Dal Corso  (Quantum ESPRESSO distribution)
     Shape of augmentation charge: BESSEL
     Using radial grid of 1073 points,  6 beta functions with: 
                l(1) =   0
                l(2) =   0
                l(3) =   1
                l(4) =   1
                l(5) =   1
                l(6) =   1
     Q(r) pseudized with 0 coefficients 


     atomic species   valence    mass     pseudopotential
     C                 4.00    12.01100     C ( 1.00)

     No symmetry found



   Cartesian axes

     site n.     atom                  positions (alat units)
         1        C      tau(   1) = (  -0.0000000  -0.0000000  -0.0000000  )
         2        C      tau(   2) = (  -0.0000000   0.5773503   0.0000000  )

     number of k points=    74  Gaussian smearing, width (Ry)=  0.0020
                       cart. coord. in units 2pi/alat
        k(    1) = (   0.0000000   0.0000000   0.0000000), wk =   0.0069444
        k(    2) = (   0.0000000   0.0962250   0.0000000), wk =   0.0138889
        k(    3) = (   0.0000000   0.1924501   0.0000000), wk =   0.0138889
        k(    4) = (   0.0000000   0.2886751   0.0000000), wk =   0.0138889
        k(    5) = (   0.0000000   0.3849002   0.0000000), wk =   0.0138889
        k(    6) = (   0.0000000   0.4811252   0.0000000), wk =   0.0138889
        k(    7) = (   0.0000000  -0.5773503   0.0000000), wk =   0.0069444
        k(    8) = (   0.0833333   0.0481125   0.0000000), wk =   0.0138889
        k(    9) = (   0.0833333   0.1443376   0.0000000), wk =   0.0138889
        k(   10) = (   0.0833333   0.2405626   0.0000000), wk =   0.0138889
        k(   11) = (   0.0833333   0.3367877   0.0000000), wk =   0.0138889
        k(   12) = (   0.0833333   0.4330127   0.0000000), wk =   0.0138889
        k(   13) = (   0.0833333   0.5292377   0.0000000), wk =   0.0138889
        k(   14) = (   0.0833333  -0.5292377   0.0000000), wk =   0.0138889
        k(   15) = (   0.0833333  -0.4330127   0.0000000), wk =   0.0138889
        k(   16) = (   0.0833333  -0.3367877   0.0000000), wk =   0.0138889
        k(   17) = (   0.0833333  -0.2405626   0.0000000), wk =   0.0138889
        k(   18) = (   0.0833333  -0.1443376   0.0000000), wk =   0.0138889
        k(   19) = (   0.0833333  -0.0481125   0.0000000), wk =   0.0138889
        k(   20) = (   0.1666667   0.0962250   0.0000000), wk =   0.0138889
        k(   21) = (   0.1666667   0.1924501   0.0000000), wk =   0.0138889
        k(   22) = (   0.1666667   0.2886751   0.0000000), wk =   0.0138889
        k(   23) = (   0.1666667   0.3849002   0.0000000), wk =   0.0138889
        k(   24) = (   0.1666667   0.4811252   0.0000000), wk =   0.0138889
        k(   25) = (   0.1666667   0.5773503   0.0000000), wk =   0.0138889
        k(   26) = (   0.1666667  -0.4811252   0.0000000), wk =   0.0138889
        k(   27) = (   0.1666667  -0.3849002   0.0000000), wk =   0.0138889
        k(   28) = (   0.1666667  -0.2886751   0.0000000), wk =   0.0138889
        k(   29) = (   0.1666667  -0.1924501   0.0000000), wk =   0.0138889
        k(   30) = (   0.1666667  -0.0962250   0.0000000), wk =   0.0138889
        k(   31) = (   0.1666667  -0.0000000   0.0000000), wk =   0.0138889
        k(   32) = (   0.2500000   0.1443376   0.0000000), wk =   0.0138889
        k(   33) = (   0.2500000   0.2405626   0.0000000), wk =   0.0138889
        k(   34) = (   0.2500000   0.3367877   0.0000000), wk =   0.0138889
        k(   35) = (   0.2500000   0.4330127   0.0000000), wk =   0.0138889
        k(   36) = (   0.2500000   0.5292377   0.0000000), wk =   0.0138889
        k(   37) = (   0.2500000   0.6254628   0.0000000), wk =   0.0138889
        k(   38) = (   0.2500000  -0.4330127   0.0000000), wk =   0.0138889
        k(   39) = (   0.2500000  -0.3367877   0.0000000), wk =   0.0138889
        k(   40) = (   0.2500000  -0.2405626   0.0000000), wk =   0.0138889
        k(   41) = (   0.2500000  -0.1443376   0.0000000), wk =   0.0138889
        k(   42) = (   0.2500000  -0.0481125   0.0000000), wk =   0.0138889
        k(   43) = (   0.2500000   0.0481125   0.0000000), wk =   0.0138889
        k(   44) = (   0.3333333   0.1924501   0.0000000), wk =   0.0138889
        k(   45) = (   0.3333333   0.2886751   0.0000000), wk =   0.0138889
        k(   46) = (   0.3333333   0.3849002   0.0000000), wk =   0.0138889
        k(   47) = (   0.3333333   0.4811252   0.0000000), wk =   0.0138889
        k(   48) = (   0.3333333   0.5773503   0.0000000), wk =   0.0138889
        k(   49) = (   0.3333333   0.6735753   0.0000000), wk =   0.0138889
        k(   50) = (   0.3333333  -0.3849002   0.0000000), wk =   0.0138889
        k(   51) = (   0.3333333  -0.2886751   0.0000000), wk =   0.0138889
        k(   52) = (   0.3333333  -0.1924501   0.0000000), wk =   0.0138889
        k(   53) = (   0.3333333  -0.0962250   0.0000000), wk =   0.0138889
        k(   54) = (   0.3333333  -0.0000000   0.0000000), wk =   0.0138889
        k(   55) = (   0.3333333   0.0962250   0.0000000), wk =   0.0138889
        k(   56) = (   0.4166667   0.2405626   0.0000000), wk =   0.0138889
        k(   57) = (   0.4166667   0.3367877   0.0000000), wk =   0.0138889
        k(   58) = (   0.4166667   0.4330127   0.0000000), wk =   0.0138889
        k(   59) = (   0.4166667   0.5292377   0.0000000), wk =   0.0138889
        k(   60) = (   0.4166667   0.6254628   0.0000000), wk =   0.0138889
        k(   61) = (   0.4166667   0.7216878   0.0000000), wk =   0.0138889
        k(   62) = (   0.4166667  -0.3367877   0.0000000), wk =   0.0138889
        k(   63) = (   0.4166667  -0.2405626   0.0000000), wk =   0.0138889
        k(   64) = (   0.4166667  -0.1443376   0.0000000), wk =   0.0138889
        k(   65) = (   0.4166667  -0.0481125   0.0000000), wk =   0.0138889
        k(   66) = (   0.4166667   0.0481125   0.0000000), wk =   0.0138889
        k(   67) = (   0.4166667   0.1443376   0.0000000), wk =   0.0138889
        k(   68) = (  -0.5000000  -0.2886751   0.0000000), wk =   0.0069444
        k(   69) = (  -0.5000000  -0.1924501   0.0000000), wk =   0.0138889
        k(   70) = (  -0.5000000  -0.0962250   0.0000000), wk =   0.0138889
        k(   71) = (  -0.5000000   0.0000000   0.0000000), wk =   0.0138889
        k(   72) = (  -0.5000000   0.0962250   0.0000000), wk =   0.0138889
        k(   73) = (  -0.5000000   0.1924501   0.0000000), wk =   0.0138889
        k(   74) = (  -0.5000000  -0.8660254   0.0000000), wk =   0.0069444

     Dense  grid:   163611 G-vectors     FFT dimensions: (  40,  40, 240)

     Smooth grid:    41503 G-vectors     FFT dimensions: (  25,  25, 160)

     Estimated max dynamical RAM per process >     784.55 MB

     Initial potential from superposition of free atoms

     starting charge       7.9999, renormalised to       8.0000

     negative rho (up, down):  2.416E-05 0.000E+00
     Starting wfcs are random

     total cpu time spent up to now is       11.4 secs

     Self-consistent Calculation

     iteration #  1     ecut=    70.00 Ry     beta= 0.50
     Davidson diagonalization with overlap
     c_bands:  1 eigenvalues not converged
     ethr =  1.00E-02,  avg # of iterations = 16.3

     total cpu time spent up to now is      141.8 secs

     total energy              =     -35.59322732 Ry
     estimated scf accuracy    <       0.15494143 Ry

     iteration #  2     ecut=    70.00 Ry     beta= 0.50
     Davidson diagonalization with overlap
     ethr =  1.94E-03,  avg # of iterations =  2.6

     total cpu time spent up to now is      170.8 secs

     total energy              =     -35.61580334 Ry
     estimated scf accuracy    <       0.03369927 Ry

     iteration #  3     ecut=    70.00 Ry     beta= 0.50
     Davidson diagonalization with overlap
     ethr =  4.21E-04,  avg # of iterations =  8.8

     total cpu time spent up to now is      221.5 secs

     total energy              =     -35.63341594 Ry
     estimated scf accuracy    <       0.00401085 Ry

     iteration #  4     ecut=    70.00 Ry     beta= 0.50
     Davidson diagonalization with overlap
     c_bands:  1 eigenvalues not converged
     c_bands:  1 eigenvalues not converged
     c_bands:  1 eigenvalues not converged
     c_bands:  1 eigenvalues not converged
     ethr =  5.01E-05,  avg # of iterations = 10.1

     negative rho (up, down):  1.140E-08 0.000E+00

     total cpu time spent up to now is      273.9 secs

     total energy              =     -35.63581089 Ry
     estimated scf accuracy    <       0.00028368 Ry

     iteration #  5     ecut=    70.00 Ry     beta= 0.50
     Davidson diagonalization with overlap
     c_bands:  2 eigenvalues not converged
     c_bands:  2 eigenvalues not converged
     c_bands:  2 eigenvalues not converged
     c_bands:  1 eigenvalues not converged
     c_bands:  2 eigenvalues not converged
     c_bands:  2 eigenvalues not converged
     c_bands:  2 eigenvalues not converged
     c_bands:  1 eigenvalues not converged
     c_bands:  2 eigenvalues not converged
     c_bands:  4 eigenvalues not converged
     c_bands:  1 eigenvalues not converged
     ethr =  3.55E-06,  avg # of iterations = 13.6

     negative rho (up, down):  5.337E-06 0.000E+00

     total cpu time spent up to now is      353.8 secs

     total energy              =     -35.63603799 Ry
     estimated scf accuracy    <       0.00048173 Ry

     iteration #  6     ecut=    70.00 Ry     beta= 0.50
     Davidson diagonalization with overlap
     c_bands:  2 eigenvalues not converged
     c_bands:  2 eigenvalues not converged
     c_bands:  2 eigenvalues not converged
     ethr =  3.55E-06,  avg # of iterations =  3.5

     negative rho (up, down):  4.476E-06 0.000E+00

     total cpu time spent up to now is      381.5 secs

     total energy              =     -35.63603514 Ry
     estimated scf accuracy    <       0.00006017 Ry

     iteration #  7     ecut=    70.00 Ry     beta= 0.50
     Davidson diagonalization with overlap
     ethr =  7.52E-07,  avg # of iterations =  4.7

     negative rho (up, down):  6.327E-06 0.000E+00

     total cpu time spent up to now is      418.7 secs

     total energy              =     -35.63607221 Ry
     estimated scf accuracy    <       0.00000273 Ry

     iteration #  8     ecut=    70.00 Ry     beta= 0.50
     Davidson diagonalization with overlap
     c_bands:  2 eigenvalues not converged
     ethr =  3.41E-08,  avg # of iterations =  4.6

     negative rho (up, down):  7.038E-06 0.000E+00

     total cpu time spent up to now is      454.4 secs

     total energy              =     -35.63607429 Ry
     estimated scf accuracy    <       0.00000266 Ry

     iteration #  9     ecut=    70.00 Ry     beta= 0.50
     Davidson diagonalization with overlap
     ethr =  3.33E-08,  avg # of iterations =  1.1

     negative rho (up, down):  1.316E-05 0.000E+00

     total cpu time spent up to now is      478.1 secs

     total energy              =     -35.63607293 Ry
     estimated scf accuracy    <       0.00000213 Ry

     iteration # 10     ecut=    70.00 Ry     beta= 0.50
     Davidson diagonalization with overlap
     ethr =  2.66E-08,  avg # of iterations =  2.0

     negative rho (up, down):  1.329E-05 0.000E+00

     total cpu time spent up to now is      505.3 secs

     total energy              =     -35.63607337 Ry
     estimated scf accuracy    <       0.00000003 Ry

     iteration # 11     ecut=    70.00 Ry     beta= 0.50
     Davidson diagonalization with overlap
     ethr =  3.27E-10,  avg # of iterations =  5.1

     negative rho (up, down):  1.322E-05 0.000E+00

     total cpu time spent up to now is      549.8 secs

     total energy              =     -35.63607346 Ry
     estimated scf accuracy    <       0.00000007 Ry

     iteration # 12     ecut=    70.00 Ry     beta= 0.50
     Davidson diagonalization with overlap
     ethr =  3.27E-10,  avg # of iterations =  1.1

     negative rho (up, down):  1.306E-05 0.000E+00

     total cpu time spent up to now is      575.2 secs

     total energy              =     -35.63607377 Ry
     estimated scf accuracy    <       0.00000006 Ry

     iteration # 13     ecut=    70.00 Ry     beta= 0.50
     Davidson diagonalization with overlap
     ethr =  3.27E-10,  avg # of iterations =  2.0

     negative rho (up, down):  1.293E-05 0.000E+00

     total cpu time spent up to now is      603.0 secs

     total energy              =     -35.63607346 Ry
     estimated scf accuracy    <       0.00000016 Ry

     iteration # 14     ecut=    70.00 Ry     beta= 0.50
     Davidson diagonalization with overlap
     ethr =  3.27E-10,  avg # of iterations =  1.8

     negative rho (up, down):  1.343E-05 0.000E+00

     total cpu time spent up to now is      629.4 secs

     total energy              =     -35.63607379 Ry
     estimated scf accuracy    <       0.00000006 Ry

     iteration # 15     ecut=    70.00 Ry     beta= 0.50
     Davidson diagonalization with overlap
     ethr =  3.27E-10,  avg # of iterations =  3.7

     negative rho (up, down):  1.313E-05 0.000E+00

     total cpu time spent up to now is      659.4 secs

     total energy              =     -35.63607339 Ry
     estimated scf accuracy    <       0.00000023 Ry

     iteration # 16     ecut=    70.00 Ry     beta= 0.50
     Davidson diagonalization with overlap
     ethr =  3.27E-10,  avg # of iterations =  4.0

     negative rho (up, down):  1.312E-05 0.000E+00

     total cpu time spent up to now is      698.0 secs

     total energy              =     -35.63607345 Ry
     estimated scf accuracy    <       0.00000006 Ry

     iteration # 17     ecut=    70.00 Ry     beta= 0.50
     Davidson diagonalization with overlap
     ethr =  3.27E-10,  avg # of iterations =  1.0

     negative rho (up, down):  1.322E-05 0.000E+00

     total cpu time spent up to now is      721.4 secs

     total energy              =     -35.63607344 Ry
     estimated scf accuracy    <       0.00000003 Ry

     iteration # 18     ecut=    70.00 Ry     beta= 0.50
     Davidson diagonalization with overlap
     ethr =  3.17E-10,  avg # of iterations =  2.0

     negative rho (up, down):  1.324E-05 0.000E+00

     total cpu time spent up to now is      747.5 secs

     End of self-consistent calculation

          k = 0.0000 0.0000 0.0000 (  5163 PWs)   bands (ev):

   -21.4112 -21.4112  -9.7216  -9.7216  -4.9444  -4.9444  -4.9350  -4.9350
     1.4031   1.4031   2.4489   2.4489   2.8420   2.8420   4.7334   4.7336

          k = 0.0000 0.0962 0.0000 (  5149 PWs)   bands (ev):

   -21.2460 -21.2460  -9.5214  -9.5214  -5.5811  -5.5811  -5.2863  -5.2863
     1.6280   1.6280   2.6767   2.6767   3.0726   3.0726   4.9595   4.9597

          k = 0.0000 0.1925 0.0000 (  5145 PWs)   bands (ev):

   -20.7520 -20.7520  -8.9259  -8.9259  -7.2048  -7.2048  -6.0965  -6.0965
     2.3027   2.3027   3.3580   3.3580   3.7646   3.7646   5.6344   5.6348

          k = 0.0000 0.2887 0.0000 (  5157 PWs)   bands (ev):

   -19.9350 -19.9350  -9.2983  -9.2983  -7.9542  -7.9542  -6.9943  -6.9943
     3.4248   3.4248   4.4652   4.4652   4.9168   4.9169   5.4606   5.4608

          k = 0.0000 0.3849 0.0000 (  5172 PWs)   bands (ev):

   -18.8057 -18.8057 -11.5069 -11.5069  -7.7417  -7.7417  -6.6561  -6.6561
     3.0474   3.0474   4.9816   4.9816   6.0690   6.0691   6.0985   6.0986

          k = 0.0000 0.4811 0.0000 (  5182 PWs)   bands (ev):

   -17.3894 -17.3894 -13.6257 -13.6257  -8.2233  -8.2233  -5.1941  -5.1941
     0.8567   0.8567   5.8356   5.8356   7.0125   7.0126   8.0983   8.0985

          k = 0.0000-0.5774 0.0000 (  5192 PWs)   bands (ev):

   -16.0339 -16.0339 -15.2235 -15.2235  -8.3886  -8.3886  -4.3181  -4.3181
    -0.2785  -0.2785   5.7683   5.7683   9.3504   9.3504   9.4423   9.4424

          k = 0.0833 0.0481 0.0000 (  5149 PWs)   bands (ev):

   -21.2460 -21.2460  -9.5214  -9.5214  -5.5811  -5.5811  -5.2863  -5.2863
     1.6280   1.6280   2.6767   2.6767   3.0726   3.0726   4.9596   4.9596

          k = 0.0833 0.1443 0.0000 (  5148 PWs)   bands (ev):

   -20.9164 -20.9164  -9.1234  -9.1234  -6.5999  -6.5999  -5.9798  -5.9798
     2.0781   2.0781   3.1314   3.1314   3.5340   3.5340   5.4109   5.4109

          k = 0.0833 0.2406 0.0000 (  5152 PWs)   bands (ev):

   -20.2610 -20.2610  -8.3387  -8.3387  -8.2985  -8.2985  -6.9964  -6.9964
     2.9776   2.9776   4.0356   4.0356   4.4570   4.4570   6.2409   6.2434

          k = 0.0833 0.3368 0.0000 (  5168 PWs)   bands (ev):

   -19.2878 -19.2878 -10.3743 -10.3743  -7.8944  -7.8944  -7.1974  -7.1974
     4.0907   4.0907   4.3217   4.3218   5.4146   5.4148   5.8391   5.8392

          k = 0.0833 0.4330 0.0000 (  5176 PWs)   bands (ev):

   -18.0135 -18.0135 -12.5096 -12.5096  -8.5372  -8.5372  -5.7834  -5.7834
     1.8382   1.8382   6.0843   6.0843   6.6733   6.6733   7.1871   7.1875

          k = 0.0833 0.5292 0.0000 (  5180 PWs)   bands (ev):

   -16.4952 -16.4952 -14.4898 -14.4898  -8.8698  -8.8698  -4.4330  -4.4330
     0.0175   0.0175   6.4948   6.4948   8.3136   8.3136   9.3236   9.3237

          k = 0.0833-0.5292 0.0000 (  5180 PWs)   bands (ev):

   -16.4952 -16.4952 -14.4898 -14.4898  -8.8698  -8.8698  -4.4330  -4.4330
     0.0175   0.0175   6.4948   6.4948   8.3136   8.3136   9.3235   9.3236

          k = 0.0833-0.4330 0.0000 (  5176 PWs)   bands (ev):

   -18.0135 -18.0135 -12.5096 -12.5096  -8.5372  -8.5372  -5.7834  -5.7834
     1.8382   1.8382   6.0843   6.0843   6.6733   6.6733   7.1872   7.1873

          k = 0.0833-0.3368 0.0000 (  5168 PWs)   bands (ev):

   -19.2878 -19.2878 -10.3743 -10.3743  -7.8944  -7.8944  -7.1974  -7.1974
     4.0907   4.0907   4.3217   4.3217   5.4146   5.4146   5.8391   5.8392

          k = 0.0833-0.2406 0.0000 (  5152 PWs)   bands (ev):

   -20.2610 -20.2610  -8.3387  -8.3387  -8.2985  -8.2985  -6.9964  -6.9964
     2.9776   2.9776   4.0356   4.0356   4.4570   4.4570   6.2401   6.2405

          k = 0.0833-0.1443 0.0000 (  5148 PWs)   bands (ev):

   -20.9164 -20.9164  -9.1234  -9.1234  -6.5999  -6.5999  -5.9798  -5.9798
     2.0781   2.0781   3.1314   3.1314   3.5340   3.5340   5.4108   5.4110

          k = 0.0833-0.0481 0.0000 (  5149 PWs)   bands (ev):

   -21.2460 -21.2460  -9.5214  -9.5214  -5.5811  -5.5811  -5.2863  -5.2863
     1.6280   1.6280   2.6767   2.6767   3.0726   3.0726   4.9596   4.9597

          k = 0.1667 0.0962 0.0000 (  5145 PWs)   bands (ev):

   -20.7520 -20.7520  -8.9259  -8.9259  -7.2048  -7.2048  -6.0965  -6.0965
     2.3027   2.3027   3.3580   3.3580   3.7646   3.7646   5.6345   5.6346

          k = 0.1667 0.1925 0.0000 (  5152 PWs)   bands (ev):

   -20.2610 -20.2610  -8.3387  -8.3387  -8.2985  -8.2985  -6.9964  -6.9964
     2.9776   2.9776   4.0356   4.0356   4.4570   4.4570   6.2405   6.2433

          k = 0.1667 0.2887 0.0000 (  5152 PWs)   bands (ev):

   -19.4495 -19.4495  -9.6043  -9.6043  -8.3902  -8.3902  -7.3806  -7.3806
     4.1005   4.1005   4.5660   4.5660   5.1570   5.1570   5.6112   5.6112

          k = 0.1667 0.3849 0.0000 (  5165 PWs)   bands (ev):

   -18.3309 -18.3309 -11.3386 -11.3386  -9.4525  -9.4525  -6.0981  -6.0981
     2.5825   2.5825   5.6615   5.6615   6.6937   6.6938   7.2244   7.2245

          k = 0.1667 0.4811 0.0000 (  5170 PWs)   bands (ev):

   -16.9346 -16.9346 -13.2779 -13.2779 -10.0228 -10.0228  -4.6335  -4.6335
     0.6247   0.6247   7.6328   7.6328   8.3772   8.3772   8.5198   8.5198

          k = 0.1667 0.5774 0.0000 (  5200 PWs)   bands (ev):

   -15.6181 -15.6181 -14.7977 -14.7977 -10.2059 -10.2059  -3.7104  -3.7104
    -0.4773  -0.4773   8.2849   8.2849   9.6585   9.6596   9.9018   9.9022

          k = 0.1667-0.4811 0.0000 (  5170 PWs)   bands (ev):

   -16.9346 -16.9346 -13.2779 -13.2779 -10.0228 -10.0228  -4.6335  -4.6335
     0.6247   0.6247   7.6328   7.6328   8.3772   8.3772   8.5198   8.5199

          k = 0.1667-0.3849 0.0000 (  5165 PWs)   bands (ev):

   -18.3309 -18.3309 -11.3386 -11.3386  -9.4525  -9.4525  -6.0981  -6.0981
     2.5825   2.5825   5.6615   5.6615   6.6937   6.6938   7.2244   7.2245

          k = 0.1667-0.2887 0.0000 (  5152 PWs)   bands (ev):

   -19.4495 -19.4495  -9.6043  -9.6043  -8.3902  -8.3902  -7.3806  -7.3806
     4.1005   4.1005   4.5660   4.5660   5.1570   5.1570   5.6112   5.6112

          k = 0.1667-0.1925 0.0000 (  5152 PWs)   bands (ev):

   -20.2610 -20.2610  -8.3387  -8.3387  -8.2985  -8.2985  -6.9964  -6.9964
     2.9776   2.9776   4.0356   4.0356   4.4570   4.4570   6.2436   6.2486

          k = 0.1667-0.0962 0.0000 (  5145 PWs)   bands (ev):

   -20.7520 -20.7520  -8.9259  -8.9259  -7.2048  -7.2048  -6.0965  -6.0965
     2.3027   2.3027   3.3580   3.3580   3.7646   3.7646   5.6347   5.6357

          k = 0.1667-0.0000 0.0000 (  5148 PWs)   bands (ev):

   -20.9164 -20.9164  -9.1234  -9.1234  -6.5999  -6.5999  -5.9798  -5.9798
     2.0781   2.0781   3.1314   3.1314   3.5340   3.5340   5.4108   5.4109

          k = 0.2500 0.1443 0.0000 (  5157 PWs)   bands (ev):

   -19.9350 -19.9350  -9.2983  -9.2983  -7.9542  -7.9542  -6.9943  -6.9943
     3.4248   3.4248   4.4652   4.4652   4.9168   4.9168   5.4605   5.4614

          k = 0.2500 0.2406 0.0000 (  5168 PWs)   bands (ev):

   -19.2878 -19.2878 -10.3743 -10.3743  -7.8944  -7.8944  -7.1974  -7.1974
     4.0907   4.0907   4.3217   4.3217   5.4146   5.4146   5.8391   5.8393

          k = 0.2500 0.3368 0.0000 (  5165 PWs)   bands (ev):

   -18.3309 -18.3309 -11.3386 -11.3386  -9.4525  -9.4525  -6.0981  -6.0981
     2.5825   2.5825   5.6615   5.6615   6.6937   6.6938   7.2244   7.2244

          k = 0.2500 0.4330 0.0000 (  5174 PWs)   bands (ev):

   -17.0875 -17.0875 -12.3360 -12.3360 -10.9868 -10.9868  -4.7227  -4.7227
     0.9465   0.9465   7.4204   7.4204   8.1940   8.1940   9.0647   9.0647

          k = 0.2500 0.5292 0.0000 (  5188 PWs)   bands (ev):

   -15.6302 -15.6302 -13.7972 -13.7972 -11.6889 -11.6889  -3.3002  -3.3002
    -0.6043  -0.6043   8.8296   8.8296   9.5180   9.5180  10.5034  10.5034

          k = 0.2500 0.6255 0.0000 (  5188 PWs)   bands (ev):

   -15.6302 -15.6302 -13.7972 -13.7972 -11.6889 -11.6889  -3.3002  -3.3002
    -0.6043  -0.6043   8.8296   8.8296   9.5180   9.5180  10.5033  10.5034

          k = 0.2500-0.4330 0.0000 (  5174 PWs)   bands (ev):

   -17.0875 -17.0875 -12.3360 -12.3360 -10.9868 -10.9868  -4.7227  -4.7227
     0.9465   0.9465   7.4204   7.4204   8.1940   8.1940   9.0646   9.0647

          k = 0.2500-0.3368 0.0000 (  5165 PWs)   bands (ev):

   -18.3309 -18.3309 -11.3386 -11.3386  -9.4525  -9.4525  -6.0981  -6.0981
     2.5825   2.5825   5.6615   5.6615   6.6937   6.6938   7.2244   7.2245

          k = 0.2500-0.2406 0.0000 (  5168 PWs)   bands (ev):

   -19.2878 -19.2878 -10.3743 -10.3743  -7.8944  -7.8944  -7.1974  -7.1974
     4.0907   4.0907   4.3217   4.3217   5.4146   5.4147   5.8391   5.8394

          k = 0.2500-0.1443 0.0000 (  5157 PWs)   bands (ev):

   -19.9350 -19.9350  -9.2983  -9.2983  -7.9542  -7.9542  -6.9943  -6.9943
     3.4248   3.4248   4.4652   4.4652   4.9168   4.9168   5.4605   5.4610

          k = 0.2500-0.0481 0.0000 (  5152 PWs)   bands (ev):

   -20.2610 -20.2610  -8.3387  -8.3387  -8.2985  -8.2985  -6.9964  -6.9964
     2.9776   2.9776   4.0356   4.0356   4.4570   4.4570   6.2396   6.2408

          k = 0.2500 0.0481 0.0000 (  5152 PWs)   bands (ev):

   -20.2610 -20.2610  -8.3387  -8.3387  -8.2985  -8.2985  -6.9964  -6.9964
     2.9776   2.9776   4.0356   4.0356   4.4570   4.4570   6.2399   6.2423

          k = 0.3333 0.1925 0.0000 (  5172 PWs)   bands (ev):

   -18.8057 -18.8057 -11.5069 -11.5069  -7.7417  -7.7417  -6.6561  -6.6561
     3.0474   3.0474   4.9816   4.9816   6.0691   6.0691   6.0985   6.0986

          k = 0.3333 0.2887 0.0000 (  5176 PWs)   bands (ev):

   -18.0135 -18.0135 -12.5096 -12.5096  -8.5372  -8.5372  -5.7834  -5.7834
     1.8382   1.8382   6.0843   6.0843   6.6733   6.6734   7.1871   7.1874

          k = 0.3333 0.3849 0.0000 (  5170 PWs)   bands (ev):

   -16.9346 -16.9346 -13.2779 -13.2779 -10.0228 -10.0228  -4.6335  -4.6335
     0.6247   0.6247   7.6328   7.6328   8.3772   8.3772   8.5198   8.5198

          k = 0.3333 0.4811 0.0000 (  5188 PWs)   bands (ev):

   -15.6302 -15.6302 -13.7972 -13.7972 -11.6889 -11.6889  -3.3002  -3.3002
    -0.6043  -0.6043   8.8296   8.8296   9.5180   9.5181  10.5034  10.5034

          k = 0.3333 0.5774 0.0000 (  5220 PWs)   bands (ev):

   -14.3773 -14.3773 -14.3750 -14.3750 -12.6839 -12.6839  -1.9172  -1.9172
    -1.9172  -1.9172   8.4933   8.4933  11.1099  11.1101  11.1139  11.1142

          k = 0.3333 0.6736 0.0000 (  5188 PWs)   bands (ev):

   -15.6302 -15.6302 -13.7972 -13.7972 -11.6889 -11.6889  -3.3002  -3.3002
    -0.6043  -0.6043   8.8296   8.8296   9.5180   9.5180  10.5034  10.5034

          k = 0.3333-0.3849 0.0000 (  5170 PWs)   bands (ev):

   -16.9346 -16.9346 -13.2779 -13.2779 -10.0228 -10.0228  -4.6335  -4.6335
     0.6247   0.6247   7.6328   7.6328   8.3772   8.3772   8.5198   8.5198

          k = 0.3333-0.2887 0.0000 (  5176 PWs)   bands (ev):

   -18.0135 -18.0135 -12.5096 -12.5096  -8.5372  -8.5372  -5.7834  -5.7834
     1.8382   1.8382   6.0843   6.0843   6.6733   6.6734   7.1872   7.1872

          k = 0.3333-0.1925 0.0000 (  5172 PWs)   bands (ev):

   -18.8057 -18.8057 -11.5069 -11.5069  -7.7417  -7.7417  -6.6561  -6.6561
     3.0474   3.0474   4.9816   4.9816   6.0690   6.0692   6.0985   6.0988

          k = 0.3333-0.0962 0.0000 (  5168 PWs)   bands (ev):

   -19.2878 -19.2878 -10.3743 -10.3743  -7.8944  -7.8944  -7.1974  -7.1974
     4.0907   4.0907   4.3217   4.3217   5.4146   5.4148   5.8391   5.8393

          k = 0.3333-0.0000 0.0000 (  5152 PWs)   bands (ev):

   -19.4495 -19.4495  -9.6043  -9.6043  -8.3902  -8.3902  -7.3806  -7.3806
     4.1005   4.1005   4.5660   4.5660   5.1570   5.1570   5.6112   5.6112

          k = 0.3333 0.0962 0.0000 (  5168 PWs)   bands (ev):

   -19.2878 -19.2878 -10.3743 -10.3743  -7.8944  -7.8944  -7.1974  -7.1974
     4.0907   4.0907   4.3217   4.3217   5.4146   5.4146   5.8390   5.8391

          k = 0.4167 0.2406 0.0000 (  5182 PWs)   bands (ev):

   -17.3894 -17.3894 -13.6257 -13.6257  -8.2233  -8.2233  -5.1941  -5.1941
     0.8567   0.8567   5.8356   5.8356   7.0125   7.0126   8.0983   8.0983

          k = 0.4167 0.3368 0.0000 (  5180 PWs)   bands (ev):

   -16.4952 -16.4952 -14.4898 -14.4898  -8.8698  -8.8698  -4.4330  -4.4330
     0.0175   0.0175   6.4948   6.4948   8.3136   8.3136   9.3235   9.3236

          k = 0.4167 0.4330 0.0000 (  5200 PWs)   bands (ev):

   -15.6181 -15.6181 -14.7977 -14.7977 -10.2059 -10.2059  -3.7104  -3.7104
    -0.4773  -0.4773   8.2849   8.2849   9.6585   9.6586   9.9018   9.9072

          k = 0.4167 0.5292 0.0000 (  5188 PWs)   bands (ev):

   -15.6302 -15.6302 -13.7972 -13.7972 -11.6889 -11.6889  -3.3002  -3.3002
    -0.6043  -0.6043   8.8296   8.8296   9.5180   9.5180  10.5034  10.5034

          k = 0.4167 0.6255 0.0000 (  5188 PWs)   bands (ev):

   -15.6302 -15.6302 -13.7972 -13.7972 -11.6889 -11.6889  -3.3002  -3.3002
    -0.6043  -0.6043   8.8296   8.8296   9.5180   9.5181  10.5033  10.5034

          k = 0.4167 0.7217 0.0000 (  5200 PWs)   bands (ev):

   -15.6181 -15.6181 -14.7977 -14.7977 -10.2059 -10.2059  -3.7104  -3.7104
    -0.4773  -0.4773   8.2849   8.2849   9.6585   9.6587   9.9017   9.9033

          k = 0.4167-0.3368 0.0000 (  5180 PWs)   bands (ev):

   -16.4952 -16.4952 -14.4898 -14.4898  -8.8698  -8.8698  -4.4330  -4.4330
     0.0175   0.0175   6.4948   6.4948   8.3136   8.3136   9.3235   9.3236

          k = 0.4167-0.2406 0.0000 (  5182 PWs)   bands (ev):

   -17.3894 -17.3894 -13.6257 -13.6257  -8.2233  -8.2233  -5.1941  -5.1941
     0.8567   0.8567   5.8356   5.8356   7.0125   7.0125   8.0983   8.0983

          k = 0.4167-0.1443 0.0000 (  5176 PWs)   bands (ev):

   -18.0135 -18.0135 -12.5096 -12.5096  -8.5372  -8.5372  -5.7834  -5.7834
     1.8382   1.8382   6.0843   6.0843   6.6733   6.6733   7.1871   7.1873

          k = 0.4167-0.0481 0.0000 (  5165 PWs)   bands (ev):

   -18.3309 -18.3309 -11.3386 -11.3386  -9.4525  -9.4525  -6.0981  -6.0981
     2.5825   2.5825   5.6615   5.6615   6.6937   6.6938   7.2244   7.2245

          k = 0.4167 0.0481 0.0000 (  5165 PWs)   bands (ev):

   -18.3309 -18.3309 -11.3386 -11.3386  -9.4525  -9.4525  -6.0981  -6.0981
     2.5825   2.5825   5.6615   5.6615   6.6937   6.6938   7.2244   7.2246

          k = 0.4167 0.1443 0.0000 (  5176 PWs)   bands (ev):

   -18.0135 -18.0135 -12.5096 -12.5096  -8.5372  -8.5372  -5.7834  -5.7834
     1.8382   1.8382   6.0843   6.0843   6.6733   6.6733   7.1872   7.1873

          k =-0.5000-0.2887 0.0000 (  5192 PWs)   bands (ev):

   -16.0339 -16.0339 -15.2235 -15.2235  -8.3886  -8.3886  -4.3181  -4.3181
    -0.2785  -0.2785   5.7683   5.7683   9.3504   9.3505   9.4423   9.4424

          k =-0.5000-0.1925 0.0000 (  5180 PWs)   bands (ev):

   -16.4952 -16.4952 -14.4898 -14.4898  -8.8698  -8.8698  -4.4330  -4.4330
     0.0175   0.0175   6.4948   6.4948   8.3136   8.3136   9.3235   9.3235

          k =-0.5000-0.0962 0.0000 (  5170 PWs)   bands (ev):

   -16.9346 -16.9346 -13.2779 -13.2779 -10.0228 -10.0228  -4.6335  -4.6335
     0.6247   0.6247   7.6328   7.6328   8.3772   8.3772   8.5198   8.5198

          k =-0.5000 0.0000 0.0000 (  5174 PWs)   bands (ev):

   -17.0875 -17.0875 -12.3360 -12.3360 -10.9868 -10.9868  -4.7227  -4.7227
     0.9465   0.9465   7.4204   7.4204   8.1940   8.1940   9.0647   9.0648

          k =-0.5000 0.0962 0.0000 (  5170 PWs)   bands (ev):

   -16.9346 -16.9346 -13.2779 -13.2779 -10.0228 -10.0228  -4.6335  -4.6335
     0.6247   0.6247   7.6328   7.6328   8.3772   8.3772   8.5198   8.5199

          k =-0.5000 0.1925 0.0000 (  5180 PWs)   bands (ev):

   -16.4952 -16.4952 -14.4898 -14.4898  -8.8698  -8.8698  -4.4330  -4.4330
     0.0175   0.0175   6.4948   6.4948   8.3136   8.3136   9.3235   9.3236

          k =-0.5000-0.8660 0.0000 (  5192 PWs)   bands (ev):

   -16.0339 -16.0339 -15.2235 -15.2235  -8.3886  -8.3886  -4.3181  -4.3181
    -0.2785  -0.2785   5.7683   5.7683   9.3504   9.3504   9.4423   9.4423

     the Fermi energy is    -1.9172 ev

!    total energy              =     -35.63607344 Ry
     total all-electron energy =      -151.245364 Ry
     estimated scf accuracy    <          1.1E-09 Ry
     smearing contrib. (-TS)   =      -0.00003134 Ry
     internal energy E=F+TS    =     -35.63604210 Ry

     The total energy is F=E-TS. E is the sum of the following terms:
     one-electron contribution =    -158.66099392 Ry
     hartree contribution      =      80.93837256 Ry
     xc contribution           =      -8.28321718 Ry
     ewald contribution        =      62.46262411 Ry
     one-center paw contrib.   =     -12.09282767 Ry

     convergence has been achieved in  18 iterations

     negative rho (up, down):  1.324E-05 0.000E+00

     Forces acting on atoms (cartesian axes, Ry/au):

     atom    1 type  1   force =     0.00000010   -0.00000010    0.00000003
     atom    2 type  1   force =    -0.00000010    0.00000010   -0.00000003

     Total force =     0.000000     Total SCF correction =     0.000004
     SCF correction compared to forces is large: reduce conv_thr to get better values


     Computing stress (Cartesian axis) and pressure


     negative rho (up, down):  1.324E-05 0.000E+00
          total   stress  (Ry/bohr**3)                   (kbar)     P=        0.03
   0.00000098   0.00000000   0.00000000            0.14        0.00        0.00
   0.00000000   0.00000098  -0.00000000            0.00        0.14       -0.00
   0.00000000  -0.00000000  -0.00000131            0.00       -0.00       -0.19


     Writing all to output data dir ./tmp/graphene.save/ :
     XML data file, charge density, pseudopotentials, collected wavefunctions

     init_run     :     17.33s CPU     11.19s WALL (       1 calls)
     electrons    :   1247.98s CPU    736.14s WALL (       1 calls)
     forces       :      1.17s CPU      0.87s WALL (       1 calls)
     stress       :      6.10s CPU      5.03s WALL (       1 calls)

     Called by init_run:
     wfcinit      :     15.81s CPU      9.58s WALL (       1 calls)
     potinit      :      0.43s CPU      0.45s WALL (       1 calls)
     hinit0       :      0.82s CPU      0.84s WALL (       1 calls)

     Called by electrons:
     c_bands      :   1163.40s CPU    663.58s WALL (      18 calls)
     sum_band     :     77.50s CPU     64.21s WALL (      18 calls)
     v_of_rho     :      0.48s CPU      0.49s WALL (      19 calls)
     newd         :      4.48s CPU      5.81s WALL (      19 calls)
     PAW_pot      :      0.34s CPU      0.35s WALL (      19 calls)
     mix_rho      :      1.24s CPU      1.27s WALL (      18 calls)

     Called by c_bands:
     init_us_2    :      6.72s CPU      4.39s WALL (    2886 calls)
     cegterg      :   1126.27s CPU    642.57s WALL (    1332 calls)

     Called by *egterg:
     cdiaghg      :      7.97s CPU      6.07s WALL (    7852 calls)
     h_psi        :    998.38s CPU    590.45s WALL (    7926 calls)
     s_psi        :     12.61s CPU      5.79s WALL (    7926 calls)
     g_psi        :      6.41s CPU      2.99s WALL (    6520 calls)

     Called by h_psi:
     h_psi:calbec :     11.49s CPU      6.32s WALL (    7926 calls)
     vloc_psi     :    964.09s CPU    572.61s WALL (    7926 calls)
     add_vuspsi   :     17.76s CPU      8.84s WALL (    7926 calls)

     General routines
     calbec       :     15.10s CPU      8.43s WALL (   10516 calls)
     fft          :      1.95s CPU      1.94s WALL (     339 calls)
     ffts         :      0.46s CPU      0.45s WALL (     148 calls)
     fftw         :    482.31s CPU    295.36s WALL (  351124 calls)
     interpolate  :      0.81s CPU      0.81s WALL (      76 calls)


     PWSCF        :  21m12.92s CPU  12m33.67s WALL


   This run was terminated on:  21:50:45   6Oct2025            

=------------------------------------------------------------------------------=
   JOB DONE.
=------------------------------------------------------------------------------=
