
     Program PWSCF v.7.4.1 starts on  5Jan2026 at 19:27:43 

     This program is part of the open-source Quantum ESPRESSO suite
     for quantum simulation of materials; please cite
         "P. Giannozzi et al., J. Phys.:Condens. Matter 21 395502 (2009);
         "P. Giannozzi et al., J. Phys.:Condens. Matter 29 465901 (2017);
         "P. Giannozzi et al., J. Chem. Phys. 152 154105 (2020);
          URL http://www.quantum-espresso.org", 
     in publications or presentations arising from this work. More details at
     http://www.quantum-espresso.org/quote

     Parallel version (MPI), running on    20 processors

     MPI processes distributed on     1 nodes
     39715 MiB available memory on the printing compute node when the environment starts
 
     Reading input from 4-zgnr_scf.in

     Current dimensions of program PWSCF are:
     Max number of different atomic species (ntypx) = 10
     Max number of k-points (npk) =  40000
     Max angular momentum in pseudopotentials (lmaxx) =  4
     file C.pbe-n-kjpaw_psl.1.0.0.UPF: wavefunction(s)  2S 2P renormalized
     file H.pbe-kjpaw_psl.1.0.0.UPF: wavefunction(s)  1S renormalized
 
     R & G space division:  proc/nbgrp/npool/nimage =      20
     Subspace diagonalization in iterative solution of the eigenvalue problem:
     a serial algorithm will be used

 
     Parallelization info
     --------------------
     sticks:   dense  smooth     PW     G-vecs:    dense   smooth      PW
     Min         970     389    112               309751    78409   12350
     Max         972     390    113               309757    78417   12363
     Sum       19405    7789   2255              6195059  1568223  247137
 
     Using Slab Decomposition
 


     bravais-lattice index     =            0
     lattice parameter (alat)  =       4.6761  a.u.
     unit-cell volume          =   19805.0950 (a.u.)^3
     number of atoms/cell      =           10
     number of atomic types    =            2
     number of electrons       =        34.00
     number of Kohn-Sham states=           21
     kinetic-energy cutoff     =      70.0000  Ry
     charge density cutoff     =     700.0000  Ry
     scf convergence threshold =      1.0E-06
     mixing beta               =       0.5000
     number of iterations used =            8  plain     mixing
     Exchange-correlation= SLA  PW   PBX  PBC
                           (   1   4   3   4   0   0   0)

     celldm(1)=   4.676134  celldm(2)=   0.000000  celldm(3)=   0.000000
     celldm(4)=   0.000000  celldm(5)=   0.000000  celldm(6)=   0.000000

     crystal axes: (cart. coord. in units of alat)
               a(1) = (   0.000000   0.000000   1.000000 )  
               a(2) = (  15.929660   0.000000   0.000000 )  
               a(3) = (   0.000000  12.159330   0.000000 )  

     reciprocal axes: (cart. coord. in units 2 pi/alat)
               b(1) = (  0.000000  0.000000  1.000000 )  
               b(2) = (  0.062776  0.000000  0.000000 )  
               b(3) = (  0.000000  0.082241  0.000000 )  


     PseudoPot. # 1 for C  read from file:
     ../../../PP_C/C.pbe-n-kjpaw_psl.1.0.0.UPF
     MD5 check sum: 5f16ad9a65e90284d1d834d4ab3b0f7d
     Pseudo is Projector augmented-wave + core cor, Zval =  4.0
     Generated using &quot;atomic&quot; code by A. Dal Corso  v.6.3
     Shape of augmentation charge: PSQ
     Using radial grid of 1073 points,  4 beta functions with: 
                l(1) =   0
                l(2) =   0
                l(3) =   1
                l(4) =   1
     Q(r) pseudized with 0 coefficients 


     PseudoPot. # 2 for H  read from file:
     ../../../PP_C/H.pbe-kjpaw_psl.1.0.0.UPF
     MD5 check sum: d81a744832360e4a8af0b0b5b123bc2a
     Pseudo is Projector augmented-wave, Zval =  1.0
     Generated using &quot;atomic&quot; code by A. Dal Corso  v.6.3MaX
     Shape of augmentation charge: PSQ
     Using radial grid of  929 points,  2 beta functions with: 
                l(1) =   0
                l(2) =   0
     Q(r) pseudized with 0 coefficients 


     atomic species   valence    mass     pseudopotential
     C                 4.00    12.01100     C ( 1.00)
     H                 1.00     1.00790     H ( 1.00)

     No symmetry found


                                    s                        frac. trans.

      isym =  1     identity                                     

 cryst.   s( 1) = (     1          0          0      )
                  (     0          1          0      )
                  (     0          0          1      )

 cart.    s( 1) = (  1.0000000  0.0000000  0.0000000 )
                  (  0.0000000  1.0000000  0.0000000 )
                  (  0.0000000  0.0000000  1.0000000 )


   Cartesian axes

     site n.     atom                  positions (alat units)
         1        C      tau(   1) = (   6.5023148   6.0618223   0.0000000  )
         2        C      tau(   2) = (   6.7901427   6.0618223   0.4985326  )
         3        C      tau(   3) = (   7.3657985   6.0618223   0.4985326  )
         4        C      tau(   4) = (   7.6536264   6.0618223   0.0000000  )
         5        C      tau(   5) = (   8.2292823   6.0618223   0.0000000  )
         6        C      tau(   6) = (   8.5171102   6.0618223   0.4985326  )
         7        C      tau(   7) = (   9.0927660   6.0618223   0.4985326  )
         8        C      tau(   8) = (   9.3805939   6.0618223   0.0000000  )
         9        H      tau(   9) = (   6.0618223   6.0618223   0.0000000  )
        10        H      tau(  10) = (   9.8210864   6.0618223   0.0000000  )

   Crystallographic axes

     site n.     atom                  positions (cryst. coord.)
         1        C      tau(   1) = (  0.0000000  0.4081892  0.4985326  )
         2        C      tau(   2) = (  0.4985326  0.4262579  0.4985326  )
         3        C      tau(   3) = (  0.4985326  0.4623952  0.4985326  )
         4        C      tau(   4) = (  0.0000000  0.4804639  0.4985326  )
         5        C      tau(   5) = (  0.0000000  0.5166013  0.4985326  )
         6        C      tau(   6) = (  0.4985326  0.5346699  0.4985326  )
         7        C      tau(   7) = (  0.4985326  0.5708073  0.4985326  )
         8        C      tau(   8) = (  0.0000000  0.5888760  0.4985326  )
         9        H      tau(   9) = (  0.0000000  0.3805368  0.4985326  )
        10        H      tau(  10) = (  0.0000000  0.6165283  0.4985326  )

     number of k points=     7  Gaussian smearing, width (Ry)=  0.0020
                       cart. coord. in units 2pi/alat
        k(    1) = (   0.0000000   0.0000000   0.0000000), wk =   0.1666667
        k(    2) = (   0.0000000   0.0000000   0.0833333), wk =   0.3333333
        k(    3) = (   0.0000000   0.0000000   0.1666667), wk =   0.3333333
        k(    4) = (   0.0000000   0.0000000   0.2500000), wk =   0.3333333
        k(    5) = (   0.0000000   0.0000000   0.3333333), wk =   0.3333333
        k(    6) = (   0.0000000   0.0000000   0.4166667), wk =   0.3333333
        k(    7) = (   0.0000000   0.0000000  -0.5000000), wk =   0.1666667

                       cryst. coord.
        k(    1) = (   0.0000000   0.0000000   0.0000000), wk =   0.1666667
        k(    2) = (   0.0833333   0.0000000   0.0000000), wk =   0.3333333
        k(    3) = (   0.1666667   0.0000000   0.0000000), wk =   0.3333333
        k(    4) = (   0.2500000   0.0000000   0.0000000), wk =   0.3333333
        k(    5) = (   0.3333333   0.0000000   0.0000000), wk =   0.3333333
        k(    6) = (   0.4166667   0.0000000   0.0000000), wk =   0.3333333
        k(    7) = (  -0.5000000   0.0000000   0.0000000), wk =   0.1666667

     Dense  grid:  6195059 G-vectors     FFT dimensions: (  40, 640, 480)

     Smooth grid:  1568223 G-vectors     FFT dimensions: (  25, 400, 320)

     Dynamical RAM for                 wfc:       3.14 MB

     Dynamical RAM for     wfc (w. buffer):      25.10 MB

     Dynamical RAM for           str. fact:       9.45 MB

     Dynamical RAM for           local pot:       0.00 MB

     Dynamical RAM for          nlocal pot:      10.16 MB

     Dynamical RAM for                qrad:       1.21 MB

     Dynamical RAM for          rho,v,vnew:      28.24 MB

     Dynamical RAM for               rhoin:       9.41 MB

     Dynamical RAM for            rho*nmix:      75.62 MB

     Dynamical RAM for           G-vectors:      18.32 MB

     Dynamical RAM for          h,s,v(r/c):       1.29 MB

     Dynamical RAM for          <psi|beta>:       0.02 MB

     Dynamical RAM for                 psi:      25.10 MB

     Dynamical RAM for                hpsi:      25.10 MB

     Dynamical RAM for                spsi:      25.10 MB

     Dynamical RAM for      wfcinit/wfcrot:       6.29 MB

     Dynamical RAM for           addusdens:     241.05 MB

     Dynamical RAM for          addusforce:     309.59 MB

     Dynamical RAM for         addusstress:     236.32 MB

     Estimated static dynamical RAM per process >     139.53 MB

     Estimated max dynamical RAM per process >     524.74 MB

     Estimated total dynamical RAM >      10.25 GB

     Initial potential from superposition of free atoms

     starting charge      33.9996, renormalised to      34.0000

     negative rho (up, down):  5.828E-04 0.000E+00
     Starting wfcs are random
     Checking if some PAW data can be deallocated... 
       PAW data deallocated on    4 nodes for type:  1
       PAW data deallocated on   16 nodes for type:  2

     total cpu time spent up to now is        8.8 secs

     per-process dynamical memory:   184.8 Mb

     Self-consistent Calculation

     iteration #  1     ecut=    70.00 Ry     beta= 0.50
     Davidson diagonalization with overlap

---- Real-time Memory Report at c_bands before calling an iterative solver
           451 MiB given to the printing process from OS
           180 MiB allocation reported by mallinfo(arena+hblkhd)
         35388 MiB available memory on the node where the printing process lives
------------------
     ethr =  1.00E-02,  avg # of iterations = 13.4

     negative rho (up, down):  4.696E-04 0.000E+00

     total cpu time spent up to now is       39.9 secs

     total energy              =    -149.74305417 Ry
     estimated scf accuracy    <       1.03418117 Ry

     iteration #  2     ecut=    70.00 Ry     beta= 0.50
     Davidson diagonalization with overlap

---- Real-time Memory Report at c_bands before calling an iterative solver
           558 MiB given to the printing process from OS
           242 MiB allocation reported by mallinfo(arena+hblkhd)
         34323 MiB available memory on the node where the printing process lives
------------------
     ethr =  3.04E-03,  avg # of iterations =  2.0

     negative rho (up, down):  5.902E-04 0.000E+00

     total cpu time spent up to now is       50.9 secs

     total energy              =    -149.75787868 Ry
     estimated scf accuracy    <       0.20589593 Ry

     iteration #  3     ecut=    70.00 Ry     beta= 0.50
     Davidson diagonalization with overlap

---- Real-time Memory Report at c_bands before calling an iterative solver
           562 MiB given to the printing process from OS
           245 MiB allocation reported by mallinfo(arena+hblkhd)
         34435 MiB available memory on the node where the printing process lives
------------------
     ethr =  6.06E-04,  avg # of iterations =  5.7

     negative rho (up, down):  6.447E-04 0.000E+00

     total cpu time spent up to now is       64.1 secs

     total energy              =    -149.79232558 Ry
     estimated scf accuracy    <       1.12946394 Ry

     iteration #  4     ecut=    70.00 Ry     beta= 0.50
     Davidson diagonalization with overlap

---- Real-time Memory Report at c_bands before calling an iterative solver
           566 MiB given to the printing process from OS
           247 MiB allocation reported by mallinfo(arena+hblkhd)
         34470 MiB available memory on the node where the printing process lives
------------------
     ethr =  6.06E-04,  avg # of iterations =  3.3

     negative rho (up, down):  6.841E-04 0.000E+00

     total cpu time spent up to now is       75.6 secs

     total energy              =    -149.82718094 Ry
     estimated scf accuracy    <       0.18085742 Ry

     iteration #  5     ecut=    70.00 Ry     beta= 0.50
     Davidson diagonalization with overlap

---- Real-time Memory Report at c_bands before calling an iterative solver
           572 MiB given to the printing process from OS
           249 MiB allocation reported by mallinfo(arena+hblkhd)
         34389 MiB available memory on the node where the printing process lives
------------------
     ethr =  5.32E-04,  avg # of iterations =  1.7

     negative rho (up, down):  7.316E-04 0.000E+00

     total cpu time spent up to now is       85.5 secs

     total energy              =    -149.84698074 Ry
     estimated scf accuracy    <       0.13146125 Ry

     iteration #  6     ecut=    70.00 Ry     beta= 0.50
     Davidson diagonalization with overlap

---- Real-time Memory Report at c_bands before calling an iterative solver
           575 MiB given to the printing process from OS
           252 MiB allocation reported by mallinfo(arena+hblkhd)
         34312 MiB available memory on the node where the printing process lives
------------------
     ethr =  3.87E-04,  avg # of iterations =  1.0

     negative rho (up, down):  7.441E-04 0.000E+00

     total cpu time spent up to now is       95.2 secs

     total energy              =    -149.83822844 Ry
     estimated scf accuracy    <       0.07541405 Ry

     iteration #  7     ecut=    70.00 Ry     beta= 0.50
     Davidson diagonalization with overlap

---- Real-time Memory Report at c_bands before calling an iterative solver
           579 MiB given to the printing process from OS
           254 MiB allocation reported by mallinfo(arena+hblkhd)
         34235 MiB available memory on the node where the printing process lives
------------------
     ethr =  2.22E-04,  avg # of iterations =  1.0

     negative rho (up, down):  7.478E-04 0.000E+00

     total cpu time spent up to now is      105.1 secs

     total energy              =    -149.85056285 Ry
     estimated scf accuracy    <       0.12301242 Ry

     iteration #  8     ecut=    70.00 Ry     beta= 0.50
     Davidson diagonalization with overlap

---- Real-time Memory Report at c_bands before calling an iterative solver
           582 MiB given to the printing process from OS
           257 MiB allocation reported by mallinfo(arena+hblkhd)
         34052 MiB available memory on the node where the printing process lives
------------------
     ethr =  2.22E-04,  avg # of iterations =  1.0

     negative rho (up, down):  7.549E-04 0.000E+00

     total cpu time spent up to now is      114.9 secs

     total energy              =    -149.83176850 Ry
     estimated scf accuracy    <       0.09842500 Ry

     iteration #  9     ecut=    70.00 Ry     beta= 0.50
     Davidson diagonalization with overlap

---- Real-time Memory Report at c_bands before calling an iterative solver
           585 MiB given to the printing process from OS
           259 MiB allocation reported by mallinfo(arena+hblkhd)
         33973 MiB available memory on the node where the printing process lives
------------------
     ethr =  2.22E-04,  avg # of iterations =  5.0

     negative rho (up, down):  7.567E-04 0.000E+00

     total cpu time spent up to now is      126.9 secs

     total energy              =    -149.85232566 Ry
     estimated scf accuracy    <       0.15439608 Ry

     iteration # 10     ecut=    70.00 Ry     beta= 0.50
     Davidson diagonalization with overlap

---- Real-time Memory Report at c_bands before calling an iterative solver
           590 MiB given to the printing process from OS
           261 MiB allocation reported by mallinfo(arena+hblkhd)
         34005 MiB available memory on the node where the printing process lives
------------------
     ethr =  2.22E-04,  avg # of iterations =  1.0

     negative rho (up, down):  7.589E-04 0.000E+00

     total cpu time spent up to now is      136.7 secs

     total energy              =    -149.84764186 Ry
     estimated scf accuracy    <       0.11272521 Ry

     iteration # 11     ecut=    70.00 Ry     beta= 0.50
     Davidson diagonalization with overlap

---- Real-time Memory Report at c_bands before calling an iterative solver
           591 MiB given to the printing process from OS
           261 MiB allocation reported by mallinfo(arena+hblkhd)
         33995 MiB available memory on the node where the printing process lives
------------------
     ethr =  2.22E-04,  avg # of iterations =  1.0

     negative rho (up, down):  7.593E-04 0.000E+00

     total cpu time spent up to now is      146.6 secs

     total energy              =    -149.84700499 Ry
     estimated scf accuracy    <       0.06210448 Ry

     iteration # 12     ecut=    70.00 Ry     beta= 0.50
     Davidson diagonalization with overlap

---- Real-time Memory Report at c_bands before calling an iterative solver
           591 MiB given to the printing process from OS
           261 MiB allocation reported by mallinfo(arena+hblkhd)
         34011 MiB available memory on the node where the printing process lives
------------------
     ethr =  1.83E-04,  avg # of iterations =  1.0

     negative rho (up, down):  7.593E-04 0.000E+00

     total cpu time spent up to now is      156.5 secs

     total energy              =    -149.84738727 Ry
     estimated scf accuracy    <       0.01049694 Ry

     iteration # 13     ecut=    70.00 Ry     beta= 0.50
     Davidson diagonalization with overlap

---- Real-time Memory Report at c_bands before calling an iterative solver
           592 MiB given to the printing process from OS
           261 MiB allocation reported by mallinfo(arena+hblkhd)
         34023 MiB available memory on the node where the printing process lives
------------------
     ethr =  3.09E-05,  avg # of iterations =  2.6

     negative rho (up, down):  7.599E-04 0.000E+00

     total cpu time spent up to now is      166.9 secs

     total energy              =    -149.84646466 Ry
     estimated scf accuracy    <       0.02513250 Ry

     iteration # 14     ecut=    70.00 Ry     beta= 0.50
     Davidson diagonalization with overlap

---- Real-time Memory Report at c_bands before calling an iterative solver
           592 MiB given to the printing process from OS
           261 MiB allocation reported by mallinfo(arena+hblkhd)
         33995 MiB available memory on the node where the printing process lives
------------------
     ethr =  3.09E-05,  avg # of iterations =  1.3

     negative rho (up, down):  7.593E-04 0.000E+00

     total cpu time spent up to now is      176.7 secs

     total energy              =    -149.84707581 Ry
     estimated scf accuracy    <       0.02666167 Ry

     iteration # 15     ecut=    70.00 Ry     beta= 0.50
     Davidson diagonalization with overlap

---- Real-time Memory Report at c_bands before calling an iterative solver
           593 MiB given to the printing process from OS
           261 MiB allocation reported by mallinfo(arena+hblkhd)
         34008 MiB available memory on the node where the printing process lives
------------------
     ethr =  3.09E-05,  avg # of iterations =  1.0

     negative rho (up, down):  7.593E-04 0.000E+00

     total cpu time spent up to now is      186.5 secs

     total energy              =    -149.84703115 Ry
     estimated scf accuracy    <       0.00245461 Ry

     iteration # 16     ecut=    70.00 Ry     beta= 0.50
     Davidson diagonalization with overlap

---- Real-time Memory Report at c_bands before calling an iterative solver
           594 MiB given to the printing process from OS
           261 MiB allocation reported by mallinfo(arena+hblkhd)
         34022 MiB available memory on the node where the printing process lives
------------------
     ethr =  7.22E-06,  avg # of iterations =  1.7

     negative rho (up, down):  7.598E-04 0.000E+00

     total cpu time spent up to now is      196.5 secs

     total energy              =    -149.84692053 Ry
     estimated scf accuracy    <       0.01983999 Ry

     iteration # 17     ecut=    70.00 Ry     beta= 0.50
     Davidson diagonalization with overlap

---- Real-time Memory Report at c_bands before calling an iterative solver
           594 MiB given to the printing process from OS
           261 MiB allocation reported by mallinfo(arena+hblkhd)
         34040 MiB available memory on the node where the printing process lives
------------------
     ethr =  7.22E-06,  avg # of iterations =  3.0

     negative rho (up, down):  7.598E-04 0.000E+00

     total cpu time spent up to now is      206.9 secs

     total energy              =    -149.84716958 Ry
     estimated scf accuracy    <       0.00120584 Ry

     iteration # 18     ecut=    70.00 Ry     beta= 0.50
     Davidson diagonalization with overlap

---- Real-time Memory Report at c_bands before calling an iterative solver
           594 MiB given to the printing process from OS
           261 MiB allocation reported by mallinfo(arena+hblkhd)
         34000 MiB available memory on the node where the printing process lives
------------------
     ethr =  3.55E-06,  avg # of iterations =  2.7

     negative rho (up, down):  7.598E-04 0.000E+00

     total cpu time spent up to now is      217.5 secs

     total energy              =    -149.84717941 Ry
     estimated scf accuracy    <       0.00000196 Ry

     iteration # 19     ecut=    70.00 Ry     beta= 0.50
     Davidson diagonalization with overlap

---- Real-time Memory Report at c_bands before calling an iterative solver
           595 MiB given to the printing process from OS
           261 MiB allocation reported by mallinfo(arena+hblkhd)
         34029 MiB available memory on the node where the printing process lives
------------------
     ethr =  5.75E-09,  avg # of iterations =  1.7

     negative rho (up, down):  7.598E-04 0.000E+00

     total cpu time spent up to now is      227.7 secs

     total energy              =    -149.84717922 Ry
     estimated scf accuracy    <       0.00045945 Ry

     iteration # 20     ecut=    70.00 Ry     beta= 0.50
     Davidson diagonalization with overlap

---- Real-time Memory Report at c_bands before calling an iterative solver
           596 MiB given to the printing process from OS
           261 MiB allocation reported by mallinfo(arena+hblkhd)
         34018 MiB available memory on the node where the printing process lives
------------------
     ethr =  5.75E-09,  avg # of iterations =  1.0

     negative rho (up, down):  7.598E-04 0.000E+00

     total cpu time spent up to now is      237.5 secs

     total energy              =    -149.84717884 Ry
     estimated scf accuracy    <       0.00009288 Ry

     iteration # 21     ecut=    70.00 Ry     beta= 0.50
     Davidson diagonalization with overlap

---- Real-time Memory Report at c_bands before calling an iterative solver
           596 MiB given to the printing process from OS
           261 MiB allocation reported by mallinfo(arena+hblkhd)
         34032 MiB available memory on the node where the printing process lives
------------------
     ethr =  5.75E-09,  avg # of iterations =  1.0

     negative rho (up, down):  7.598E-04 0.000E+00

     total cpu time spent up to now is      247.0 secs

     End of self-consistent calculation

          k = 0.0000 0.0000 0.0000 (195953 PWs)   bands (ev):

   -22.8074 -21.8904 -20.4907 -18.7919 -15.8781 -13.5695 -11.0828 -10.8750
    -9.8657  -9.7789  -8.9517  -8.8649  -8.3855  -7.8695  -7.3099  -7.0024
    -6.7779  -1.2209  -0.3780  -0.2986  -0.0128

     occupation numbers 
     1.0000   1.0000   1.0000   1.0000   1.0000   1.0000   1.0000   1.0000
     1.0000   1.0000   1.0000   1.0000   1.0000   1.0000   1.0000   1.0000
     1.0000   0.0000   0.0000   0.0000   0.0000

          k = 0.0000 0.0000 0.0833 (195899 PWs)   bands (ev):

   -22.6857 -21.7699 -20.3731 -18.6803 -15.7804 -13.4938 -11.0639 -10.7299
   -10.2831  -9.7225  -9.5170  -8.8494  -8.4035  -8.2435  -7.4800  -7.4336
    -6.6326  -1.2453  -0.2249  -0.1480   0.1414

     occupation numbers 
     1.0000   1.0000   1.0000   1.0000   1.0000   1.0000   1.0000   1.0000
     1.0000   1.0000   1.0000   1.0000   1.0000   1.0000   1.0000   1.0000
     1.0000   0.0000   0.0000   0.0000   0.0000

          k = 0.0000 0.0000 0.1667 (195761 PWs)   bands (ev):

   -22.3214 -21.4097 -20.0217 -18.3464 -15.5078 -13.3072 -11.6402 -10.9581
   -10.7564 -10.2979  -9.5742  -9.2971  -9.1184  -8.5033  -7.8885  -7.8232
    -6.2008  -1.4007   0.2225   0.2908   0.4958

     occupation numbers 
     1.0000   1.0000   1.0000   1.0000   1.0000   1.0000   1.0000   1.0000
     1.0000   1.0000   1.0000   1.0000   1.0000   1.0000   1.0000   1.0000
     1.0000   0.0000   0.0000   0.0000   0.0000

          k = 0.0000 0.0000 0.2500 (195668 PWs)   bands (ev):

   -21.7181 -20.8136 -19.4414 -17.7937 -15.2027 -13.3794 -13.0461 -11.9018
   -11.7252 -10.3896 -10.2236  -9.5896  -8.9488  -8.6604  -8.6051  -7.1470
    -5.4982  -1.8837   0.0580   0.9286   0.9733

     occupation numbers 
     1.0000   1.0000   1.0000   1.0000   1.0000   1.0000   1.0000   1.0000
     1.0000   1.0000   1.0000   1.0000   1.0000   1.0000   1.0000   1.0000
     1.0000   0.0000   0.0000   0.0000   0.0000

          k = 0.0000 0.0000 0.3333 (195864 PWs)   bands (ev):

   -20.8826 -19.9904 -18.6472 -17.0326 -15.6746 -14.5751 -13.6255 -13.1746
   -12.0547 -11.7127 -10.1134  -9.6603  -9.3247  -8.6280  -7.6853  -6.2877
    -4.5784  -2.7824  -0.9734   0.7067   1.8167

     occupation numbers 
     1.0000   1.0000   1.0000   1.0000   1.0000   1.0000   1.0000   1.0000
     1.0000   1.0000   1.0000   1.0000   1.0000   1.0000   1.0000   1.0000
     1.0000   0.0000   0.0000   0.0000   0.0000

          k = 0.0000 0.0000 0.4167 (196070 PWs)   bands (ev):

   -19.8292 -18.9660 -17.7854 -16.8950 -16.3103 -15.8244 -14.8399 -13.4700
   -12.8461 -11.2047 -10.7719  -9.9439  -9.8555  -7.4627  -6.6571  -5.6163
    -3.7531  -3.6904  -1.8740  -0.7784   0.3634

     occupation numbers 
     1.0000   1.0000   1.0000   1.0000   1.0000   1.0000   1.0000   1.0000
     1.0000   1.0000   1.0000   1.0000   1.0000   1.0000   1.0000   1.0000
     0.8839   0.0197   0.0000   0.0000   0.0000

          k = 0.0000 0.0000-0.5000 (196164 PWs)   bands (ev):

   -18.6237 -18.5699 -18.0693 -17.2121 -16.4624 -16.0234 -14.9345 -14.7071
   -11.9032 -11.8409 -10.6008 -10.4310  -9.8751  -6.2550  -6.2123  -6.0428
    -3.7946  -3.7134  -1.5996  -1.3521  -1.0330

     occupation numbers 
     1.0000   1.0000   1.0000   1.0000   1.0000   1.0000   1.0000   1.0000
     1.0000   1.0000   1.0000   1.0000   1.0000   1.0000   1.0000   1.0000
     0.9996   0.1933   0.0000   0.0000   0.0000

     the Fermi energy is    -3.7301 ev

!    total energy              =    -149.84717934 Ry
     total all-electron energy =      -611.959948 Ry
     estimated scf accuracy    <       0.00000028 Ry
     smearing contrib. (-TS)   =      -0.00017960 Ry
     internal energy E=F+TS    =    -149.84699973 Ry

     The total energy is F=E-TS. E is the sum of the following terms:
     one-electron contribution =   -1359.67723798 Ry
     hartree contribution      =     684.30108454 Ry
     xc contribution           =     -38.37169783 Ry
     ewald contribution        =     613.23633454 Ry
     one-center paw contrib.   =     -49.33548301 Ry
      -> PAW hartree energy AE =       9.00914558 Ry
      -> PAW hartree energy PS =      -9.00058440 Ry
      -> PAW xc energy AE      =     -10.55911701 Ry
      -> PAW xc energy PS      =       4.38346967 Ry
      -> total E_H with PAW    =     684.30964572 Ry
      -> total E_XC with PAW   =     -44.54734516 Ry

     convergence has been achieved in  21 iterations

     negative rho (up, down):  7.598E-04 0.000E+00

     Forces acting on atoms (cartesian axes, Ry/au):

     atom    1 type  1   force =     0.04643965   -0.00000192   -0.00509261
     atom    2 type  1   force =    -0.06904219   -0.00000355    0.00508363
     atom    3 type  1   force =     0.02873751   -0.00000176    0.00562623
     atom    4 type  1   force =    -0.02112552   -0.00000220   -0.00558178
     atom    5 type  1   force =     0.02115935   -0.00000211   -0.00558194
     atom    6 type  1   force =    -0.02871652   -0.00000198    0.00562665
     atom    7 type  1   force =     0.06907509   -0.00000407    0.00508316
     atom    8 type  1   force =    -0.04646661   -0.00000272   -0.00509172
     atom    9 type  2   force =    -0.00010551    0.00001020   -0.00003586
     atom   10 type  2   force =     0.00004476    0.00001011   -0.00003576
     The non-local contrib.  to forces
     atom    1 type  1   force =     0.05032109   -0.00000323   -0.00682343
     atom    2 type  1   force =    -0.01245966   -0.00000287    0.00716970
     atom    3 type  1   force =     0.01482260   -0.00000313    0.00714081
     atom    4 type  1   force =    -0.00571017   -0.00000238   -0.00711366
     atom    5 type  1   force =     0.00587200   -0.00000203   -0.00711403
     atom    6 type  1   force =    -0.01471182   -0.00000205    0.00713998
     atom    7 type  1   force =     0.01251626   -0.00000361    0.00717032
     atom    8 type  1   force =    -0.05029395   -0.00000333   -0.00682319
     atom    9 type  2   force =     0.07695659   -0.00000001    0.00000067
     atom   10 type  2   force =    -0.07694794   -0.00000000    0.00000067
     The ionic contribution  to forces
     atom    1 type  1   force =   -13.50543410    0.00000000   -0.03207874
     atom    2 type  1   force =    -9.51485854    0.00000000    0.03257921
     atom    3 type  1   force =    -4.18431063    0.00000000    0.03286559
     atom    4 type  1   force =    -2.07639529    0.00000000   -0.03287160
     atom    5 type  1   force =     2.07639529    0.00000000   -0.03287160
     atom    6 type  1   force =     4.18431063    0.00000000    0.03286559
     atom    7 type  1   force =     9.51485854    0.00000000    0.03257921
     atom    8 type  1   force =    13.50543410    0.00000000   -0.03207874
     atom    9 type  2   force =    -5.17738143    0.00000000   -0.00049446
     atom   10 type  2   force =     5.17738143    0.00000000   -0.00049446
     The local contribution  to forces
     atom    1 type  1   force =    13.50069818    0.00000415    0.03357358
     atom    2 type  1   force =     9.45747709    0.00000373   -0.03442274
     atom    3 type  1   force =     4.19843776    0.00000449   -0.03414129
     atom    4 type  1   force =     2.06107705    0.00000375    0.03416408
     atom    5 type  1   force =    -2.06056758    0.00000419    0.03416419
     atom    6 type  1   force =    -4.19802362    0.00000455   -0.03413975
     atom    7 type  1   force =    -9.45729320    0.00000579   -0.03442403
     atom    8 type  1   force =   -13.50075359    0.00000544    0.03357407
     atom    9 type  2   force =     5.10034609    0.00000002    0.00045833
     atom   10 type  2   force =    -5.10044159    0.00000025    0.00045840
     The core correction contribution to forces
     atom    1 type  1   force =     0.00057021   -0.00001316    0.00023649
     atom    2 type  1   force =     0.00029855   -0.00001467   -0.00024289
     atom    3 type  1   force =    -0.00026184   -0.00001298   -0.00023919
     atom    4 type  1   force =     0.00012259   -0.00001321    0.00023992
     atom    5 type  1   force =    -0.00012867   -0.00001325    0.00023997
     atom    6 type  1   force =     0.00025274   -0.00001304   -0.00023921
     atom    7 type  1   force =    -0.00029447   -0.00001452   -0.00024291
     atom    8 type  1   force =    -0.00056671   -0.00001315    0.00023647
     atom    9 type  2   force =     0.00000000    0.00000000    0.00000000
     atom   10 type  2   force =     0.00000000    0.00000000    0.00000000
     The Hubbard contrib.    to forces
     atom    1 type  1   force =     0.00000000    0.00000000    0.00000000
     atom    2 type  1   force =     0.00000000    0.00000000    0.00000000
     atom    3 type  1   force =     0.00000000    0.00000000    0.00000000
     atom    4 type  1   force =     0.00000000    0.00000000    0.00000000
     atom    5 type  1   force =     0.00000000    0.00000000    0.00000000
     atom    6 type  1   force =     0.00000000    0.00000000    0.00000000
     atom    7 type  1   force =     0.00000000    0.00000000    0.00000000
     atom    8 type  1   force =     0.00000000    0.00000000    0.00000000
     atom    9 type  2   force =     0.00000000    0.00000000    0.00000000
     atom   10 type  2   force =     0.00000000    0.00000000    0.00000000
     The SCF correction term to forces
     atom    1 type  1   force =     0.00030479    0.00000018   -0.00000014
     atom    2 type  1   force =     0.00052089    0.00000012    0.00000071
     atom    3 type  1   force =     0.00007013   -0.00000027    0.00000067
     atom    4 type  1   force =    -0.00019918   -0.00000051   -0.00000015
     atom    5 type  1   force =    -0.00039118   -0.00000115   -0.00000011
     atom    6 type  1   force =    -0.00052395   -0.00000158    0.00000040
     atom    7 type  1   force =    -0.00069153   -0.00000187    0.00000092
     atom    8 type  1   force =    -0.00026595   -0.00000182    0.00000005
     atom    9 type  2   force =    -0.00000625    0.00000005   -0.00000003
     atom   10 type  2   force =     0.00007337   -0.00000027   -0.00000000

     Total force =     0.128948     Total SCF correction =     0.001179


     Computing stress (Cartesian axis) and pressure


     negative rho (up, down):  7.598E-04 0.000E+00
          total   stress  (Ry/bohr**3)                   (kbar)     P=       -0.62
   0.00000084  -0.00000000   0.00000000            0.12       -0.00        0.00
  -0.00000000  -0.00000019   0.00000000           -0.00       -0.03        0.00
   0.00000000   0.00000000  -0.00001339            0.00        0.00       -1.97

     kinetic stress (kbar)    285.80     -0.00     -0.00
                               -0.00    325.31      0.00
                               -0.00      0.00    287.44

     local   stress (kbar)  -1557.09     -0.00      0.00
                               -0.00   1525.45     -0.00
                                0.00     -0.00 -10482.99

     nonloc. stress (kbar)     69.79      0.00     -0.00
                                0.00     63.94      0.00
                               -0.00      0.00     69.99

     hartree stress (kbar)    646.84      0.00     -0.00
                                0.00   -619.51      0.00
                               -0.00      0.00   5055.42

     exc-cor stress (kbar)     -8.08      0.00     -0.00
                                0.00    -11.18      0.00
                               -0.00      0.00     -7.98

     corecor stress (kbar)    -67.01      0.00      0.00
                                0.00    -65.86      0.00
                                0.00      0.00    -67.03

     ewald   stress (kbar)    629.87     -0.00      0.00
                               -0.00  -1218.17      0.00
                                0.00      0.00   5143.20

     hubbard stress (kbar)      0.00      0.00      0.00
                                0.00      0.00      0.00
                                0.00      0.00      0.00

     DFT-D   stress (kbar)      0.00      0.00      0.00
                                0.00      0.00      0.00
                                0.00      0.00      0.00

     XDM     stress (kbar)      0.00      0.00      0.00
                                0.00      0.00      0.00
                                0.00      0.00      0.00

     dft-nl  stress (kbar)      0.00      0.00      0.00
                                0.00      0.00      0.00
                                0.00      0.00      0.00

     TS-vdW  stress (kbar)      0.00      0.00      0.00
                                0.00      0.00      0.00
                                0.00      0.00      0.00

     MDB     stress (kbar)      0.00      0.00      0.00
                                0.00      0.00      0.00
                                0.00      0.00      0.00

     3D-RISM stress (kbar)      0.00      0.00      0.00
                                0.00      0.00      0.00
                                0.00      0.00      0.00


     Writing all to output data dir ../tmp/ZGNR.save/ :
     XML data file, charge density, pseudopotentials, collected wavefunctions
 
     init_run     :      8.30s CPU      8.72s WALL (       1 calls)
     electrons    :    227.58s CPU    241.10s WALL (       1 calls)
     forces       :      2.43s CPU      2.71s WALL (       1 calls)
     stress       :      8.59s CPU      9.03s WALL (       1 calls)

     Called by init_run:
     wfcinit      :      2.72s CPU      2.78s WALL (       1 calls)
     wfcinit:wfcr :      2.54s CPU      2.59s WALL (       7 calls)
     potinit      :      0.95s CPU      1.06s WALL (       1 calls)
     hinit0       :      0.21s CPU      0.25s WALL (       1 calls)

     Called by electrons:
     c_bands      :    148.83s CPU    151.95s WALL (      21 calls)
     sum_band     :     40.79s CPU     43.65s WALL (      21 calls)
     v_of_rho     :     19.30s CPU     21.39s WALL (      22 calls)
     v_h          :      2.14s CPU      2.47s WALL (      22 calls)
     v_xc         :     18.58s CPU     20.50s WALL (      24 calls)
     newd         :     11.99s CPU     14.52s WALL (      22 calls)
     PAW_pot      :      0.69s CPU      0.70s WALL (      22 calls)
     mix_rho      :      4.63s CPU      4.92s WALL (      21 calls)

     Called by c_bands:
     init_us_2    :      5.75s CPU      5.82s WALL (     315 calls)
     cegterg      :    143.96s CPU    146.98s WALL (     147 calls)

     Called by sum_band:
     sum_band:wei :      0.00s CPU      0.00s WALL (      21 calls)
     sum_band:loo :     21.66s CPU     21.92s WALL (      21 calls)
     sum_band:buf :      0.48s CPU      0.49s WALL (     147 calls)
     sum_band:ini :      2.68s CPU      2.71s WALL (     147 calls)
     sum_band:cal :      1.13s CPU      1.14s WALL (     147 calls)
     sum_band:bec :      0.01s CPU      0.01s WALL (     147 calls)
     addusdens    :     14.56s CPU     16.99s WALL (      21 calls)
                                        0.00s GPU  (      21 calls)
     addusd:skk   :      0.79s CPU      1.16s WALL (      42 calls)
                                        0.00s GPU  (      42 calls)

     Called by *egterg:
     cdiaghg      :      0.66s CPU      0.67s WALL (     519 calls)
     cegterg:over :      3.66s CPU      3.69s WALL (     372 calls)
     cegterg:upda :      3.81s CPU      3.85s WALL (     372 calls)
     cegterg:last :      1.23s CPU      1.23s WALL (     154 calls)
     h_psi        :    130.37s CPU    132.63s WALL (     526 calls)
     s_psi        :      4.15s CPU      4.18s WALL (     526 calls)
     g_psi        :      0.23s CPU      0.23s WALL (     372 calls)

     Called by h_psi:
     h_psi:calbec :      3.58s CPU      3.60s WALL (     526 calls)
     vloc_psi     :    121.63s CPU    123.27s WALL (     526 calls)
     add_vuspsi   :      4.21s CPU      4.23s WALL (     526 calls)

     General routines
     calbec       :      5.52s CPU      5.56s WALL (     792 calls)
     fft          :     20.87s CPU     23.36s WALL (     309 calls)
     ffts         :      0.36s CPU      0.37s WALL (      43 calls)
     fftw         :     61.35s CPU     62.10s WALL (   18463 calls)
     interpolate  :      1.46s CPU      1.60s WALL (      22 calls)
 
     Parallel routines

     PAW routines
     PAW_pot      :      0.69s CPU      0.70s WALL (      22 calls)
 
     PWSCF        :   4m 7.52s CPU   4m29.90s WALL

 
   This run was terminated on:  19:32:13   5Jan2026            

=------------------------------------------------------------------------------=
   JOB DONE.
=------------------------------------------------------------------------------=
