
     Program PWSCF v.7.4.1 starts on 31Dec2025 at  3:16:45 

     This program is part of the open-source Quantum ESPRESSO suite
     for quantum simulation of materials; please cite
         "P. Giannozzi et al., J. Phys.:Condens. Matter 21 395502 (2009);
         "P. Giannozzi et al., J. Phys.:Condens. Matter 29 465901 (2017);
         "P. Giannozzi et al., J. Chem. Phys. 152 154105 (2020);
          URL http://www.quantum-espresso.org", 
     in publications or presentations arising from this work. More details at
     http://www.quantum-espresso.org/quote

     Parallel version (MPI), running on    20 processors

     MPI processes distributed on     1 nodes
     83256 MiB available memory on the printing compute node when the environment starts
 
     Reading input from 1-agnr_nscf.in

     Current dimensions of program PWSCF are:
     Max number of different atomic species (ntypx) = 10
     Max number of k-points (npk) =  40000
     Max angular momentum in pseudopotentials (lmaxx) =  4
     Message from routine input:
     WARNING: "startingwfc" set to random may spoil restart
     file C.pbe-n-kjpaw_psl.1.0.0.UPF: wavefunction(s)  2S 2P renormalized
     file H.pbe-kjpaw_psl.1.0.0.UPF: wavefunction(s)  1S renormalized
 
     R & G space division:  proc/nbgrp/npool/nimage =      20
     Subspace diagonalization in iterative solution of the eigenvalue problem:
     a serial algorithm will be used

 
     Parallelization info
     --------------------
     sticks:   dense  smooth     PW     G-vecs:    dense   smooth      PW
     Min        1416     567    155               451990   114393   16381
     Max        1417     568    156               451997   114400   16388
     Sum       28333   11345   3117              9039883  2287895  327715
 
     Using Slab Decomposition
 


     bravais-lattice index     =            0
     lattice parameter (alat)  =       8.0993  a.u.
     unit-cell volume          =   28908.8086 (a.u.)^3
     number of atoms/cell      =            8
     number of atomic types    =            2
     number of electrons       =        20.00
     number of Kohn-Sham states=           14
     kinetic-energy cutoff     =      70.0000  Ry
     charge density cutoff     =     700.0000  Ry
     Exchange-correlation= SLA  PW   PBX  PBC
                           (   1   4   3   4   0   0   0)

     celldm(1)=   8.099301  celldm(2)=   0.000000  celldm(3)=   0.000000
     celldm(4)=   0.000000  celldm(5)=   0.000000  celldm(6)=   0.000000

     crystal axes: (cart. coord. in units of alat)
               a(1) = (   0.000000   0.000000   1.000000 )  
               a(2) = (   7.750657   0.000000   0.000000 )  
               a(3) = (   0.000000   7.020193   0.000000 )  

     reciprocal axes: (cart. coord. in units 2 pi/alat)
               b(1) = (  0.000000  0.000000  1.000000 )  
               b(2) = (  0.129021  0.000000  0.000000 )  
               b(3) = (  0.000000  0.142446  0.000000 )  


     PseudoPot. # 1 for C  read from file:
     ../../../PP_C/C.pbe-n-kjpaw_psl.1.0.0.UPF
     MD5 check sum: 5f16ad9a65e90284d1d834d4ab3b0f7d
     Pseudo is Projector augmented-wave + core cor, Zval =  4.0
     Generated using &quot;atomic&quot; code by A. Dal Corso  v.6.3
     Shape of augmentation charge: PSQ
     Using radial grid of 1073 points,  4 beta functions with: 
                l(1) =   0
                l(2) =   0
                l(3) =   1
                l(4) =   1
     Q(r) pseudized with 0 coefficients 


     PseudoPot. # 2 for H  read from file:
     ../../../PP_C/H.pbe-kjpaw_psl.1.0.0.UPF
     MD5 check sum: d81a744832360e4a8af0b0b5b123bc2a
     Pseudo is Projector augmented-wave, Zval =  1.0
     Generated using &quot;atomic&quot; code by A. Dal Corso  v.6.3MaX
     Shape of augmentation charge: PSQ
     Using radial grid of  929 points,  2 beta functions with: 
                l(1) =   0
                l(2) =   0
     Q(r) pseudized with 0 coefficients 


     atomic species   valence    mass     pseudopotential
     C                 4.00    12.01100     C ( 1.00)
     H                 1.00     1.00790     H ( 1.00)

     No symmetry found


                                    s                        frac. trans.

      isym =  1     identity                                     

 cryst.   s( 1) = (     1          0          0      )
                  (     0          1          0      )
                  (     0          0          1      )

 cart.    s( 1) = (  1.0000000  0.0000000  0.0000000 )
                  (  0.0000000  1.0000000  0.0000000 )
                  (  0.0000000  0.0000000  1.0000000 )


   Cartesian axes

     site n.     atom                  positions (alat units)
         1        C      tau(   1) = (   3.7200410   3.4997948   0.0000000  )
         2        C      tau(   2) = (   4.0078689   3.4997948   0.1661775  )
         3        C      tau(   3) = (   4.0078689   3.4997948   0.4985326  )
         4        C      tau(   4) = (   3.7200410   3.4997948   0.6647101  )
         5        H      tau(   5) = (   3.4997948   3.4997948   0.1271592  )
         6        H      tau(   6) = (   3.4997948   3.4997948   0.5375509  )
         7        H      tau(   7) = (   4.2281151   3.4997948   0.0390183  )
         8        H      tau(   8) = (   4.2281151   3.4997948   0.6256918  )

   Crystallographic axes

     site n.     atom                  positions (cryst. coord.)
         1        C      tau(   1) = (  0.0000000  0.4799646  0.4985326  )
         2        C      tau(   2) = (  0.1661775  0.5171005  0.4985326  )
         3        C      tau(   3) = (  0.4985326  0.5171005  0.4985326  )
         4        C      tau(   4) = (  0.6647101  0.4799646  0.4985326  )
         5        H      tau(   5) = (  0.1271592  0.4515481  0.4985326  )
         6        H      tau(   6) = (  0.5375509  0.4515481  0.4985326  )
         7        H      tau(   7) = (  0.0390183  0.5455170  0.4985326  )
         8        H      tau(   8) = (  0.6256918  0.5455170  0.4985326  )

     number of k points=    76  Gaussian smearing, width (Ry)=  0.0020
                       cart. coord. in units 2pi/alat
        k(    1) = (   0.0000000   0.0000000   0.0000000), wk =   0.0133333
        k(    2) = (   0.0000000   0.0000000   0.0066667), wk =   0.0266667
        k(    3) = (   0.0000000   0.0000000   0.0133333), wk =   0.0266667
        k(    4) = (   0.0000000   0.0000000   0.0200000), wk =   0.0266667
        k(    5) = (   0.0000000   0.0000000   0.0266667), wk =   0.0266667
        k(    6) = (   0.0000000   0.0000000   0.0333333), wk =   0.0266667
        k(    7) = (   0.0000000   0.0000000   0.0400000), wk =   0.0266667
        k(    8) = (   0.0000000   0.0000000   0.0466667), wk =   0.0266667
        k(    9) = (   0.0000000   0.0000000   0.0533333), wk =   0.0266667
        k(   10) = (   0.0000000   0.0000000   0.0600000), wk =   0.0266667
        k(   11) = (   0.0000000   0.0000000   0.0666667), wk =   0.0266667
        k(   12) = (   0.0000000   0.0000000   0.0733333), wk =   0.0266667
        k(   13) = (   0.0000000   0.0000000   0.0800000), wk =   0.0266667
        k(   14) = (   0.0000000   0.0000000   0.0866667), wk =   0.0266667
        k(   15) = (   0.0000000   0.0000000   0.0933333), wk =   0.0266667
        k(   16) = (   0.0000000   0.0000000   0.1000000), wk =   0.0266667
        k(   17) = (   0.0000000   0.0000000   0.1066667), wk =   0.0266667
        k(   18) = (   0.0000000   0.0000000   0.1133333), wk =   0.0266667
        k(   19) = (   0.0000000   0.0000000   0.1200000), wk =   0.0266667
        k(   20) = (   0.0000000   0.0000000   0.1266667), wk =   0.0266667
        k(   21) = (   0.0000000   0.0000000   0.1333333), wk =   0.0266667
        k(   22) = (   0.0000000   0.0000000   0.1400000), wk =   0.0266667
        k(   23) = (   0.0000000   0.0000000   0.1466667), wk =   0.0266667
        k(   24) = (   0.0000000   0.0000000   0.1533333), wk =   0.0266667
        k(   25) = (   0.0000000   0.0000000   0.1600000), wk =   0.0266667
        k(   26) = (   0.0000000   0.0000000   0.1666667), wk =   0.0266667
        k(   27) = (   0.0000000   0.0000000   0.1733333), wk =   0.0266667
        k(   28) = (   0.0000000   0.0000000   0.1800000), wk =   0.0266667
        k(   29) = (   0.0000000   0.0000000   0.1866667), wk =   0.0266667
        k(   30) = (   0.0000000   0.0000000   0.1933333), wk =   0.0266667
        k(   31) = (   0.0000000   0.0000000   0.2000000), wk =   0.0266667
        k(   32) = (   0.0000000   0.0000000   0.2066667), wk =   0.0266667
        k(   33) = (   0.0000000   0.0000000   0.2133333), wk =   0.0266667
        k(   34) = (   0.0000000   0.0000000   0.2200000), wk =   0.0266667
        k(   35) = (   0.0000000   0.0000000   0.2266667), wk =   0.0266667
        k(   36) = (   0.0000000   0.0000000   0.2333333), wk =   0.0266667
        k(   37) = (   0.0000000   0.0000000   0.2400000), wk =   0.0266667
        k(   38) = (   0.0000000   0.0000000   0.2466667), wk =   0.0266667
        k(   39) = (   0.0000000   0.0000000   0.2533333), wk =   0.0266667
        k(   40) = (   0.0000000   0.0000000   0.2600000), wk =   0.0266667
        k(   41) = (   0.0000000   0.0000000   0.2666667), wk =   0.0266667
        k(   42) = (   0.0000000   0.0000000   0.2733333), wk =   0.0266667
        k(   43) = (   0.0000000   0.0000000   0.2800000), wk =   0.0266667
        k(   44) = (   0.0000000   0.0000000   0.2866667), wk =   0.0266667
        k(   45) = (   0.0000000   0.0000000   0.2933333), wk =   0.0266667
        k(   46) = (   0.0000000   0.0000000   0.3000000), wk =   0.0266667
        k(   47) = (   0.0000000   0.0000000   0.3066667), wk =   0.0266667
        k(   48) = (   0.0000000   0.0000000   0.3133333), wk =   0.0266667
        k(   49) = (   0.0000000   0.0000000   0.3200000), wk =   0.0266667
        k(   50) = (   0.0000000   0.0000000   0.3266667), wk =   0.0266667
        k(   51) = (   0.0000000   0.0000000   0.3333333), wk =   0.0266667
        k(   52) = (   0.0000000   0.0000000   0.3400000), wk =   0.0266667
        k(   53) = (   0.0000000   0.0000000   0.3466667), wk =   0.0266667
        k(   54) = (   0.0000000   0.0000000   0.3533333), wk =   0.0266667
        k(   55) = (   0.0000000   0.0000000   0.3600000), wk =   0.0266667
        k(   56) = (   0.0000000   0.0000000   0.3666667), wk =   0.0266667
        k(   57) = (   0.0000000   0.0000000   0.3733333), wk =   0.0266667
        k(   58) = (   0.0000000   0.0000000   0.3800000), wk =   0.0266667
        k(   59) = (   0.0000000   0.0000000   0.3866667), wk =   0.0266667
        k(   60) = (   0.0000000   0.0000000   0.3933333), wk =   0.0266667
        k(   61) = (   0.0000000   0.0000000   0.4000000), wk =   0.0266667
        k(   62) = (   0.0000000   0.0000000   0.4066667), wk =   0.0266667
        k(   63) = (   0.0000000   0.0000000   0.4133333), wk =   0.0266667
        k(   64) = (   0.0000000   0.0000000   0.4200000), wk =   0.0266667
        k(   65) = (   0.0000000   0.0000000   0.4266667), wk =   0.0266667
        k(   66) = (   0.0000000   0.0000000   0.4333333), wk =   0.0266667
        k(   67) = (   0.0000000   0.0000000   0.4400000), wk =   0.0266667
        k(   68) = (   0.0000000   0.0000000   0.4466667), wk =   0.0266667
        k(   69) = (   0.0000000   0.0000000   0.4533333), wk =   0.0266667
        k(   70) = (   0.0000000   0.0000000   0.4600000), wk =   0.0266667
        k(   71) = (   0.0000000   0.0000000   0.4666667), wk =   0.0266667
        k(   72) = (   0.0000000   0.0000000   0.4733333), wk =   0.0266667
        k(   73) = (   0.0000000   0.0000000   0.4800000), wk =   0.0266667
        k(   74) = (   0.0000000   0.0000000   0.4866667), wk =   0.0266667
        k(   75) = (   0.0000000   0.0000000   0.4933333), wk =   0.0266667
        k(   76) = (   0.0000000   0.0000000  -0.5000000), wk =   0.0133333

                       cryst. coord.
        k(    1) = (   0.0000000   0.0000000   0.0000000), wk =   0.0133333
        k(    2) = (   0.0066667   0.0000000   0.0000000), wk =   0.0266667
        k(    3) = (   0.0133333   0.0000000   0.0000000), wk =   0.0266667
        k(    4) = (   0.0200000   0.0000000   0.0000000), wk =   0.0266667
        k(    5) = (   0.0266667   0.0000000   0.0000000), wk =   0.0266667
        k(    6) = (   0.0333333   0.0000000   0.0000000), wk =   0.0266667
        k(    7) = (   0.0400000   0.0000000   0.0000000), wk =   0.0266667
        k(    8) = (   0.0466667   0.0000000   0.0000000), wk =   0.0266667
        k(    9) = (   0.0533333   0.0000000   0.0000000), wk =   0.0266667
        k(   10) = (   0.0600000   0.0000000   0.0000000), wk =   0.0266667
        k(   11) = (   0.0666667   0.0000000   0.0000000), wk =   0.0266667
        k(   12) = (   0.0733333   0.0000000   0.0000000), wk =   0.0266667
        k(   13) = (   0.0800000   0.0000000   0.0000000), wk =   0.0266667
        k(   14) = (   0.0866667   0.0000000   0.0000000), wk =   0.0266667
        k(   15) = (   0.0933333   0.0000000   0.0000000), wk =   0.0266667
        k(   16) = (   0.1000000   0.0000000   0.0000000), wk =   0.0266667
        k(   17) = (   0.1066667   0.0000000   0.0000000), wk =   0.0266667
        k(   18) = (   0.1133333   0.0000000   0.0000000), wk =   0.0266667
        k(   19) = (   0.1200000   0.0000000   0.0000000), wk =   0.0266667
        k(   20) = (   0.1266667   0.0000000   0.0000000), wk =   0.0266667
        k(   21) = (   0.1333333   0.0000000   0.0000000), wk =   0.0266667
        k(   22) = (   0.1400000   0.0000000   0.0000000), wk =   0.0266667
        k(   23) = (   0.1466667   0.0000000   0.0000000), wk =   0.0266667
        k(   24) = (   0.1533333   0.0000000   0.0000000), wk =   0.0266667
        k(   25) = (   0.1600000   0.0000000   0.0000000), wk =   0.0266667
        k(   26) = (   0.1666667   0.0000000   0.0000000), wk =   0.0266667
        k(   27) = (   0.1733333   0.0000000   0.0000000), wk =   0.0266667
        k(   28) = (   0.1800000   0.0000000   0.0000000), wk =   0.0266667
        k(   29) = (   0.1866667   0.0000000   0.0000000), wk =   0.0266667
        k(   30) = (   0.1933333   0.0000000   0.0000000), wk =   0.0266667
        k(   31) = (   0.2000000   0.0000000   0.0000000), wk =   0.0266667
        k(   32) = (   0.2066667   0.0000000   0.0000000), wk =   0.0266667
        k(   33) = (   0.2133333   0.0000000   0.0000000), wk =   0.0266667
        k(   34) = (   0.2200000   0.0000000   0.0000000), wk =   0.0266667
        k(   35) = (   0.2266667   0.0000000   0.0000000), wk =   0.0266667
        k(   36) = (   0.2333333   0.0000000   0.0000000), wk =   0.0266667
        k(   37) = (   0.2400000   0.0000000   0.0000000), wk =   0.0266667
        k(   38) = (   0.2466667   0.0000000   0.0000000), wk =   0.0266667
        k(   39) = (   0.2533333   0.0000000   0.0000000), wk =   0.0266667
        k(   40) = (   0.2600000   0.0000000   0.0000000), wk =   0.0266667
        k(   41) = (   0.2666667   0.0000000   0.0000000), wk =   0.0266667
        k(   42) = (   0.2733333   0.0000000   0.0000000), wk =   0.0266667
        k(   43) = (   0.2800000   0.0000000   0.0000000), wk =   0.0266667
        k(   44) = (   0.2866667   0.0000000   0.0000000), wk =   0.0266667
        k(   45) = (   0.2933333   0.0000000   0.0000000), wk =   0.0266667
        k(   46) = (   0.3000000   0.0000000   0.0000000), wk =   0.0266667
        k(   47) = (   0.3066667   0.0000000   0.0000000), wk =   0.0266667
        k(   48) = (   0.3133333   0.0000000   0.0000000), wk =   0.0266667
        k(   49) = (   0.3200000   0.0000000   0.0000000), wk =   0.0266667
        k(   50) = (   0.3266667   0.0000000   0.0000000), wk =   0.0266667
        k(   51) = (   0.3333333   0.0000000   0.0000000), wk =   0.0266667
        k(   52) = (   0.3400000   0.0000000   0.0000000), wk =   0.0266667
        k(   53) = (   0.3466667   0.0000000   0.0000000), wk =   0.0266667
        k(   54) = (   0.3533333   0.0000000   0.0000000), wk =   0.0266667
        k(   55) = (   0.3600000   0.0000000   0.0000000), wk =   0.0266667
        k(   56) = (   0.3666667   0.0000000   0.0000000), wk =   0.0266667
        k(   57) = (   0.3733333   0.0000000   0.0000000), wk =   0.0266667
        k(   58) = (   0.3800000   0.0000000   0.0000000), wk =   0.0266667
        k(   59) = (   0.3866667   0.0000000   0.0000000), wk =   0.0266667
        k(   60) = (   0.3933333   0.0000000   0.0000000), wk =   0.0266667
        k(   61) = (   0.4000000   0.0000000   0.0000000), wk =   0.0266667
        k(   62) = (   0.4066667   0.0000000   0.0000000), wk =   0.0266667
        k(   63) = (   0.4133333   0.0000000   0.0000000), wk =   0.0266667
        k(   64) = (   0.4200000   0.0000000   0.0000000), wk =   0.0266667
        k(   65) = (   0.4266667   0.0000000   0.0000000), wk =   0.0266667
        k(   66) = (   0.4333333   0.0000000   0.0000000), wk =   0.0266667
        k(   67) = (   0.4400000   0.0000000   0.0000000), wk =   0.0266667
        k(   68) = (   0.4466667   0.0000000   0.0000000), wk =   0.0266667
        k(   69) = (   0.4533333   0.0000000   0.0000000), wk =   0.0266667
        k(   70) = (   0.4600000   0.0000000   0.0000000), wk =   0.0266667
        k(   71) = (   0.4666667   0.0000000   0.0000000), wk =   0.0266667
        k(   72) = (   0.4733333   0.0000000   0.0000000), wk =   0.0266667
        k(   73) = (   0.4800000   0.0000000   0.0000000), wk =   0.0266667
        k(   74) = (   0.4866667   0.0000000   0.0000000), wk =   0.0266667
        k(   75) = (   0.4933333   0.0000000   0.0000000), wk =   0.0266667
        k(   76) = (  -0.5000000   0.0000000   0.0000000), wk =   0.0133333

     Dense  grid:  9039883 G-vectors     FFT dimensions: (  72, 540, 480)

     Smooth grid:  2287895 G-vectors     FFT dimensions: (  45, 360, 320)

     Dynamical RAM for                 wfc:       3.05 MB

     Dynamical RAM for     wfc (w. buffer):       3.05 MB

     Dynamical RAM for           str. fact:      13.79 MB

     Dynamical RAM for           local pot:       0.00 MB

     Dynamical RAM for          nlocal pot:       8.72 MB

     Dynamical RAM for                qrad:       1.21 MB

     Dynamical RAM for          rho,v,vnew:      42.05 MB

     Dynamical RAM for           G-vectors:      26.74 MB

     Dynamical RAM for          h,s,v(r/c):       0.04 MB

     Dynamical RAM for          <psi|beta>:       0.01 MB

     Dynamical RAM for                 psi:       6.11 MB

     Dynamical RAM for                hpsi:       6.11 MB

     Dynamical RAM for                spsi:       6.11 MB

     Dynamical RAM for      wfcinit/wfcrot:       6.11 MB

     Dynamical RAM for           addusdens:     324.16 MB

     Estimated static dynamical RAM per process >     151.86 MB

     Estimated max dynamical RAM per process >     476.01 MB

     Estimated total dynamical RAM >       9.30 GB

     Atomic positions and unit cell read from directory:
     ../tmp/AGNR.save/
 

     The potential is recalculated from file :
     ../tmp/AGNR.save/charge-density


     negative rho (up, down):  6.880E-04 0.000E+00
     Starting wfcs are random
     Checking if some PAW data can be deallocated... 
       PAW data deallocated on    8 nodes for type:  1
       PAW data deallocated on   12 nodes for type:  2

     Band Structure Calculation
     Davidson diagonalization with overlap

     Computing kpt #:     1  of    76
     c_bands:  1 eigenvalues not converged
     total cpu time spent up to now is       25.0 secs

     Computing kpt #:     2  of    76
     total cpu time spent up to now is       41.7 secs

     Computing kpt #:     3  of    76
     total cpu time spent up to now is       58.3 secs

     Computing kpt #:     4  of    76
     c_bands:  1 eigenvalues not converged
     total cpu time spent up to now is       74.9 secs

     Computing kpt #:     5  of    76
     c_bands:  1 eigenvalues not converged
     total cpu time spent up to now is       91.8 secs

     Computing kpt #:     6  of    76
     total cpu time spent up to now is      107.8 secs

     Computing kpt #:     7  of    76
     c_bands:  1 eigenvalues not converged
     total cpu time spent up to now is      124.4 secs

     Computing kpt #:     8  of    76
     c_bands:  1 eigenvalues not converged
     total cpu time spent up to now is      141.2 secs

     Computing kpt #:     9  of    76
     c_bands:  1 eigenvalues not converged
     total cpu time spent up to now is      157.9 secs

     Computing kpt #:    10  of    76
     total cpu time spent up to now is      174.6 secs

     Computing kpt #:    11  of    76
     c_bands:  1 eigenvalues not converged
     total cpu time spent up to now is      191.2 secs

     Computing kpt #:    12  of    76
     c_bands:  1 eigenvalues not converged
     total cpu time spent up to now is      207.8 secs

     Computing kpt #:    13  of    76
     total cpu time spent up to now is      224.2 secs

     Computing kpt #:    14  of    76
     total cpu time spent up to now is      240.9 secs

     Computing kpt #:    15  of    76
     total cpu time spent up to now is      256.9 secs

     Computing kpt #:    16  of    76
     c_bands:  1 eigenvalues not converged
     total cpu time spent up to now is      273.7 secs

     Computing kpt #:    17  of    76
     total cpu time spent up to now is      290.0 secs

     Computing kpt #:    18  of    76
     total cpu time spent up to now is      306.9 secs

     Computing kpt #:    19  of    76
     c_bands:  1 eigenvalues not converged
     total cpu time spent up to now is      323.7 secs

     Computing kpt #:    20  of    76
     c_bands:  1 eigenvalues not converged
     total cpu time spent up to now is      340.6 secs

     Computing kpt #:    21  of    76
     total cpu time spent up to now is      357.3 secs

     Computing kpt #:    22  of    76
     total cpu time spent up to now is      374.1 secs

     Computing kpt #:    23  of    76
     total cpu time spent up to now is      390.7 secs

     Computing kpt #:    24  of    76
     c_bands:  1 eigenvalues not converged
     total cpu time spent up to now is      407.7 secs

     Computing kpt #:    25  of    76
     c_bands:  1 eigenvalues not converged
     total cpu time spent up to now is      424.5 secs

     Computing kpt #:    26  of    76
     c_bands:  1 eigenvalues not converged
     total cpu time spent up to now is      441.2 secs

     Computing kpt #:    27  of    76
     total cpu time spent up to now is      457.3 secs

     Computing kpt #:    28  of    76
     c_bands:  1 eigenvalues not converged
     total cpu time spent up to now is      473.9 secs

     Computing kpt #:    29  of    76
     c_bands:  1 eigenvalues not converged
     total cpu time spent up to now is      490.6 secs

     Computing kpt #:    30  of    76
     total cpu time spent up to now is      506.9 secs

     Computing kpt #:    31  of    76
     c_bands:  1 eigenvalues not converged
     total cpu time spent up to now is      523.8 secs

     Computing kpt #:    32  of    76
     c_bands:  1 eigenvalues not converged
     total cpu time spent up to now is      540.7 secs

     Computing kpt #:    33  of    76
     c_bands:  1 eigenvalues not converged
     total cpu time spent up to now is      557.4 secs

     Computing kpt #:    34  of    76
     c_bands:  1 eigenvalues not converged
     total cpu time spent up to now is      574.5 secs

     Computing kpt #:    35  of    76
     c_bands:  1 eigenvalues not converged
     total cpu time spent up to now is      591.1 secs

     Computing kpt #:    36  of    76
     c_bands:  1 eigenvalues not converged
     total cpu time spent up to now is      607.7 secs

     Computing kpt #:    37  of    76
     c_bands:  1 eigenvalues not converged
     total cpu time spent up to now is      624.8 secs

     Computing kpt #:    38  of    76
     c_bands:  1 eigenvalues not converged
     total cpu time spent up to now is      642.0 secs

     Computing kpt #:    39  of    76
     c_bands:  1 eigenvalues not converged
     total cpu time spent up to now is      659.3 secs

     Computing kpt #:    40  of    76
     c_bands:  1 eigenvalues not converged
     total cpu time spent up to now is      676.2 secs

     Computing kpt #:    41  of    76
     c_bands:  1 eigenvalues not converged
     total cpu time spent up to now is      693.2 secs

     Computing kpt #:    42  of    76
     c_bands:  1 eigenvalues not converged
     total cpu time spent up to now is      710.1 secs

     Computing kpt #:    43  of    76
     c_bands:  1 eigenvalues not converged
     total cpu time spent up to now is      727.5 secs

     Computing kpt #:    44  of    76
     c_bands:  1 eigenvalues not converged
     total cpu time spent up to now is      744.9 secs

     Computing kpt #:    45  of    76
     c_bands:  1 eigenvalues not converged
     total cpu time spent up to now is      762.0 secs

     Computing kpt #:    46  of    76
     c_bands:  1 eigenvalues not converged
     total cpu time spent up to now is      779.4 secs

     Computing kpt #:    47  of    76
     c_bands:  1 eigenvalues not converged
     total cpu time spent up to now is      796.5 secs

     Computing kpt #:    48  of    76
     c_bands:  1 eigenvalues not converged
     total cpu time spent up to now is      814.0 secs

     Computing kpt #:    49  of    76
     c_bands:  1 eigenvalues not converged
     total cpu time spent up to now is      831.6 secs

     Computing kpt #:    50  of    76
     total cpu time spent up to now is      848.8 secs

     Computing kpt #:    51  of    76
     total cpu time spent up to now is      864.3 secs

     Computing kpt #:    52  of    76
     total cpu time spent up to now is      878.6 secs

     Computing kpt #:    53  of    76
     total cpu time spent up to now is      893.5 secs

     Computing kpt #:    54  of    76
     total cpu time spent up to now is      907.9 secs

     Computing kpt #:    55  of    76
     total cpu time spent up to now is      922.2 secs

     Computing kpt #:    56  of    76
     total cpu time spent up to now is      936.9 secs

     Computing kpt #:    57  of    76
     total cpu time spent up to now is      951.3 secs

     Computing kpt #:    58  of    76
     total cpu time spent up to now is      965.9 secs

     Computing kpt #:    59  of    76
     total cpu time spent up to now is      980.2 secs

     Computing kpt #:    60  of    76
     total cpu time spent up to now is      994.0 secs

     Computing kpt #:    61  of    76
     total cpu time spent up to now is     1007.6 secs

     Computing kpt #:    62  of    76
     total cpu time spent up to now is     1021.4 secs

     Computing kpt #:    63  of    76
     total cpu time spent up to now is     1034.8 secs

     Computing kpt #:    64  of    76
     total cpu time spent up to now is     1049.2 secs

     Computing kpt #:    65  of    76
     total cpu time spent up to now is     1062.4 secs

     Computing kpt #:    66  of    76
     total cpu time spent up to now is     1074.7 secs

     Computing kpt #:    67  of    76
     total cpu time spent up to now is     1088.2 secs

     Computing kpt #:    68  of    76
     total cpu time spent up to now is     1101.8 secs

     Computing kpt #:    69  of    76
     total cpu time spent up to now is     1114.1 secs

     Computing kpt #:    70  of    76
     total cpu time spent up to now is     1127.0 secs

     Computing kpt #:    71  of    76
     total cpu time spent up to now is     1140.2 secs

     Computing kpt #:    72  of    76
     total cpu time spent up to now is     1153.9 secs

     Computing kpt #:    73  of    76
     total cpu time spent up to now is     1167.7 secs

     Computing kpt #:    74  of    76
     total cpu time spent up to now is     1181.2 secs

     Computing kpt #:    75  of    76
     total cpu time spent up to now is     1195.1 secs

     Computing kpt #:    76  of    76
     total cpu time spent up to now is     1208.6 secs

     ethr =  5.00E-11,  avg # of iterations =100.8

     total cpu time spent up to now is     1208.6 secs

     End of band structure calculation

          k = 0.0000 0.0000 0.0000 (285921 PWs)   bands (ev):

   -20.7226 -16.6342 -15.7017 -13.0818 -11.5515 -11.3711  -8.9705  -8.8080
    -7.7273  -4.0160  -3.4137  -0.6493  -0.3869   0.0111

     occupation numbers 
     1.0000   1.0000   1.0000   1.0000   1.0000   1.0000   1.0000   1.0000
     1.0000   1.0000   0.0000   0.0000   0.0000   0.0000

          k = 0.0000 0.0000 0.0067 (285927 PWs)   bands (ev):

   -20.7223 -16.6355 -15.7014 -13.0804 -11.5534 -11.3699  -8.9698  -8.8077
    -7.7279  -4.0197  -3.4103  -0.6489  -0.3865   0.0114

     occupation numbers 
     1.0000   1.0000   1.0000   1.0000   1.0000   1.0000   1.0000   1.0000
     1.0000   1.0000   0.0000   0.0000   0.0000   0.0000

          k = 0.0000 0.0000 0.0133 (285901 PWs)   bands (ev):

   -20.7216 -16.6394 -15.7002 -13.0760 -11.5591 -11.3667  -8.9678  -8.8068
    -7.7298  -4.0305  -3.4002  -0.6477  -0.3855   0.0125

     occupation numbers 
     1.0000   1.0000   1.0000   1.0000   1.0000   1.0000   1.0000   1.0000
     1.0000   1.0000   0.0000   0.0000   0.0000   0.0000

          k = 0.0000 0.0000 0.0200 (285863 PWs)   bands (ev):

   -20.7203 -16.6459 -15.6983 -13.0688 -11.5683 -11.3616  -8.9643  -8.8054
    -7.7329  -4.0478  -3.3842  -0.6457  -0.3839   0.0143

     occupation numbers 
     1.0000   1.0000   1.0000   1.0000   1.0000   1.0000   1.0000   1.0000
     1.0000   1.0000   0.0000   0.0000   0.0000   0.0000

          k = 0.0000 0.0000 0.0267 (285877 PWs)   bands (ev):

   -20.7186 -16.6549 -15.6957 -13.0587 -11.5804 -11.3550  -8.9596  -8.8034
    -7.7373  -4.0706  -3.3630  -0.6430  -0.3815   0.0169

     occupation numbers 
     1.0000   1.0000   1.0000   1.0000   1.0000   1.0000   1.0000   1.0000
     1.0000   1.0000   0.0000   0.0000   0.0000   0.0000

          k = 0.0000 0.0000 0.0333 (285959 PWs)   bands (ev):

   -20.7163 -16.6664 -15.6923 -13.0458 -11.5952 -11.3474  -8.9535  -8.8009
    -7.7430  -4.0981  -3.3377  -0.6394  -0.3785   0.0201

     occupation numbers 
     1.0000   1.0000   1.0000   1.0000   1.0000   1.0000   1.0000   1.0000
     1.0000   1.0000   0.0000   0.0000   0.0000   0.0000

          k = 0.0000 0.0000 0.0400 (285919 PWs)   bands (ev):

   -20.7136 -16.6802 -15.6883 -13.0302 -11.6123 -11.3390  -8.9462  -8.7978
    -7.7498  -4.1293  -3.3090  -0.6351  -0.3748   0.0241

     occupation numbers 
     1.0000   1.0000   1.0000   1.0000   1.0000   1.0000   1.0000   1.0000
     1.0000   1.0000   0.0000   0.0000   0.0000   0.0000

          k = 0.0000 0.0000 0.0467 (285943 PWs)   bands (ev):

   -20.7103 -16.6964 -15.6836 -13.0118 -11.6314 -11.3301  -8.9377  -8.7941
    -7.7579  -4.1636  -3.2778  -0.6300  -0.3705   0.0288

     occupation numbers 
     1.0000   1.0000   1.0000   1.0000   1.0000   1.0000   1.0000   1.0000
     1.0000   1.0000   0.0000   0.0000   0.0000   0.0000

          k = 0.0000 0.0000 0.0533 (285983 PWs)   bands (ev):

   -20.7066 -16.7148 -15.6782 -12.9909 -11.6522 -11.3208  -8.9281  -8.7898
    -7.7672  -4.2004  -3.2445  -0.6241  -0.3655   0.0343

     occupation numbers 
     1.0000   1.0000   1.0000   1.0000   1.0000   1.0000   1.0000   1.0000
     1.0000   1.0000   0.0000   0.0000   0.0000   0.0000

          k = 0.0000 0.0000 0.0600 (285959 PWs)   bands (ev):

   -20.7023 -16.7354 -15.6723 -12.9674 -11.6748 -11.3111  -8.9175  -8.7850
    -7.7777  -4.2392  -3.2097  -0.6175  -0.3598   0.0404

     occupation numbers 
     1.0000   1.0000   1.0000   1.0000   1.0000   1.0000   1.0000   1.0000
     1.0000   1.0000   0.0000   0.0000   0.0000   0.0000

          k = 0.0000 0.0000 0.0667 (285931 PWs)   bands (ev):

   -20.6976 -16.7579 -15.6657 -12.9414 -11.6988 -11.3012  -8.9058  -8.7796
    -7.7894  -4.2796  -3.1736  -0.6100  -0.3535   0.0473

     occupation numbers 
     1.0000   1.0000   1.0000   1.0000   1.0000   1.0000   1.0000   1.0000
     1.0000   1.0000   0.0000   0.0000   0.0000   0.0000

          k = 0.0000 0.0000 0.0733 (285943 PWs)   bands (ev):

   -20.6923 -16.7823 -15.6586 -12.9131 -11.7243 -11.2910  -8.8933  -8.7737
    -7.8023  -4.3214  -3.1366  -0.6019  -0.3465   0.0549

     occupation numbers 
     1.0000   1.0000   1.0000   1.0000   1.0000   1.0000   1.0000   1.0000
     1.0000   1.0000   0.0000   0.0000   0.0000   0.0000

          k = 0.0000 0.0000 0.0800 (285905 PWs)   bands (ev):

   -20.6866 -16.8086 -15.6509 -12.8825 -11.7512 -11.2806  -8.8800  -8.7672
    -7.8163  -4.3643  -3.0990  -0.5929  -0.3388   0.0633

     occupation numbers 
     1.0000   1.0000   1.0000   1.0000   1.0000   1.0000   1.0000   1.0000
     1.0000   1.0000   0.0000   0.0000   0.0000   0.0000

          k = 0.0000 0.0000 0.0867 (285903 PWs)   bands (ev):

   -20.6803 -16.8365 -15.6427 -12.8497 -11.7793 -11.2700  -8.8660  -8.7601
    -7.8314  -4.4081  -3.0607  -0.5832  -0.3305   0.0723

     occupation numbers 
     1.0000   1.0000   1.0000   1.0000   1.0000   1.0000   1.0000   1.0000
     1.0000   1.0000   0.0000   0.0000   0.0000   0.0000

          k = 0.0000 0.0000 0.0933 (285891 PWs)   bands (ev):

   -20.6736 -16.8660 -15.6340 -12.8148 -11.8086 -11.2592  -8.8514  -8.7525
    -7.8476  -4.4527  -3.0221  -0.5727  -0.3215   0.0821

     occupation numbers 
     1.0000   1.0000   1.0000   1.0000   1.0000   1.0000   1.0000   1.0000
     1.0000   1.0000   0.0000   0.0000   0.0000   0.0000

          k = 0.0000 0.0000 0.1000 (285887 PWs)   bands (ev):

   -20.6663 -16.8969 -15.6248 -12.7779 -11.8391 -11.2481  -8.8362  -8.7443
    -7.8649  -4.4980  -2.9831  -0.5615  -0.3118   0.0926

     occupation numbers 
     1.0000   1.0000   1.0000   1.0000   1.0000   1.0000   1.0000   1.0000
     1.0000   1.0000   0.0000   0.0000   0.0000   0.0000

          k = 0.0000 0.0000 0.1067 (285885 PWs)   bands (ev):

   -20.6586 -16.9293 -15.6151 -12.7391 -11.8706 -11.2367  -8.8207  -8.7356
    -7.8832  -4.5439  -2.9438  -0.5496  -0.3015   0.1039

     occupation numbers 
     1.0000   1.0000   1.0000   1.0000   1.0000   1.0000   1.0000   1.0000
     1.0000   1.0000   0.0000   0.0000   0.0000   0.0000

          k = 0.0000 0.0000 0.1133 (285869 PWs)   bands (ev):

   -20.6504 -16.9629 -15.6049 -12.6985 -11.9032 -11.2251  -8.8048  -8.7262
    -7.9026  -4.5903  -2.9044  -0.5369  -0.2905   0.1158

     occupation numbers 
     1.0000   1.0000   1.0000   1.0000   1.0000   1.0000   1.0000   1.0000
     1.0000   1.0000   0.0000   0.0000   0.0000   0.0000

          k = 0.0000 0.0000 0.1200 (285851 PWs)   bands (ev):

   -20.6416 -16.9976 -15.5943 -12.6562 -11.9367 -11.2131  -8.7886  -8.7164
    -7.9230  -4.6371  -2.8649  -0.5234  -0.2789   0.1285

     occupation numbers 
     1.0000   1.0000   1.0000   1.0000   1.0000   1.0000   1.0000   1.0000
     1.0000   1.0000   0.0000   0.0000   0.0000   0.0000

          k = 0.0000 0.0000 0.1267 (285869 PWs)   bands (ev):

   -20.6324 -17.0335 -15.5832 -12.6123 -11.9711 -11.2009  -8.7723  -8.7059
    -7.9444  -4.6843  -2.8252  -0.5093  -0.2665   0.1419

     occupation numbers 
     1.0000   1.0000   1.0000   1.0000   1.0000   1.0000   1.0000   1.0000
     1.0000   1.0000   0.0000   0.0000   0.0000   0.0000

          k = 0.0000 0.0000 0.1333 (285869 PWs)   bands (ev):

   -20.6227 -17.0704 -15.5716 -12.5668 -12.0064 -11.1883  -8.7560  -8.6949
    -7.9667  -4.7319  -2.7855  -0.4944  -0.2536   0.1561

     occupation numbers 
     1.0000   1.0000   1.0000   1.0000   1.0000   1.0000   1.0000   1.0000
     1.0000   1.0000   0.0000   0.0000   0.0000   0.0000

          k = 0.0000 0.0000 0.1400 (285871 PWs)   bands (ev):

   -20.6124 -17.1081 -15.5596 -12.5199 -12.0424 -11.1753  -8.7397  -8.6834
    -7.9899  -4.7798  -2.7457  -0.4788  -0.2399   0.1709

     occupation numbers 
     1.0000   1.0000   1.0000   1.0000   1.0000   1.0000   1.0000   1.0000
     1.0000   1.0000   0.0000   0.0000   0.0000   0.0000

          k = 0.0000 0.0000 0.1467 (285879 PWs)   bands (ev):

   -20.6017 -17.1468 -15.5471 -12.4717 -12.0793 -11.1620  -8.7236  -8.6713
    -8.0141  -4.8279  -2.7058  -0.4625  -0.2256   0.1865

     occupation numbers 
     1.0000   1.0000   1.0000   1.0000   1.0000   1.0000   1.0000   1.0000
     1.0000   1.0000   0.0000   0.0000   0.0000   0.0000

          k = 0.0000 0.0000 0.1533 (285829 PWs)   bands (ev):

   -20.5905 -17.1861 -15.5342 -12.4221 -12.1168 -11.1484  -8.7076  -8.6586
    -8.0390  -4.8762  -2.6660  -0.4455  -0.2107   0.2028

     occupation numbers 
     1.0000   1.0000   1.0000   1.0000   1.0000   1.0000   1.0000   1.0000
     1.0000   1.0000   0.0000   0.0000   0.0000   0.0000

          k = 0.0000 0.0000 0.1600 (285811 PWs)   bands (ev):

   -20.5788 -17.2262 -15.5208 -12.3714 -12.1549 -11.1343  -8.6920  -8.6454
    -8.0649  -4.9248  -2.6261  -0.4277  -0.1950   0.2199

     occupation numbers 
     1.0000   1.0000   1.0000   1.0000   1.0000   1.0000   1.0000   1.0000
     1.0000   1.0000   0.0000   0.0000   0.0000   0.0000

          k = 0.0000 0.0000 0.1667 (285837 PWs)   bands (ev):

   -20.5666 -17.2669 -15.5070 -12.3195 -12.1937 -11.1198  -8.6767  -8.6316
    -8.0915  -4.9735  -2.5862  -0.4093  -0.1788   0.2376

     occupation numbers 
     1.0000   1.0000   1.0000   1.0000   1.0000   1.0000   1.0000   1.0000
     1.0000   1.0000   0.0000   0.0000   0.0000   0.0000

          k = 0.0000 0.0000 0.1733 (285817 PWs)   bands (ev):

   -20.5539 -17.3082 -15.4928 -12.2667 -12.2329 -11.1050  -8.6619  -8.6173
    -8.1189  -5.0224  -2.5463  -0.3902  -0.1618   0.2561

     occupation numbers 
     1.0000   1.0000   1.0000   1.0000   1.0000   1.0000   1.0000   1.0000
     1.0000   1.0000   0.0000   0.0000   0.0000   0.0000

          k = 0.0000 0.0000 0.1800 (285793 PWs)   bands (ev):

   -20.5407 -17.3499 -15.4781 -12.2728 -12.2126 -11.0897  -8.6477  -8.6024
    -8.1470  -5.0713  -2.5064  -0.3704  -0.1442   0.2753

     occupation numbers 
     1.0000   1.0000   1.0000   1.0000   1.0000   1.0000   1.0000   1.0000
     1.0000   1.0000   0.0000   0.0000   0.0000   0.0000

          k = 0.0000 0.0000 0.1867 (285771 PWs)   bands (ev):

   -20.5271 -17.3922 -15.4629 -12.3131 -12.1578 -11.0740  -8.6340  -8.5870
    -8.1759  -5.1204  -2.4665  -0.3499  -0.1260   0.2953

     occupation numbers 
     1.0000   1.0000   1.0000   1.0000   1.0000   1.0000   1.0000   1.0000
     1.0000   1.0000   0.0000   0.0000   0.0000   0.0000

          k = 0.0000 0.0000 0.1933 (285749 PWs)   bands (ev):

   -20.5129 -17.4348 -15.4473 -12.3538 -12.1021 -11.0578  -8.6211  -8.5710
    -8.2054  -5.1695  -2.4266  -0.3288  -0.1071   0.3159

     occupation numbers 
     1.0000   1.0000   1.0000   1.0000   1.0000   1.0000   1.0000   1.0000
     1.0000   1.0000   0.0000   0.0000   0.0000   0.0000

          k = 0.0000 0.0000 0.2000 (285751 PWs)   bands (ev):

   -20.4983 -17.4778 -15.4312 -12.3948 -12.0457 -11.0413  -8.6089  -8.5545
    -8.2356  -5.2187  -2.3867  -0.3069  -0.0875   0.3373

     occupation numbers 
     1.0000   1.0000   1.0000   1.0000   1.0000   1.0000   1.0000   1.0000
     1.0000   1.0000   0.0000   0.0000   0.0000   0.0000

          k = 0.0000 0.0000 0.2067 (285725 PWs)   bands (ev):

   -20.4831 -17.5211 -15.4147 -12.4363 -11.9884 -11.0243  -8.5975  -8.5374
    -8.2664  -5.2680  -2.3467  -0.2844  -0.0672   0.3594

     occupation numbers 
     1.0000   1.0000   1.0000   1.0000   1.0000   1.0000   1.0000   1.0000
     1.0000   1.0000   0.0000   0.0000   0.0000   0.0000

          k = 0.0000 0.0000 0.2133 (285711 PWs)   bands (ev):

   -20.4675 -17.5647 -15.3977 -12.4780 -11.9305 -11.0068  -8.5870  -8.5198
    -8.2978  -5.3173  -2.3067  -0.2612  -0.0464   0.3823

     occupation numbers 
     1.0000   1.0000   1.0000   1.0000   1.0000   1.0000   1.0000   1.0000
     1.0000   1.0000   0.0000   0.0000   0.0000   0.0000

          k = 0.0000 0.0000 0.2200 (285734 PWs)   bands (ev):

   -20.4514 -17.6085 -15.3802 -12.5200 -11.8720 -10.9889  -8.5774  -8.5016
    -8.3297  -5.3665  -2.2667  -0.2374  -0.0248   0.4058

     occupation numbers 
     1.0000   1.0000   1.0000   1.0000   1.0000   1.0000   1.0000   1.0000
     1.0000   1.0000   0.0000   0.0000   0.0000   0.0000

          k = 0.0000 0.0000 0.2267 (285748 PWs)   bands (ev):

   -20.4348 -17.6524 -15.3623 -12.5622 -11.8129 -10.9706  -8.5688  -8.4829
    -8.3622  -5.4158  -2.2267  -0.2129  -0.0026   0.4301

     occupation numbers 
     1.0000   1.0000   1.0000   1.0000   1.0000   1.0000   1.0000   1.0000
     1.0000   1.0000   0.0000   0.0000   0.0000   0.0000

          k = 0.0000 0.0000 0.2333 (285732 PWs)   bands (ev):

   -20.4177 -17.6966 -15.3440 -12.6047 -11.7532 -10.9518  -8.5613  -8.4637
    -8.3952  -5.4650  -2.1866  -0.1878   0.0203   0.4551

     occupation numbers 
     1.0000   1.0000   1.0000   1.0000   1.0000   1.0000   1.0000   1.0000
     1.0000   1.0000   0.0000   0.0000   0.0000   0.0000

          k = 0.0000 0.0000 0.2400 (285740 PWs)   bands (ev):

   -20.4001 -17.7408 -15.3252 -12.6473 -11.6931 -10.9326  -8.5549  -8.4439
    -8.4287  -5.5142  -2.1464  -0.1620   0.0438   0.4809

     occupation numbers 
     1.0000   1.0000   1.0000   1.0000   1.0000   1.0000   1.0000   1.0000
     1.0000   1.0000   0.0000   0.0000   0.0000   0.0000

          k = 0.0000 0.0000 0.2467 (285758 PWs)   bands (ev):

   -20.3821 -17.7852 -15.3059 -12.6901 -11.6326 -10.9129  -8.5496  -8.4626
    -8.4236  -5.5633  -2.1062  -0.1355   0.0680   0.5073

     occupation numbers 
     1.0000   1.0000   1.0000   1.0000   1.0000   1.0000   1.0000   1.0000
     1.0000   1.0000   0.0000   0.0000   0.0000   0.0000

          k = 0.0000 0.0000 0.2533 (285806 PWs)   bands (ev):

   -20.3635 -17.8296 -15.2861 -12.7330 -11.5717 -10.8928  -8.5455  -8.4969
    -8.4027  -5.6124  -2.0659  -0.1084   0.0929   0.5345

     occupation numbers 
     1.0000   1.0000   1.0000   1.0000   1.0000   1.0000   1.0000   1.0000
     1.0000   1.0000   0.0000   0.0000   0.0000   0.0000

          k = 0.0000 0.0000 0.2600 (285810 PWs)   bands (ev):

   -20.3445 -17.8740 -15.2659 -12.7760 -11.5104 -10.8722  -8.5428  -8.5315
    -8.3813  -5.6613  -2.0256  -0.0807   0.1184   0.5625

     occupation numbers 
     1.0000   1.0000   1.0000   1.0000   1.0000   1.0000   1.0000   1.0000
     1.0000   1.0000   0.0000   0.0000   0.0000   0.0000

          k = 0.0000 0.0000 0.2667 (285886 PWs)   bands (ev):

   -20.3250 -17.9184 -15.2453 -12.8191 -11.4488 -10.8512  -8.5667  -8.5411
    -8.3594  -5.7102  -1.9851  -0.0524   0.1446   0.5911

     occupation numbers 
     1.0000   1.0000   1.0000   1.0000   1.0000   1.0000   1.0000   1.0000
     1.0000   1.0000   0.0000   0.0000   0.0000   0.0000

          k = 0.0000 0.0000 0.2733 (285872 PWs)   bands (ev):

   -20.3051 -17.9629 -15.2242 -12.8622 -11.3870 -10.8297  -8.6021  -8.5409
    -8.3370  -5.7590  -1.9446  -0.0234   0.1714   0.6205

     occupation numbers 
     1.0000   1.0000   1.0000   1.0000   1.0000   1.0000   1.0000   1.0000
     1.0000   1.0000   0.0000   0.0000   0.0000   0.0000

          k = 0.0000 0.0000 0.2800 (285896 PWs)   bands (ev):

   -20.2846 -18.0072 -15.2026 -12.9054 -11.3250 -10.8078  -8.6378  -8.5421
    -8.3140  -5.8076  -1.9039   0.0062   0.1990   0.6506

     occupation numbers 
     1.0000   1.0000   1.0000   1.0000   1.0000   1.0000   1.0000   1.0000
     1.0000   1.0000   0.0000   0.0000   0.0000   0.0000

          k = 0.0000 0.0000 0.2867 (285884 PWs)   bands (ev):

   -20.2637 -18.0515 -15.1806 -12.9485 -11.2628 -10.7854  -8.6738  -8.5446
    -8.2905  -5.8561  -1.8632   0.0364   0.2271   0.6814

     occupation numbers 
     1.0000   1.0000   1.0000   1.0000   1.0000   1.0000   1.0000   1.0000
     1.0000   1.0000   0.0000   0.0000   0.0000   0.0000

          k = 0.0000 0.0000 0.2933 (285918 PWs)   bands (ev):

   -20.2423 -18.0958 -15.1581 -12.9917 -11.2004 -10.7626  -8.7101  -8.5485
    -8.2665  -5.9044  -1.8223   0.0672   0.2560   0.7129

     occupation numbers 
     1.0000   1.0000   1.0000   1.0000   1.0000   1.0000   1.0000   1.0000
     1.0000   1.0000   0.0000   0.0000   0.0000   0.0000

          k = 0.0000 0.0000 0.3000 (285910 PWs)   bands (ev):

   -20.2204 -18.1399 -15.1351 -13.0348 -11.1380 -10.7393  -8.7466  -8.5539
    -8.2419  -5.9526  -1.7813   0.0987   0.2855   0.7467

     occupation numbers 
     1.0000   1.0000   1.0000   1.0000   1.0000   1.0000   1.0000   1.0000
     1.0000   1.0000   0.0000   0.0000   0.0000   0.0000

          k = 0.0000 0.0000 0.3067 (285898 PWs)   bands (ev):

   -20.1981 -18.1839 -15.1117 -13.0778 -11.0755 -10.7156  -8.7833  -8.5607
    -8.2169  -6.0006  -1.7401   0.1307   0.3157   0.7658

     occupation numbers 
     1.0000   1.0000   1.0000   1.0000   1.0000   1.0000   1.0000   1.0000
     1.0000   1.0000   0.0000   0.0000   0.0000   0.0000

          k = 0.0000 0.0000 0.3133 (285912 PWs)   bands (ev):

   -20.1753 -18.2277 -15.0879 -13.1208 -11.0130 -10.6915  -8.8202  -8.5690
    -8.1913  -6.0485  -1.6988   0.1634   0.3465   0.7646

     occupation numbers 
     1.0000   1.0000   1.0000   1.0000   1.0000   1.0000   1.0000   1.0000
     1.0000   1.0000   0.0000   0.0000   0.0000   0.0000

          k = 0.0000 0.0000 0.3200 (285978 PWs)   bands (ev):

   -20.1520 -18.2714 -15.0636 -13.1637 -10.9505 -10.6669  -8.8573  -8.5789
    -8.1652  -6.0961  -1.6574   0.1966   0.3780   0.7514

     occupation numbers 
     1.0000   1.0000   1.0000   1.0000   1.0000   1.0000   1.0000   1.0000
     1.0000   1.0000   0.0000   0.0000   0.0000   0.0000

          k = 0.0000 0.0000 0.3267 (285900 PWs)   bands (ev):

   -20.1282 -18.3150 -15.0388 -13.2065 -10.8880 -10.6419  -8.8945  -8.5902
    -8.1386  -6.1435  -1.6158   0.2304   0.4102   0.7274

     occupation numbers 
     1.0000   1.0000   1.0000   1.0000   1.0000   1.0000   1.0000   1.0000
     1.0000   1.0000   0.0000   0.0000   0.0000   0.0000

          k = 0.0000 0.0000 0.3333 (285956 PWs)   bands (ev):

   -20.1040 -18.3583 -15.0136 -13.2491 -10.8257 -10.6164  -8.9318  -8.6030
    -8.1115  -6.1907  -1.5741   0.2649   0.4431   0.6956

     occupation numbers 
     1.0000   1.0000   1.0000   1.0000   1.0000   1.0000   1.0000   1.0000
     1.0000   1.0000   0.0000   0.0000   0.0000   0.0000

          k = 0.0000 0.0000 0.3400 (285994 PWs)   bands (ev):

   -20.0794 -18.4014 -14.9879 -13.2917 -10.7635 -10.5905  -8.9692  -8.6174
    -8.0839  -6.2377  -1.5321   0.2998   0.4766   0.6586

     occupation numbers 
     1.0000   1.0000   1.0000   1.0000   1.0000   1.0000   1.0000   1.0000
     1.0000   1.0000   0.0000   0.0000   0.0000   0.0000

          k = 0.0000 0.0000 0.3467 (286026 PWs)   bands (ev):

   -20.0542 -18.4443 -14.9618 -13.3340 -10.7014 -10.5642  -9.0067  -8.6333
    -8.0558  -6.2845  -1.4900   0.3354   0.5107   0.6183

     occupation numbers 
     1.0000   1.0000   1.0000   1.0000   1.0000   1.0000   1.0000   1.0000
     1.0000   1.0000   0.0000   0.0000   0.0000   0.0000

          k = 0.0000 0.0000 0.3533 (286016 PWs)   bands (ev):

   -20.0286 -18.4870 -14.9353 -13.3762 -10.6395 -10.5375  -9.0442  -8.6508
    -8.0272  -6.3310  -1.4478   0.3715   0.5455   0.5757

     occupation numbers 
     1.0000   1.0000   1.0000   1.0000   1.0000   1.0000   1.0000   1.0000
     1.0000   1.0000   0.0000   0.0000   0.0000   0.0000

          k = 0.0000 0.0000 0.3600 (286006 PWs)   bands (ev):

   -20.0026 -18.5295 -14.9083 -13.4183 -10.5779 -10.5103  -9.0818  -8.6698
    -7.9981  -6.3772  -1.4053   0.4082   0.5316   0.5810

     occupation numbers 
     1.0000   1.0000   1.0000   1.0000   1.0000   1.0000   1.0000   1.0000
     1.0000   1.0000   0.0000   0.0000   0.0000   0.0000

          k = 0.0000 0.0000 0.3667 (285976 PWs)   bands (ev):

   -19.9761 -18.5717 -14.8808 -13.4601 -10.5166 -10.4827  -9.1194  -8.6903
    -7.9685  -6.4232  -1.3627   0.4454   0.4863   0.6171

     occupation numbers 
     1.0000   1.0000   1.0000   1.0000   1.0000   1.0000   1.0000   1.0000
     1.0000   1.0000   0.0000   0.0000   0.0000   0.0000

          k = 0.0000 0.0000 0.3733 (285984 PWs)   bands (ev):

   -19.9492 -18.6136 -14.8529 -13.5017 -10.4572 -10.4532  -9.1571  -8.7123
    -7.9384  -6.4690  -1.3198   0.4403   0.4831   0.6539

     occupation numbers 
     1.0000   1.0000   1.0000   1.0000   1.0000   1.0000   1.0000   1.0000
     1.0000   1.0000   0.0000   0.0000   0.0000   0.0000

          k = 0.0000 0.0000 0.3800 (285972 PWs)   bands (ev):

   -19.9218 -18.6552 -14.8246 -13.5431 -10.4267 -10.3947  -9.1946  -8.7359
    -7.9078  -6.5144  -1.2768   0.3936   0.5214   0.6912

     occupation numbers 
     1.0000   1.0000   1.0000   1.0000   1.0000   1.0000   1.0000   1.0000
     1.0000   1.0000   0.0000   0.0000   0.0000   0.0000

          k = 0.0000 0.0000 0.3867 (285954 PWs)   bands (ev):

   -19.8939 -18.6966 -14.7959 -13.5843 -10.3979 -10.3344  -9.2322  -8.7610
    -7.8767  -6.5595  -1.2335   0.3465   0.5601   0.7292

     occupation numbers 
     1.0000   1.0000   1.0000   1.0000   1.0000   1.0000   1.0000   1.0000
     1.0000   1.0000   0.0000   0.0000   0.0000   0.0000

          k = 0.0000 0.0000 0.3933 (285918 PWs)   bands (ev):

   -19.8656 -18.7377 -14.7667 -13.6252 -10.3687 -10.2745  -9.2697  -8.7876
    -7.8452  -6.6044  -1.1901   0.2991   0.5994   0.7678

     occupation numbers 
     1.0000   1.0000   1.0000   1.0000   1.0000   1.0000   1.0000   1.0000
     1.0000   1.0000   0.0000   0.0000   0.0000   0.0000

          k = 0.0000 0.0000 0.4000 (285962 PWs)   bands (ev):

   -19.8369 -18.7784 -14.7371 -13.6659 -10.3392 -10.2151  -9.3071  -8.8156
    -7.8132  -6.6489  -1.1465   0.2514   0.6391   0.8069

     occupation numbers 
     1.0000   1.0000   1.0000   1.0000   1.0000   1.0000   1.0000   1.0000
     1.0000   1.0000   0.0000   0.0000   0.0000   0.0000

          k = 0.0000 0.0000 0.4067 (285976 PWs)   bands (ev):

   -19.8078 -18.8189 -14.7071 -13.7063 -10.3093 -10.1562  -9.3445  -8.8451
    -7.7807  -6.6931  -1.1026   0.2036   0.6793   0.8466

     occupation numbers 
     1.0000   1.0000   1.0000   1.0000   1.0000   1.0000   1.0000   1.0000
     1.0000   1.0000   0.0000   0.0000   0.0000   0.0000

          k = 0.0000 0.0000 0.4133 (285936 PWs)   bands (ev):

   -19.7782 -18.8590 -14.6766 -13.7465 -10.2790 -10.0978  -9.3817  -8.8760
    -7.7477  -6.7370  -1.0586   0.1557   0.7199   0.8867

     occupation numbers 
     1.0000   1.0000   1.0000   1.0000   1.0000   1.0000   1.0000   1.0000
     1.0000   1.0000   0.0000   0.0000   0.0000   0.0000

          k = 0.0000 0.0000 0.4200 (286030 PWs)   bands (ev):

   -19.7482 -18.8987 -14.6458 -13.7863 -10.2484 -10.0400  -9.4188  -8.9084
    -7.7143  -6.7805  -1.0143   0.1077   0.7609   0.9273

     occupation numbers 
     1.0000   1.0000   1.0000   1.0000   1.0000   1.0000   1.0000   1.0000
     1.0000   1.0000   0.0000   0.0000   0.0000   0.0000

          k = 0.0000 0.0000 0.4267 (286052 PWs)   bands (ev):

   -19.7178 -18.9381 -14.6145 -13.8259 -10.2174  -9.9828  -9.4557  -8.9421
    -7.6805  -6.8238  -0.9698   0.0597   0.8022   0.9682

     occupation numbers 
     1.0000   1.0000   1.0000   1.0000   1.0000   1.0000   1.0000   1.0000
     1.0000   1.0000   0.0000   0.0000   0.0000   0.0000

          k = 0.0000 0.0000 0.4333 (285998 PWs)   bands (ev):

   -19.6870 -18.9772 -14.5829 -13.8652 -10.1861  -9.9262  -9.4925  -8.9772
    -7.6462  -6.8666  -0.9252   0.0117   0.8439   1.0093

     occupation numbers 
     1.0000   1.0000   1.0000   1.0000   1.0000   1.0000   1.0000   1.0000
     1.0000   1.0000   0.0000   0.0000   0.0000   0.0000

          k = 0.0000 0.0000 0.4400 (286056 PWs)   bands (ev):

   -19.6558 -19.0159 -14.5509 -13.9041 -10.1544  -9.8704  -9.5290  -9.0137
    -7.6114  -6.9091  -0.8803  -0.0363   0.8858   1.0504

     occupation numbers 
     1.0000   1.0000   1.0000   1.0000   1.0000   1.0000   1.0000   1.0000
     1.0000   1.0000   0.0000   0.0000   0.0000   0.0000

          k = 0.0000 0.0000 0.4467 (286058 PWs)   bands (ev):

   -19.6242 -19.0541 -14.5185 -13.9427 -10.1224  -9.8155  -9.5653  -9.0514
    -7.5763  -6.9512  -0.8352  -0.0842   0.9279   1.0913

     occupation numbers 
     1.0000   1.0000   1.0000   1.0000   1.0000   1.0000   1.0000   1.0000
     1.0000   1.0000   0.0000   0.0000   0.0000   0.0000

          k = 0.0000 0.0000 0.4533 (286028 PWs)   bands (ev):

   -19.5923 -19.0920 -14.4857 -13.9809 -10.0902  -9.7616  -9.6010  -9.0903
    -7.5407  -6.9928  -0.7900  -0.1319   0.9700   1.1315

     occupation numbers 
     1.0000   1.0000   1.0000   1.0000   1.0000   1.0000   1.0000   1.0000
     1.0000   1.0000   0.0000   0.0000   0.0000   0.0000

          k = 0.0000 0.0000 0.4600 (286030 PWs)   bands (ev):

   -19.5601 -19.1293 -14.4526 -14.0187 -10.0576  -9.7097  -9.6353  -9.1305
    -7.5048  -7.0341  -0.7446  -0.1795   1.0121   1.1702

     occupation numbers 
     1.0000   1.0000   1.0000   1.0000   1.0000   1.0000   1.0000   1.0000
     1.0000   1.0000   0.0000   0.0000   0.0000   0.0000

          k = 0.0000 0.0000 0.4667 (286048 PWs)   bands (ev):

   -19.5276 -19.1661 -14.4192 -14.0561 -10.0249  -9.6820  -9.6462  -9.1718
    -7.4685  -7.0749  -0.6991  -0.2269   1.0539   1.2061

     occupation numbers 
     1.0000   1.0000   1.0000   1.0000   1.0000   1.0000   1.0000   1.0000
     1.0000   1.0000   0.0000   0.0000   0.0000   0.0000

          k = 0.0000 0.0000 0.4733 (286012 PWs)   bands (ev):

   -19.4951 -19.2022 -14.3856 -14.0930  -9.9919  -9.7115  -9.6004  -9.2141
    -7.4319  -7.1151  -0.6536  -0.2741   1.0952   1.2369

     occupation numbers 
     1.0000   1.0000   1.0000   1.0000   1.0000   1.0000   1.0000   1.0000
     1.0000   1.0000   0.0000   0.0000   0.0000   0.0000

          k = 0.0000 0.0000 0.4800 (286028 PWs)   bands (ev):

   -19.4627 -19.2373 -14.3520 -14.1292  -9.9590  -9.7455  -9.5509  -9.2572
    -7.3953  -7.1546  -0.6081  -0.3208   1.1353   1.2589

     occupation numbers 
     1.0000   1.0000   1.0000   1.0000   1.0000   1.0000   1.0000   1.0000
     1.0000   1.0000   0.0000   0.0000   0.0000   0.0000

          k = 0.0000 0.0000 0.4867 (286032 PWs)   bands (ev):

   -19.4314 -19.2707 -14.3189 -14.1641  -9.9264  -9.7791  -9.5027  -9.3005
    -7.3590  -7.1930  -0.5631  -0.3666   1.1737   1.2675

     occupation numbers 
     1.0000   1.0000   1.0000   1.0000   1.0000   1.0000   1.0000   1.0000
     1.0000   1.0000   0.0000   0.0000   0.0000   0.0000

          k = 0.0000 0.0000 0.4933 (286040 PWs)   bands (ev):

   -19.4036 -19.2996 -14.2882 -14.1959  -9.8960  -9.8102  -9.4583  -9.3420
    -7.3249  -7.2283  -0.5205  -0.4098   1.2089   1.2602

     occupation numbers 
     1.0000   1.0000   1.0000   1.0000   1.0000   1.0000   1.0000   1.0000
     1.0000   1.0000   0.0000   0.0000   0.0000   0.0000

          k = 0.0000 0.0000-0.5000 (286006 PWs)   bands (ev):

   -19.3900 -19.3136 -14.2713 -14.2132  -9.8785  -9.8279  -9.4327  -9.3665
    -7.3054  -7.2482  -0.4947  -0.4358   1.2358   1.2424

     occupation numbers 
     1.0000   1.0000   1.0000   1.0000   1.0000   1.0000   1.0000   1.0000
     1.0000   1.0000   0.0000   0.0000   0.0000   0.0000

     the Fermi energy is    -3.7419 ev
     (compare with:    -3.7607 eV, computed in scf)

     Writing all to output data dir ../tmp/AGNR.save/ :
     XML data file, pseudopotentials, collected wavefunctions
 
     init_run     :      7.71s CPU      8.20s WALL (       1 calls)
     electrons    :   1187.32s CPU   1200.35s WALL (       1 calls)

     Called by init_run:
     wfcinit      :      0.00s CPU      0.00s WALL (       1 calls)
     wfcinit:wfcr :     22.32s CPU     22.56s WALL (      76 calls)
     potinit      :      1.17s CPU      1.41s WALL (       1 calls)
     hinit0       :      0.23s CPU      0.29s WALL (       1 calls)

     Called by electrons:
     c_bands      :   1187.32s CPU   1200.33s WALL (       1 calls)
     v_of_rho     :      0.85s CPU      0.99s WALL (       1 calls)
     v_h          :      0.09s CPU      0.11s WALL (       1 calls)
     v_xc         :      0.76s CPU      0.87s WALL (       1 calls)
     newd         :      0.53s CPU      0.63s WALL (       1 calls)
     PAW_pot      :      0.02s CPU      0.02s WALL (       1 calls)

     Called by c_bands:
     init_us_2    :      0.75s CPU      0.78s WALL (      76 calls)
     cegterg      :   1163.12s CPU   1174.89s WALL (     403 calls)

     Called by sum_band:

     Called by *egterg:
     cdiaghg      :      3.43s CPU      3.47s WALL (    7740 calls)
     cegterg:over :     34.31s CPU     34.60s WALL (    7664 calls)
     cegterg:upda :     24.63s CPU     24.87s WALL (    7664 calls)
     cegterg:last :     50.29s CPU     50.67s WALL (    3512 calls)
     h_psi        :   1027.16s CPU   1037.83s WALL (    8143 calls)
     s_psi        :     29.93s CPU     30.16s WALL (    8143 calls)
     g_psi        :      2.87s CPU      2.91s WALL (    7664 calls)

     Called by h_psi:
     h_psi:calbec :     25.03s CPU     25.28s WALL (    8143 calls)
     vloc_psi     :    964.47s CPU    974.59s WALL (    8143 calls)
     add_vuspsi   :     31.92s CPU     32.17s WALL (    8143 calls)

     General routines
     calbec       :     24.98s CPU     25.23s WALL (    8143 calls)
     fft          :      0.76s CPU      0.86s WALL (      13 calls)
     ffts         :      0.01s CPU      0.01s WALL (       1 calls)
     fftw         :    543.33s CPU    548.52s WALL (  100564 calls)
     interpolate  :      0.07s CPU      0.08s WALL (       1 calls)
     davcio       :      0.04s CPU      1.03s WALL (     152 calls)
 
     Parallel routines

     PAW routines
     PAW_pot      :      0.02s CPU      0.02s WALL (       1 calls)
 
     PWSCF        :  19m58.84s CPU  21m 0.80s WALL

 
   This run was terminated on:   3:37:45  31Dec2025            

=------------------------------------------------------------------------------=
   JOB DONE.
=------------------------------------------------------------------------------=
