
     Program PWSCF v.7.4.1 starts on 29Jan2026 at  4:58:47 

     This program is part of the open-source Quantum ESPRESSO suite
     for quantum simulation of materials; please cite
         "P. Giannozzi et al., J. Phys.:Condens. Matter 21 395502 (2009);
         "P. Giannozzi et al., J. Phys.:Condens. Matter 29 465901 (2017);
         "P. Giannozzi et al., J. Chem. Phys. 152 154105 (2020);
          URL http://www.quantum-espresso.org", 
     in publications or presentations arising from this work. More details at
     http://www.quantum-espresso.org/quote

     Parallel version (MPI), running on    32 processors

     MPI processes distributed on     1 nodes
     60899 MiB available memory on the printing compute node when the environment starts
 
     Reading input from grap_SOC_nscf.in

     Current dimensions of program PWSCF are:
     Max number of different atomic species (ntypx) = 10
     Max number of k-points (npk) =  40000
     Max angular momentum in pseudopotentials (lmaxx) =  4
     Presently stress not available with electric field and gates

     Message from routine input:
     WARNING: "startingwfc" set to random may spoil restart
     file C.rel-pbe-n-kjpaw_psl.1.0.0.UPF: wavefunction(s)  2S 2P 2P renormalized
 
     R & G space division:  proc/nbgrp/npool/nimage =      32
     Subspace diagonalization in iterative solution of the eigenvalue problem:
     a serial algorithm will be used

 
     Parallelization info
     --------------------
     sticks:   dense  smooth     PW     G-vecs:    dense   smooth      PW
     Min          32      13      4                 5199     1317     252
     Max          33      14      5                 5237     1342     271
     Sum        1045     421    139               166859    42343    8205
 
     Using Slab Decomposition
 


     bravais-lattice index     =            0
     lattice parameter (alat)  =       4.6624  a.u.
     unit-cell volume          =     533.6317 (a.u.)^3
     number of atoms/cell      =            2
     number of atomic types    =            1
     number of electrons       =         8.00
     number of Kohn-Sham states=           16
     kinetic-energy cutoff     =      70.0000  Ry
     charge density cutoff     =     700.0000  Ry
     Exchange-correlation= SLA  PW   PBX  PBC
                           (   1   4   3   4   0   0   0)
     Non magnetic calculation with spin-orbit


     celldm(1)=   4.662410  celldm(2)=   0.000000  celldm(3)=   0.000000
     celldm(4)=   0.000000  celldm(5)=   0.000000  celldm(6)=   0.000000

     crystal axes: (cart. coord. in units of alat)
               a(1) = (   1.000000   0.000000   0.000000 )  
               a(2) = (  -0.500000   0.866025   0.000000 )  
               a(3) = (   0.000000   0.000000   6.079666 )  

     reciprocal axes: (cart. coord. in units 2 pi/alat)
               b(1) = (  1.000000  0.577350  0.000000 )  
               b(2) = (  0.000000  1.154701  0.000000 )  
               b(3) = (  0.000000  0.000000  0.164483 )  


     PseudoPot. # 1 for C  read from file:
     ../../../PP_C/C.rel-pbe-n-kjpaw_psl.1.0.0.UPF
     MD5 check sum: dd2b8f743de1f3a10095e4114fb28074
     Pseudo is Projector augmented-wave + core cor, Zval =  4.0
     Generated using &quot;atomic&quot; code by A. Dal Corso  v.6.3
     Shape of augmentation charge: PSQ
     Using radial grid of 1073 points,  6 beta functions with: 
                l(1) =   0
                l(2) =   0
                l(3) =   1
                l(4) =   1
                l(5) =   1
                l(6) =   1
     Q(r) pseudized with 0 coefficients 


     atomic species   valence    mass     pseudopotential
     C                 4.00    12.01100     C ( 1.00)

     No symmetry found



   Cartesian axes

     site n.     atom                  positions (alat units)
         1        C      tau(   1) = (   0.0000000   0.0000000   3.0398328  )
         2        C      tau(   2) = (   0.0000000   0.5773503   3.0398328  )

     number of k points= 11252  Gaussian smearing, width (Ry)=  0.0020

     Number of k-points >= 100: set verbosity='high' to print them.

     Dense  grid:   166859 G-vectors     FFT dimensions: (  40,  40, 240)

     Smooth grid:    42343 G-vectors     FFT dimensions: (  25,  25, 160)

     Estimated max dynamical RAM per process >      13.99 MB

     Estimated total dynamical RAM >     447.83 MB

     Atomic positions and unit cell read from directory:
     ../tmp/graphene.save/
 

     The potential is recalculated from file :
     ../tmp/graphene.save/charge-density


     negative rho (up, down):  3.525E-05 0.000E+00
 
     Adding external electric field

     Computed dipole along edir(3) : 
        Dipole                0.0688 Ry au,          0.1748 Debye
        Dipole field          0.0016 Ry au, 
 
        E field amplitude [Ha a.u.]:  1.1668E-02
        Potential amp.        0.5412 Ry
        Total length         26.9286 bohr
 
     Starting wfcs are random
     Checking if some PAW data can be deallocated... 

     Band Structure Calculation
     Davidson diagonalization with overlap

     ethr =  1.25E-10,  avg # of iterations = 21.3

     total cpu time spent up to now is     1811.0 secs

     End of band structure calculation

     Number of k-points >= 100: set verbosity='high' to print the bands.

     the Fermi energy is    -1.53843497 ev
     (compare with:    -1.53854366 eV, computed in scf)

     Writing all to output data dir ../tmp/graphene.save/ :
     XML data file, pseudopotentials, collected wavefunctions
 
     init_run     :      0.21s CPU      0.40s WALL (       1 calls)
     electrons    :   1718.49s CPU   1810.36s WALL (       1 calls)

     Called by init_run:
     wfcinit      :      0.00s CPU      0.07s WALL (       1 calls)
     potinit      :      0.02s CPU      0.12s WALL (       1 calls)
     hinit0       :      0.04s CPU      0.05s WALL (       1 calls)

     Called by electrons:
     c_bands      :   1718.34s CPU   1810.21s WALL (       1 calls)
     v_of_rho     :      0.01s CPU      0.01s WALL (       1 calls)
     newd         :      0.02s CPU      0.02s WALL (       1 calls)
     PAW_pot      :      0.01s CPU      0.01s WALL (       1 calls)

     Called by c_bands:
     init_us_2    :      0.66s CPU      0.80s WALL (   11252 calls)
     cegterg      :   1430.77s CPU   1481.38s WALL (   15750 calls)

     Called by *egterg:
     cdiaghg      :    343.91s CPU    348.25s WALL (  250600 calls)
     h_psi        :    862.47s CPU    905.33s WALL (  266350 calls)
     s_psi        :     14.15s CPU     14.89s WALL (  266350 calls)
     g_psi        :      3.17s CPU      3.24s WALL (  239348 calls)

     Called by h_psi:
     h_psi:calbec :     31.44s CPU     33.16s WALL (  266350 calls)
     vloc_psi     :    800.70s CPU    840.53s WALL (  266350 calls)
     add_vuspsi   :     17.95s CPU     18.92s WALL (  266350 calls)

     General routines
     calbec       :     30.48s CPU     32.20s WALL (  266350 calls)
     fft          :      0.01s CPU      0.01s WALL (      19 calls)
     ffts         :      0.00s CPU      0.00s WALL (       4 calls)
     fftw         :    618.56s CPU    649.86s WALL (12736916 calls)
     interpolate  :      0.00s CPU      0.00s WALL (       4 calls)
     davcio       :      1.96s CPU     37.10s WALL (   22504 calls)
 
     Parallel routines
 
     PWSCF        :  29m19.71s CPU  41m30.08s WALL

 
   This run was terminated on:   5:40:17  29Jan2026            

=------------------------------------------------------------------------------=
   JOB DONE.
=------------------------------------------------------------------------------=
