
     Program PWSCF v.7.4.1 starts on  8Jun2026 at  3: 0:58 

     This program is part of the open-source Quantum ESPRESSO suite
     for quantum simulation of materials; please cite
         "P. Giannozzi et al., J. Phys.:Condens. Matter 21 395502 (2009);
         "P. Giannozzi et al., J. Phys.:Condens. Matter 29 465901 (2017);
         "P. Giannozzi et al., J. Chem. Phys. 152 154105 (2020);
          URL http://www.quantum-espresso.org", 
     in publications or presentations arising from this work. More details at
     http://www.quantum-espresso.org/quote

     Parallel version (MPI), running on    32 processors

     MPI processes distributed on     1 nodes
     12122 MiB available memory on the printing compute node when the environment starts
 
     Reading input from 2-zgnr_scf.in

     Current dimensions of program PWSCF are:
     Max number of different atomic species (ntypx) = 10
     Max number of k-points (npk) =  40000
     Max angular momentum in pseudopotentials (lmaxx) =  4
     file C.pbe-n-kjpaw_psl.1.0.0.UPF: wavefunction(s)  2S 2P renormalized
     file H.pbe-kjpaw_psl.1.0.0.UPF: wavefunction(s)  1S renormalized
 
     R & G space division:  proc/nbgrp/npool/nimage =      32
     Subspace diagonalization in iterative solution of the eigenvalue problem:
     a serial algorithm will be used

 
     Parallelization info
     --------------------
     sticks:   dense  smooth     PW     G-vecs:    dense   smooth      PW
     Min         540     216     62               172544    43670    6874
     Max         541     217     63               172555    43685    6889
     Sum       17289    6937   2011              5521603  1397719  220277
 
     Using Slab Decomposition
 


     bravais-lattice index     =            0
     lattice parameter (alat)  =       4.6761  a.u.
     unit-cell volume          =   17651.6635 (a.u.)^3
     number of atoms/cell      =            6
     number of atomic types    =            2
     number of electrons       =        18.00
     number of Kohn-Sham states=           18
     kinetic-energy cutoff     =      70.0000  Ry
     charge density cutoff     =     700.0000  Ry
     scf convergence threshold =      1.0E-06
     mixing beta               =       0.5000
     number of iterations used =            8  plain     mixing
     Exchange-correlation= SLA  PW   PBX  PBC
                           (   1   4   3   4   0   0   0)

     celldm(1)=   4.676134  celldm(2)=   0.000000  celldm(3)=   0.000000
     celldm(4)=   0.000000  celldm(5)=   0.000000  celldm(6)=   0.000000

     crystal axes: (cart. coord. in units of alat)
               a(1) = (   0.000000   0.000000   1.000000 )  
               a(2) = (  14.197609   0.000000   0.000000 )  
               a(3) = (   0.000000  12.159330   0.000000 )  

     reciprocal axes: (cart. coord. in units 2 pi/alat)
               b(1) = (  0.000000  0.000000  1.000000 )  
               b(2) = (  0.070434  0.000000  0.000000 )  
               b(3) = (  0.000000  0.082241  0.000000 )  


     PseudoPot. # 1 for C  read from file:
     ../../../PP_C/C.pbe-n-kjpaw_psl.1.0.0.UPF
     MD5 check sum: 5f16ad9a65e90284d1d834d4ab3b0f7d
     Pseudo is Projector augmented-wave + core cor, Zval =  4.0
     Generated using &quot;atomic&quot; code by A. Dal Corso  v.6.3
     Shape of augmentation charge: PSQ
     Using radial grid of 1073 points,  4 beta functions with: 
                l(1) =   0
                l(2) =   0
                l(3) =   1
                l(4) =   1
     Q(r) pseudized with 0 coefficients 


     PseudoPot. # 2 for H  read from file:
     ../../../PP_C/H.pbe-kjpaw_psl.1.0.0.UPF
     MD5 check sum: d81a744832360e4a8af0b0b5b123bc2a
     Pseudo is Projector augmented-wave, Zval =  1.0
     Generated using &quot;atomic&quot; code by A. Dal Corso  v.6.3MaX
     Shape of augmentation charge: PSQ
     Using radial grid of  929 points,  2 beta functions with: 
                l(1) =   0
                l(2) =   0
     Q(r) pseudized with 0 coefficients 


     atomic species   valence    mass     pseudopotential
     C                 4.00    12.01100     C ( 1.00)
     H                 1.00     1.00790     H ( 1.00)

     No symmetry found


                                    s                        frac. trans.

      isym =  1     identity                                     

 cryst.   s( 1) = (     1          0          0      )
                  (     0          1          0      )
                  (     0          0          1      )

 cart.    s( 1) = (  1.0000000  0.0000000  0.0000000 )
                  (  0.0000000  1.0000000  0.0000000 )
                  (  0.0000000  0.0000000  1.0000000 )


   Cartesian axes

     site n.     atom                  positions (alat units)
         1        C      tau(   1) = (   6.5023148   6.0618223   0.0000000  )
         2        C      tau(   2) = (   6.7901427   6.0618223   0.4985326  )
         3        C      tau(   3) = (   7.3657985   6.0618223   0.4985326  )
         4        C      tau(   4) = (   7.6536264   6.0618223   0.0000000  )
         5        H      tau(   5) = (   6.0618223   6.0618223   0.0000000  )
         6        H      tau(   6) = (   8.0941189   6.0618223   0.0000000  )

   Crystallographic axes

     site n.     atom                  positions (cryst. coord.)
         1        C      tau(   1) = (  0.0000000  0.4579866  0.4985326  )
         2        C      tau(   2) = (  0.4985326  0.4782596  0.4985326  )
         3        C      tau(   3) = (  0.4985326  0.5188056  0.4985326  )
         4        C      tau(   4) = (  0.0000000  0.5390785  0.4985326  )
         5        H      tau(   5) = (  0.0000000  0.4269608  0.4985326  )
         6        H      tau(   6) = (  0.0000000  0.5701044  0.4985326  )

     number of k points=    16  Gaussian smearing, width (Ry)=  0.0020
                       cart. coord. in units 2pi/alat
        k(    1) = (   0.0000000   0.0000000   0.0000000), wk =   0.0666667
        k(    2) = (   0.0000000   0.0000000   0.0333333), wk =   0.1333333
        k(    3) = (   0.0000000   0.0000000   0.0666667), wk =   0.1333333
        k(    4) = (   0.0000000   0.0000000   0.1000000), wk =   0.1333333
        k(    5) = (   0.0000000   0.0000000   0.1333333), wk =   0.1333333
        k(    6) = (   0.0000000   0.0000000   0.1666667), wk =   0.1333333
        k(    7) = (   0.0000000   0.0000000   0.2000000), wk =   0.1333333
        k(    8) = (   0.0000000   0.0000000   0.2333333), wk =   0.1333333
        k(    9) = (   0.0000000   0.0000000   0.2666667), wk =   0.1333333
        k(   10) = (   0.0000000   0.0000000   0.3000000), wk =   0.1333333
        k(   11) = (   0.0000000   0.0000000   0.3333333), wk =   0.1333333
        k(   12) = (   0.0000000   0.0000000   0.3666667), wk =   0.1333333
        k(   13) = (   0.0000000   0.0000000   0.4000000), wk =   0.1333333
        k(   14) = (   0.0000000   0.0000000   0.4333333), wk =   0.1333333
        k(   15) = (   0.0000000   0.0000000   0.4666667), wk =   0.1333333
        k(   16) = (   0.0000000   0.0000000  -0.5000000), wk =   0.0666667

                       cryst. coord.
        k(    1) = (   0.0000000   0.0000000   0.0000000), wk =   0.0666667
        k(    2) = (   0.0333333   0.0000000   0.0000000), wk =   0.1333333
        k(    3) = (   0.0666667   0.0000000   0.0000000), wk =   0.1333333
        k(    4) = (   0.1000000   0.0000000   0.0000000), wk =   0.1333333
        k(    5) = (   0.1333333   0.0000000   0.0000000), wk =   0.1333333
        k(    6) = (   0.1666667   0.0000000   0.0000000), wk =   0.1333333
        k(    7) = (   0.2000000   0.0000000   0.0000000), wk =   0.1333333
        k(    8) = (   0.2333333   0.0000000   0.0000000), wk =   0.1333333
        k(    9) = (   0.2666667   0.0000000   0.0000000), wk =   0.1333333
        k(   10) = (   0.3000000   0.0000000   0.0000000), wk =   0.1333333
        k(   11) = (   0.3333333   0.0000000   0.0000000), wk =   0.1333333
        k(   12) = (   0.3666667   0.0000000   0.0000000), wk =   0.1333333
        k(   13) = (   0.4000000   0.0000000   0.0000000), wk =   0.1333333
        k(   14) = (   0.4333333   0.0000000   0.0000000), wk =   0.1333333
        k(   15) = (   0.4666667   0.0000000   0.0000000), wk =   0.1333333
        k(   16) = (  -0.5000000   0.0000000   0.0000000), wk =   0.0666667

     Dense  grid:  5521603 G-vectors     FFT dimensions: (  40, 576, 480)

     Smooth grid:  1397719 G-vectors     FFT dimensions: (  25, 360, 320)

     Dynamical RAM for                 wfc:       1.50 MB

     Dynamical RAM for     wfc (w. buffer):      25.47 MB

     Dynamical RAM for           str. fact:       5.27 MB

     Dynamical RAM for           local pot:       0.00 MB

     Dynamical RAM for          nlocal pot:       3.00 MB

     Dynamical RAM for                qrad:       1.21 MB

     Dynamical RAM for          rho,v,vnew:      15.81 MB

     Dynamical RAM for               rhoin:       5.27 MB

     Dynamical RAM for            rho*nmix:      42.13 MB

     Dynamical RAM for           G-vectors:      10.21 MB

     Dynamical RAM for          h,s,v(r/c):       0.95 MB

     Dynamical RAM for          <psi|beta>:       0.01 MB

     Dynamical RAM for                 psi:      11.99 MB

     Dynamical RAM for                hpsi:      11.99 MB

     Dynamical RAM for                spsi:      11.99 MB

     Dynamical RAM for      wfcinit/wfcrot:       3.00 MB

     Dynamical RAM for           addusdens:     123.75 MB

     Dynamical RAM for          addusforce:     140.87 MB

     Dynamical RAM for         addusstress:     131.65 MB

     Estimated static dynamical RAM per process >      87.31 MB

     Estimated max dynamical RAM per process >     270.31 MB

     Estimated total dynamical RAM >       8.45 GB

     Initial potential from superposition of free atoms

     starting charge      17.9998, renormalised to      18.0000

     negative rho (up, down):  4.125E-04 0.000E+00
     Starting wfcs are random
     Checking if some PAW data can be deallocated... 
       PAW data deallocated on   10 nodes for type:  1
       PAW data deallocated on   22 nodes for type:  2

     total cpu time spent up to now is        9.9 secs

     per-process dynamical memory:   133.1 Mb

     Self-consistent Calculation

     iteration #  1     ecut=    70.00 Ry     beta= 0.50
     Davidson diagonalization with overlap

---- Real-time Memory Report at c_bands before calling an iterative solver
           312 MiB given to the printing process from OS
           130 MiB allocation reported by mallinfo(arena+hblkhd)
          6472 MiB available memory on the node where the printing process lives
------------------
     ethr =  1.00E-02,  avg # of iterations = 11.4

     negative rho (up, down):  3.713E-04 0.000E+00

     total cpu time spent up to now is       40.5 secs

     total energy              =     -76.00600921 Ry
     estimated scf accuracy    <       0.64187559 Ry

     iteration #  2     ecut=    70.00 Ry     beta= 0.50
     Davidson diagonalization with overlap

---- Real-time Memory Report at c_bands before calling an iterative solver
           386 MiB given to the printing process from OS
           191 MiB allocation reported by mallinfo(arena+hblkhd)
          6115 MiB available memory on the node where the printing process lives
------------------
     ethr =  3.57E-03,  avg # of iterations =  2.0

     negative rho (up, down):  4.309E-04 0.000E+00

     total cpu time spent up to now is       49.9 secs

     total energy              =     -76.07980118 Ry
     estimated scf accuracy    <       0.04124294 Ry

     iteration #  3     ecut=    70.00 Ry     beta= 0.50
     Davidson diagonalization with overlap

---- Real-time Memory Report at c_bands before calling an iterative solver
           391 MiB given to the printing process from OS
           194 MiB allocation reported by mallinfo(arena+hblkhd)
          5987 MiB available memory on the node where the printing process lives
------------------
     ethr =  2.29E-04,  avg # of iterations =  9.0

     negative rho (up, down):  4.846E-04 0.000E+00

     total cpu time spent up to now is       66.1 secs

     total energy              =     -76.08149903 Ry
     estimated scf accuracy    <       0.00627106 Ry

     iteration #  4     ecut=    70.00 Ry     beta= 0.50
     Davidson diagonalization with overlap

---- Real-time Memory Report at c_bands before calling an iterative solver
           392 MiB given to the printing process from OS
           197 MiB allocation reported by mallinfo(arena+hblkhd)
          5983 MiB available memory on the node where the printing process lives
------------------
     c_bands:  1 eigenvalues not converged
     c_bands:  1 eigenvalues not converged
     ethr =  3.48E-05,  avg # of iterations = 14.1

     negative rho (up, down):  4.984E-04 0.000E+00

     total cpu time spent up to now is       86.2 secs

     total energy              =     -76.07982680 Ry
     estimated scf accuracy    <       0.02954746 Ry

     iteration #  5     ecut=    70.00 Ry     beta= 0.50
     Davidson diagonalization with overlap

---- Real-time Memory Report at c_bands before calling an iterative solver
           397 MiB given to the printing process from OS
           197 MiB allocation reported by mallinfo(arena+hblkhd)
          6078 MiB available memory on the node where the printing process lives
------------------
     ethr =  3.48E-05,  avg # of iterations =  2.8

     negative rho (up, down):  5.150E-04 0.000E+00

     total cpu time spent up to now is       95.9 secs

     total energy              =     -76.08260375 Ry
     estimated scf accuracy    <       0.00257017 Ry

     iteration #  6     ecut=    70.00 Ry     beta= 0.50
     Davidson diagonalization with overlap

---- Real-time Memory Report at c_bands before calling an iterative solver
           398 MiB given to the printing process from OS
           197 MiB allocation reported by mallinfo(arena+hblkhd)
          5927 MiB available memory on the node where the printing process lives
------------------
     ethr =  1.43E-05,  avg # of iterations =  3.0

     negative rho (up, down):  5.299E-04 0.000E+00

     total cpu time spent up to now is      105.3 secs

     total energy              =     -76.08284366 Ry
     estimated scf accuracy    <       0.00012400 Ry

     iteration #  7     ecut=    70.00 Ry     beta= 0.50
     Davidson diagonalization with overlap

---- Real-time Memory Report at c_bands before calling an iterative solver
           402 MiB given to the printing process from OS
           199 MiB allocation reported by mallinfo(arena+hblkhd)
          5746 MiB available memory on the node where the printing process lives
------------------
     c_bands:  1 eigenvalues not converged
     ethr =  6.89E-07,  avg # of iterations = 14.6

     negative rho (up, down):  5.314E-04 0.000E+00

     total cpu time spent up to now is      126.3 secs

     total energy              =     -76.08286410 Ry
     estimated scf accuracy    <       0.00007629 Ry

     iteration #  8     ecut=    70.00 Ry     beta= 0.50
     Davidson diagonalization with overlap

---- Real-time Memory Report at c_bands before calling an iterative solver
           402 MiB given to the printing process from OS
           199 MiB allocation reported by mallinfo(arena+hblkhd)
          5930 MiB available memory on the node where the printing process lives
------------------
     ethr =  4.24E-07,  avg # of iterations =  1.0

     negative rho (up, down):  5.326E-04 0.000E+00

     total cpu time spent up to now is      134.9 secs

     total energy              =     -76.08287131 Ry
     estimated scf accuracy    <       0.00000309 Ry

     iteration #  9     ecut=    70.00 Ry     beta= 0.50
     Davidson diagonalization with overlap

---- Real-time Memory Report at c_bands before calling an iterative solver
           406 MiB given to the printing process from OS
           202 MiB allocation reported by mallinfo(arena+hblkhd)
          5766 MiB available memory on the node where the printing process lives
------------------
     ethr =  1.72E-08,  avg # of iterations =  2.6

     negative rho (up, down):  5.329E-04 0.000E+00

     total cpu time spent up to now is      145.1 secs

     total energy              =     -76.08287190 Ry
     estimated scf accuracy    <       0.00000118 Ry

     iteration # 10     ecut=    70.00 Ry     beta= 0.50
     Davidson diagonalization with overlap

---- Real-time Memory Report at c_bands before calling an iterative solver
           407 MiB given to the printing process from OS
           202 MiB allocation reported by mallinfo(arena+hblkhd)
          5630 MiB available memory on the node where the printing process lives
------------------
     ethr =  6.55E-09,  avg # of iterations =  2.1

     negative rho (up, down):  5.331E-04 0.000E+00

     total cpu time spent up to now is      154.2 secs

     End of self-consistent calculation

          k = 0.0000 0.0000 0.0000 (174695 PWs)   bands (ev):

   -22.0851 -19.5291 -15.0916 -11.1332 -10.1363  -9.1328  -7.9911  -7.6089
    -7.3928  -0.6647  -0.3939  -0.3747   0.0473   0.1518   0.1784   0.1791
     0.2560   0.2688

     occupation numbers 
     1.0000   1.0000   1.0000   1.0000   1.0000   1.0000   1.0000   1.0000
     1.0000   0.0000   0.0000   0.0000   0.0000   0.0000   0.0000   0.0000
     0.0000   0.0000

          k = 0.0000 0.0000 0.0333 (174689 PWs)   bands (ev):

   -22.0657 -19.5106 -15.0759 -11.1240 -10.1131  -9.2242  -7.9979  -7.5854
    -7.4760  -0.6590  -0.3707  -0.3492   0.0745   0.1789   0.2049   0.2064
     0.2833   0.2977

     occupation numbers 
     1.0000   1.0000   1.0000   1.0000   1.0000   1.0000   1.0000   1.0000
     1.0000   0.0000   0.0000   0.0000   0.0000   0.0000   0.0000   0.0000
     0.0000   0.0000

          k = 0.0000 0.0000 0.0667 (174575 PWs)   bands (ev):

   -22.0077 -19.4553 -15.0293 -11.0973 -10.0436  -9.4854  -8.0223  -7.7159
    -7.5150  -0.6451  -0.3014  -0.2728   0.1561   0.2598   0.2842   0.2879
     0.3649   0.3777

     occupation numbers 
     1.0000   1.0000   1.0000   1.0000   1.0000   1.0000   1.0000   1.0000
     1.0000   0.0000   0.0000   0.0000   0.0000   0.0000   0.0000   0.0000
     0.0000   0.0000

          k = 0.0000 0.0000 0.1000 (174569 PWs)   bands (ev):

   -21.9111 -19.3632 -14.9531 -11.0555  -9.9281  -9.8847  -8.0866  -8.0716
    -7.3978  -0.6322  -0.1876  -0.1463   0.2922   0.3947   0.4165   0.4239
     0.5009   0.5140

     occupation numbers 
     1.0000   1.0000   1.0000   1.0000   1.0000   1.0000   1.0000   1.0000
     1.0000   0.0000   0.0000   0.0000   0.0000   0.0000   0.0000   0.0000
     0.0000   0.0000

          k = 0.0000 0.0000 0.1333 (174613 PWs)   bands (ev):

   -21.7760 -19.2344 -14.8502 -11.0040 -10.3855  -9.7670  -8.5534  -8.1517
    -7.2344  -0.6357  -0.0317   0.0294   0.4826   0.5829   0.6017   0.6141
     0.6911   0.7047

     occupation numbers 
     1.0000   1.0000   1.0000   1.0000   1.0000   1.0000   1.0000   1.0000
     1.0000   0.0000   0.0000   0.0000   0.0000   0.0000   0.0000   0.0000
     0.0000   0.0000

          k = 0.0000 0.0000 0.1667 (174487 PWs)   bands (ev):

   -21.6027 -19.0691 -14.7260 -10.9547 -10.9507  -9.5611  -9.0761  -8.2666
    -7.0253  -0.6764   0.1626   0.2532   0.7273   0.8238   0.8401   0.8586
     0.9347   0.9498

     occupation numbers 
     1.0000   1.0000   1.0000   1.0000   1.0000   1.0000   1.0000   1.0000
     1.0000   0.0000   0.0000   0.0000   0.0000   0.0000   0.0000   0.0000
     0.0000   0.0000

          k = 0.0000 0.0000 0.2000 (174303 PWs)   bands (ev):

   -21.3915 -18.8675 -14.5919 -11.5431 -10.9399  -9.5993  -9.3113  -8.4197
    -6.7713  -0.7768   0.3907   0.5235   1.0262   1.1159   1.1322   1.1573
     1.2264   1.2438

     occupation numbers 
     1.0000   1.0000   1.0000   1.0000   1.0000   1.0000   1.0000   1.0000
     1.0000   0.0000   0.0000   0.0000   0.0000   0.0000   0.0000   0.0000
     0.0000   0.0000

          k = 0.0000 0.0000 0.2333 (174316 PWs)   bands (ev):

   -21.1427 -18.6299 -14.4738 -12.1168 -11.0545 -10.0111  -9.0191  -8.6133
    -6.4737  -0.9570   0.6477   0.8380   1.3789   1.4568   1.4783   1.5102
     1.5619   1.5939

     occupation numbers 
     1.0000   1.0000   1.0000   1.0000   1.0000   1.0000   1.0000   1.0000
     1.0000   0.0000   0.0000   0.0000   0.0000   0.0000   0.0000   0.0000
     0.0000   0.0000

          k = 0.0000 0.0000 0.2667 (174464 PWs)   bands (ev):

   -20.8569 -18.3568 -14.4350 -12.5934 -11.4227 -10.1756  -8.8479  -8.6864
    -6.1343  -1.2281   0.9303   1.1931   1.7847   1.8448   1.8790   1.9173
     1.9530   1.9944

     occupation numbers 
     1.0000   1.0000   1.0000   1.0000   1.0000   1.0000   1.0000   1.0000
     1.0000   0.0000   0.0000   0.0000   0.0000   0.0000   0.0000   0.0000
     0.0000   0.0000

          k = 0.0000 0.0000 0.3000 (174490 PWs)   bands (ev):

   -20.5348 -18.0486 -14.5910 -12.8467 -11.9650 -10.1656  -9.1220  -8.3160
    -5.7556  -1.5885   1.2386   1.5823   1.7778   2.2400   2.2838   2.3342
     2.3784   2.4046

     occupation numbers 
     1.0000   1.0000   1.0000   1.0000   1.0000   1.0000   1.0000   1.0000
     1.0000   0.0000   0.0000   0.0000   0.0000   0.0000   0.0000   0.0000
     0.0000   0.0000

          k = 0.0000 0.0000 0.3333 (174608 PWs)   bands (ev):

   -20.1774 -17.7061 -14.9836 -12.8274 -12.5627 -10.0961  -9.4319  -7.9123
    -5.3416  -2.0240   1.1964   1.5766   1.9945   2.7363   2.7855   2.8442
     2.8929   2.9151

     occupation numbers 
     1.0000   1.0000   1.0000   1.0000   1.0000   1.0000   1.0000   1.0000
     1.0000   0.0000   0.0000   0.0000   0.0000   0.0000   0.0000   0.0000
     0.0000   0.0000

          k = 0.0000 0.0000 0.3667 (174620 PWs)   bands (ev):

   -19.7865 -17.3303 -15.5095 -13.1690 -12.6336 -10.0128  -9.7719  -7.4821
    -4.8990  -2.5116   0.5712   1.9505   2.4075   3.2738   3.3514   3.4085
     3.4600   3.4831

     occupation numbers 
     1.0000   1.0000   1.0000   1.0000   1.0000   1.0000   1.0000   1.0000
     1.0000   0.0000   0.0000   0.0000   0.0000   0.0000   0.0000   0.0000
     0.0000   0.0000

          k = 0.0000 0.0000 0.4000 (174718 PWs)   bands (ev):

   -19.3649 -16.9231 -16.0778 -13.7648 -12.3519 -10.1351  -9.9347  -7.0381
    -4.4404  -3.0210  -0.0487   2.3652   2.7777   3.8533   3.9750   4.0268
     4.0720   4.1070

     occupation numbers 
     1.0000   1.0000   1.0000   1.0000   1.0000   1.0000   1.0000   1.0000
     1.0000   0.0000   0.0000   0.0000   0.0000   0.0000   0.0000   0.0000
     0.0000   0.0000

          k = 0.0000 0.0000 0.4333 (174760 PWs)   bands (ev):

   -18.9198 -16.6425 -16.4886 -14.3379 -12.0219 -10.5138  -9.8721  -6.6064
    -3.9927  -3.5107  -0.6202   2.8218   3.0389   4.4345   4.5248   4.6526
     4.6982   4.7898

     occupation numbers 
     1.0000   1.0000   1.0000   1.0000   1.0000   1.0000   1.0000   1.0000
     1.0000   0.0000   0.0000   0.0000   0.0000   0.0000   0.0000   0.0000
     0.0000   0.0000

          k = 0.0000 0.0000 0.4667 (174728 PWs)   bands (ev):

   -18.4767 -17.1619 -16.0423 -14.8688 -11.6627 -10.8999  -9.8320  -6.2488
    -3.9077  -3.6206  -1.0697   3.1606   3.3080   4.4934   4.7090   5.3268
     5.4044   5.4200

     occupation numbers 
     1.0000   1.0000   1.0000   1.0000   1.0000   1.0000   1.0000   1.0000
     1.0000   0.0000   0.0000   0.0000   0.0000   0.0000   0.0000   0.0000
     0.0000   0.0000

          k = 0.0000 0.0000-0.5000 (174780 PWs)   bands (ev):

   -18.2077 -17.4569 -15.7383 -15.2012 -11.2947 -11.2766  -9.8182  -6.0958
    -4.0746  -3.4612  -1.2554   3.1898   3.6622   4.1544   4.8075   5.8866
     6.1203   6.1390

     occupation numbers 
     1.0000   1.0000   1.0000   1.0000   1.0000   1.0000   1.0000   1.0000
     1.0000   0.0000   0.0000   0.0000   0.0000   0.0000   0.0000   0.0000
     0.0000   0.0000

     the Fermi energy is    -3.75889465 ev

!    total energy              =     -76.08287211 Ry
     total all-electron energy =      -307.139252 Ry
     estimated scf accuracy    <          5.5E-09 Ry
     smearing contrib. (-TS)   =      -0.00000000 Ry
     internal energy E=F+TS    =     -76.08287211 Ry

     The total energy is F=E-TS. E is the sum of the following terms:
     one-electron contribution =    -494.79930307 Ry
     hartree contribution      =     249.72940338 Ry
     xc contribution           =     -19.83890177 Ry
     ewald contribution        =     213.49407029 Ry
     one-center paw contrib.   =     -24.66814094 Ry
      -> PAW hartree energy AE =       8.99328458 Ry
      -> PAW hartree energy PS =      -8.98472410 Ry
      -> PAW xc energy AE      =     -10.55538481 Ry
      -> PAW xc energy PS      =       4.37967361 Ry
      -> total E_H with PAW    =     249.73796386 Ry
      -> total E_XC with PAW   =     -26.01461297 Ry

     convergence has been achieved in  10 iterations

     negative rho (up, down):  5.331E-04 0.000E+00

     Forces acting on atoms (cartesian axes, Ry/au):

     atom    1 type  1   force =     0.05201042   -0.00000374   -0.00519841
     atom    2 type  1   force =    -0.08805250   -0.00000396    0.00523417
     atom    3 type  1   force =     0.08806308   -0.00000501    0.00523389
     atom    4 type  1   force =    -0.05200679   -0.00000479   -0.00519926
     atom    5 type  2   force =    -0.00036964    0.00000873   -0.00003522
     atom    6 type  2   force =     0.00035543    0.00000876   -0.00003517
     The non-local contrib.  to forces
     atom    1 type  1   force =     0.04710597   -0.00000262   -0.00683437
     atom    2 type  1   force =    -0.02263080   -0.00000148    0.00720940
     atom    3 type  1   force =     0.02266524   -0.00000216    0.00720956
     atom    4 type  1   force =    -0.04711494   -0.00000263   -0.00683612
     atom    5 type  2   force =     0.07696852   -0.00000002    0.00000115
     atom    6 type  2   force =    -0.07696872   -0.00000001    0.00000115
     The ionic contribution  to forces
     atom    1 type  1   force =    -8.72880071    0.00000000   -0.03207836
     atom    2 type  1   force =    -3.95954770    0.00000000    0.03257282
     atom    3 type  1   force =     3.95954770    0.00000000    0.03257282
     atom    4 type  1   force =     8.72880071    0.00000000   -0.03207836
     atom    5 type  2   force =    -4.20082289    0.00000000   -0.00049446
     atom    6 type  2   force =     4.20082289    0.00000000   -0.00049446
     The local contribution  to forces
     atom    1 type  1   force =     8.73309211    0.00000255    0.03347875
     atom    2 type  1   force =     3.89376337    0.00000140   -0.03430472
     atom    3 type  1   force =    -3.89373407    0.00000110   -0.03430569
     atom    4 type  1   force =    -8.73304340    0.00000142    0.03347902
     atom    5 type  2   force =     4.12348284   -0.00000014    0.00045851
     atom    6 type  2   force =    -4.12351463   -0.00000019    0.00045853
     The core correction contribution to forces
     atom    1 type  1   force =     0.00064204   -0.00001359    0.00023647
     atom    2 type  1   force =     0.00039440   -0.00001445   -0.00024318
     atom    3 type  1   force =    -0.00040541   -0.00001438   -0.00024312
     atom    4 type  1   force =    -0.00064534   -0.00001364    0.00023661
     atom    5 type  2   force =     0.00000000    0.00000000    0.00000000
     atom    6 type  2   force =     0.00000000    0.00000000    0.00000000
     The Hubbard contrib.    to forces
     atom    1 type  1   force =     0.00000000    0.00000000    0.00000000
     atom    2 type  1   force =     0.00000000    0.00000000    0.00000000
     atom    3 type  1   force =     0.00000000    0.00000000    0.00000000
     atom    4 type  1   force =     0.00000000    0.00000000    0.00000000
     atom    5 type  2   force =     0.00000000    0.00000000    0.00000000
     atom    6 type  2   force =     0.00000000    0.00000000    0.00000000
     The SCF correction term to forces
     atom    1 type  1   force =    -0.00002818    0.00000113   -0.00000056
     atom    2 type  1   force =    -0.00003095    0.00000178    0.00000020
     atom    3 type  1   force =    -0.00000958    0.00000164    0.00000067
     atom    4 type  1   force =    -0.00000301    0.00000127   -0.00000006
     atom    5 type  2   force =     0.00000270    0.00000010   -0.00000007
     atom    6 type  2   force =     0.00001670    0.00000018   -0.00000005

     Total force =     0.145008     Total SCF correction =     0.000046


     Computing stress (Cartesian axis) and pressure


     negative rho (up, down):  5.331E-04 0.000E+00
          total   stress  (Ry/bohr**3)                   (kbar)     P=       -0.62
  -0.00000237   0.00000000   0.00000000           -0.35        0.00        0.00
   0.00000000  -0.00000009  -0.00000000            0.00       -0.01       -0.00
   0.00000000  -0.00000000  -0.00001023            0.00       -0.00       -1.51

     kinetic stress (kbar)    164.38      0.00     -0.00
                                0.00    188.05     -0.00
                               -0.00     -0.00    167.17

     local   stress (kbar)   -464.86      0.00      0.00
                                0.00    441.23      0.00
                                0.00      0.00  -4339.23

     nonloc. stress (kbar)     38.81      0.00     -0.00
                                0.00     35.69     -0.00
                               -0.00     -0.00     39.06

     hartree stress (kbar)    173.54     -0.00     -0.00
                               -0.00   -156.82      0.00
                               -0.00      0.00   2064.47

     exc-cor stress (kbar)     -6.30      0.00     -0.00
                                0.00     -8.01     -0.00
                               -0.00     -0.00     -6.19

     corecor stress (kbar)    -37.56      0.00     -0.00
                                0.00    -36.92      0.00
                               -0.00      0.00    -37.60

     ewald   stress (kbar)    131.64      0.00      0.00
                                0.00   -463.23     -0.00
                                0.00     -0.00   2110.80

     hubbard stress (kbar)      0.00      0.00      0.00
                                0.00      0.00      0.00
                                0.00      0.00      0.00

     DFT-D   stress (kbar)      0.00      0.00      0.00
                                0.00      0.00      0.00
                                0.00      0.00      0.00

     XDM     stress (kbar)      0.00      0.00      0.00
                                0.00      0.00      0.00
                                0.00      0.00      0.00

     dft-nl  stress (kbar)      0.00      0.00      0.00
                                0.00      0.00      0.00
                                0.00      0.00      0.00

     TS-vdW  stress (kbar)      0.00      0.00      0.00
                                0.00      0.00      0.00
                                0.00      0.00      0.00

     MDB     stress (kbar)      0.00      0.00      0.00
                                0.00      0.00      0.00
                                0.00      0.00      0.00

     3D-RISM stress (kbar)      0.00      0.00      0.00
                                0.00      0.00      0.00
                                0.00      0.00      0.00


     Writing all to output data dir ../tmp/ZGNR.save/ :
     XML data file, charge density, pseudopotentials, collected wavefunctions
 
     init_run     :      9.47s CPU      9.84s WALL (       1 calls)
     electrons    :    140.31s CPU    145.91s WALL (       1 calls)
     forces       :      1.81s CPU      1.99s WALL (       1 calls)
     stress       :      5.56s CPU      5.88s WALL (       1 calls)

     Called by init_run:
     wfcinit      :      2.81s CPU      2.86s WALL (       1 calls)
     wfcinit:wfcr :      2.62s CPU      2.67s WALL (      16 calls)
     potinit      :      0.71s CPU      0.81s WALL (       1 calls)
     hinit0       :      0.15s CPU      0.18s WALL (       1 calls)

     Called by electrons:
     c_bands      :    112.65s CPU    114.49s WALL (      10 calls)
     sum_band     :     15.28s CPU     16.24s WALL (      10 calls)
     v_of_rho     :      6.64s CPU      7.19s WALL (      11 calls)
     v_h          :      0.82s CPU      0.88s WALL (      11 calls)
     v_xc         :      6.88s CPU      7.45s WALL (      13 calls)
     newd         :      4.24s CPU      4.98s WALL (      11 calls)
     PAW_pot      :      0.14s CPU      0.15s WALL (      11 calls)
     mix_rho      :      1.44s CPU      1.54s WALL (      10 calls)

     Called by c_bands:
     init_us_2    :      2.52s CPU      2.57s WALL (     368 calls)
     cegterg      :    110.40s CPU    112.17s WALL (     160 calls)

     Called by sum_band:
     sum_band:wei :      0.00s CPU      0.00s WALL (      10 calls)
     sum_band:loo :      9.23s CPU      9.36s WALL (      10 calls)
     sum_band:buf :      0.35s CPU      0.35s WALL (     160 calls)
     sum_band:ini :      1.08s CPU      1.10s WALL (     160 calls)
     sum_band:cal :      0.50s CPU      0.50s WALL (     160 calls)
     sum_band:bec :      0.00s CPU      0.00s WALL (     160 calls)
     addusdens    :      5.34s CPU      6.11s WALL (      10 calls)
                                        0.00s GPU  (      10 calls)
     addusd:skk   :      0.21s CPU      0.21s WALL (      20 calls)
                                        0.00s GPU  (      20 calls)

     Called by *egterg:
     cdiaghg      :      1.34s CPU      1.35s WALL (    1159 calls)
     cegterg:over :      6.52s CPU      6.57s WALL (     999 calls)
     cegterg:upda :      6.77s CPU      6.83s WALL (     999 calls)
     cegterg:last :      1.01s CPU      1.02s WALL (     176 calls)
     h_psi        :     92.24s CPU     93.87s WALL (    1175 calls)
     s_psi        :      2.57s CPU      2.59s WALL (    1175 calls)
     g_psi        :      0.20s CPU      0.20s WALL (     999 calls)

     Called by h_psi:
     h_psi:calbec :      2.92s CPU      2.95s WALL (    1175 calls)
     vloc_psi     :     85.45s CPU     87.00s WALL (    1175 calls)
     add_vuspsi   :      3.00s CPU      3.03s WALL (    1175 calls)

     General routines
     calbec       :      4.10s CPU      4.14s WALL (    1607 calls)
     fft          :      6.32s CPU      7.19s WALL (     166 calls)
     ffts         :      0.10s CPU      0.10s WALL (      21 calls)
     fftw         :     41.58s CPU     42.18s WALL (   23988 calls)
     interpolate  :      0.51s CPU      0.57s WALL (      11 calls)
 
     Parallel routines

     PAW routines
     PAW_pot      :      0.14s CPU      0.15s WALL (      11 calls)
 
     PWSCF        :   2m38.09s CPU   2m53.88s WALL

 
   This run was terminated on:   3: 3:52   8Jun2026            

=------------------------------------------------------------------------------=
   JOB DONE.
=------------------------------------------------------------------------------=
