
     Program PWSCF v.7.4.1 starts on 13Oct2025 at 20:37:39 

     This program is part of the open-source Quantum ESPRESSO suite
     for quantum simulation of materials; please cite
         "P. Giannozzi et al., J. Phys.:Condens. Matter 21 395502 (2009);
         "P. Giannozzi et al., J. Phys.:Condens. Matter 29 465901 (2017);
         "P. Giannozzi et al., J. Chem. Phys. 152 154105 (2020);
          URL http://www.quantum-espresso.org", 
     in publications or presentations arising from this work. More details at
     http://www.quantum-espresso.org/quote

     Serial version
     11607 MiB available memory on the printing compute node when the environment starts

     Reading input from grap_SOC_nscf.in

     Current dimensions of program PWSCF are:
     Max number of different atomic species (ntypx) = 10
     Max number of k-points (npk) =  40000
     Max angular momentum in pseudopotentials (lmaxx) =  4
     Message from routine input:
     WARNING: "startingwfc" set to random may spoil restart
     file C.rel-pbe-n-kjpaw.UPF: wavefunction(s)  2P 2P renormalized


     G-vector sticks info
     --------------------
     sticks:   dense  smooth     PW     G-vecs:    dense   smooth      PW
     Sum        1045     421    139               166859    42343    8205

     Using Slab Decomposition



     bravais-lattice index     =            0
     lattice parameter (alat)  =       4.6624  a.u.
     unit-cell volume          =     533.6317 (a.u.)^3
     number of atoms/cell      =            2
     number of atomic types    =            1
     number of electrons       =         8.00
     number of Kohn-Sham states=           16
     kinetic-energy cutoff     =      70.0000  Ry
     charge density cutoff     =     700.0000  Ry
     Exchange-correlation= SLA  PW   PBX  PBC
                           (   1   4   3   4   0   0   0)
     Non magnetic calculation with spin-orbit


     celldm(1)=   4.662410  celldm(2)=   0.000000  celldm(3)=   0.000000
     celldm(4)=   0.000000  celldm(5)=   0.000000  celldm(6)=   0.000000

     crystal axes: (cart. coord. in units of alat)
               a(1) = (   1.000000   0.000000  -0.000000 )  
               a(2) = (  -0.500000   0.866025   0.000000 )  
               a(3) = (  -0.000000   0.000000   6.079666 )  

     reciprocal axes: (cart. coord. in units 2 pi/alat)
               b(1) = (  1.000000  0.577350  0.000000 )  
               b(2) = ( -0.000000  1.154701 -0.000000 )  
               b(3) = (  0.000000  0.000000  0.164483 )  


     PseudoPot. # 1 for C  read from file:
     ../../../pseudos/C.rel-pbe-n-kjpaw.UPF
     MD5 check sum: 8ca7f8d5b29b973b07b5aad864045a33
     Pseudo is Projector augmented-wave + core cor, Zval =  4.0
     Generated using "atomic" code by A. Dal Corso  (Quantum ESPRESSO distribution)
     Shape of augmentation charge: BESSEL
     Using radial grid of 1073 points,  6 beta functions with: 
                l(1) =   0
                l(2) =   0
                l(3) =   1
                l(4) =   1
                l(5) =   1
                l(6) =   1
     Q(r) pseudized with 0 coefficients 


     atomic species   valence    mass     pseudopotential
     C                 4.00    12.01100     C ( 1.00)

     No symmetry found



   Cartesian axes

     site n.     atom                  positions (alat units)
         1        C      tau(   1) = (   0.0000000   0.0000000   0.0000000  )
         2        C      tau(   2) = (   0.0000000   0.5773503   0.0000000  )

     number of k points= 11252  Gaussian smearing, width (Ry)=  0.0020

     Number of k-points >= 100: set verbosity='high' to print them.

     Dense  grid:   166859 G-vectors     FFT dimensions: (  40,  40, 240)

     Smooth grid:    42343 G-vectors     FFT dimensions: (  25,  25, 160)

     Estimated max dynamical RAM per process >     403.01 MB

     Atomic positions and unit cell read from directory:
     ./tmp/graphene.save/


     The potential is recalculated from file :
     ./tmp/graphene.save/charge-density


     negative rho (up, down):  7.065E-06 0.000E+00
     Starting wfcs are random

     Band Structure Calculation
     Davidson diagonalization with overlap
     c_bands:  2 eigenvalues not converged

     ethr =  1.25E-10,  avg # of iterations = 29.7

     total cpu time spent up to now is    30926.4 secs

     End of band structure calculation

     Number of k-points >= 100: set verbosity='high' to print the bands.

     the Fermi energy is    -1.7236 ev
     (compare with:    -1.7240 eV, computed in scf)

     Writing all to output data dir ./tmp/graphene.save/ :
     XML data file, pseudopotentials, collected wavefunctions

     init_run     :      5.46s CPU      5.66s WALL (       1 calls)
     electrons    :  30668.87s CPU  30920.50s WALL (       1 calls)

     Called by init_run:
     wfcinit      :      0.00s CPU      0.00s WALL (       1 calls)
     potinit      :      0.55s CPU      0.58s WALL (       1 calls)
     hinit0       :      0.79s CPU      0.80s WALL (       1 calls)

     Called by electrons:
     c_bands      :  30668.84s CPU  30920.47s WALL (       1 calls)
     v_of_rho     :      0.11s CPU      0.13s WALL (       1 calls)
     newd         :      0.22s CPU      0.31s WALL (       1 calls)
     PAW_pot      :      0.07s CPU      0.07s WALL (       1 calls)

     Called by c_bands:
     init_us_2    :      8.96s CPU     10.60s WALL (   11252 calls)
     cegterg      :  29706.16s CPU  29943.87s WALL (   21815 calls)

     Called by *egterg:
     cdiaghg      :    563.69s CPU    564.34s WALL (  345667 calls)
     h_psi        :  13116.55s CPU  13223.02s WALL (  367482 calls)
     s_psi        :   1469.80s CPU   1481.55s WALL (  367482 calls)
     g_psi        :     91.57s CPU     91.78s WALL (  334415 calls)

     Called by h_psi:
     h_psi:calbec :   1461.31s CPU   1462.45s WALL (  367482 calls)
     vloc_psi     :  10092.64s CPU  10126.72s WALL (  367482 calls)
     add_vuspsi   :   1484.20s CPU   1485.03s WALL (  367482 calls)

     General routines
     calbec       :   1460.53s CPU   1461.73s WALL (  367482 calls)
     fft          :      0.59s CPU      0.59s WALL (      19 calls)
     ffts         :      0.33s CPU      0.33s WALL (       4 calls)
     fftw         :   5709.89s CPU   5722.71s WALL (14744392 calls)
     interpolate  :      0.34s CPU      0.34s WALL (       4 calls)
     davcio       :      2.35s CPU     85.99s WALL (   22504 calls)


     PWSCF        :      8h31m CPU      8h37m WALL


   This run was terminated on:   5:15:17  14Oct2025            

=------------------------------------------------------------------------------=
   JOB DONE.
=------------------------------------------------------------------------------=
