
     Program PWSCF v.7.4.1 starts on  6Jan2026 at  3: 3:57 

     This program is part of the open-source Quantum ESPRESSO suite
     for quantum simulation of materials; please cite
         "P. Giannozzi et al., J. Phys.:Condens. Matter 21 395502 (2009);
         "P. Giannozzi et al., J. Phys.:Condens. Matter 29 465901 (2017);
         "P. Giannozzi et al., J. Chem. Phys. 152 154105 (2020);
          URL http://www.quantum-espresso.org", 
     in publications or presentations arising from this work. More details at
     http://www.quantum-espresso.org/quote

     Parallel version (MPI), running on    20 processors

     MPI processes distributed on     1 nodes
     23443 MiB available memory on the printing compute node when the environment starts
 
     Reading input from 2-agnr_nscf.in

     Current dimensions of program PWSCF are:
     Max number of different atomic species (ntypx) = 10
     Max number of k-points (npk) =  40000
     Max angular momentum in pseudopotentials (lmaxx) =  4
     Message from routine input:
     WARNING: "startingwfc" set to random may spoil restart
     file C.pbe-n-kjpaw_psl.1.0.0.UPF: wavefunction(s)  2S 2P renormalized
     file H.pbe-kjpaw_psl.1.0.0.UPF: wavefunction(s)  1S renormalized
 
     R & G space division:  proc/nbgrp/npool/nimage =      20
     Subspace diagonalization in iterative solution of the eigenvalue problem:
     a serial algorithm will be used

 
     Parallelization info
     --------------------
     sticks:   dense  smooth     PW     G-vecs:    dense   smooth      PW
     Min        1521     609    167               485663   122905   17601
     Max        1522     610    168               485670   122917   17612
     Sum       30437   12181   3341              9713367  2458215  352067
 
     Using Slab Decomposition
 


     bravais-lattice index     =            0
     lattice parameter (alat)  =       8.0993  a.u.
     unit-cell volume          =   31062.2401 (a.u.)^3
     number of atoms/cell      =           12
     number of atomic types    =            2
     number of electrons       =        36.00
     number of Kohn-Sham states=           22
     kinetic-energy cutoff     =      70.0000  Ry
     charge density cutoff     =     700.0000  Ry
     Exchange-correlation= SLA  PW   PBX  PBC
                           (   1   4   3   4   0   0   0)

     celldm(1)=   8.099301  celldm(2)=   0.000000  celldm(3)=   0.000000
     celldm(4)=   0.000000  celldm(5)=   0.000000  celldm(6)=   0.000000

     crystal axes: (cart. coord. in units of alat)
               a(1) = (   0.000000   0.000000   1.000000 )  
               a(2) = (   8.328007   0.000000   0.000000 )  
               a(3) = (   0.000000   7.020193   0.000000 )  

     reciprocal axes: (cart. coord. in units 2 pi/alat)
               b(1) = (  0.000000  0.000000  1.000000 )  
               b(2) = (  0.120077  0.000000  0.000000 )  
               b(3) = (  0.000000  0.142446  0.000000 )  


     PseudoPot. # 1 for C  read from file:
     ../../../PP_C/C.pbe-n-kjpaw_psl.1.0.0.UPF
     MD5 check sum: 5f16ad9a65e90284d1d834d4ab3b0f7d
     Pseudo is Projector augmented-wave + core cor, Zval =  4.0
     Generated using &quot;atomic&quot; code by A. Dal Corso  v.6.3
     Shape of augmentation charge: PSQ
     Using radial grid of 1073 points,  4 beta functions with: 
                l(1) =   0
                l(2) =   0
                l(3) =   1
                l(4) =   1
     Q(r) pseudized with 0 coefficients 


     PseudoPot. # 2 for H  read from file:
     ../../../PP_C/H.pbe-kjpaw_psl.1.0.0.UPF
     MD5 check sum: d81a744832360e4a8af0b0b5b123bc2a
     Pseudo is Projector augmented-wave, Zval =  1.0
     Generated using &quot;atomic&quot; code by A. Dal Corso  v.6.3MaX
     Shape of augmentation charge: PSQ
     Using radial grid of  929 points,  2 beta functions with: 
                l(1) =   0
                l(2) =   0
     Q(r) pseudized with 0 coefficients 


     atomic species   valence    mass     pseudopotential
     C                 4.00    12.01100     C ( 1.00)
     H                 1.00     1.00790     H ( 1.00)

     No symmetry found


                                    s                        frac. trans.

      isym =  1     identity                                     

 cryst.   s( 1) = (     1          0          0      )
                  (     0          1          0      )
                  (     0          0          1      )

 cart.    s( 1) = (  1.0000000  0.0000000  0.0000000 )
                  (  0.0000000  1.0000000  0.0000000 )
                  (  0.0000000  0.0000000  1.0000000 )


   Cartesian axes

     site n.     atom                  positions (alat units)
         1        C      tau(   1) = (   4.2956968   3.4997948   0.0000000  )
         2        C      tau(   2) = (   4.5835247   3.4997948   0.1661775  )
         3        C      tau(   3) = (   4.5835247   3.4997948   0.4985326  )
         4        C      tau(   4) = (   4.2956968   3.4997948   0.6647101  )
         5        C      tau(   5) = (   3.7200410   3.4997948   0.0000000  )
         6        C      tau(   6) = (   4.0078689   3.4997948   0.1661775  )
         7        C      tau(   7) = (   4.0078689   3.4997948   0.4985326  )
         8        C      tau(   8) = (   3.7200410   3.4997948   0.6647101  )
         9        H      tau(   9) = (   3.4997948   3.4997948   0.1271592  )
        10        H      tau(  10) = (   3.4997948   3.4997948   0.5375509  )
        11        H      tau(  11) = (   4.8037709   3.4997948   0.0390183  )
        12        H      tau(  12) = (   4.8037709   3.4997948   0.6256918  )

   Crystallographic axes

     site n.     atom                  positions (cryst. coord.)
         1        C      tau(   1) = (  0.0000000  0.5158133  0.4985326  )
         2        C      tau(   2) = (  0.1661775  0.5503747  0.4985326  )
         3        C      tau(   3) = (  0.4985326  0.5503747  0.4985326  )
         4        C      tau(   4) = (  0.6647101  0.5158133  0.4985326  )
         5        C      tau(   5) = (  0.0000000  0.4466904  0.4985326  )
         6        C      tau(   6) = (  0.1661775  0.4812519  0.4985326  )
         7        C      tau(   7) = (  0.4985326  0.4812519  0.4985326  )
         8        C      tau(   8) = (  0.6647101  0.4466904  0.4985326  )
         9        H      tau(   9) = (  0.1271592  0.4202440  0.4985326  )
        10        H      tau(  10) = (  0.5375509  0.4202440  0.4985326  )
        11        H      tau(  11) = (  0.0390183  0.5768212  0.4985326  )
        12        H      tau(  12) = (  0.6256918  0.5768212  0.4985326  )

     number of k points=    76  Gaussian smearing, width (Ry)=  0.0020
                       cart. coord. in units 2pi/alat
        k(    1) = (   0.0000000   0.0000000   0.0000000), wk =   0.0133333
        k(    2) = (   0.0000000   0.0000000   0.0066667), wk =   0.0266667
        k(    3) = (   0.0000000   0.0000000   0.0133333), wk =   0.0266667
        k(    4) = (   0.0000000   0.0000000   0.0200000), wk =   0.0266667
        k(    5) = (   0.0000000   0.0000000   0.0266667), wk =   0.0266667
        k(    6) = (   0.0000000   0.0000000   0.0333333), wk =   0.0266667
        k(    7) = (   0.0000000   0.0000000   0.0400000), wk =   0.0266667
        k(    8) = (   0.0000000   0.0000000   0.0466667), wk =   0.0266667
        k(    9) = (   0.0000000   0.0000000   0.0533333), wk =   0.0266667
        k(   10) = (   0.0000000   0.0000000   0.0600000), wk =   0.0266667
        k(   11) = (   0.0000000   0.0000000   0.0666667), wk =   0.0266667
        k(   12) = (   0.0000000   0.0000000   0.0733333), wk =   0.0266667
        k(   13) = (   0.0000000   0.0000000   0.0800000), wk =   0.0266667
        k(   14) = (   0.0000000   0.0000000   0.0866667), wk =   0.0266667
        k(   15) = (   0.0000000   0.0000000   0.0933333), wk =   0.0266667
        k(   16) = (   0.0000000   0.0000000   0.1000000), wk =   0.0266667
        k(   17) = (   0.0000000   0.0000000   0.1066667), wk =   0.0266667
        k(   18) = (   0.0000000   0.0000000   0.1133333), wk =   0.0266667
        k(   19) = (   0.0000000   0.0000000   0.1200000), wk =   0.0266667
        k(   20) = (   0.0000000   0.0000000   0.1266667), wk =   0.0266667
        k(   21) = (   0.0000000   0.0000000   0.1333333), wk =   0.0266667
        k(   22) = (   0.0000000   0.0000000   0.1400000), wk =   0.0266667
        k(   23) = (   0.0000000   0.0000000   0.1466667), wk =   0.0266667
        k(   24) = (   0.0000000   0.0000000   0.1533333), wk =   0.0266667
        k(   25) = (   0.0000000   0.0000000   0.1600000), wk =   0.0266667
        k(   26) = (   0.0000000   0.0000000   0.1666667), wk =   0.0266667
        k(   27) = (   0.0000000   0.0000000   0.1733333), wk =   0.0266667
        k(   28) = (   0.0000000   0.0000000   0.1800000), wk =   0.0266667
        k(   29) = (   0.0000000   0.0000000   0.1866667), wk =   0.0266667
        k(   30) = (   0.0000000   0.0000000   0.1933333), wk =   0.0266667
        k(   31) = (   0.0000000   0.0000000   0.2000000), wk =   0.0266667
        k(   32) = (   0.0000000   0.0000000   0.2066667), wk =   0.0266667
        k(   33) = (   0.0000000   0.0000000   0.2133333), wk =   0.0266667
        k(   34) = (   0.0000000   0.0000000   0.2200000), wk =   0.0266667
        k(   35) = (   0.0000000   0.0000000   0.2266667), wk =   0.0266667
        k(   36) = (   0.0000000   0.0000000   0.2333333), wk =   0.0266667
        k(   37) = (   0.0000000   0.0000000   0.2400000), wk =   0.0266667
        k(   38) = (   0.0000000   0.0000000   0.2466667), wk =   0.0266667
        k(   39) = (   0.0000000   0.0000000   0.2533333), wk =   0.0266667
        k(   40) = (   0.0000000   0.0000000   0.2600000), wk =   0.0266667
        k(   41) = (   0.0000000   0.0000000   0.2666667), wk =   0.0266667
        k(   42) = (   0.0000000   0.0000000   0.2733333), wk =   0.0266667
        k(   43) = (   0.0000000   0.0000000   0.2800000), wk =   0.0266667
        k(   44) = (   0.0000000   0.0000000   0.2866667), wk =   0.0266667
        k(   45) = (   0.0000000   0.0000000   0.2933333), wk =   0.0266667
        k(   46) = (   0.0000000   0.0000000   0.3000000), wk =   0.0266667
        k(   47) = (   0.0000000   0.0000000   0.3066667), wk =   0.0266667
        k(   48) = (   0.0000000   0.0000000   0.3133333), wk =   0.0266667
        k(   49) = (   0.0000000   0.0000000   0.3200000), wk =   0.0266667
        k(   50) = (   0.0000000   0.0000000   0.3266667), wk =   0.0266667
        k(   51) = (   0.0000000   0.0000000   0.3333333), wk =   0.0266667
        k(   52) = (   0.0000000   0.0000000   0.3400000), wk =   0.0266667
        k(   53) = (   0.0000000   0.0000000   0.3466667), wk =   0.0266667
        k(   54) = (   0.0000000   0.0000000   0.3533333), wk =   0.0266667
        k(   55) = (   0.0000000   0.0000000   0.3600000), wk =   0.0266667
        k(   56) = (   0.0000000   0.0000000   0.3666667), wk =   0.0266667
        k(   57) = (   0.0000000   0.0000000   0.3733333), wk =   0.0266667
        k(   58) = (   0.0000000   0.0000000   0.3800000), wk =   0.0266667
        k(   59) = (   0.0000000   0.0000000   0.3866667), wk =   0.0266667
        k(   60) = (   0.0000000   0.0000000   0.3933333), wk =   0.0266667
        k(   61) = (   0.0000000   0.0000000   0.4000000), wk =   0.0266667
        k(   62) = (   0.0000000   0.0000000   0.4066667), wk =   0.0266667
        k(   63) = (   0.0000000   0.0000000   0.4133333), wk =   0.0266667
        k(   64) = (   0.0000000   0.0000000   0.4200000), wk =   0.0266667
        k(   65) = (   0.0000000   0.0000000   0.4266667), wk =   0.0266667
        k(   66) = (   0.0000000   0.0000000   0.4333333), wk =   0.0266667
        k(   67) = (   0.0000000   0.0000000   0.4400000), wk =   0.0266667
        k(   68) = (   0.0000000   0.0000000   0.4466667), wk =   0.0266667
        k(   69) = (   0.0000000   0.0000000   0.4533333), wk =   0.0266667
        k(   70) = (   0.0000000   0.0000000   0.4600000), wk =   0.0266667
        k(   71) = (   0.0000000   0.0000000   0.4666667), wk =   0.0266667
        k(   72) = (   0.0000000   0.0000000   0.4733333), wk =   0.0266667
        k(   73) = (   0.0000000   0.0000000   0.4800000), wk =   0.0266667
        k(   74) = (   0.0000000   0.0000000   0.4866667), wk =   0.0266667
        k(   75) = (   0.0000000   0.0000000   0.4933333), wk =   0.0266667
        k(   76) = (   0.0000000   0.0000000  -0.5000000), wk =   0.0133333

                       cryst. coord.
        k(    1) = (   0.0000000   0.0000000   0.0000000), wk =   0.0133333
        k(    2) = (   0.0066667   0.0000000   0.0000000), wk =   0.0266667
        k(    3) = (   0.0133333   0.0000000   0.0000000), wk =   0.0266667
        k(    4) = (   0.0200000   0.0000000   0.0000000), wk =   0.0266667
        k(    5) = (   0.0266667   0.0000000   0.0000000), wk =   0.0266667
        k(    6) = (   0.0333333   0.0000000   0.0000000), wk =   0.0266667
        k(    7) = (   0.0400000   0.0000000   0.0000000), wk =   0.0266667
        k(    8) = (   0.0466667   0.0000000   0.0000000), wk =   0.0266667
        k(    9) = (   0.0533333   0.0000000   0.0000000), wk =   0.0266667
        k(   10) = (   0.0600000   0.0000000   0.0000000), wk =   0.0266667
        k(   11) = (   0.0666667   0.0000000   0.0000000), wk =   0.0266667
        k(   12) = (   0.0733333   0.0000000   0.0000000), wk =   0.0266667
        k(   13) = (   0.0800000   0.0000000   0.0000000), wk =   0.0266667
        k(   14) = (   0.0866667   0.0000000   0.0000000), wk =   0.0266667
        k(   15) = (   0.0933333   0.0000000   0.0000000), wk =   0.0266667
        k(   16) = (   0.1000000   0.0000000   0.0000000), wk =   0.0266667
        k(   17) = (   0.1066667   0.0000000   0.0000000), wk =   0.0266667
        k(   18) = (   0.1133333   0.0000000   0.0000000), wk =   0.0266667
        k(   19) = (   0.1200000   0.0000000   0.0000000), wk =   0.0266667
        k(   20) = (   0.1266667   0.0000000   0.0000000), wk =   0.0266667
        k(   21) = (   0.1333333   0.0000000   0.0000000), wk =   0.0266667
        k(   22) = (   0.1400000   0.0000000   0.0000000), wk =   0.0266667
        k(   23) = (   0.1466667   0.0000000   0.0000000), wk =   0.0266667
        k(   24) = (   0.1533333   0.0000000   0.0000000), wk =   0.0266667
        k(   25) = (   0.1600000   0.0000000   0.0000000), wk =   0.0266667
        k(   26) = (   0.1666667   0.0000000   0.0000000), wk =   0.0266667
        k(   27) = (   0.1733333   0.0000000   0.0000000), wk =   0.0266667
        k(   28) = (   0.1800000   0.0000000   0.0000000), wk =   0.0266667
        k(   29) = (   0.1866667   0.0000000   0.0000000), wk =   0.0266667
        k(   30) = (   0.1933333   0.0000000   0.0000000), wk =   0.0266667
        k(   31) = (   0.2000000   0.0000000   0.0000000), wk =   0.0266667
        k(   32) = (   0.2066667   0.0000000   0.0000000), wk =   0.0266667
        k(   33) = (   0.2133333   0.0000000   0.0000000), wk =   0.0266667
        k(   34) = (   0.2200000   0.0000000   0.0000000), wk =   0.0266667
        k(   35) = (   0.2266667   0.0000000   0.0000000), wk =   0.0266667
        k(   36) = (   0.2333333   0.0000000   0.0000000), wk =   0.0266667
        k(   37) = (   0.2400000   0.0000000   0.0000000), wk =   0.0266667
        k(   38) = (   0.2466667   0.0000000   0.0000000), wk =   0.0266667
        k(   39) = (   0.2533333   0.0000000   0.0000000), wk =   0.0266667
        k(   40) = (   0.2600000   0.0000000   0.0000000), wk =   0.0266667
        k(   41) = (   0.2666667   0.0000000   0.0000000), wk =   0.0266667
        k(   42) = (   0.2733333   0.0000000   0.0000000), wk =   0.0266667
        k(   43) = (   0.2800000   0.0000000   0.0000000), wk =   0.0266667
        k(   44) = (   0.2866667   0.0000000   0.0000000), wk =   0.0266667
        k(   45) = (   0.2933333   0.0000000   0.0000000), wk =   0.0266667
        k(   46) = (   0.3000000   0.0000000   0.0000000), wk =   0.0266667
        k(   47) = (   0.3066667   0.0000000   0.0000000), wk =   0.0266667
        k(   48) = (   0.3133333   0.0000000   0.0000000), wk =   0.0266667
        k(   49) = (   0.3200000   0.0000000   0.0000000), wk =   0.0266667
        k(   50) = (   0.3266667   0.0000000   0.0000000), wk =   0.0266667
        k(   51) = (   0.3333333   0.0000000   0.0000000), wk =   0.0266667
        k(   52) = (   0.3400000   0.0000000   0.0000000), wk =   0.0266667
        k(   53) = (   0.3466667   0.0000000   0.0000000), wk =   0.0266667
        k(   54) = (   0.3533333   0.0000000   0.0000000), wk =   0.0266667
        k(   55) = (   0.3600000   0.0000000   0.0000000), wk =   0.0266667
        k(   56) = (   0.3666667   0.0000000   0.0000000), wk =   0.0266667
        k(   57) = (   0.3733333   0.0000000   0.0000000), wk =   0.0266667
        k(   58) = (   0.3800000   0.0000000   0.0000000), wk =   0.0266667
        k(   59) = (   0.3866667   0.0000000   0.0000000), wk =   0.0266667
        k(   60) = (   0.3933333   0.0000000   0.0000000), wk =   0.0266667
        k(   61) = (   0.4000000   0.0000000   0.0000000), wk =   0.0266667
        k(   62) = (   0.4066667   0.0000000   0.0000000), wk =   0.0266667
        k(   63) = (   0.4133333   0.0000000   0.0000000), wk =   0.0266667
        k(   64) = (   0.4200000   0.0000000   0.0000000), wk =   0.0266667
        k(   65) = (   0.4266667   0.0000000   0.0000000), wk =   0.0266667
        k(   66) = (   0.4333333   0.0000000   0.0000000), wk =   0.0266667
        k(   67) = (   0.4400000   0.0000000   0.0000000), wk =   0.0266667
        k(   68) = (   0.4466667   0.0000000   0.0000000), wk =   0.0266667
        k(   69) = (   0.4533333   0.0000000   0.0000000), wk =   0.0266667
        k(   70) = (   0.4600000   0.0000000   0.0000000), wk =   0.0266667
        k(   71) = (   0.4666667   0.0000000   0.0000000), wk =   0.0266667
        k(   72) = (   0.4733333   0.0000000   0.0000000), wk =   0.0266667
        k(   73) = (   0.4800000   0.0000000   0.0000000), wk =   0.0266667
        k(   74) = (   0.4866667   0.0000000   0.0000000), wk =   0.0266667
        k(   75) = (   0.4933333   0.0000000   0.0000000), wk =   0.0266667
        k(   76) = (  -0.5000000   0.0000000   0.0000000), wk =   0.0133333

     Dense  grid:  9713367 G-vectors     FFT dimensions: (  72, 576, 480)

     Smooth grid:  2458215 G-vectors     FFT dimensions: (  45, 360, 320)

     Dynamical RAM for                 wfc:       5.16 MB

     Dynamical RAM for     wfc (w. buffer):       5.16 MB

     Dynamical RAM for           str. fact:      14.82 MB

     Dynamical RAM for           local pot:       0.00 MB

     Dynamical RAM for          nlocal pot:      16.88 MB

     Dynamical RAM for                qrad:       1.21 MB

     Dynamical RAM for          rho,v,vnew:      45.01 MB

     Dynamical RAM for           G-vectors:      28.73 MB

     Dynamical RAM for          h,s,v(r/c):       1.42 MB

     Dynamical RAM for          <psi|beta>:       0.02 MB

     Dynamical RAM for                 psi:      41.25 MB

     Dynamical RAM for                hpsi:      41.25 MB

     Dynamical RAM for                spsi:      41.25 MB

     Dynamical RAM for      wfcinit/wfcrot:      10.32 MB

     Dynamical RAM for           addusdens:     377.95 MB

     Estimated static dynamical RAM per process >     172.01 MB

     Estimated max dynamical RAM per process >     549.96 MB

     Estimated total dynamical RAM >      10.74 GB

     Atomic positions and unit cell read from directory:
     ../tmp/AGNR.save/
 

     The potential is recalculated from file :
     ../tmp/AGNR.save/charge-density


     negative rho (up, down):  9.805E-04 0.000E+00
     Starting wfcs are random
     Checking if some PAW data can be deallocated... 
       PAW data deallocated on    4 nodes for type:  1
       PAW data deallocated on   16 nodes for type:  2

     Band Structure Calculation
     Davidson diagonalization with overlap

     Computing kpt #:     1  of    76
     total cpu time spent up to now is       27.8 secs

     Computing kpt #:     2  of    76
     total cpu time spent up to now is       44.6 secs

     Computing kpt #:     3  of    76
     total cpu time spent up to now is       60.1 secs

     Computing kpt #:     4  of    76
     total cpu time spent up to now is       75.5 secs

     Computing kpt #:     5  of    76
     total cpu time spent up to now is       91.0 secs

     Computing kpt #:     6  of    76
     total cpu time spent up to now is      106.8 secs

     Computing kpt #:     7  of    76
     total cpu time spent up to now is      123.5 secs

     Computing kpt #:     8  of    76
     total cpu time spent up to now is      139.1 secs

     Computing kpt #:     9  of    76
     total cpu time spent up to now is      154.6 secs

     Computing kpt #:    10  of    76
     total cpu time spent up to now is      170.3 secs

     Computing kpt #:    11  of    76
     total cpu time spent up to now is      185.9 secs

     Computing kpt #:    12  of    76
     total cpu time spent up to now is      201.5 secs

     Computing kpt #:    13  of    76
     total cpu time spent up to now is      217.2 secs

     Computing kpt #:    14  of    76
     total cpu time spent up to now is      232.8 secs

     Computing kpt #:    15  of    76
     total cpu time spent up to now is      248.5 secs

     Computing kpt #:    16  of    76
     total cpu time spent up to now is      264.2 secs

     Computing kpt #:    17  of    76
     total cpu time spent up to now is      280.0 secs

     Computing kpt #:    18  of    76
     total cpu time spent up to now is      295.7 secs

     Computing kpt #:    19  of    76
     total cpu time spent up to now is      311.5 secs

     Computing kpt #:    20  of    76
     total cpu time spent up to now is      327.5 secs

     Computing kpt #:    21  of    76
     total cpu time spent up to now is      343.7 secs

     Computing kpt #:    22  of    76
     total cpu time spent up to now is      360.0 secs

     Computing kpt #:    23  of    76
     total cpu time spent up to now is      376.0 secs

     Computing kpt #:    24  of    76
     total cpu time spent up to now is      392.1 secs

     Computing kpt #:    25  of    76
     total cpu time spent up to now is      408.3 secs

     Computing kpt #:    26  of    76
     total cpu time spent up to now is      424.5 secs

     Computing kpt #:    27  of    76
     total cpu time spent up to now is      441.2 secs

     Computing kpt #:    28  of    76
     total cpu time spent up to now is      458.8 secs

     Computing kpt #:    29  of    76
     total cpu time spent up to now is      475.1 secs

     Computing kpt #:    30  of    76
     total cpu time spent up to now is      493.0 secs

     Computing kpt #:    31  of    76
     total cpu time spent up to now is      509.4 secs

     Computing kpt #:    32  of    76
     total cpu time spent up to now is      525.3 secs

     Computing kpt #:    33  of    76
     total cpu time spent up to now is      541.7 secs

     Computing kpt #:    34  of    76
     total cpu time spent up to now is      558.0 secs

     Computing kpt #:    35  of    76
     total cpu time spent up to now is      574.2 secs

     Computing kpt #:    36  of    76
     total cpu time spent up to now is      590.6 secs

     Computing kpt #:    37  of    76
     total cpu time spent up to now is      608.3 secs

     Computing kpt #:    38  of    76
     total cpu time spent up to now is      625.7 secs

     Computing kpt #:    39  of    76
     total cpu time spent up to now is      643.5 secs

     Computing kpt #:    40  of    76
     total cpu time spent up to now is      661.3 secs

     Computing kpt #:    41  of    76
     total cpu time spent up to now is      679.2 secs

     Computing kpt #:    42  of    76
     total cpu time spent up to now is      697.9 secs

     Computing kpt #:    43  of    76
     total cpu time spent up to now is      716.8 secs

     Computing kpt #:    44  of    76
     total cpu time spent up to now is      735.4 secs

     Computing kpt #:    45  of    76
     total cpu time spent up to now is      753.9 secs

     Computing kpt #:    46  of    76
     total cpu time spent up to now is      772.3 secs

     Computing kpt #:    47  of    76
     total cpu time spent up to now is      790.5 secs

     Computing kpt #:    48  of    76
     total cpu time spent up to now is      808.9 secs

     Computing kpt #:    49  of    76
     total cpu time spent up to now is      827.2 secs

     Computing kpt #:    50  of    76
     total cpu time spent up to now is      846.2 secs

     Computing kpt #:    51  of    76
     total cpu time spent up to now is      864.5 secs

     Computing kpt #:    52  of    76
     total cpu time spent up to now is      882.9 secs

     Computing kpt #:    53  of    76
     total cpu time spent up to now is      902.3 secs

     Computing kpt #:    54  of    76
     total cpu time spent up to now is      920.8 secs

     Computing kpt #:    55  of    76
     total cpu time spent up to now is      939.1 secs

     Computing kpt #:    56  of    76
     total cpu time spent up to now is      957.4 secs

     Computing kpt #:    57  of    76
     total cpu time spent up to now is      975.8 secs

     Computing kpt #:    58  of    76
     total cpu time spent up to now is      993.8 secs

     Computing kpt #:    59  of    76
     total cpu time spent up to now is     1011.5 secs

     Computing kpt #:    60  of    76
     total cpu time spent up to now is     1028.9 secs

     Computing kpt #:    61  of    76
     total cpu time spent up to now is     1045.4 secs

     Computing kpt #:    62  of    76
     total cpu time spent up to now is     1062.8 secs

     Computing kpt #:    63  of    76
     total cpu time spent up to now is     1080.1 secs

     Computing kpt #:    64  of    76
     total cpu time spent up to now is     1097.3 secs

     Computing kpt #:    65  of    76
     total cpu time spent up to now is     1115.0 secs

     Computing kpt #:    66  of    76
     total cpu time spent up to now is     1132.4 secs

     Computing kpt #:    67  of    76
     total cpu time spent up to now is     1149.9 secs

     Computing kpt #:    68  of    76
     total cpu time spent up to now is     1168.8 secs

     Computing kpt #:    69  of    76
     total cpu time spent up to now is     1186.1 secs

     Computing kpt #:    70  of    76
     total cpu time spent up to now is     1203.6 secs

     Computing kpt #:    71  of    76
     total cpu time spent up to now is     1221.1 secs

     Computing kpt #:    72  of    76
     total cpu time spent up to now is     1238.3 secs

     Computing kpt #:    73  of    76
     total cpu time spent up to now is     1256.5 secs

     Computing kpt #:    74  of    76
     total cpu time spent up to now is     1274.3 secs

     Computing kpt #:    75  of    76
     total cpu time spent up to now is     1292.2 secs

     Computing kpt #:    76  of    76
     total cpu time spent up to now is     1310.1 secs

     ethr =  2.78E-11,  avg # of iterations = 43.2

     total cpu time spent up to now is     1310.1 secs

     End of band structure calculation

          k = 0.0000 0.0000 0.0000 (307233 PWs)   bands (ev):

   -22.2364 -20.0671 -17.2546 -17.1417 -16.2305 -15.1629 -13.0932 -13.0664
   -12.3886 -10.8560 -10.2908 -10.2886  -9.4452  -7.9448  -7.7342  -7.3326
    -5.0529  -4.8330  -2.5139  -2.4372  -0.4886  -0.4557

     occupation numbers 
     1.0000   1.0000   1.0000   1.0000   1.0000   1.0000   1.0000   1.0000
     1.0000   1.0000   1.0000   1.0000   1.0000   1.0000   1.0000   1.0000
     1.0000   1.0000   0.0000   0.0000   0.0000   0.0000

          k = 0.0000 0.0000 0.0067 (307257 PWs)   bands (ev):

   -22.2362 -20.0668 -17.2546 -17.1466 -16.2254 -15.1644 -13.0932 -13.0645
   -12.3896 -10.8557 -10.2905 -10.2874  -9.4461  -7.9445  -7.7343  -7.3332
    -5.0550  -4.8334  -2.5138  -2.4349  -0.4883  -0.4553

     occupation numbers 
     1.0000   1.0000   1.0000   1.0000   1.0000   1.0000   1.0000   1.0000
     1.0000   1.0000   1.0000   1.0000   1.0000   1.0000   1.0000   1.0000
     1.0000   1.0000   0.0000   0.0000   0.0000   0.0000

          k = 0.0000 0.0000 0.0133 (307253 PWs)   bands (ev):

   -22.2354 -20.0661 -17.2547 -17.1610 -16.2104 -15.1689 -13.0931 -13.0586
   -12.3925 -10.8551 -10.2896 -10.2838  -9.4489  -7.9437  -7.7343  -7.3350
    -5.0613  -4.8347  -2.5135  -2.4282  -0.4872  -0.4543

     occupation numbers 
     1.0000   1.0000   1.0000   1.0000   1.0000   1.0000   1.0000   1.0000
     1.0000   1.0000   1.0000   1.0000   1.0000   1.0000   1.0000   1.0000
     1.0000   1.0000   0.0000   0.0000   0.0000   0.0000

          k = 0.0000 0.0000 0.0200 (307225 PWs)   bands (ev):

   -22.2341 -20.0649 -17.2548 -17.1840 -16.1864 -15.1763 -13.0929 -13.0489
   -12.3975 -10.8540 -10.2881 -10.2777  -9.4536  -7.9425  -7.7344  -7.3381
    -5.0717  -4.8368  -2.5131  -2.4171  -0.4854  -0.4526

     occupation numbers 
     1.0000   1.0000   1.0000   1.0000   1.0000   1.0000   1.0000   1.0000
     1.0000   1.0000   1.0000   1.0000   1.0000   1.0000   1.0000   1.0000
     1.0000   1.0000   0.0000   0.0000   0.0000   0.0000

          k = 0.0000 0.0000 0.0267 (307241 PWs)   bands (ev):

   -22.2323 -20.0632 -17.2550 -17.2144 -16.1545 -15.1865 -13.0928 -13.0354
   -12.4043 -10.8525 -10.2859 -10.2694  -9.4602  -7.9407  -7.7346  -7.3423
    -5.0860  -4.8398  -2.5124  -2.4016  -0.4829  -0.4502

     occupation numbers 
     1.0000   1.0000   1.0000   1.0000   1.0000   1.0000   1.0000   1.0000
     1.0000   1.0000   1.0000   1.0000   1.0000   1.0000   1.0000   1.0000
     1.0000   1.0000   0.0000   0.0000   0.0000   0.0000

          k = 0.0000 0.0000 0.0333 (307237 PWs)   bands (ev):

   -22.2300 -20.0610 -17.2553 -17.2509 -16.1161 -15.1994 -13.0927 -13.0182
   -12.4128 -10.8505 -10.2832 -10.2588  -9.4685  -7.9383  -7.7349  -7.3478
    -5.1043  -4.8436  -2.5116  -2.3820  -0.4796  -0.4472

     occupation numbers 
     1.0000   1.0000   1.0000   1.0000   1.0000   1.0000   1.0000   1.0000
     1.0000   1.0000   1.0000   1.0000   1.0000   1.0000   1.0000   1.0000
     1.0000   1.0000   0.0000   0.0000   0.0000   0.0000

          k = 0.0000 0.0000 0.0400 (307205 PWs)   bands (ev):

   -22.2271 -20.0583 -17.2926 -17.2555 -16.0723 -15.2149 -13.0928 -12.9976
   -12.4228 -10.8482 -10.2799 -10.2460  -9.4786  -7.9355  -7.7354  -7.3544
    -5.1262  -4.8482  -2.5105  -2.3585  -0.4757  -0.4435

     occupation numbers 
     1.0000   1.0000   1.0000   1.0000   1.0000   1.0000   1.0000   1.0000
     1.0000   1.0000   1.0000   1.0000   1.0000   1.0000   1.0000   1.0000
     1.0000   1.0000   0.0000   0.0000   0.0000   0.0000

          k = 0.0000 0.0000 0.0467 (307173 PWs)   bands (ev):

   -22.2238 -20.0551 -17.3381 -17.2559 -16.0242 -15.2326 -13.0931 -12.9736
   -12.4343 -10.8454 -10.2759 -10.2312  -9.4905  -7.9322  -7.7360  -7.3622
    -5.1516  -4.8537  -2.5092  -2.3311  -0.4710  -0.4390

     occupation numbers 
     1.0000   1.0000   1.0000   1.0000   1.0000   1.0000   1.0000   1.0000
     1.0000   1.0000   1.0000   1.0000   1.0000   1.0000   1.0000   1.0000
     1.0000   1.0000   0.0000   0.0000   0.0000   0.0000

          k = 0.0000 0.0000 0.0533 (307249 PWs)   bands (ev):

   -22.2199 -20.0515 -17.3866 -17.2564 -15.9726 -15.2525 -13.0936 -12.9464
   -12.4469 -10.8422 -10.2713 -10.2145  -9.5040  -7.9283  -7.7368  -7.3712
    -5.1802  -4.8600  -2.5077  -2.3002  -0.4657  -0.4340

     occupation numbers 
     1.0000   1.0000   1.0000   1.0000   1.0000   1.0000   1.0000   1.0000
     1.0000   1.0000   1.0000   1.0000   1.0000   1.0000   1.0000   1.0000
     1.0000   1.0000   0.0000   0.0000   0.0000   0.0000

          k = 0.0000 0.0000 0.0600 (307237 PWs)   bands (ev):

   -22.2155 -20.0473 -17.4376 -17.2571 -15.9183 -15.2744 -13.0946 -12.9163
   -12.4605 -10.8386 -10.2662 -10.1959  -9.5192  -7.9239  -7.7379  -7.3814
    -5.2119  -4.8672  -2.5059  -2.2659  -0.4596  -0.4282

     occupation numbers 
     1.0000   1.0000   1.0000   1.0000   1.0000   1.0000   1.0000   1.0000
     1.0000   1.0000   1.0000   1.0000   1.0000   1.0000   1.0000   1.0000
     1.0000   1.0000   0.0000   0.0000   0.0000   0.0000

          k = 0.0000 0.0000 0.0667 (307199 PWs)   bands (ev):

   -22.2106 -20.0427 -17.4905 -17.2579 -15.8617 -15.2979 -13.0962 -12.8834
   -12.4747 -10.8346 -10.2604 -10.1756  -9.5359  -7.9190  -7.7394  -7.3926
    -5.2464  -4.8752  -2.5039  -2.2285  -0.4528  -0.4217

     occupation numbers 
     1.0000   1.0000   1.0000   1.0000   1.0000   1.0000   1.0000   1.0000
     1.0000   1.0000   1.0000   1.0000   1.0000   1.0000   1.0000   1.0000
     1.0000   1.0000   0.0000   0.0000   0.0000   0.0000

          k = 0.0000 0.0000 0.0733 (307189 PWs)   bands (ev):

   -22.2052 -20.0376 -17.5448 -17.2588 -15.8033 -15.3230 -13.0985 -12.8480
   -12.4892 -10.8302 -10.2540 -10.1538  -9.5541  -7.9136  -7.7413  -7.4051
    -5.2836  -4.8840  -2.5016  -2.1882  -0.4453  -0.4146

     occupation numbers 
     1.0000   1.0000   1.0000   1.0000   1.0000   1.0000   1.0000   1.0000
     1.0000   1.0000   1.0000   1.0000   1.0000   1.0000   1.0000   1.0000
     1.0000   1.0000   0.0000   0.0000   0.0000   0.0000

          k = 0.0000 0.0000 0.0800 (307245 PWs)   bands (ev):

   -22.1993 -20.0320 -17.6003 -17.2600 -15.7434 -15.3493 -13.1017 -12.8102
   -12.5037 -10.8254 -10.2470 -10.1305  -9.5737  -7.9077  -7.7436  -7.4186
    -5.3231  -4.8937  -2.4990  -2.1453  -0.4371  -0.4068

     occupation numbers 
     1.0000   1.0000   1.0000   1.0000   1.0000   1.0000   1.0000   1.0000
     1.0000   1.0000   1.0000   1.0000   1.0000   1.0000   1.0000   1.0000
     1.0000   1.0000   0.0000   0.0000   0.0000   0.0000

          k = 0.0000 0.0000 0.0867 (307235 PWs)   bands (ev):

   -22.1928 -20.0259 -17.6566 -17.2614 -15.6823 -15.3767 -13.1061 -12.7703
   -12.5179 -10.8203 -10.2394 -10.1060  -9.5946  -7.9013  -7.7465  -7.4332
    -5.3647  -4.9042  -2.4961  -2.0999  -0.4281  -0.3983

     occupation numbers 
     1.0000   1.0000   1.0000   1.0000   1.0000   1.0000   1.0000   1.0000
     1.0000   1.0000   1.0000   1.0000   1.0000   1.0000   1.0000   1.0000
     1.0000   1.0000   0.0000   0.0000   0.0000   0.0000

          k = 0.0000 0.0000 0.0933 (307219 PWs)   bands (ev):

   -22.1859 -20.0193 -17.7136 -17.2632 -15.6202 -15.4050 -13.1119 -12.7283
   -12.5314 -10.8148 -10.2312 -10.0804  -9.6168  -7.8944  -7.7500  -7.4489
    -5.4084  -4.9156  -2.4929  -2.0522  -0.4185  -0.3891

     occupation numbers 
     1.0000   1.0000   1.0000   1.0000   1.0000   1.0000   1.0000   1.0000
     1.0000   1.0000   1.0000   1.0000   1.0000   1.0000   1.0000   1.0000
     1.0000   1.0000   0.0000   0.0000   0.0000   0.0000

          k = 0.0000 0.0000 0.1000 (307197 PWs)   bands (ev):

   -22.1784 -20.0123 -17.7711 -17.2652 -15.5574 -15.4339 -13.1192 -12.6845
   -12.5439 -10.8090 -10.2223 -10.0537  -9.6402  -7.8870  -7.7541  -7.4656
    -5.4538  -4.9278  -2.4893  -2.0025  -0.4082  -0.3793

     occupation numbers 
     1.0000   1.0000   1.0000   1.0000   1.0000   1.0000   1.0000   1.0000
     1.0000   1.0000   1.0000   1.0000   1.0000   1.0000   1.0000   1.0000
     1.0000   1.0000   0.0000   0.0000   0.0000   0.0000

          k = 0.0000 0.0000 0.1067 (307229 PWs)   bands (ev):

   -22.1704 -20.0048 -17.8290 -17.2676 -15.4940 -15.4633 -13.1284 -12.6390
   -12.5549 -10.8029 -10.2129 -10.0262  -9.6647  -7.8790  -7.7589  -7.4833
    -5.5008  -4.9408  -2.4854  -1.9509  -0.3972  -0.3687

     occupation numbers 
     1.0000   1.0000   1.0000   1.0000   1.0000   1.0000   1.0000   1.0000
     1.0000   1.0000   1.0000   1.0000   1.0000   1.0000   1.0000   1.0000
     1.0000   1.0000   0.0000   0.0000   0.0000   0.0000

          k = 0.0000 0.0000 0.1133 (307151 PWs)   bands (ev):

   -22.1619 -19.9968 -17.8871 -17.2704 -15.4931 -15.4300 -13.1396 -12.5920
   -12.5641 -10.7965 -10.2029  -9.9978  -9.6901  -7.8706  -7.7646  -7.5021
    -5.5493  -4.9546  -2.4811  -1.8976  -0.3856  -0.3575

     occupation numbers 
     1.0000   1.0000   1.0000   1.0000   1.0000   1.0000   1.0000   1.0000
     1.0000   1.0000   1.0000   1.0000   1.0000   1.0000   1.0000   1.0000
     1.0000   1.0000   0.0000   0.0000   0.0000   0.0000

          k = 0.0000 0.0000 0.1200 (307127 PWs)   bands (ev):

   -22.1529 -19.9883 -17.9453 -17.2736 -15.5229 -15.3657 -13.1530 -12.5714
   -12.5435 -10.7899 -10.1922  -9.9689  -9.7165  -7.8616  -7.7711  -7.5218
    -5.5990  -4.9692  -2.4764  -1.8428  -0.3732  -0.3455

     occupation numbers 
     1.0000   1.0000   1.0000   1.0000   1.0000   1.0000   1.0000   1.0000
     1.0000   1.0000   1.0000   1.0000   1.0000   1.0000   1.0000   1.0000
     1.0000   1.0000   0.0000   0.0000   0.0000   0.0000

          k = 0.0000 0.0000 0.1267 (307139 PWs)   bands (ev):

   -22.1433 -19.9793 -18.0037 -17.2774 -15.5526 -15.3011 -13.1686 -12.5763
   -12.4938 -10.7830 -10.1810  -9.9394  -9.7437  -7.8522  -7.7785  -7.5425
    -5.6499  -4.9847  -2.4712  -1.7865  -0.3601  -0.3329

     occupation numbers 
     1.0000   1.0000   1.0000   1.0000   1.0000   1.0000   1.0000   1.0000
     1.0000   1.0000   1.0000   1.0000   1.0000   1.0000   1.0000   1.0000
     1.0000   1.0000   0.0000   0.0000   0.0000   0.0000

          k = 0.0000 0.0000 0.1333 (307133 PWs)   bands (ev):

   -22.1333 -19.9699 -18.0620 -17.2818 -15.5822 -15.2364 -13.1866 -12.5789
   -12.4430 -10.7760 -10.1691  -9.9096  -9.7716  -7.8422  -7.7869  -7.5641
    -5.7018  -5.0009  -2.4656  -1.7290  -0.3464  -0.3196

     occupation numbers 
     1.0000   1.0000   1.0000   1.0000   1.0000   1.0000   1.0000   1.0000
     1.0000   1.0000   1.0000   1.0000   1.0000   1.0000   1.0000   1.0000
     1.0000   1.0000   0.0000   0.0000   0.0000   0.0000

          k = 0.0000 0.0000 0.1400 (307103 PWs)   bands (ev):

   -22.1227 -19.9600 -18.1203 -17.2868 -15.6113 -15.1716 -13.2068 -12.5789
   -12.3911 -10.7688 -10.1567  -9.8794  -9.8001  -7.8318  -7.7963  -7.5866
    -5.7547  -5.0179  -2.4596  -1.6704  -0.3320  -0.3056

     occupation numbers 
     1.0000   1.0000   1.0000   1.0000   1.0000   1.0000   1.0000   1.0000
     1.0000   1.0000   1.0000   1.0000   1.0000   1.0000   1.0000   1.0000
     1.0000   1.0000   0.0000   0.0000   0.0000   0.0000

          k = 0.0000 0.0000 0.1467 (307111 PWs)   bands (ev):

   -22.1116 -19.9496 -18.1786 -17.2924 -15.6399 -15.1067 -13.2292 -12.5765
   -12.3383 -10.7616 -10.1436  -9.8491  -9.8289  -7.8208  -7.8068  -7.6099
    -5.8083  -5.0357  -2.4531  -1.6107  -0.3169  -0.2909

     occupation numbers 
     1.0000   1.0000   1.0000   1.0000   1.0000   1.0000   1.0000   1.0000
     1.0000   1.0000   1.0000   1.0000   1.0000   1.0000   1.0000   1.0000
     1.0000   1.0000   0.0000   0.0000   0.0000   0.0000

          k = 0.0000 0.0000 0.1533 (307171 PWs)   bands (ev):

   -22.1000 -19.9387 -18.2367 -17.2988 -15.6678 -15.0420 -13.2536 -12.5716
   -12.2846 -10.7545 -10.1300  -9.8585  -9.8183  -7.8184  -7.8094  -7.6342
    -5.8626  -5.0543  -2.4461  -1.5500  -0.3012  -0.2755

     occupation numbers 
     1.0000   1.0000   1.0000   1.0000   1.0000   1.0000   1.0000   1.0000
     1.0000   1.0000   1.0000   1.0000   1.0000   1.0000   1.0000   1.0000
     1.0000   1.0000   0.0000   0.0000   0.0000   0.0000

          k = 0.0000 0.0000 0.1600 (307075 PWs)   bands (ev):

   -22.0879 -19.9274 -18.2946 -17.3061 -15.6950 -14.9775 -13.2798 -12.5643
   -12.2301 -10.7474 -10.1157  -9.8880  -9.7879  -7.8311  -7.7975  -7.6592
    -5.9175  -5.0736  -2.4386  -1.4885  -0.2848  -0.2594

     occupation numbers 
     1.0000   1.0000   1.0000   1.0000   1.0000   1.0000   1.0000   1.0000
     1.0000   1.0000   1.0000   1.0000   1.0000   1.0000   1.0000   1.0000
     1.0000   1.0000   0.0000   0.0000   0.0000   0.0000

          k = 0.0000 0.0000 0.1667 (307121 PWs)   bands (ev):

   -22.0753 -19.9156 -18.3524 -17.3142 -15.7212 -14.9133 -13.3076 -12.5546
   -12.1750 -10.7405 -10.1009  -9.9176  -9.7574  -7.8451  -7.7850  -7.6850
    -5.9729  -5.0937  -2.4306  -1.4263  -0.2677  -0.2426

     occupation numbers 
     1.0000   1.0000   1.0000   1.0000   1.0000   1.0000   1.0000   1.0000
     1.0000   1.0000   1.0000   1.0000   1.0000   1.0000   1.0000   1.0000
     1.0000   1.0000   0.0000   0.0000   0.0000   0.0000

          k = 0.0000 0.0000 0.1733 (307135 PWs)   bands (ev):

   -22.0622 -19.9034 -18.4099 -17.3232 -15.7463 -14.8495 -13.3368 -12.5428
   -12.1193 -10.7339 -10.0854  -9.9472  -9.7271  -7.8604  -7.7721  -7.7115
    -6.0287  -5.1144  -2.4220  -1.3634  -0.2500  -0.2252

     occupation numbers 
     1.0000   1.0000   1.0000   1.0000   1.0000   1.0000   1.0000   1.0000
     1.0000   1.0000   1.0000   1.0000   1.0000   1.0000   1.0000   1.0000
     1.0000   1.0000   0.0000   0.0000   0.0000   0.0000

          k = 0.0000 0.0000 0.1800 (307103 PWs)   bands (ev):

   -22.0485 -19.8907 -18.4672 -17.3333 -15.7702 -14.7861 -13.3671 -12.5288
   -12.0630 -10.7277 -10.0693  -9.9764  -9.6970  -7.8769  -7.7587  -7.7388
    -6.0850  -5.1359  -2.4129  -1.3000  -0.2316  -0.2070

     occupation numbers 
     1.0000   1.0000   1.0000   1.0000   1.0000   1.0000   1.0000   1.0000
     1.0000   1.0000   1.0000   1.0000   1.0000   1.0000   1.0000   1.0000
     1.0000   1.0000   0.0000   0.0000   0.0000   0.0000

          k = 0.0000 0.0000 0.1867 (307037 PWs)   bands (ev):

   -22.0344 -19.8776 -18.5243 -17.3444 -15.7928 -14.7234 -13.3983 -12.5128
   -12.0063 -10.7223 -10.0527 -10.0051  -9.6673  -7.8947  -7.7668  -7.7448
    -6.1415  -5.1581  -2.4032  -1.2360  -0.2125  -0.1881

     occupation numbers 
     1.0000   1.0000   1.0000   1.0000   1.0000   1.0000   1.0000   1.0000
     1.0000   1.0000   1.0000   1.0000   1.0000   1.0000   1.0000   1.0000
     1.0000   1.0000   0.0000   0.0000   0.0000   0.0000

          k = 0.0000 0.0000 0.1933 (307029 PWs)   bands (ev):

   -22.0197 -19.8640 -18.5810 -17.3566 -15.8141 -14.6615 -13.4301 -12.4949
   -11.9492 -10.7176 -10.0354 -10.0331  -9.6379  -7.9139  -7.7954  -7.7304
    -6.1983  -5.1810  -2.3929  -1.1715  -0.1929  -0.1685

     occupation numbers 
     1.0000   1.0000   1.0000   1.0000   1.0000   1.0000   1.0000   1.0000
     1.0000   1.0000   1.0000   1.0000   1.0000   1.0000   1.0000   1.0000
     1.0000   1.0000   0.0000   0.0000   0.0000   0.0000

          k = 0.0000 0.0000 0.2000 (307015 PWs)   bands (ev):

   -22.0045 -19.8499 -18.6374 -17.3699 -15.8339 -14.6006 -13.4622 -12.4752
   -11.8918 -10.7141 -10.0600 -10.0176  -9.6089  -7.9344  -7.8247  -7.7156
    -6.2554  -5.2046  -2.3821  -1.1067  -0.1725  -0.1483

     occupation numbers 
     1.0000   1.0000   1.0000   1.0000   1.0000   1.0000   1.0000   1.0000
     1.0000   1.0000   1.0000   1.0000   1.0000   1.0000   1.0000   1.0000
     1.0000   1.0000   0.0000   0.0000   0.0000   0.0000

          k = 0.0000 0.0000 0.2067 (306993 PWs)   bands (ev):

   -21.9889 -19.8355 -18.6935 -17.3844 -15.8521 -14.5410 -13.4942 -12.4536
   -11.8341 -10.7119 -10.0855  -9.9991  -9.5805  -7.9563  -7.8546  -7.7002
    -6.3125  -5.2287  -2.3707  -1.0415  -0.1516  -0.1273

     occupation numbers 
     1.0000   1.0000   1.0000   1.0000   1.0000   1.0000   1.0000   1.0000
     1.0000   1.0000   1.0000   1.0000   1.0000   1.0000   1.0000   1.0000
     1.0000   1.0000   0.0000   0.0000   0.0000   0.0000

          k = 0.0000 0.0000 0.2133 (307003 PWs)   bands (ev):

   -21.9727 -19.8206 -18.7493 -17.4002 -15.8687 -14.4829 -13.5259 -12.4304
   -11.7762 -10.7114 -10.1093  -9.9801  -9.5527  -7.9796  -7.8851  -7.6844
    -6.3698  -5.2535  -2.3586  -0.9760  -0.1300  -0.1056

     occupation numbers 
     1.0000   1.0000   1.0000   1.0000   1.0000   1.0000   1.0000   1.0000
     1.0000   1.0000   1.0000   1.0000   1.0000   1.0000   1.0000   1.0000
     1.0000   1.0000   0.0000   0.0000   0.0000   0.0000

          k = 0.0000 0.0000 0.2200 (306996 PWs)   bands (ev):

   -21.9560 -19.8053 -18.8047 -17.4171 -15.8836 -14.4267 -13.5566 -12.4055
   -11.7181 -10.7129 -10.1310  -9.9604  -9.5255  -8.0044  -7.9161  -7.6682
    -6.4271  -5.2790  -2.3460  -0.9103  -0.1077  -0.0832

     occupation numbers 
     1.0000   1.0000   1.0000   1.0000   1.0000   1.0000   1.0000   1.0000
     1.0000   1.0000   1.0000   1.0000   1.0000   1.0000   1.0000   1.0000
     1.0000   1.0000   0.0000   0.0000   0.0000   0.0000

          k = 0.0000 0.0000 0.2267 (306964 PWs)   bands (ev):

   -21.9387 -19.7896 -18.8596 -17.4353 -15.8969 -14.3730 -13.5859 -12.3789
   -11.6599 -10.7168 -10.1502  -9.9402  -9.4990  -8.0305  -7.9477  -7.6514
    -6.4845  -5.3050  -2.3327  -0.8444  -0.0848  -0.0602

     occupation numbers 
     1.0000   1.0000   1.0000   1.0000   1.0000   1.0000   1.0000   1.0000
     1.0000   1.0000   1.0000   1.0000   1.0000   1.0000   1.0000   1.0000
     1.0000   1.0000   0.0000   0.0000   0.0000   0.0000

          k = 0.0000 0.0000 0.2333 (307004 PWs)   bands (ev):

   -21.9210 -19.7735 -18.9142 -17.4548 -15.9084 -14.3226 -13.6129 -12.3507
   -11.6017 -10.7233 -10.1666  -9.9193  -9.4733  -8.0580  -7.9798  -7.6342
    -6.5418  -5.3315  -2.3188  -0.7783  -0.0613  -0.0364

     occupation numbers 
     1.0000   1.0000   1.0000   1.0000   1.0000   1.0000   1.0000   1.0000
     1.0000   1.0000   1.0000   1.0000   1.0000   1.0000   1.0000   1.0000
     1.0000   1.0000   0.0000   0.0000   0.0000   0.0000

          k = 0.0000 0.0000 0.2400 (307020 PWs)   bands (ev):

   -21.9028 -19.7571 -18.9683 -17.4754 -15.9181 -14.2765 -13.6365 -12.3210
   -11.5435 -10.7328 -10.1798  -9.8979  -9.4484  -8.0869  -8.0123  -7.6166
    -6.5992  -5.3586  -2.3043  -0.7121  -0.0372  -0.0120

     occupation numbers 
     1.0000   1.0000   1.0000   1.0000   1.0000   1.0000   1.0000   1.0000
     1.0000   1.0000   1.0000   1.0000   1.0000   1.0000   1.0000   1.0000
     1.0000   1.0000   0.0000   0.0000   0.0000   0.0000

          k = 0.0000 0.0000 0.2467 (307054 PWs)   bands (ev):

   -21.8841 -19.7404 -19.0218 -17.4973 -15.9261 -14.2360 -13.6553 -12.2897
   -11.4854 -10.7454 -10.1897  -9.8759  -9.4243  -8.1173  -8.0452  -7.5984
    -6.6564  -5.3863  -2.2892  -0.6459  -0.0125   0.0132

     occupation numbers 
     1.0000   1.0000   1.0000   1.0000   1.0000   1.0000   1.0000   1.0000
     1.0000   1.0000   1.0000   1.0000   1.0000   1.0000   1.0000   1.0000
     1.0000   1.0000   0.0000   0.0000   0.0000   0.0000

          k = 0.0000 0.0000 0.2533 (307070 PWs)   bands (ev):

   -21.8648 -19.7234 -19.0748 -17.5204 -15.9323 -14.2029 -13.6678 -12.2568
   -11.4275 -10.7611 -10.1962  -9.8533  -9.4012  -8.1490  -8.0786  -7.5799
    -6.7135  -5.4144  -2.2734  -0.5797   0.0129   0.0390

     occupation numbers 
     1.0000   1.0000   1.0000   1.0000   1.0000   1.0000   1.0000   1.0000
     1.0000   1.0000   1.0000   1.0000   1.0000   1.0000   1.0000   1.0000
     1.0000   1.0000   0.0000   0.0000   0.0000   0.0000

          k = 0.0000 0.0000 0.2600 (307110 PWs)   bands (ev):

   -21.8451 -19.7062 -19.1272 -17.5445 -15.9368 -14.1788 -13.6720 -12.2224
   -11.3698 -10.7798 -10.1994  -9.8301  -9.3791  -8.1822  -8.1124  -7.5609
    -6.7705  -5.4430  -2.2570  -0.5135   0.0389   0.0656

     occupation numbers 
     1.0000   1.0000   1.0000   1.0000   1.0000   1.0000   1.0000   1.0000
     1.0000   1.0000   1.0000   1.0000   1.0000   1.0000   1.0000   1.0000
     1.0000   1.0000   0.0000   0.0000   0.0000   0.0000

          k = 0.0000 0.0000 0.2667 (307138 PWs)   bands (ev):

   -21.8248 -19.6890 -19.1788 -17.5698 -15.9396 -14.1652 -13.6666 -12.1865
   -11.3125 -10.8013 -10.1992  -9.8063  -9.3580  -8.2167  -8.1465  -7.5414
    -6.8273  -5.4720  -2.2400  -0.4474   0.0655   0.0928

     occupation numbers 
     1.0000   1.0000   1.0000   1.0000   1.0000   1.0000   1.0000   1.0000
     1.0000   1.0000   1.0000   1.0000   1.0000   1.0000   1.0000   1.0000
     1.0000   1.0000   0.0000   0.0000   0.0000   0.0000

          k = 0.0000 0.0000 0.2733 (307136 PWs)   bands (ev):

   -21.8040 -19.6719 -19.2294 -17.5962 -15.9407 -14.1623 -13.6513 -12.1491
   -11.2558 -10.8252 -10.1961  -9.7820  -9.3379  -8.2525  -8.1810  -7.5216
    -6.8840  -5.5015  -2.2223  -0.3815   0.0927   0.1002

     occupation numbers 
     1.0000   1.0000   1.0000   1.0000   1.0000   1.0000   1.0000   1.0000
     1.0000   1.0000   1.0000   1.0000   1.0000   1.0000   1.0000   1.0000
     1.0000   1.0000   0.0000   0.0000   0.0000   0.0000

          k = 0.0000 0.0000 0.2800 (307168 PWs)   bands (ev):

   -21.7828 -19.6553 -19.2787 -17.6235 -15.9402 -14.1692 -13.6270 -12.1101
   -11.1999 -10.8509 -10.1902  -9.7570  -9.3190  -8.2897  -8.2157  -7.5013
    -6.9404  -5.5314  -2.2040  -0.3160   0.0607   0.1205

     occupation numbers 
     1.0000   1.0000   1.0000   1.0000   1.0000   1.0000   1.0000   1.0000
     1.0000   1.0000   1.0000   1.0000   1.0000   1.0000   1.0000   1.0000
     1.0000   1.0000   0.0000   0.0000   0.0000   0.0000

          k = 0.0000 0.0000 0.2867 (307180 PWs)   bands (ev):

   -21.7610 -19.6397 -19.3262 -17.6518 -15.9381 -14.1843 -13.5953 -12.0697
   -11.1456 -10.8775 -10.1819  -9.7315  -9.3012  -8.3282  -8.2508  -7.4806
    -6.9965  -5.5617  -2.1851  -0.2514   0.0217   0.1489

     occupation numbers 
     1.0000   1.0000   1.0000   1.0000   1.0000   1.0000   1.0000   1.0000
     1.0000   1.0000   1.0000   1.0000   1.0000   1.0000   1.0000   1.0000
     1.0000   1.0000   0.0000   0.0000   0.0000   0.0000

          k = 0.0000 0.0000 0.2933 (307156 PWs)   bands (ev):

   -21.7387 -19.6262 -19.3707 -17.6809 -15.9344 -14.2057 -13.5581 -12.0278
   -11.0945 -10.9031 -10.1714  -9.7054  -9.2846  -8.3680  -8.2861  -7.4596
    -7.0524  -5.5923  -2.1655  -0.1890  -0.0153   0.1779

     occupation numbers 
     1.0000   1.0000   1.0000   1.0000   1.0000   1.0000   1.0000   1.0000
     1.0000   1.0000   1.0000   1.0000   1.0000   1.0000   1.0000   1.0000
     1.0000   1.0000   0.0000   0.0000   0.0000   0.0000

          k = 0.0000 0.0000 0.3000 (307230 PWs)   bands (ev):

   -21.7159 -19.6170 -19.4101 -17.7109 -15.9293 -14.2317 -13.5171 -11.9845
   -11.0521 -10.9220 -10.1589  -9.6787  -9.2693  -8.4090  -8.3217  -7.4383
    -7.1078  -5.6233  -2.1453  -0.1365  -0.0428   0.2076

     occupation numbers 
     1.0000   1.0000   1.0000   1.0000   1.0000   1.0000   1.0000   1.0000
     1.0000   1.0000   1.0000   1.0000   1.0000   1.0000   1.0000   1.0000
     1.0000   1.0000   0.0000   0.0000   0.0000   0.0000

          k = 0.0000 0.0000 0.3067 (307258 PWs)   bands (ev):

   -21.6926 -19.6161 -19.4402 -17.7416 -15.9227 -14.2611 -13.4733 -11.9398
   -11.0343 -10.9181 -10.1447  -9.6514  -9.2552  -8.4513  -8.3574  -7.4168
    -7.1628  -5.6546  -2.1245  -0.1285  -0.0261   0.2378

     occupation numbers 
     1.0000   1.0000   1.0000   1.0000   1.0000   1.0000   1.0000   1.0000
     1.0000   1.0000   1.0000   1.0000   1.0000   1.0000   1.0000   1.0000
     1.0000   1.0000   0.0000   0.0000   0.0000   0.0000

          k = 0.0000 0.0000 0.3133 (307296 PWs)   bands (ev):

   -21.6689 -19.6286 -19.4562 -17.7730 -15.9147 -14.2930 -13.4278 -11.8936
   -11.0479 -10.8844 -10.1290  -9.6236  -9.2423  -8.4947  -8.3934  -7.3955
    -7.2168  -5.6861  -2.1031  -0.1589   0.0288   0.2686

     occupation numbers 
     1.0000   1.0000   1.0000   1.0000   1.0000   1.0000   1.0000   1.0000
     1.0000   1.0000   1.0000   1.0000   1.0000   1.0000   1.0000   1.0000
     1.0000   1.0000   0.0000   0.0000   0.0000   0.0000

          k = 0.0000 0.0000 0.3200 (307228 PWs)   bands (ev):

   -21.6446 -19.6550 -19.4574 -17.8049 -15.9054 -14.3267 -13.3813 -11.8461
   -11.0762 -10.8376 -10.1120  -9.5951  -9.2309  -8.5392  -8.4295  -7.3756
    -7.2687  -5.7180  -2.0810  -0.1971   0.0912   0.2999

     occupation numbers 
     1.0000   1.0000   1.0000   1.0000   1.0000   1.0000   1.0000   1.0000
     1.0000   1.0000   1.0000   1.0000   1.0000   1.0000   1.0000   1.0000
     1.0000   1.0000   0.0000   0.0000   0.0000   0.0000

          k = 0.0000 0.0000 0.3267 (307252 PWs)   bands (ev):

   -21.6198 -19.6911 -19.4480 -17.8375 -15.8948 -14.3617 -13.3341 -11.7972
   -11.1098 -10.7869 -10.0937  -9.5661  -9.2207  -8.5848  -8.4658  -7.3658
    -7.3099  -5.7501  -2.0583  -0.2371   0.1552   0.3319

     occupation numbers 
     1.0000   1.0000   1.0000   1.0000   1.0000   1.0000   1.0000   1.0000
     1.0000   1.0000   1.0000   1.0000   1.0000   1.0000   1.0000   1.0000
     1.0000   1.0000   0.0000   0.0000   0.0000   0.0000

          k = 0.0000 0.0000 0.3333 (307272 PWs)   bands (ev):

   -21.5945 -19.7322 -19.4328 -17.8705 -15.8830 -14.3976 -13.2866 -11.7471
   -11.1458 -10.7351 -10.0743  -9.5366  -9.2120  -8.6314  -8.5022  -7.3951
    -7.3112  -5.7824  -2.0351  -0.2779   0.2197   0.3645

     occupation numbers 
     1.0000   1.0000   1.0000   1.0000   1.0000   1.0000   1.0000   1.0000
     1.0000   1.0000   1.0000   1.0000   1.0000   1.0000   1.0000   1.0000
     1.0000   1.0000   0.0000   0.0000   0.0000   0.0000

          k = 0.0000 0.0000 0.3400 (307214 PWs)   bands (ev):

   -21.5687 -19.7759 -19.4141 -17.9040 -15.8700 -14.4341 -13.2390 -11.6957
   -11.1832 -10.6832 -10.0540  -9.5064  -9.2046  -8.6790  -8.5387  -7.4443
    -7.2919  -5.8149  -2.0112  -0.3190   0.2844   0.3976

     occupation numbers 
     1.0000   1.0000   1.0000   1.0000   1.0000   1.0000   1.0000   1.0000
     1.0000   1.0000   1.0000   1.0000   1.0000   1.0000   1.0000   1.0000
     1.0000   1.0000   0.0000   0.0000   0.0000   0.0000

          k = 0.0000 0.0000 0.3467 (307248 PWs)   bands (ev):

   -21.5425 -19.8209 -19.3933 -17.9379 -15.8558 -14.4712 -13.1915 -11.6431
   -11.2217 -10.6316 -10.0328  -9.4757  -9.1987  -8.7275  -8.5753  -7.4964
    -7.2689  -5.8477  -1.9867  -0.3604   0.3491   0.4313

     occupation numbers 
     1.0000   1.0000   1.0000   1.0000   1.0000   1.0000   1.0000   1.0000
     1.0000   1.0000   1.0000   1.0000   1.0000   1.0000   1.0000   1.0000
     1.0000   1.0000   0.0000   0.0000   0.0000   0.0000

          k = 0.0000 0.0000 0.3533 (307290 PWs)   bands (ev):

   -21.5157 -19.8664 -19.3711 -17.9721 -15.8406 -14.5086 -13.1441 -11.5894
   -11.2608 -10.5806 -10.0107  -9.4444  -9.1942  -8.7768  -8.6120  -7.5489
    -7.2447  -5.8805  -1.9616  -0.4017   0.4137   0.4656

     occupation numbers 
     1.0000   1.0000   1.0000   1.0000   1.0000   1.0000   1.0000   1.0000
     1.0000   1.0000   1.0000   1.0000   1.0000   1.0000   1.0000   1.0000
     1.0000   1.0000   0.0000   0.0000   0.0000   0.0000

          k = 0.0000 0.0000 0.3600 (307308 PWs)   bands (ev):

   -21.4884 -19.9121 -19.3478 -18.0066 -15.8243 -14.5462 -13.0971 -11.5346
   -11.3004 -10.5303  -9.9879  -9.4126  -9.1912  -8.8268  -8.6487  -7.6015
    -7.2198  -5.9135  -1.9360  -0.4432   0.4781   0.5004

     occupation numbers 
     1.0000   1.0000   1.0000   1.0000   1.0000   1.0000   1.0000   1.0000
     1.0000   1.0000   1.0000   1.0000   1.0000   1.0000   1.0000   1.0000
     1.0000   1.0000   0.0000   0.0000   0.0000   0.0000

          k = 0.0000 0.0000 0.3667 (307342 PWs)   bands (ev):

   -21.4607 -19.9578 -19.3237 -18.0413 -15.8070 -14.5839 -13.0503 -11.4788
   -11.3405 -10.4809  -9.9645  -9.3802  -9.1896  -8.8774  -8.6854  -7.6538
    -7.1944  -5.9467  -1.9098  -0.4846   0.5357   0.5424

     occupation numbers 
     1.0000   1.0000   1.0000   1.0000   1.0000   1.0000   1.0000   1.0000
     1.0000   1.0000   1.0000   1.0000   1.0000   1.0000   1.0000   1.0000
     1.0000   1.0000   0.0000   0.0000   0.0000   0.0000

          k = 0.0000 0.0000 0.3733 (307306 PWs)   bands (ev):

   -21.4324 -20.0034 -19.2989 -18.0762 -15.7887 -14.6216 -13.0039 -11.4222
   -11.3807 -10.4326  -9.9403  -9.3472  -9.1896  -8.9285  -8.7222  -7.7058
    -7.1685  -5.9799  -1.8830  -0.5259   0.5717   0.6066

     occupation numbers 
     1.0000   1.0000   1.0000   1.0000   1.0000   1.0000   1.0000   1.0000
     1.0000   1.0000   1.0000   1.0000   1.0000   1.0000   1.0000   1.0000
     1.0000   1.0000   0.0000   0.0000   0.0000   0.0000

          k = 0.0000 0.0000 0.3800 (307272 PWs)   bands (ev):

   -21.4037 -20.0488 -19.2734 -18.1113 -15.7695 -14.6593 -12.9578 -11.4219
   -11.3640 -10.3855  -9.9156  -9.3137  -9.1910  -8.9799  -8.7589  -7.7575
    -7.1421  -6.0132  -1.8556  -0.5671   0.6081   0.6571

     occupation numbers 
     1.0000   1.0000   1.0000   1.0000   1.0000   1.0000   1.0000   1.0000
     1.0000   1.0000   1.0000   1.0000   1.0000   1.0000   1.0000   1.0000
     1.0000   1.0000   0.0000   0.0000   0.0000   0.0000

          k = 0.0000 0.0000 0.3867 (307330 PWs)   bands (ev):

   -21.3745 -20.0938 -19.2474 -18.1464 -15.7495 -14.6969 -12.9122 -11.4627
   -11.3056 -10.3397  -9.8904  -9.2796  -9.1940  -9.0314  -8.7956  -7.8089
    -7.1154  -6.0466  -1.8277  -0.6083   0.6451   0.6959

     occupation numbers 
     1.0000   1.0000   1.0000   1.0000   1.0000   1.0000   1.0000   1.0000
     1.0000   1.0000   1.0000   1.0000   1.0000   1.0000   1.0000   1.0000
     1.0000   1.0000   0.0000   0.0000   0.0000   0.0000

          k = 0.0000 0.0000 0.3933 (307316 PWs)   bands (ev):

   -21.3447 -20.1386 -19.2209 -18.1817 -15.7285 -14.7344 -12.8668 -11.5038
   -11.2464 -10.2955  -9.8646  -9.2450  -9.1987  -9.0827  -8.8323  -7.8598
    -7.0883  -6.0800  -1.7992  -0.6493   0.6826   0.7351

     occupation numbers 
     1.0000   1.0000   1.0000   1.0000   1.0000   1.0000   1.0000   1.0000
     1.0000   1.0000   1.0000   1.0000   1.0000   1.0000   1.0000   1.0000
     1.0000   1.0000   0.0000   0.0000   0.0000   0.0000

          k = 0.0000 0.0000 0.4000 (307318 PWs)   bands (ev):

   -21.3145 -20.1830 -19.1938 -18.2169 -15.7068 -14.7717 -12.8219 -11.5451
   -11.1865 -10.2532  -9.8384  -9.2098  -9.2054  -9.1332  -8.8689  -7.9104
    -7.0608  -6.1135  -1.7702  -0.6901   0.7206   0.7748

     occupation numbers 
     1.0000   1.0000   1.0000   1.0000   1.0000   1.0000   1.0000   1.0000
     1.0000   1.0000   1.0000   1.0000   1.0000   1.0000   1.0000   1.0000
     1.0000   1.0000   0.0000   0.0000   0.0000   0.0000

          k = 0.0000 0.0000 0.4067 (307316 PWs)   bands (ev):

   -21.2839 -20.2270 -19.1663 -18.2522 -15.6842 -14.8088 -12.7772 -11.5865
   -11.1260 -10.2130  -9.8118  -9.2162  -9.1804  -9.1741  -8.9054  -7.9605
    -7.0329  -6.1469  -1.7407  -0.7307   0.7590   0.8150

     occupation numbers 
     1.0000   1.0000   1.0000   1.0000   1.0000   1.0000   1.0000   1.0000
     1.0000   1.0000   1.0000   1.0000   1.0000   1.0000   1.0000   1.0000
     1.0000   1.0000   0.0000   0.0000   0.0000   0.0000

          k = 0.0000 0.0000 0.4133 (307338 PWs)   bands (ev):

   -21.2527 -20.2706 -19.1384 -18.2874 -15.6609 -14.8456 -12.7329 -11.6280
   -11.0651 -10.1755  -9.7848  -9.2440  -9.2109  -9.1378  -8.9417  -8.0102
    -7.0048  -6.1804  -1.7106  -0.7712   0.7979   0.8557

     occupation numbers 
     1.0000   1.0000   1.0000   1.0000   1.0000   1.0000   1.0000   1.0000
     1.0000   1.0000   1.0000   1.0000   1.0000   1.0000   1.0000   1.0000
     1.0000   1.0000   0.0000   0.0000   0.0000   0.0000

          k = 0.0000 0.0000 0.4200 (307342 PWs)   bands (ev):

   -21.2211 -20.3138 -19.1101 -18.3226 -15.6369 -14.8822 -12.6889 -11.6695
   -11.0037 -10.1411  -9.7575  -9.2880  -9.2249  -9.1010  -8.9780  -8.0595
    -6.9763  -6.2138  -1.6800  -0.8114   0.8372   0.8966

     occupation numbers 
     1.0000   1.0000   1.0000   1.0000   1.0000   1.0000   1.0000   1.0000
     1.0000   1.0000   1.0000   1.0000   1.0000   1.0000   1.0000   1.0000
     1.0000   1.0000   0.0000   0.0000   0.0000   0.0000

          k = 0.0000 0.0000 0.4267 (307326 PWs)   bands (ev):

   -21.1890 -20.3565 -19.0813 -18.3576 -15.6121 -14.9185 -12.6452 -11.7112
   -10.9420 -10.1106  -9.7299  -9.3327  -9.2372  -9.0637  -9.0141  -8.1083
    -6.9475  -6.2471  -1.6490  -0.8514   0.8769   0.9379

     occupation numbers 
     1.0000   1.0000   1.0000   1.0000   1.0000   1.0000   1.0000   1.0000
     1.0000   1.0000   1.0000   1.0000   1.0000   1.0000   1.0000   1.0000
     1.0000   1.0000   0.0000   0.0000   0.0000   0.0000

          k = 0.0000 0.0000 0.4333 (307280 PWs)   bands (ev):

   -21.1565 -20.3988 -19.0522 -18.3925 -15.5867 -14.9544 -12.6018 -11.7528
   -10.8801 -10.0851  -9.7021  -9.3745  -9.2502  -9.0500  -9.0258  -8.1567
    -6.9184  -6.2804  -1.6174  -0.8911   0.9169   0.9793

     occupation numbers 
     1.0000   1.0000   1.0000   1.0000   1.0000   1.0000   1.0000   1.0000
     1.0000   1.0000   1.0000   1.0000   1.0000   1.0000   1.0000   1.0000
     1.0000   1.0000   0.0000   0.0000   0.0000   0.0000

          k = 0.0000 0.0000 0.4400 (307346 PWs)   bands (ev):

   -21.1235 -20.4407 -19.0227 -18.4273 -15.5606 -14.9900 -12.5586 -11.7945
   -10.8182 -10.0657  -9.6740  -9.4119  -9.2642  -9.0856  -8.9875  -8.2046
    -6.8890  -6.3136  -1.5854  -0.9305   0.9571   1.0207

     occupation numbers 
     1.0000   1.0000   1.0000   1.0000   1.0000   1.0000   1.0000   1.0000
     1.0000   1.0000   1.0000   1.0000   1.0000   1.0000   1.0000   1.0000
     1.0000   1.0000   0.0000   0.0000   0.0000   0.0000

          k = 0.0000 0.0000 0.4467 (307290 PWs)   bands (ev):

   -21.0900 -20.4820 -18.9930 -18.4618 -15.5339 -15.0252 -12.5156 -11.8361
   -10.7563 -10.0539  -9.6458  -9.4433  -9.2793  -9.1210  -8.9486  -8.2520
    -6.8594  -6.3466  -1.5529  -0.9696   0.9974   1.0620

     occupation numbers 
     1.0000   1.0000   1.0000   1.0000   1.0000   1.0000   1.0000   1.0000
     1.0000   1.0000   1.0000   1.0000   1.0000   1.0000   1.0000   1.0000
     1.0000   1.0000   0.0000   0.0000   0.0000   0.0000

          k = 0.0000 0.0000 0.4533 (307272 PWs)   bands (ev):

   -21.0562 -20.5229 -18.9629 -18.4961 -15.5066 -15.0600 -12.4729 -11.8778
   -10.6945 -10.0511  -9.6176  -9.4670  -9.2954  -9.1561  -8.9092  -8.2989
    -6.8295  -6.3795  -1.5200  -1.0084   1.0377   1.1029

     occupation numbers 
     1.0000   1.0000   1.0000   1.0000   1.0000   1.0000   1.0000   1.0000
     1.0000   1.0000   1.0000   1.0000   1.0000   1.0000   1.0000   1.0000
     1.0000   1.0000   0.0000   0.0000   0.0000   0.0000

          k = 0.0000 0.0000 0.4600 (307272 PWs)   bands (ev):

   -21.0220 -20.5631 -18.9326 -18.5301 -15.4788 -15.0943 -12.4304 -11.9194
   -10.6331 -10.0583  -9.5894  -9.4822  -9.3124  -9.1908  -8.8693  -8.3453
    -6.7994  -6.4122  -1.4867  -1.0468   1.0778   1.1427

     occupation numbers 
     1.0000   1.0000   1.0000   1.0000   1.0000   1.0000   1.0000   1.0000
     1.0000   1.0000   1.0000   1.0000   1.0000   1.0000   1.0000   1.0000
     1.0000   1.0000   0.0000   0.0000   0.0000   0.0000

          k = 0.0000 0.0000 0.4667 (307332 PWs)   bands (ev):

   -20.9875 -20.6028 -18.9021 -18.5637 -15.4505 -15.1281 -12.3882 -11.9609
   -10.5723 -10.0757  -9.5616  -9.4883  -9.3302  -9.2249  -8.8291  -8.3911
    -6.7692  -6.4446  -1.4531  -1.0847   1.1173   1.1809

     occupation numbers 
     1.0000   1.0000   1.0000   1.0000   1.0000   1.0000   1.0000   1.0000
     1.0000   1.0000   1.0000   1.0000   1.0000   1.0000   1.0000   1.0000
     1.0000   1.0000   0.0000   0.0000   0.0000   0.0000

          k = 0.0000 0.0000 0.4733 (307346 PWs)   bands (ev):

   -20.9528 -20.6417 -18.8717 -18.5966 -15.4218 -15.1613 -12.3463 -12.0022
   -10.5123 -10.1025  -9.5348  -9.4857  -9.3485  -9.2584  -8.7884  -8.4362
    -6.7390  -6.4767  -1.4192  -1.1222   1.1557   1.2160

     occupation numbers 
     1.0000   1.0000   1.0000   1.0000   1.0000   1.0000   1.0000   1.0000
     1.0000   1.0000   1.0000   1.0000   1.0000   1.0000   1.0000   1.0000
     1.0000   1.0000   0.0000   0.0000   0.0000   0.0000

          k = 0.0000 0.0000 0.4800 (307328 PWs)   bands (ev):

   -20.9182 -20.6796 -18.8417 -18.6287 -15.3931 -15.1935 -12.3050 -12.0431
   -10.4536 -10.1372  -9.5106  -9.4746  -9.3668  -9.2909  -8.7476  -8.4806
    -6.7089  -6.5082  -1.3853  -1.1589   1.1921   1.2460

     occupation numbers 
     1.0000   1.0000   1.0000   1.0000   1.0000   1.0000   1.0000   1.0000
     1.0000   1.0000   1.0000   1.0000   1.0000   1.0000   1.0000   1.0000
     1.0000   1.0000   0.0000   0.0000   0.0000   0.0000

          k = 0.0000 0.0000 0.4867 (307334 PWs)   bands (ev):

   -20.8844 -20.7157 -18.8128 -18.6590 -15.3647 -15.2243 -12.2648 -12.0831
   -10.3970 -10.1778  -9.4909  -9.4560  -9.3843  -9.3217  -8.7069  -8.5238
    -6.6795  -6.5386  -1.3518  -1.1943   1.2252   1.2676

     occupation numbers 
     1.0000   1.0000   1.0000   1.0000   1.0000   1.0000   1.0000   1.0000
     1.0000   1.0000   1.0000   1.0000   1.0000   1.0000   1.0000   1.0000
     1.0000   1.0000   0.0000   0.0000   0.0000   0.0000

          k = 0.0000 0.0000 0.4933 (307366 PWs)   bands (ev):

   -20.8541 -20.7474 -18.7879 -18.6848 -15.3390 -15.2516 -12.2279 -12.1198
   -10.3448 -10.2208  -9.4768  -9.4340  -9.3994  -9.3483  -8.6683  -8.5639
    -6.6530  -6.5657  -1.3209  -1.2263   1.2524   1.2769

     occupation numbers 
     1.0000   1.0000   1.0000   1.0000   1.0000   1.0000   1.0000   1.0000
     1.0000   1.0000   1.0000   1.0000   1.0000   1.0000   1.0000   1.0000
     1.0000   1.0000   0.0000   0.0000   0.0000   0.0000

          k = 0.0000 0.0000-0.5000 (307422 PWs)   bands (ev):

   -20.8387 -20.7633 -18.7761 -18.6968 -15.3256 -15.2655 -12.2076 -12.1400
   -10.3139 -10.2487  -9.4710  -9.4197  -9.4082  -9.3613  -8.6453  -8.5874
    -6.6392  -6.5797  -1.3041  -1.2436   1.2681   1.2741

     occupation numbers 
     1.0000   1.0000   1.0000   1.0000   1.0000   1.0000   1.0000   1.0000
     1.0000   1.0000   1.0000   1.0000   1.0000   1.0000   1.0000   1.0000
     1.0000   1.0000   0.0000   0.0000   0.0000   0.0000

     the Fermi energy is    -4.4654 ev
     (compare with:    -4.4674 eV, computed in scf)

     Writing all to output data dir ../tmp/AGNR.save/ :
     XML data file, pseudopotentials, collected wavefunctions
 
     init_run     :     11.02s CPU     12.00s WALL (       1 calls)
     electrons    :   1257.64s CPU   1297.93s WALL (       1 calls)

     Called by init_run:
     wfcinit      :      0.00s CPU      0.00s WALL (       1 calls)
     wfcinit:wfcr :     43.96s CPU     44.51s WALL (      76 calls)
     potinit      :      1.56s CPU      1.89s WALL (       1 calls)
     hinit0       :      0.32s CPU      0.40s WALL (       1 calls)

     Called by electrons:
     c_bands      :   1257.64s CPU   1297.92s WALL (       1 calls)
     v_of_rho     :      1.18s CPU      1.40s WALL (       1 calls)
     v_h          :      0.12s CPU      0.16s WALL (       1 calls)
     v_xc         :      1.06s CPU      1.24s WALL (       1 calls)
     newd         :      0.81s CPU      1.24s WALL (       1 calls)
     PAW_pot      :      0.03s CPU      0.03s WALL (       1 calls)

     Called by c_bands:
     init_us_2    :      1.89s CPU      1.92s WALL (      76 calls)
     cegterg      :   1207.91s CPU   1242.16s WALL (     193 calls)

     Called by sum_band:

     Called by *egterg:
     cdiaghg      :      9.50s CPU      9.57s WALL (    3362 calls)
     cegterg:over :     82.50s CPU     83.09s WALL (    3286 calls)
     cegterg:upda :     92.32s CPU     97.70s WALL (    3286 calls)
     cegterg:last :     19.17s CPU     19.28s WALL (     345 calls)
     h_psi        :    980.22s CPU    997.97s WALL (    3555 calls)
     s_psi        :     39.10s CPU     39.49s WALL (    3555 calls)
     g_psi        :      3.82s CPU      3.86s WALL (    3286 calls)

     Called by h_psi:
     h_psi:calbec :     29.71s CPU     29.92s WALL (    3555 calls)
     vloc_psi     :    902.50s CPU    914.43s WALL (    3555 calls)
     add_vuspsi   :     39.28s CPU     39.54s WALL (    3555 calls)

     General routines
     calbec       :     29.68s CPU     29.90s WALL (    3555 calls)
     fft          :      1.06s CPU      1.24s WALL (      13 calls)
     ffts         :      0.02s CPU      0.02s WALL (       1 calls)
     fftw         :    439.30s CPU    445.04s WALL (   80004 calls)
     interpolate  :      0.09s CPU      0.11s WALL (       1 calls)
     davcio       :      0.02s CPU      4.85s WALL (     152 calls)
 
     Parallel routines

     PAW routines
     PAW_pot      :      0.03s CPU      0.03s WALL (       1 calls)
 
     PWSCF        :  21m14.13s CPU  23m23.66s WALL

 
   This run was terminated on:   3:27:21   6Jan2026            

=------------------------------------------------------------------------------=
   JOB DONE.
=------------------------------------------------------------------------------=
