
     Program PWSCF v.7.4.1 starts on  4Oct2025 at  5:16:51 

     This program is part of the open-source Quantum ESPRESSO suite
     for quantum simulation of materials; please cite
         "P. Giannozzi et al., J. Phys.:Condens. Matter 21 395502 (2009);
         "P. Giannozzi et al., J. Phys.:Condens. Matter 29 465901 (2017);
         "P. Giannozzi et al., J. Chem. Phys. 152 154105 (2020);
          URL http://www.quantum-espresso.org", 
     in publications or presentations arising from this work. More details at
     http://www.quantum-espresso.org/quote

     Serial version
     900 MiB available memory on the printing compute node when the environment starts

     Reading input from grap_nscf.in

     Current dimensions of program PWSCF are:
     Max number of different atomic species (ntypx) = 10
     Max number of k-points (npk) =  40000
     Max angular momentum in pseudopotentials (lmaxx) =  4
     Message from routine input:
     WARNING: "startingwfc" set to random may spoil restart
     file C.pz-rrkjus-LDA.UPF: wavefunction(s)  2S renormalized
     Message from routine setup:
     using ibrav=0 with symmetry is DISCOURAGED, use correct ibrav instead


     G-vector sticks info
     --------------------
     sticks:   dense  smooth     PW     G-vecs:    dense   smooth      PW
     Sum        1045     421    121               166859    42343    7091

     Using Slab Decomposition



     bravais-lattice index     =            0
     lattice parameter (alat)  =       4.6624  a.u.
     unit-cell volume          =     533.6317 (a.u.)^3
     number of atoms/cell      =            2
     number of atomic types    =            1
     number of electrons       =         8.00
     number of Kohn-Sham states=            8
     kinetic-energy cutoff     =      70.0000  Ry
     charge density cutoff     =     700.0000  Ry
     Exchange-correlation=  SLA  PZ   NOGX NOGC
                           (   1   1   0   0   0   0   0)

     celldm(1)=   4.662410  celldm(2)=   0.000000  celldm(3)=   0.000000
     celldm(4)=   0.000000  celldm(5)=   0.000000  celldm(6)=   0.000000

     crystal axes: (cart. coord. in units of alat)
               a(1) = (   1.000000   0.000000  -0.000000 )  
               a(2) = (  -0.500000   0.866025   0.000000 )  
               a(3) = (  -0.000000   0.000000   6.079666 )  

     reciprocal axes: (cart. coord. in units 2 pi/alat)
               b(1) = (  1.000000  0.577350  0.000000 )  
               b(2) = ( -0.000000  1.154701 -0.000000 )  
               b(3) = (  0.000000  0.000000  0.164483 )  


     PseudoPot. # 1 for C  read from file:
     ../../pseudos/C.pz-rrkjus-LDA.UPF
     MD5 check sum: bb04a9758bea2c47616aaf1c95b6345e
     Pseudo is Ultrasoft, Zval =  4.0
     Generated by new atomic code, or converted to UPF format
     Using radial grid of 1425 points,  4 beta functions with: 
                l(1) =   0
                l(2) =   0
                l(3) =   1
                l(4) =   1
     Q(r) pseudized with 0 coefficients 


     atomic species   valence    mass     pseudopotential
     C                 4.00    12.01100     C ( 1.00)

     24 Sym. Ops., with inversion, found (12 have fractional translation)


                                    s                        frac. trans.

      isym =  1     identity                                     

 cryst.   s( 1) = (     1          0          0      )
                  (     0          1          0      )
                  (     0          0          1      )

 cart.    s( 1) = (  1.0000000  0.0000000  0.0000000 )
                  (  0.0000000  1.0000000  0.0000000 )
                  (  0.0000000  0.0000000  1.0000000 )


      isym =  2     180 deg rotation - cart. axis [0,0,1]        

 cryst.   s( 2) = (    -1          0          0      )    f =( -0.3333334 )
                  (     0         -1          0      )       (  0.3333333 )
                  (     0          0          1      )       (  0.0000000 )

 cart.    s( 2) = ( -1.0000000  0.0000000  0.0000000 )    f =( -0.5000000 )
                  (  0.0000000 -1.0000000  0.0000000 )       (  0.2886751 )
                  (  0.0000000  0.0000000  1.0000000 )       (  0.0000000 )


      isym =  3     180 deg rotation - cart. axis [0,1,0]        

 cryst.   s( 3) = (    -1          0          0      )
                  (     1          1          0      )
                  (     0          0         -1      )

 cart.    s( 3) = ( -1.0000000  0.0000000  0.0000000 )
                  (  0.0000000  1.0000000  0.0000000 )
                  (  0.0000000  0.0000000 -1.0000000 )


      isym =  4     180 deg rotation - cart. axis [1,0,0]        

 cryst.   s( 4) = (     1          0          0      )    f =( -0.3333334 )
                  (    -1         -1          0      )       (  0.3333333 )
                  (     0          0         -1      )       (  0.0000000 )

 cart.    s( 4) = (  1.0000000  0.0000000  0.0000000 )    f =( -0.5000000 )
                  (  0.0000000 -1.0000000  0.0000000 )       (  0.2886751 )
                  (  0.0000000  0.0000000 -1.0000000 )       (  0.0000000 )


      isym =  5      60 deg rotation - cryst. axis [0,0,1]       

 cryst.   s( 5) = (     1          1          0      )    f =( -0.3333334 )
                  (    -1          0          0      )       (  0.3333334 )
                  (     0          0          1      )       (  0.0000000 )

 cart.    s( 5) = (  0.5000000 -0.8660254  0.0000000 )    f =( -0.5000000 )
                  (  0.8660254  0.5000000  0.0000000 )       (  0.2886751 )
                  (  0.0000000  0.0000000  1.0000000 )       (  0.0000000 )


      isym =  6      60 deg rotation - cryst. axis [0,0,-1]      

 cryst.   s( 6) = (     0         -1          0      )    f =( -0.3333333 )
                  (     1          1          0      )       (  0.3333334 )
                  (     0          0          1      )       (  0.0000000 )

 cart.    s( 6) = (  0.5000000  0.8660254  0.0000000 )    f =( -0.5000000 )
                  ( -0.8660254  0.5000000  0.0000000 )       (  0.2886751 )
                  (  0.0000000  0.0000000  1.0000000 )       (  0.0000000 )


      isym =  7     120 deg rotation - cryst. axis [0,0,1]       

 cryst.   s( 7) = (     0          1          0      )
                  (    -1         -1          0      )
                  (     0          0          1      )

 cart.    s( 7) = ( -0.5000000 -0.8660254  0.0000000 )
                  (  0.8660254 -0.5000000  0.0000000 )
                  (  0.0000000  0.0000000  1.0000000 )


      isym =  8     120 deg rotation - cryst. axis [0,0,-1]      

 cryst.   s( 8) = (    -1         -1          0      )
                  (     1          0          0      )
                  (     0          0          1      )

 cart.    s( 8) = ( -0.5000000  0.8660254  0.0000000 )
                  ( -0.8660254 -0.5000000  0.0000000 )
                  (  0.0000000  0.0000000  1.0000000 )


      isym =  9     180 deg rotation - cryst. axis [1,-1,0]      

 cryst.   s( 9) = (     0         -1          0      )
                  (    -1          0          0      )
                  (     0          0         -1      )

 cart.    s( 9) = (  0.5000000 -0.8660254  0.0000000 )
                  ( -0.8660254 -0.5000000  0.0000000 )
                  (  0.0000000  0.0000000 -1.0000000 )


      isym = 10     180 deg rotation - cryst. axis [2,1,0]       

 cryst.   s(10) = (     1          1          0      )
                  (     0         -1          0      )
                  (     0          0         -1      )

 cart.    s(10) = (  0.5000000  0.8660254  0.0000000 )
                  (  0.8660254 -0.5000000  0.0000000 )
                  (  0.0000000  0.0000000 -1.0000000 )


      isym = 11     180 deg rotation - cryst. axis [0,1,0]       

 cryst.   s(11) = (    -1         -1          0      )    f =( -0.3333334 )
                  (     0          1          0      )       (  0.3333334 )
                  (     0          0         -1      )       (  0.0000000 )

 cart.    s(11) = ( -0.5000000 -0.8660254  0.0000000 )    f =( -0.5000000 )
                  ( -0.8660254  0.5000000  0.0000000 )       (  0.2886751 )
                  (  0.0000000  0.0000000 -1.0000000 )       (  0.0000000 )


      isym = 12     180 deg rotation - cryst. axis [1,1,0]       

 cryst.   s(12) = (     0          1          0      )    f =( -0.3333333 )
                  (     1          0          0      )       (  0.3333334 )
                  (     0          0         -1      )       (  0.0000000 )

 cart.    s(12) = ( -0.5000000  0.8660254  0.0000000 )    f =( -0.5000000 )
                  (  0.8660254  0.5000000  0.0000000 )       (  0.2886751 )
                  (  0.0000000  0.0000000 -1.0000000 )       (  0.0000000 )


      isym = 13     inversion                                    

 cryst.   s(13) = (    -1          0          0      )    f =( -0.3333334 )
                  (     0         -1          0      )       (  0.3333333 )
                  (     0          0         -1      )       (  0.0000000 )

 cart.    s(13) = ( -1.0000000  0.0000000  0.0000000 )    f =( -0.5000000 )
                  (  0.0000000 -1.0000000  0.0000000 )       (  0.2886751 )
                  (  0.0000000  0.0000000 -1.0000000 )       (  0.0000000 )


      isym = 14     inv. 180 deg rotation - cart. axis [0,0,1]   

 cryst.   s(14) = (     1          0          0      )
                  (     0          1          0      )
                  (     0          0         -1      )

 cart.    s(14) = (  1.0000000  0.0000000  0.0000000 )
                  (  0.0000000  1.0000000  0.0000000 )
                  (  0.0000000  0.0000000 -1.0000000 )


      isym = 15     inv. 180 deg rotation - cart. axis [0,1,0]   

 cryst.   s(15) = (     1          0          0      )    f =( -0.3333334 )
                  (    -1         -1          0      )       (  0.3333333 )
                  (     0          0          1      )       (  0.0000000 )

 cart.    s(15) = (  1.0000000  0.0000000  0.0000000 )    f =( -0.5000000 )
                  (  0.0000000 -1.0000000  0.0000000 )       (  0.2886751 )
                  (  0.0000000  0.0000000  1.0000000 )       (  0.0000000 )


      isym = 16     inv. 180 deg rotation - cart. axis [1,0,0]   

 cryst.   s(16) = (    -1          0          0      )
                  (     1          1          0      )
                  (     0          0          1      )

 cart.    s(16) = ( -1.0000000  0.0000000  0.0000000 )
                  (  0.0000000  1.0000000  0.0000000 )
                  (  0.0000000  0.0000000  1.0000000 )


      isym = 17     inv.  60 deg rotation - cryst. axis [0,0,1]  

 cryst.   s(17) = (    -1         -1          0      )
                  (     1          0          0      )
                  (     0          0         -1      )

 cart.    s(17) = ( -0.5000000  0.8660254  0.0000000 )
                  ( -0.8660254 -0.5000000  0.0000000 )
                  (  0.0000000  0.0000000 -1.0000000 )


      isym = 18     inv.  60 deg rotation - cryst. axis [0,0,-1] 

 cryst.   s(18) = (     0          1          0      )
                  (    -1         -1          0      )
                  (     0          0         -1      )

 cart.    s(18) = ( -0.5000000 -0.8660254  0.0000000 )
                  (  0.8660254 -0.5000000  0.0000000 )
                  (  0.0000000  0.0000000 -1.0000000 )


      isym = 19     inv. 120 deg rotation - cryst. axis [0,0,1]  

 cryst.   s(19) = (     0         -1          0      )    f =( -0.3333333 )
                  (     1          1          0      )       (  0.3333334 )
                  (     0          0         -1      )       (  0.0000000 )

 cart.    s(19) = (  0.5000000  0.8660254  0.0000000 )    f =( -0.5000000 )
                  ( -0.8660254  0.5000000  0.0000000 )       (  0.2886751 )
                  (  0.0000000  0.0000000 -1.0000000 )       (  0.0000000 )


      isym = 20     inv. 120 deg rotation - cryst. axis [0,0,-1] 

 cryst.   s(20) = (     1          1          0      )    f =( -0.3333334 )
                  (    -1          0          0      )       (  0.3333334 )
                  (     0          0         -1      )       (  0.0000000 )

 cart.    s(20) = (  0.5000000 -0.8660254  0.0000000 )    f =( -0.5000000 )
                  (  0.8660254  0.5000000  0.0000000 )       (  0.2886751 )
                  (  0.0000000  0.0000000 -1.0000000 )       (  0.0000000 )


      isym = 21     inv. 180 deg rotation - cryst. axis [1,-1,0] 

 cryst.   s(21) = (     0          1          0      )    f =( -0.3333333 )
                  (     1          0          0      )       (  0.3333334 )
                  (     0          0          1      )       (  0.0000000 )

 cart.    s(21) = ( -0.5000000  0.8660254  0.0000000 )    f =( -0.5000000 )
                  (  0.8660254  0.5000000  0.0000000 )       (  0.2886751 )
                  (  0.0000000  0.0000000  1.0000000 )       (  0.0000000 )


      isym = 22     inv. 180 deg rotation - cryst. axis [2,1,0]  

 cryst.   s(22) = (    -1         -1          0      )    f =( -0.3333334 )
                  (     0          1          0      )       (  0.3333334 )
                  (     0          0          1      )       (  0.0000000 )

 cart.    s(22) = ( -0.5000000 -0.8660254  0.0000000 )    f =( -0.5000000 )
                  ( -0.8660254  0.5000000  0.0000000 )       (  0.2886751 )
                  (  0.0000000  0.0000000  1.0000000 )       (  0.0000000 )


      isym = 23     inv. 180 deg rotation - cryst. axis [0,1,0]  

 cryst.   s(23) = (     1          1          0      )
                  (     0         -1          0      )
                  (     0          0          1      )

 cart.    s(23) = (  0.5000000  0.8660254  0.0000000 )
                  (  0.8660254 -0.5000000  0.0000000 )
                  (  0.0000000  0.0000000  1.0000000 )


      isym = 24     inv. 180 deg rotation - cryst. axis [1,1,0]  

 cryst.   s(24) = (     0         -1          0      )
                  (    -1          0          0      )
                  (     0          0          1      )

 cart.    s(24) = (  0.5000000 -0.8660254  0.0000000 )
                  ( -0.8660254 -0.5000000  0.0000000 )
                  (  0.0000000  0.0000000  1.0000000 )


   Cartesian axes

     site n.     atom                  positions (alat units)
         1        C      tau(   1) = (   0.0000000   0.0000000   0.0000000  )
         2        C      tau(   2) = (   0.0000000   0.5773503   0.0000000  )

   Crystallographic axes

     site n.     atom                  positions (cryst. coord.)
         1        C      tau(   1) = (  0.0000000  0.0000000  0.0000000  )
         2        C      tau(   2) = (  0.3333334  0.6666667  0.0000000  )

     number of k points=  1951  Gaussian smearing, width (Ry)=  0.0020
                       cart. coord. in units 2pi/alat
        k(    1) = (   0.0000000   0.0000000   0.0000000), wk =   0.0000889
        k(    2) = (   0.0000000   0.0076980   0.0000000), wk =   0.0005333
        k(    3) = (   0.0000000   0.0153960   0.0000000), wk =   0.0005333
        k(    4) = (   0.0000000   0.0230940   0.0000000), wk =   0.0005333
        k(    5) = (   0.0000000   0.0307920   0.0000000), wk =   0.0005333
        k(    6) = (   0.0000000   0.0384900   0.0000000), wk =   0.0005333
        k(    7) = (   0.0000000   0.0461880   0.0000000), wk =   0.0005333
        k(    8) = (   0.0000000   0.0538860   0.0000000), wk =   0.0005333
        k(    9) = (   0.0000000   0.0615840   0.0000000), wk =   0.0005333
        k(   10) = (   0.0000000   0.0692820   0.0000000), wk =   0.0005333
        k(   11) = (   0.0000000   0.0769800   0.0000000), wk =   0.0005333
        k(   12) = (   0.0000000   0.0846780   0.0000000), wk =   0.0005333
        k(   13) = (   0.0000000   0.0923760   0.0000000), wk =   0.0005333
        k(   14) = (   0.0000000   0.1000740   0.0000000), wk =   0.0005333
        k(   15) = (   0.0000000   0.1077721   0.0000000), wk =   0.0005333
        k(   16) = (   0.0000000   0.1154701   0.0000000), wk =   0.0005333
        k(   17) = (   0.0000000   0.1231681   0.0000000), wk =   0.0005333
        k(   18) = (   0.0000000   0.1308661   0.0000000), wk =   0.0005333
        k(   19) = (   0.0000000   0.1385641   0.0000000), wk =   0.0005333
        k(   20) = (   0.0000000   0.1462621   0.0000000), wk =   0.0005333
        k(   21) = (   0.0000000   0.1539601   0.0000000), wk =   0.0005333
        k(   22) = (   0.0000000   0.1616581   0.0000000), wk =   0.0005333
        k(   23) = (   0.0000000   0.1693561   0.0000000), wk =   0.0005333
        k(   24) = (   0.0000000   0.1770541   0.0000000), wk =   0.0005333
        k(   25) = (   0.0000000   0.1847521   0.0000000), wk =   0.0005333
        k(   26) = (   0.0000000   0.1924501   0.0000000), wk =   0.0005333
        k(   27) = (   0.0000000   0.2001481   0.0000000), wk =   0.0005333
        k(   28) = (   0.0000000   0.2078461   0.0000000), wk =   0.0005333
        k(   29) = (   0.0000000   0.2155441   0.0000000), wk =   0.0005333
        k(   30) = (   0.0000000   0.2232421   0.0000000), wk =   0.0005333
        k(   31) = (   0.0000000   0.2309401   0.0000000), wk =   0.0005333
        k(   32) = (   0.0000000   0.2386381   0.0000000), wk =   0.0005333
        k(   33) = (   0.0000000   0.2463361   0.0000000), wk =   0.0005333
        k(   34) = (   0.0000000   0.2540341   0.0000000), wk =   0.0005333
        k(   35) = (   0.0000000   0.2617321   0.0000000), wk =   0.0005333
        k(   36) = (   0.0000000   0.2694301   0.0000000), wk =   0.0005333
        k(   37) = (   0.0000000   0.2771281   0.0000000), wk =   0.0005333
        k(   38) = (   0.0000000   0.2848261   0.0000000), wk =   0.0005333
        k(   39) = (   0.0000000   0.2925241   0.0000000), wk =   0.0005333
        k(   40) = (   0.0000000   0.3002221   0.0000000), wk =   0.0005333
        k(   41) = (   0.0000000   0.3079201   0.0000000), wk =   0.0005333
        k(   42) = (   0.0000000   0.3156181   0.0000000), wk =   0.0005333
        k(   43) = (   0.0000000   0.3233162   0.0000000), wk =   0.0005333
        k(   44) = (   0.0000000   0.3310142   0.0000000), wk =   0.0005333
        k(   45) = (   0.0000000   0.3387122   0.0000000), wk =   0.0005333
        k(   46) = (   0.0000000   0.3464102   0.0000000), wk =   0.0005333
        k(   47) = (   0.0000000   0.3541082   0.0000000), wk =   0.0005333
        k(   48) = (   0.0000000   0.3618062   0.0000000), wk =   0.0005333
        k(   49) = (   0.0000000   0.3695042   0.0000000), wk =   0.0005333
        k(   50) = (   0.0000000   0.3772022   0.0000000), wk =   0.0005333
        k(   51) = (   0.0000000   0.3849002   0.0000000), wk =   0.0005333
        k(   52) = (   0.0000000   0.3925982   0.0000000), wk =   0.0005333
        k(   53) = (   0.0000000   0.4002962   0.0000000), wk =   0.0005333
        k(   54) = (   0.0000000   0.4079942   0.0000000), wk =   0.0005333
        k(   55) = (   0.0000000   0.4156922   0.0000000), wk =   0.0005333
        k(   56) = (   0.0000000   0.4233902   0.0000000), wk =   0.0005333
        k(   57) = (   0.0000000   0.4310882   0.0000000), wk =   0.0005333
        k(   58) = (   0.0000000   0.4387862   0.0000000), wk =   0.0005333
        k(   59) = (   0.0000000   0.4464842   0.0000000), wk =   0.0005333
        k(   60) = (   0.0000000   0.4541822   0.0000000), wk =   0.0005333
        k(   61) = (   0.0000000   0.4618802   0.0000000), wk =   0.0005333
        k(   62) = (   0.0000000   0.4695782   0.0000000), wk =   0.0005333
        k(   63) = (   0.0000000   0.4772762   0.0000000), wk =   0.0005333
        k(   64) = (   0.0000000   0.4849742   0.0000000), wk =   0.0005333
        k(   65) = (   0.0000000   0.4926722   0.0000000), wk =   0.0005333
        k(   66) = (   0.0000000   0.5003702   0.0000000), wk =   0.0005333
        k(   67) = (   0.0000000   0.5080682   0.0000000), wk =   0.0005333
        k(   68) = (   0.0000000   0.5157662   0.0000000), wk =   0.0005333
        k(   69) = (   0.0000000   0.5234642   0.0000000), wk =   0.0005333
        k(   70) = (   0.0000000   0.5311622   0.0000000), wk =   0.0005333
        k(   71) = (   0.0000000   0.5388603   0.0000000), wk =   0.0005333
        k(   72) = (   0.0000000   0.5465583   0.0000000), wk =   0.0005333
        k(   73) = (   0.0000000   0.5542563   0.0000000), wk =   0.0005333
        k(   74) = (   0.0000000   0.5619543   0.0000000), wk =   0.0005333
        k(   75) = (   0.0000000   0.5696523   0.0000000), wk =   0.0005333
        k(   76) = (   0.0000000  -0.5773503   0.0000000), wk =   0.0002667
        k(   77) = (   0.0066667   0.0115470   0.0000000), wk =   0.0005333
        k(   78) = (   0.0066667   0.0192450   0.0000000), wk =   0.0010667
        k(   79) = (   0.0066667   0.0269430   0.0000000), wk =   0.0010667
        k(   80) = (   0.0066667   0.0346410   0.0000000), wk =   0.0010667
        k(   81) = (   0.0066667   0.0423390   0.0000000), wk =   0.0010667
        k(   82) = (   0.0066667   0.0500370   0.0000000), wk =   0.0010667
        k(   83) = (   0.0066667   0.0577350   0.0000000), wk =   0.0010667
        k(   84) = (   0.0066667   0.0654330   0.0000000), wk =   0.0010667
        k(   85) = (   0.0066667   0.0731310   0.0000000), wk =   0.0010667
        k(   86) = (   0.0066667   0.0808290   0.0000000), wk =   0.0010667
        k(   87) = (   0.0066667   0.0885270   0.0000000), wk =   0.0010667
        k(   88) = (   0.0066667   0.0962250   0.0000000), wk =   0.0010667
        k(   89) = (   0.0066667   0.1039230   0.0000000), wk =   0.0010667
        k(   90) = (   0.0066667   0.1116211   0.0000000), wk =   0.0010667
        k(   91) = (   0.0066667   0.1193191   0.0000000), wk =   0.0010667
        k(   92) = (   0.0066667   0.1270171   0.0000000), wk =   0.0010667
        k(   93) = (   0.0066667   0.1347151   0.0000000), wk =   0.0010667
        k(   94) = (   0.0066667   0.1424131   0.0000000), wk =   0.0010667
        k(   95) = (   0.0066667   0.1501111   0.0000000), wk =   0.0010667
        k(   96) = (   0.0066667   0.1578091   0.0000000), wk =   0.0010667
        k(   97) = (   0.0066667   0.1655071   0.0000000), wk =   0.0010667
        k(   98) = (   0.0066667   0.1732051   0.0000000), wk =   0.0010667
        k(   99) = (   0.0066667   0.1809031   0.0000000), wk =   0.0010667
        k(  100) = (   0.0066667   0.1886011   0.0000000), wk =   0.0010667
        k(  101) = (   0.0066667   0.1962991   0.0000000), wk =   0.0010667
        k(  102) = (   0.0066667   0.2039971   0.0000000), wk =   0.0010667
        k(  103) = (   0.0066667   0.2116951   0.0000000), wk =   0.0010667
        k(  104) = (   0.0066667   0.2193931   0.0000000), wk =   0.0010667
        k(  105) = (   0.0066667   0.2270911   0.0000000), wk =   0.0010667
        k(  106) = (   0.0066667   0.2347891   0.0000000), wk =   0.0010667
        k(  107) = (   0.0066667   0.2424871   0.0000000), wk =   0.0010667
        k(  108) = (   0.0066667   0.2501851   0.0000000), wk =   0.0010667
        k(  109) = (   0.0066667   0.2578831   0.0000000), wk =   0.0010667
        k(  110) = (   0.0066667   0.2655811   0.0000000), wk =   0.0010667
        k(  111) = (   0.0066667   0.2732791   0.0000000), wk =   0.0010667
        k(  112) = (   0.0066667   0.2809771   0.0000000), wk =   0.0010667
        k(  113) = (   0.0066667   0.2886751   0.0000000), wk =   0.0010667
        k(  114) = (   0.0066667   0.2963731   0.0000000), wk =   0.0010667
        k(  115) = (   0.0066667   0.3040711   0.0000000), wk =   0.0010667
        k(  116) = (   0.0066667   0.3117691   0.0000000), wk =   0.0010667
        k(  117) = (   0.0066667   0.3194671   0.0000000), wk =   0.0010667
        k(  118) = (   0.0066667   0.3271652   0.0000000), wk =   0.0010667
        k(  119) = (   0.0066667   0.3348632   0.0000000), wk =   0.0010667
        k(  120) = (   0.0066667   0.3425612   0.0000000), wk =   0.0010667
        k(  121) = (   0.0066667   0.3502592   0.0000000), wk =   0.0010667
        k(  122) = (   0.0066667   0.3579572   0.0000000), wk =   0.0010667
        k(  123) = (   0.0066667   0.3656552   0.0000000), wk =   0.0010667
        k(  124) = (   0.0066667   0.3733532   0.0000000), wk =   0.0010667
        k(  125) = (   0.0066667   0.3810512   0.0000000), wk =   0.0010667
        k(  126) = (   0.0066667   0.3887492   0.0000000), wk =   0.0010667
        k(  127) = (   0.0066667   0.3964472   0.0000000), wk =   0.0010667
        k(  128) = (   0.0066667   0.4041452   0.0000000), wk =   0.0010667
        k(  129) = (   0.0066667   0.4118432   0.0000000), wk =   0.0010667
        k(  130) = (   0.0066667   0.4195412   0.0000000), wk =   0.0010667
        k(  131) = (   0.0066667   0.4272392   0.0000000), wk =   0.0010667
        k(  132) = (   0.0066667   0.4349372   0.0000000), wk =   0.0010667
        k(  133) = (   0.0066667   0.4426352   0.0000000), wk =   0.0010667
        k(  134) = (   0.0066667   0.4503332   0.0000000), wk =   0.0010667
        k(  135) = (   0.0066667   0.4580312   0.0000000), wk =   0.0010667
        k(  136) = (   0.0066667   0.4657292   0.0000000), wk =   0.0010667
        k(  137) = (   0.0066667   0.4734272   0.0000000), wk =   0.0010667
        k(  138) = (   0.0066667   0.4811252   0.0000000), wk =   0.0010667
        k(  139) = (   0.0066667   0.4888232   0.0000000), wk =   0.0010667
        k(  140) = (   0.0066667   0.4965212   0.0000000), wk =   0.0010667
        k(  141) = (   0.0066667   0.5042192   0.0000000), wk =   0.0010667
        k(  142) = (   0.0066667   0.5119172   0.0000000), wk =   0.0010667
        k(  143) = (   0.0066667   0.5196152   0.0000000), wk =   0.0010667
        k(  144) = (   0.0066667   0.5273132   0.0000000), wk =   0.0010667
        k(  145) = (   0.0066667   0.5350112   0.0000000), wk =   0.0010667
        k(  146) = (   0.0066667   0.5427093   0.0000000), wk =   0.0010667
        k(  147) = (   0.0066667   0.5504073   0.0000000), wk =   0.0010667
        k(  148) = (   0.0066667   0.5581053   0.0000000), wk =   0.0010667
        k(  149) = (   0.0066667   0.5658033   0.0000000), wk =   0.0010667
        k(  150) = (   0.0066667   0.5735013   0.0000000), wk =   0.0010667
        k(  151) = (   0.0133333   0.0230940   0.0000000), wk =   0.0005333
        k(  152) = (   0.0133333   0.0307920   0.0000000), wk =   0.0010667
        k(  153) = (   0.0133333   0.0384900   0.0000000), wk =   0.0010667
        k(  154) = (   0.0133333   0.0461880   0.0000000), wk =   0.0010667
        k(  155) = (   0.0133333   0.0538860   0.0000000), wk =   0.0010667
        k(  156) = (   0.0133333   0.0615840   0.0000000), wk =   0.0010667
        k(  157) = (   0.0133333   0.0692820   0.0000000), wk =   0.0010667
        k(  158) = (   0.0133333   0.0769800   0.0000000), wk =   0.0010667
        k(  159) = (   0.0133333   0.0846780   0.0000000), wk =   0.0010667
        k(  160) = (   0.0133333   0.0923760   0.0000000), wk =   0.0010667
        k(  161) = (   0.0133333   0.1000740   0.0000000), wk =   0.0010667
        k(  162) = (   0.0133333   0.1077721   0.0000000), wk =   0.0010667
        k(  163) = (   0.0133333   0.1154701   0.0000000), wk =   0.0010667
        k(  164) = (   0.0133333   0.1231681   0.0000000), wk =   0.0010667
        k(  165) = (   0.0133333   0.1308661   0.0000000), wk =   0.0010667
        k(  166) = (   0.0133333   0.1385641   0.0000000), wk =   0.0010667
        k(  167) = (   0.0133333   0.1462621   0.0000000), wk =   0.0010667
        k(  168) = (   0.0133333   0.1539601   0.0000000), wk =   0.0010667
        k(  169) = (   0.0133333   0.1616581   0.0000000), wk =   0.0010667
        k(  170) = (   0.0133333   0.1693561   0.0000000), wk =   0.0010667
        k(  171) = (   0.0133333   0.1770541   0.0000000), wk =   0.0010667
        k(  172) = (   0.0133333   0.1847521   0.0000000), wk =   0.0010667
        k(  173) = (   0.0133333   0.1924501   0.0000000), wk =   0.0010667
        k(  174) = (   0.0133333   0.2001481   0.0000000), wk =   0.0010667
        k(  175) = (   0.0133333   0.2078461   0.0000000), wk =   0.0010667
        k(  176) = (   0.0133333   0.2155441   0.0000000), wk =   0.0010667
        k(  177) = (   0.0133333   0.2232421   0.0000000), wk =   0.0010667
        k(  178) = (   0.0133333   0.2309401   0.0000000), wk =   0.0010667
        k(  179) = (   0.0133333   0.2386381   0.0000000), wk =   0.0010667
        k(  180) = (   0.0133333   0.2463361   0.0000000), wk =   0.0010667
        k(  181) = (   0.0133333   0.2540341   0.0000000), wk =   0.0010667
        k(  182) = (   0.0133333   0.2617321   0.0000000), wk =   0.0010667
        k(  183) = (   0.0133333   0.2694301   0.0000000), wk =   0.0010667
        k(  184) = (   0.0133333   0.2771281   0.0000000), wk =   0.0010667
        k(  185) = (   0.0133333   0.2848261   0.0000000), wk =   0.0010667
        k(  186) = (   0.0133333   0.2925241   0.0000000), wk =   0.0010667
        k(  187) = (   0.0133333   0.3002221   0.0000000), wk =   0.0010667
        k(  188) = (   0.0133333   0.3079201   0.0000000), wk =   0.0010667
        k(  189) = (   0.0133333   0.3156181   0.0000000), wk =   0.0010667
        k(  190) = (   0.0133333   0.3233162   0.0000000), wk =   0.0010667
        k(  191) = (   0.0133333   0.3310142   0.0000000), wk =   0.0010667
        k(  192) = (   0.0133333   0.3387122   0.0000000), wk =   0.0010667
        k(  193) = (   0.0133333   0.3464102   0.0000000), wk =   0.0010667
        k(  194) = (   0.0133333   0.3541082   0.0000000), wk =   0.0010667
        k(  195) = (   0.0133333   0.3618062   0.0000000), wk =   0.0010667
        k(  196) = (   0.0133333   0.3695042   0.0000000), wk =   0.0010667
        k(  197) = (   0.0133333   0.3772022   0.0000000), wk =   0.0010667
        k(  198) = (   0.0133333   0.3849002   0.0000000), wk =   0.0010667
        k(  199) = (   0.0133333   0.3925982   0.0000000), wk =   0.0010667
        k(  200) = (   0.0133333   0.4002962   0.0000000), wk =   0.0010667
        k(  201) = (   0.0133333   0.4079942   0.0000000), wk =   0.0010667
        k(  202) = (   0.0133333   0.4156922   0.0000000), wk =   0.0010667
        k(  203) = (   0.0133333   0.4233902   0.0000000), wk =   0.0010667
        k(  204) = (   0.0133333   0.4310882   0.0000000), wk =   0.0010667
        k(  205) = (   0.0133333   0.4387862   0.0000000), wk =   0.0010667
        k(  206) = (   0.0133333   0.4464842   0.0000000), wk =   0.0010667
        k(  207) = (   0.0133333   0.4541822   0.0000000), wk =   0.0010667
        k(  208) = (   0.0133333   0.4618802   0.0000000), wk =   0.0010667
        k(  209) = (   0.0133333   0.4695782   0.0000000), wk =   0.0010667
        k(  210) = (   0.0133333   0.4772762   0.0000000), wk =   0.0010667
        k(  211) = (   0.0133333   0.4849742   0.0000000), wk =   0.0010667
        k(  212) = (   0.0133333   0.4926722   0.0000000), wk =   0.0010667
        k(  213) = (   0.0133333   0.5003702   0.0000000), wk =   0.0010667
        k(  214) = (   0.0133333   0.5080682   0.0000000), wk =   0.0010667
        k(  215) = (   0.0133333   0.5157662   0.0000000), wk =   0.0010667
        k(  216) = (   0.0133333   0.5234642   0.0000000), wk =   0.0010667
        k(  217) = (   0.0133333   0.5311622   0.0000000), wk =   0.0010667
        k(  218) = (   0.0133333   0.5388603   0.0000000), wk =   0.0010667
        k(  219) = (   0.0133333   0.5465583   0.0000000), wk =   0.0010667
        k(  220) = (   0.0133333   0.5542563   0.0000000), wk =   0.0010667
        k(  221) = (   0.0133333   0.5619543   0.0000000), wk =   0.0010667
        k(  222) = (   0.0133333   0.5696523   0.0000000), wk =   0.0010667
        k(  223) = (   0.0133333   0.5773503   0.0000000), wk =   0.0005333
        k(  224) = (   0.0200000   0.0346410   0.0000000), wk =   0.0005333
        k(  225) = (   0.0200000   0.0423390   0.0000000), wk =   0.0010667
        k(  226) = (   0.0200000   0.0500370   0.0000000), wk =   0.0010667
        k(  227) = (   0.0200000   0.0577350   0.0000000), wk =   0.0010667
        k(  228) = (   0.0200000   0.0654330   0.0000000), wk =   0.0010667
        k(  229) = (   0.0200000   0.0731310   0.0000000), wk =   0.0010667
        k(  230) = (   0.0200000   0.0808290   0.0000000), wk =   0.0010667
        k(  231) = (   0.0200000   0.0885270   0.0000000), wk =   0.0010667
        k(  232) = (   0.0200000   0.0962250   0.0000000), wk =   0.0010667
        k(  233) = (   0.0200000   0.1039230   0.0000000), wk =   0.0010667
        k(  234) = (   0.0200000   0.1116211   0.0000000), wk =   0.0010667
        k(  235) = (   0.0200000   0.1193191   0.0000000), wk =   0.0010667
        k(  236) = (   0.0200000   0.1270171   0.0000000), wk =   0.0010667
        k(  237) = (   0.0200000   0.1347151   0.0000000), wk =   0.0010667
        k(  238) = (   0.0200000   0.1424131   0.0000000), wk =   0.0010667
        k(  239) = (   0.0200000   0.1501111   0.0000000), wk =   0.0010667
        k(  240) = (   0.0200000   0.1578091   0.0000000), wk =   0.0010667
        k(  241) = (   0.0200000   0.1655071   0.0000000), wk =   0.0010667
        k(  242) = (   0.0200000   0.1732051   0.0000000), wk =   0.0010667
        k(  243) = (   0.0200000   0.1809031   0.0000000), wk =   0.0010667
        k(  244) = (   0.0200000   0.1886011   0.0000000), wk =   0.0010667
        k(  245) = (   0.0200000   0.1962991   0.0000000), wk =   0.0010667
        k(  246) = (   0.0200000   0.2039971   0.0000000), wk =   0.0010667
        k(  247) = (   0.0200000   0.2116951   0.0000000), wk =   0.0010667
        k(  248) = (   0.0200000   0.2193931   0.0000000), wk =   0.0010667
        k(  249) = (   0.0200000   0.2270911   0.0000000), wk =   0.0010667
        k(  250) = (   0.0200000   0.2347891   0.0000000), wk =   0.0010667
        k(  251) = (   0.0200000   0.2424871   0.0000000), wk =   0.0010667
        k(  252) = (   0.0200000   0.2501851   0.0000000), wk =   0.0010667
        k(  253) = (   0.0200000   0.2578831   0.0000000), wk =   0.0010667
        k(  254) = (   0.0200000   0.2655811   0.0000000), wk =   0.0010667
        k(  255) = (   0.0200000   0.2732791   0.0000000), wk =   0.0010667
        k(  256) = (   0.0200000   0.2809771   0.0000000), wk =   0.0010667
        k(  257) = (   0.0200000   0.2886751   0.0000000), wk =   0.0010667
        k(  258) = (   0.0200000   0.2963731   0.0000000), wk =   0.0010667
        k(  259) = (   0.0200000   0.3040711   0.0000000), wk =   0.0010667
        k(  260) = (   0.0200000   0.3117691   0.0000000), wk =   0.0010667
        k(  261) = (   0.0200000   0.3194671   0.0000000), wk =   0.0010667
        k(  262) = (   0.0200000   0.3271652   0.0000000), wk =   0.0010667
        k(  263) = (   0.0200000   0.3348632   0.0000000), wk =   0.0010667
        k(  264) = (   0.0200000   0.3425612   0.0000000), wk =   0.0010667
        k(  265) = (   0.0200000   0.3502592   0.0000000), wk =   0.0010667
        k(  266) = (   0.0200000   0.3579572   0.0000000), wk =   0.0010667
        k(  267) = (   0.0200000   0.3656552   0.0000000), wk =   0.0010667
        k(  268) = (   0.0200000   0.3733532   0.0000000), wk =   0.0010667
        k(  269) = (   0.0200000   0.3810512   0.0000000), wk =   0.0010667
        k(  270) = (   0.0200000   0.3887492   0.0000000), wk =   0.0010667
        k(  271) = (   0.0200000   0.3964472   0.0000000), wk =   0.0010667
        k(  272) = (   0.0200000   0.4041452   0.0000000), wk =   0.0010667
        k(  273) = (   0.0200000   0.4118432   0.0000000), wk =   0.0010667
        k(  274) = (   0.0200000   0.4195412   0.0000000), wk =   0.0010667
        k(  275) = (   0.0200000   0.4272392   0.0000000), wk =   0.0010667
        k(  276) = (   0.0200000   0.4349372   0.0000000), wk =   0.0010667
        k(  277) = (   0.0200000   0.4426352   0.0000000), wk =   0.0010667
        k(  278) = (   0.0200000   0.4503332   0.0000000), wk =   0.0010667
        k(  279) = (   0.0200000   0.4580312   0.0000000), wk =   0.0010667
        k(  280) = (   0.0200000   0.4657292   0.0000000), wk =   0.0010667
        k(  281) = (   0.0200000   0.4734272   0.0000000), wk =   0.0010667
        k(  282) = (   0.0200000   0.4811252   0.0000000), wk =   0.0010667
        k(  283) = (   0.0200000   0.4888232   0.0000000), wk =   0.0010667
        k(  284) = (   0.0200000   0.4965212   0.0000000), wk =   0.0010667
        k(  285) = (   0.0200000   0.5042192   0.0000000), wk =   0.0010667
        k(  286) = (   0.0200000   0.5119172   0.0000000), wk =   0.0010667
        k(  287) = (   0.0200000   0.5196152   0.0000000), wk =   0.0010667
        k(  288) = (   0.0200000   0.5273132   0.0000000), wk =   0.0010667
        k(  289) = (   0.0200000   0.5350112   0.0000000), wk =   0.0010667
        k(  290) = (   0.0200000   0.5427093   0.0000000), wk =   0.0010667
        k(  291) = (   0.0200000   0.5504073   0.0000000), wk =   0.0010667
        k(  292) = (   0.0200000   0.5581053   0.0000000), wk =   0.0010667
        k(  293) = (   0.0200000   0.5658033   0.0000000), wk =   0.0010667
        k(  294) = (   0.0200000   0.5735013   0.0000000), wk =   0.0010667
        k(  295) = (   0.0266667   0.0461880   0.0000000), wk =   0.0005333
        k(  296) = (   0.0266667   0.0538860   0.0000000), wk =   0.0010667
        k(  297) = (   0.0266667   0.0615840   0.0000000), wk =   0.0010667
        k(  298) = (   0.0266667   0.0692820   0.0000000), wk =   0.0010667
        k(  299) = (   0.0266667   0.0769800   0.0000000), wk =   0.0010667
        k(  300) = (   0.0266667   0.0846780   0.0000000), wk =   0.0010667
        k(  301) = (   0.0266667   0.0923760   0.0000000), wk =   0.0010667
        k(  302) = (   0.0266667   0.1000740   0.0000000), wk =   0.0010667
        k(  303) = (   0.0266667   0.1077721   0.0000000), wk =   0.0010667
        k(  304) = (   0.0266667   0.1154701   0.0000000), wk =   0.0010667
        k(  305) = (   0.0266667   0.1231681   0.0000000), wk =   0.0010667
        k(  306) = (   0.0266667   0.1308661   0.0000000), wk =   0.0010667
        k(  307) = (   0.0266667   0.1385641   0.0000000), wk =   0.0010667
        k(  308) = (   0.0266667   0.1462621   0.0000000), wk =   0.0010667
        k(  309) = (   0.0266667   0.1539601   0.0000000), wk =   0.0010667
        k(  310) = (   0.0266667   0.1616581   0.0000000), wk =   0.0010667
        k(  311) = (   0.0266667   0.1693561   0.0000000), wk =   0.0010667
        k(  312) = (   0.0266667   0.1770541   0.0000000), wk =   0.0010667
        k(  313) = (   0.0266667   0.1847521   0.0000000), wk =   0.0010667
        k(  314) = (   0.0266667   0.1924501   0.0000000), wk =   0.0010667
        k(  315) = (   0.0266667   0.2001481   0.0000000), wk =   0.0010667
        k(  316) = (   0.0266667   0.2078461   0.0000000), wk =   0.0010667
        k(  317) = (   0.0266667   0.2155441   0.0000000), wk =   0.0010667
        k(  318) = (   0.0266667   0.2232421   0.0000000), wk =   0.0010667
        k(  319) = (   0.0266667   0.2309401   0.0000000), wk =   0.0010667
        k(  320) = (   0.0266667   0.2386381   0.0000000), wk =   0.0010667
        k(  321) = (   0.0266667   0.2463361   0.0000000), wk =   0.0010667
        k(  322) = (   0.0266667   0.2540341   0.0000000), wk =   0.0010667
        k(  323) = (   0.0266667   0.2617321   0.0000000), wk =   0.0010667
        k(  324) = (   0.0266667   0.2694301   0.0000000), wk =   0.0010667
        k(  325) = (   0.0266667   0.2771281   0.0000000), wk =   0.0010667
        k(  326) = (   0.0266667   0.2848261   0.0000000), wk =   0.0010667
        k(  327) = (   0.0266667   0.2925241   0.0000000), wk =   0.0010667
        k(  328) = (   0.0266667   0.3002221   0.0000000), wk =   0.0010667
        k(  329) = (   0.0266667   0.3079201   0.0000000), wk =   0.0010667
        k(  330) = (   0.0266667   0.3156181   0.0000000), wk =   0.0010667
        k(  331) = (   0.0266667   0.3233162   0.0000000), wk =   0.0010667
        k(  332) = (   0.0266667   0.3310142   0.0000000), wk =   0.0010667
        k(  333) = (   0.0266667   0.3387122   0.0000000), wk =   0.0010667
        k(  334) = (   0.0266667   0.3464102   0.0000000), wk =   0.0010667
        k(  335) = (   0.0266667   0.3541082   0.0000000), wk =   0.0010667
        k(  336) = (   0.0266667   0.3618062   0.0000000), wk =   0.0010667
        k(  337) = (   0.0266667   0.3695042   0.0000000), wk =   0.0010667
        k(  338) = (   0.0266667   0.3772022   0.0000000), wk =   0.0010667
        k(  339) = (   0.0266667   0.3849002   0.0000000), wk =   0.0010667
        k(  340) = (   0.0266667   0.3925982   0.0000000), wk =   0.0010667
        k(  341) = (   0.0266667   0.4002962   0.0000000), wk =   0.0010667
        k(  342) = (   0.0266667   0.4079942   0.0000000), wk =   0.0010667
        k(  343) = (   0.0266667   0.4156922   0.0000000), wk =   0.0010667
        k(  344) = (   0.0266667   0.4233902   0.0000000), wk =   0.0010667
        k(  345) = (   0.0266667   0.4310882   0.0000000), wk =   0.0010667
        k(  346) = (   0.0266667   0.4387862   0.0000000), wk =   0.0010667
        k(  347) = (   0.0266667   0.4464842   0.0000000), wk =   0.0010667
        k(  348) = (   0.0266667   0.4541822   0.0000000), wk =   0.0010667
        k(  349) = (   0.0266667   0.4618802   0.0000000), wk =   0.0010667
        k(  350) = (   0.0266667   0.4695782   0.0000000), wk =   0.0010667
        k(  351) = (   0.0266667   0.4772762   0.0000000), wk =   0.0010667
        k(  352) = (   0.0266667   0.4849742   0.0000000), wk =   0.0010667
        k(  353) = (   0.0266667   0.4926722   0.0000000), wk =   0.0010667
        k(  354) = (   0.0266667   0.5003702   0.0000000), wk =   0.0010667
        k(  355) = (   0.0266667   0.5080682   0.0000000), wk =   0.0010667
        k(  356) = (   0.0266667   0.5157662   0.0000000), wk =   0.0010667
        k(  357) = (   0.0266667   0.5234642   0.0000000), wk =   0.0010667
        k(  358) = (   0.0266667   0.5311622   0.0000000), wk =   0.0010667
        k(  359) = (   0.0266667   0.5388603   0.0000000), wk =   0.0010667
        k(  360) = (   0.0266667   0.5465583   0.0000000), wk =   0.0010667
        k(  361) = (   0.0266667   0.5542563   0.0000000), wk =   0.0010667
        k(  362) = (   0.0266667   0.5619543   0.0000000), wk =   0.0010667
        k(  363) = (   0.0266667   0.5696523   0.0000000), wk =   0.0010667
        k(  364) = (   0.0266667   0.5773503   0.0000000), wk =   0.0005333
        k(  365) = (   0.0333333   0.0577350   0.0000000), wk =   0.0005333
        k(  366) = (   0.0333333   0.0654330   0.0000000), wk =   0.0010667
        k(  367) = (   0.0333333   0.0731310   0.0000000), wk =   0.0010667
        k(  368) = (   0.0333333   0.0808290   0.0000000), wk =   0.0010667
        k(  369) = (   0.0333333   0.0885270   0.0000000), wk =   0.0010667
        k(  370) = (   0.0333333   0.0962250   0.0000000), wk =   0.0010667
        k(  371) = (   0.0333333   0.1039230   0.0000000), wk =   0.0010667
        k(  372) = (   0.0333333   0.1116211   0.0000000), wk =   0.0010667
        k(  373) = (   0.0333333   0.1193191   0.0000000), wk =   0.0010667
        k(  374) = (   0.0333333   0.1270171   0.0000000), wk =   0.0010667
        k(  375) = (   0.0333333   0.1347151   0.0000000), wk =   0.0010667
        k(  376) = (   0.0333333   0.1424131   0.0000000), wk =   0.0010667
        k(  377) = (   0.0333333   0.1501111   0.0000000), wk =   0.0010667
        k(  378) = (   0.0333333   0.1578091   0.0000000), wk =   0.0010667
        k(  379) = (   0.0333333   0.1655071   0.0000000), wk =   0.0010667
        k(  380) = (   0.0333333   0.1732051   0.0000000), wk =   0.0010667
        k(  381) = (   0.0333333   0.1809031   0.0000000), wk =   0.0010667
        k(  382) = (   0.0333333   0.1886011   0.0000000), wk =   0.0010667
        k(  383) = (   0.0333333   0.1962991   0.0000000), wk =   0.0010667
        k(  384) = (   0.0333333   0.2039971   0.0000000), wk =   0.0010667
        k(  385) = (   0.0333333   0.2116951   0.0000000), wk =   0.0010667
        k(  386) = (   0.0333333   0.2193931   0.0000000), wk =   0.0010667
        k(  387) = (   0.0333333   0.2270911   0.0000000), wk =   0.0010667
        k(  388) = (   0.0333333   0.2347891   0.0000000), wk =   0.0010667
        k(  389) = (   0.0333333   0.2424871   0.0000000), wk =   0.0010667
        k(  390) = (   0.0333333   0.2501851   0.0000000), wk =   0.0010667
        k(  391) = (   0.0333333   0.2578831   0.0000000), wk =   0.0010667
        k(  392) = (   0.0333333   0.2655811   0.0000000), wk =   0.0010667
        k(  393) = (   0.0333333   0.2732791   0.0000000), wk =   0.0010667
        k(  394) = (   0.0333333   0.2809771   0.0000000), wk =   0.0010667
        k(  395) = (   0.0333333   0.2886751   0.0000000), wk =   0.0010667
        k(  396) = (   0.0333333   0.2963731   0.0000000), wk =   0.0010667
        k(  397) = (   0.0333333   0.3040711   0.0000000), wk =   0.0010667
        k(  398) = (   0.0333333   0.3117691   0.0000000), wk =   0.0010667
        k(  399) = (   0.0333333   0.3194671   0.0000000), wk =   0.0010667
        k(  400) = (   0.0333333   0.3271652   0.0000000), wk =   0.0010667
        k(  401) = (   0.0333333   0.3348632   0.0000000), wk =   0.0010667
        k(  402) = (   0.0333333   0.3425612   0.0000000), wk =   0.0010667
        k(  403) = (   0.0333333   0.3502592   0.0000000), wk =   0.0010667
        k(  404) = (   0.0333333   0.3579572   0.0000000), wk =   0.0010667
        k(  405) = (   0.0333333   0.3656552   0.0000000), wk =   0.0010667
        k(  406) = (   0.0333333   0.3733532   0.0000000), wk =   0.0010667
        k(  407) = (   0.0333333   0.3810512   0.0000000), wk =   0.0010667
        k(  408) = (   0.0333333   0.3887492   0.0000000), wk =   0.0010667
        k(  409) = (   0.0333333   0.3964472   0.0000000), wk =   0.0010667
        k(  410) = (   0.0333333   0.4041452   0.0000000), wk =   0.0010667
        k(  411) = (   0.0333333   0.4118432   0.0000000), wk =   0.0010667
        k(  412) = (   0.0333333   0.4195412   0.0000000), wk =   0.0010667
        k(  413) = (   0.0333333   0.4272392   0.0000000), wk =   0.0010667
        k(  414) = (   0.0333333   0.4349372   0.0000000), wk =   0.0010667
        k(  415) = (   0.0333333   0.4426352   0.0000000), wk =   0.0010667
        k(  416) = (   0.0333333   0.4503332   0.0000000), wk =   0.0010667
        k(  417) = (   0.0333333   0.4580312   0.0000000), wk =   0.0010667
        k(  418) = (   0.0333333   0.4657292   0.0000000), wk =   0.0010667
        k(  419) = (   0.0333333   0.4734272   0.0000000), wk =   0.0010667
        k(  420) = (   0.0333333   0.4811252   0.0000000), wk =   0.0010667
        k(  421) = (   0.0333333   0.4888232   0.0000000), wk =   0.0010667
        k(  422) = (   0.0333333   0.4965212   0.0000000), wk =   0.0010667
        k(  423) = (   0.0333333   0.5042192   0.0000000), wk =   0.0010667
        k(  424) = (   0.0333333   0.5119172   0.0000000), wk =   0.0010667
        k(  425) = (   0.0333333   0.5196152   0.0000000), wk =   0.0010667
        k(  426) = (   0.0333333   0.5273132   0.0000000), wk =   0.0010667
        k(  427) = (   0.0333333   0.5350112   0.0000000), wk =   0.0010667
        k(  428) = (   0.0333333   0.5427093   0.0000000), wk =   0.0010667
        k(  429) = (   0.0333333   0.5504073   0.0000000), wk =   0.0010667
        k(  430) = (   0.0333333   0.5581053   0.0000000), wk =   0.0010667
        k(  431) = (   0.0333333   0.5658033   0.0000000), wk =   0.0010667
        k(  432) = (   0.0333333   0.5735013   0.0000000), wk =   0.0010667
        k(  433) = (   0.0400000   0.0692820   0.0000000), wk =   0.0005333
        k(  434) = (   0.0400000   0.0769800   0.0000000), wk =   0.0010667
        k(  435) = (   0.0400000   0.0846780   0.0000000), wk =   0.0010667
        k(  436) = (   0.0400000   0.0923760   0.0000000), wk =   0.0010667
        k(  437) = (   0.0400000   0.1000740   0.0000000), wk =   0.0010667
        k(  438) = (   0.0400000   0.1077721   0.0000000), wk =   0.0010667
        k(  439) = (   0.0400000   0.1154701   0.0000000), wk =   0.0010667
        k(  440) = (   0.0400000   0.1231681   0.0000000), wk =   0.0010667
        k(  441) = (   0.0400000   0.1308661   0.0000000), wk =   0.0010667
        k(  442) = (   0.0400000   0.1385641   0.0000000), wk =   0.0010667
        k(  443) = (   0.0400000   0.1462621   0.0000000), wk =   0.0010667
        k(  444) = (   0.0400000   0.1539601   0.0000000), wk =   0.0010667
        k(  445) = (   0.0400000   0.1616581   0.0000000), wk =   0.0010667
        k(  446) = (   0.0400000   0.1693561   0.0000000), wk =   0.0010667
        k(  447) = (   0.0400000   0.1770541   0.0000000), wk =   0.0010667
        k(  448) = (   0.0400000   0.1847521   0.0000000), wk =   0.0010667
        k(  449) = (   0.0400000   0.1924501   0.0000000), wk =   0.0010667
        k(  450) = (   0.0400000   0.2001481   0.0000000), wk =   0.0010667
        k(  451) = (   0.0400000   0.2078461   0.0000000), wk =   0.0010667
        k(  452) = (   0.0400000   0.2155441   0.0000000), wk =   0.0010667
        k(  453) = (   0.0400000   0.2232421   0.0000000), wk =   0.0010667
        k(  454) = (   0.0400000   0.2309401   0.0000000), wk =   0.0010667
        k(  455) = (   0.0400000   0.2386381   0.0000000), wk =   0.0010667
        k(  456) = (   0.0400000   0.2463361   0.0000000), wk =   0.0010667
        k(  457) = (   0.0400000   0.2540341   0.0000000), wk =   0.0010667
        k(  458) = (   0.0400000   0.2617321   0.0000000), wk =   0.0010667
        k(  459) = (   0.0400000   0.2694301   0.0000000), wk =   0.0010667
        k(  460) = (   0.0400000   0.2771281   0.0000000), wk =   0.0010667
        k(  461) = (   0.0400000   0.2848261   0.0000000), wk =   0.0010667
        k(  462) = (   0.0400000   0.2925241   0.0000000), wk =   0.0010667
        k(  463) = (   0.0400000   0.3002221   0.0000000), wk =   0.0010667
        k(  464) = (   0.0400000   0.3079201   0.0000000), wk =   0.0010667
        k(  465) = (   0.0400000   0.3156181   0.0000000), wk =   0.0010667
        k(  466) = (   0.0400000   0.3233162   0.0000000), wk =   0.0010667
        k(  467) = (   0.0400000   0.3310142   0.0000000), wk =   0.0010667
        k(  468) = (   0.0400000   0.3387122   0.0000000), wk =   0.0010667
        k(  469) = (   0.0400000   0.3464102   0.0000000), wk =   0.0010667
        k(  470) = (   0.0400000   0.3541082   0.0000000), wk =   0.0010667
        k(  471) = (   0.0400000   0.3618062   0.0000000), wk =   0.0010667
        k(  472) = (   0.0400000   0.3695042   0.0000000), wk =   0.0010667
        k(  473) = (   0.0400000   0.3772022   0.0000000), wk =   0.0010667
        k(  474) = (   0.0400000   0.3849002   0.0000000), wk =   0.0010667
        k(  475) = (   0.0400000   0.3925982   0.0000000), wk =   0.0010667
        k(  476) = (   0.0400000   0.4002962   0.0000000), wk =   0.0010667
        k(  477) = (   0.0400000   0.4079942   0.0000000), wk =   0.0010667
        k(  478) = (   0.0400000   0.4156922   0.0000000), wk =   0.0010667
        k(  479) = (   0.0400000   0.4233902   0.0000000), wk =   0.0010667
        k(  480) = (   0.0400000   0.4310882   0.0000000), wk =   0.0010667
        k(  481) = (   0.0400000   0.4387862   0.0000000), wk =   0.0010667
        k(  482) = (   0.0400000   0.4464842   0.0000000), wk =   0.0010667
        k(  483) = (   0.0400000   0.4541822   0.0000000), wk =   0.0010667
        k(  484) = (   0.0400000   0.4618802   0.0000000), wk =   0.0010667
        k(  485) = (   0.0400000   0.4695782   0.0000000), wk =   0.0010667
        k(  486) = (   0.0400000   0.4772762   0.0000000), wk =   0.0010667
        k(  487) = (   0.0400000   0.4849742   0.0000000), wk =   0.0010667
        k(  488) = (   0.0400000   0.4926722   0.0000000), wk =   0.0010667
        k(  489) = (   0.0400000   0.5003702   0.0000000), wk =   0.0010667
        k(  490) = (   0.0400000   0.5080682   0.0000000), wk =   0.0010667
        k(  491) = (   0.0400000   0.5157662   0.0000000), wk =   0.0010667
        k(  492) = (   0.0400000   0.5234642   0.0000000), wk =   0.0010667
        k(  493) = (   0.0400000   0.5311622   0.0000000), wk =   0.0010667
        k(  494) = (   0.0400000   0.5388603   0.0000000), wk =   0.0010667
        k(  495) = (   0.0400000   0.5465583   0.0000000), wk =   0.0010667
        k(  496) = (   0.0400000   0.5542563   0.0000000), wk =   0.0010667
        k(  497) = (   0.0400000   0.5619543   0.0000000), wk =   0.0010667
        k(  498) = (   0.0400000   0.5696523   0.0000000), wk =   0.0010667
        k(  499) = (   0.0400000   0.5773503   0.0000000), wk =   0.0005333
        k(  500) = (   0.0466667   0.0808290   0.0000000), wk =   0.0005333
        k(  501) = (   0.0466667   0.0885270   0.0000000), wk =   0.0010667
        k(  502) = (   0.0466667   0.0962250   0.0000000), wk =   0.0010667
        k(  503) = (   0.0466667   0.1039230   0.0000000), wk =   0.0010667
        k(  504) = (   0.0466667   0.1116211   0.0000000), wk =   0.0010667
        k(  505) = (   0.0466667   0.1193191   0.0000000), wk =   0.0010667
        k(  506) = (   0.0466667   0.1270171   0.0000000), wk =   0.0010667
        k(  507) = (   0.0466667   0.1347151   0.0000000), wk =   0.0010667
        k(  508) = (   0.0466667   0.1424131   0.0000000), wk =   0.0010667
        k(  509) = (   0.0466667   0.1501111   0.0000000), wk =   0.0010667
        k(  510) = (   0.0466667   0.1578091   0.0000000), wk =   0.0010667
        k(  511) = (   0.0466667   0.1655071   0.0000000), wk =   0.0010667
        k(  512) = (   0.0466667   0.1732051   0.0000000), wk =   0.0010667
        k(  513) = (   0.0466667   0.1809031   0.0000000), wk =   0.0010667
        k(  514) = (   0.0466667   0.1886011   0.0000000), wk =   0.0010667
        k(  515) = (   0.0466667   0.1962991   0.0000000), wk =   0.0010667
        k(  516) = (   0.0466667   0.2039971   0.0000000), wk =   0.0010667
        k(  517) = (   0.0466667   0.2116951   0.0000000), wk =   0.0010667
        k(  518) = (   0.0466667   0.2193931   0.0000000), wk =   0.0010667
        k(  519) = (   0.0466667   0.2270911   0.0000000), wk =   0.0010667
        k(  520) = (   0.0466667   0.2347891   0.0000000), wk =   0.0010667
        k(  521) = (   0.0466667   0.2424871   0.0000000), wk =   0.0010667
        k(  522) = (   0.0466667   0.2501851   0.0000000), wk =   0.0010667
        k(  523) = (   0.0466667   0.2578831   0.0000000), wk =   0.0010667
        k(  524) = (   0.0466667   0.2655811   0.0000000), wk =   0.0010667
        k(  525) = (   0.0466667   0.2732791   0.0000000), wk =   0.0010667
        k(  526) = (   0.0466667   0.2809771   0.0000000), wk =   0.0010667
        k(  527) = (   0.0466667   0.2886751   0.0000000), wk =   0.0010667
        k(  528) = (   0.0466667   0.2963731   0.0000000), wk =   0.0010667
        k(  529) = (   0.0466667   0.3040711   0.0000000), wk =   0.0010667
        k(  530) = (   0.0466667   0.3117691   0.0000000), wk =   0.0010667
        k(  531) = (   0.0466667   0.3194671   0.0000000), wk =   0.0010667
        k(  532) = (   0.0466667   0.3271652   0.0000000), wk =   0.0010667
        k(  533) = (   0.0466667   0.3348632   0.0000000), wk =   0.0010667
        k(  534) = (   0.0466667   0.3425612   0.0000000), wk =   0.0010667
        k(  535) = (   0.0466667   0.3502592   0.0000000), wk =   0.0010667
        k(  536) = (   0.0466667   0.3579572   0.0000000), wk =   0.0010667
        k(  537) = (   0.0466667   0.3656552   0.0000000), wk =   0.0010667
        k(  538) = (   0.0466667   0.3733532   0.0000000), wk =   0.0010667
        k(  539) = (   0.0466667   0.3810512   0.0000000), wk =   0.0010667
        k(  540) = (   0.0466667   0.3887492   0.0000000), wk =   0.0010667
        k(  541) = (   0.0466667   0.3964472   0.0000000), wk =   0.0010667
        k(  542) = (   0.0466667   0.4041452   0.0000000), wk =   0.0010667
        k(  543) = (   0.0466667   0.4118432   0.0000000), wk =   0.0010667
        k(  544) = (   0.0466667   0.4195412   0.0000000), wk =   0.0010667
        k(  545) = (   0.0466667   0.4272392   0.0000000), wk =   0.0010667
        k(  546) = (   0.0466667   0.4349372   0.0000000), wk =   0.0010667
        k(  547) = (   0.0466667   0.4426352   0.0000000), wk =   0.0010667
        k(  548) = (   0.0466667   0.4503332   0.0000000), wk =   0.0010667
        k(  549) = (   0.0466667   0.4580312   0.0000000), wk =   0.0010667
        k(  550) = (   0.0466667   0.4657292   0.0000000), wk =   0.0010667
        k(  551) = (   0.0466667   0.4734272   0.0000000), wk =   0.0010667
        k(  552) = (   0.0466667   0.4811252   0.0000000), wk =   0.0010667
        k(  553) = (   0.0466667   0.4888232   0.0000000), wk =   0.0010667
        k(  554) = (   0.0466667   0.4965212   0.0000000), wk =   0.0010667
        k(  555) = (   0.0466667   0.5042192   0.0000000), wk =   0.0010667
        k(  556) = (   0.0466667   0.5119172   0.0000000), wk =   0.0010667
        k(  557) = (   0.0466667   0.5196152   0.0000000), wk =   0.0010667
        k(  558) = (   0.0466667   0.5273132   0.0000000), wk =   0.0010667
        k(  559) = (   0.0466667   0.5350112   0.0000000), wk =   0.0010667
        k(  560) = (   0.0466667   0.5427093   0.0000000), wk =   0.0010667
        k(  561) = (   0.0466667   0.5504073   0.0000000), wk =   0.0010667
        k(  562) = (   0.0466667   0.5581053   0.0000000), wk =   0.0010667
        k(  563) = (   0.0466667   0.5658033   0.0000000), wk =   0.0010667
        k(  564) = (   0.0466667   0.5735013   0.0000000), wk =   0.0010667
        k(  565) = (   0.0533333   0.0923760   0.0000000), wk =   0.0005333
        k(  566) = (   0.0533333   0.1000740   0.0000000), wk =   0.0010667
        k(  567) = (   0.0533333   0.1077721   0.0000000), wk =   0.0010667
        k(  568) = (   0.0533333   0.1154701   0.0000000), wk =   0.0010667
        k(  569) = (   0.0533333   0.1231681   0.0000000), wk =   0.0010667
        k(  570) = (   0.0533333   0.1308661   0.0000000), wk =   0.0010667
        k(  571) = (   0.0533333   0.1385641   0.0000000), wk =   0.0010667
        k(  572) = (   0.0533333   0.1462621   0.0000000), wk =   0.0010667
        k(  573) = (   0.0533333   0.1539601   0.0000000), wk =   0.0010667
        k(  574) = (   0.0533333   0.1616581   0.0000000), wk =   0.0010667
        k(  575) = (   0.0533333   0.1693561   0.0000000), wk =   0.0010667
        k(  576) = (   0.0533333   0.1770541   0.0000000), wk =   0.0010667
        k(  577) = (   0.0533333   0.1847521   0.0000000), wk =   0.0010667
        k(  578) = (   0.0533333   0.1924501   0.0000000), wk =   0.0010667
        k(  579) = (   0.0533333   0.2001481   0.0000000), wk =   0.0010667
        k(  580) = (   0.0533333   0.2078461   0.0000000), wk =   0.0010667
        k(  581) = (   0.0533333   0.2155441   0.0000000), wk =   0.0010667
        k(  582) = (   0.0533333   0.2232421   0.0000000), wk =   0.0010667
        k(  583) = (   0.0533333   0.2309401   0.0000000), wk =   0.0010667
        k(  584) = (   0.0533333   0.2386381   0.0000000), wk =   0.0010667
        k(  585) = (   0.0533333   0.2463361   0.0000000), wk =   0.0010667
        k(  586) = (   0.0533333   0.2540341   0.0000000), wk =   0.0010667
        k(  587) = (   0.0533333   0.2617321   0.0000000), wk =   0.0010667
        k(  588) = (   0.0533333   0.2694301   0.0000000), wk =   0.0010667
        k(  589) = (   0.0533333   0.2771281   0.0000000), wk =   0.0010667
        k(  590) = (   0.0533333   0.2848261   0.0000000), wk =   0.0010667
        k(  591) = (   0.0533333   0.2925241   0.0000000), wk =   0.0010667
        k(  592) = (   0.0533333   0.3002221   0.0000000), wk =   0.0010667
        k(  593) = (   0.0533333   0.3079201   0.0000000), wk =   0.0010667
        k(  594) = (   0.0533333   0.3156181   0.0000000), wk =   0.0010667
        k(  595) = (   0.0533333   0.3233162   0.0000000), wk =   0.0010667
        k(  596) = (   0.0533333   0.3310142   0.0000000), wk =   0.0010667
        k(  597) = (   0.0533333   0.3387122   0.0000000), wk =   0.0010667
        k(  598) = (   0.0533333   0.3464102   0.0000000), wk =   0.0010667
        k(  599) = (   0.0533333   0.3541082   0.0000000), wk =   0.0010667
        k(  600) = (   0.0533333   0.3618062   0.0000000), wk =   0.0010667
        k(  601) = (   0.0533333   0.3695042   0.0000000), wk =   0.0010667
        k(  602) = (   0.0533333   0.3772022   0.0000000), wk =   0.0010667
        k(  603) = (   0.0533333   0.3849002   0.0000000), wk =   0.0010667
        k(  604) = (   0.0533333   0.3925982   0.0000000), wk =   0.0010667
        k(  605) = (   0.0533333   0.4002962   0.0000000), wk =   0.0010667
        k(  606) = (   0.0533333   0.4079942   0.0000000), wk =   0.0010667
        k(  607) = (   0.0533333   0.4156922   0.0000000), wk =   0.0010667
        k(  608) = (   0.0533333   0.4233902   0.0000000), wk =   0.0010667
        k(  609) = (   0.0533333   0.4310882   0.0000000), wk =   0.0010667
        k(  610) = (   0.0533333   0.4387862   0.0000000), wk =   0.0010667
        k(  611) = (   0.0533333   0.4464842   0.0000000), wk =   0.0010667
        k(  612) = (   0.0533333   0.4541822   0.0000000), wk =   0.0010667
        k(  613) = (   0.0533333   0.4618802   0.0000000), wk =   0.0010667
        k(  614) = (   0.0533333   0.4695782   0.0000000), wk =   0.0010667
        k(  615) = (   0.0533333   0.4772762   0.0000000), wk =   0.0010667
        k(  616) = (   0.0533333   0.4849742   0.0000000), wk =   0.0010667
        k(  617) = (   0.0533333   0.4926722   0.0000000), wk =   0.0010667
        k(  618) = (   0.0533333   0.5003702   0.0000000), wk =   0.0010667
        k(  619) = (   0.0533333   0.5080682   0.0000000), wk =   0.0010667
        k(  620) = (   0.0533333   0.5157662   0.0000000), wk =   0.0010667
        k(  621) = (   0.0533333   0.5234642   0.0000000), wk =   0.0010667
        k(  622) = (   0.0533333   0.5311622   0.0000000), wk =   0.0010667
        k(  623) = (   0.0533333   0.5388603   0.0000000), wk =   0.0010667
        k(  624) = (   0.0533333   0.5465583   0.0000000), wk =   0.0010667
        k(  625) = (   0.0533333   0.5542563   0.0000000), wk =   0.0010667
        k(  626) = (   0.0533333   0.5619543   0.0000000), wk =   0.0010667
        k(  627) = (   0.0533333   0.5696523   0.0000000), wk =   0.0010667
        k(  628) = (   0.0533333   0.5773503   0.0000000), wk =   0.0005333
        k(  629) = (   0.0600000   0.1039230   0.0000000), wk =   0.0005333
        k(  630) = (   0.0600000   0.1116211   0.0000000), wk =   0.0010667
        k(  631) = (   0.0600000   0.1193191   0.0000000), wk =   0.0010667
        k(  632) = (   0.0600000   0.1270171   0.0000000), wk =   0.0010667
        k(  633) = (   0.0600000   0.1347151   0.0000000), wk =   0.0010667
        k(  634) = (   0.0600000   0.1424131   0.0000000), wk =   0.0010667
        k(  635) = (   0.0600000   0.1501111   0.0000000), wk =   0.0010667
        k(  636) = (   0.0600000   0.1578091   0.0000000), wk =   0.0010667
        k(  637) = (   0.0600000   0.1655071   0.0000000), wk =   0.0010667
        k(  638) = (   0.0600000   0.1732051   0.0000000), wk =   0.0010667
        k(  639) = (   0.0600000   0.1809031   0.0000000), wk =   0.0010667
        k(  640) = (   0.0600000   0.1886011   0.0000000), wk =   0.0010667
        k(  641) = (   0.0600000   0.1962991   0.0000000), wk =   0.0010667
        k(  642) = (   0.0600000   0.2039971   0.0000000), wk =   0.0010667
        k(  643) = (   0.0600000   0.2116951   0.0000000), wk =   0.0010667
        k(  644) = (   0.0600000   0.2193931   0.0000000), wk =   0.0010667
        k(  645) = (   0.0600000   0.2270911   0.0000000), wk =   0.0010667
        k(  646) = (   0.0600000   0.2347891   0.0000000), wk =   0.0010667
        k(  647) = (   0.0600000   0.2424871   0.0000000), wk =   0.0010667
        k(  648) = (   0.0600000   0.2501851   0.0000000), wk =   0.0010667
        k(  649) = (   0.0600000   0.2578831   0.0000000), wk =   0.0010667
        k(  650) = (   0.0600000   0.2655811   0.0000000), wk =   0.0010667
        k(  651) = (   0.0600000   0.2732791   0.0000000), wk =   0.0010667
        k(  652) = (   0.0600000   0.2809771   0.0000000), wk =   0.0010667
        k(  653) = (   0.0600000   0.2886751   0.0000000), wk =   0.0010667
        k(  654) = (   0.0600000   0.2963731   0.0000000), wk =   0.0010667
        k(  655) = (   0.0600000   0.3040711   0.0000000), wk =   0.0010667
        k(  656) = (   0.0600000   0.3117691   0.0000000), wk =   0.0010667
        k(  657) = (   0.0600000   0.3194671   0.0000000), wk =   0.0010667
        k(  658) = (   0.0600000   0.3271652   0.0000000), wk =   0.0010667
        k(  659) = (   0.0600000   0.3348632   0.0000000), wk =   0.0010667
        k(  660) = (   0.0600000   0.3425612   0.0000000), wk =   0.0010667
        k(  661) = (   0.0600000   0.3502592   0.0000000), wk =   0.0010667
        k(  662) = (   0.0600000   0.3579572   0.0000000), wk =   0.0010667
        k(  663) = (   0.0600000   0.3656552   0.0000000), wk =   0.0010667
        k(  664) = (   0.0600000   0.3733532   0.0000000), wk =   0.0010667
        k(  665) = (   0.0600000   0.3810512   0.0000000), wk =   0.0010667
        k(  666) = (   0.0600000   0.3887492   0.0000000), wk =   0.0010667
        k(  667) = (   0.0600000   0.3964472   0.0000000), wk =   0.0010667
        k(  668) = (   0.0600000   0.4041452   0.0000000), wk =   0.0010667
        k(  669) = (   0.0600000   0.4118432   0.0000000), wk =   0.0010667
        k(  670) = (   0.0600000   0.4195412   0.0000000), wk =   0.0010667
        k(  671) = (   0.0600000   0.4272392   0.0000000), wk =   0.0010667
        k(  672) = (   0.0600000   0.4349372   0.0000000), wk =   0.0010667
        k(  673) = (   0.0600000   0.4426352   0.0000000), wk =   0.0010667
        k(  674) = (   0.0600000   0.4503332   0.0000000), wk =   0.0010667
        k(  675) = (   0.0600000   0.4580312   0.0000000), wk =   0.0010667
        k(  676) = (   0.0600000   0.4657292   0.0000000), wk =   0.0010667
        k(  677) = (   0.0600000   0.4734272   0.0000000), wk =   0.0010667
        k(  678) = (   0.0600000   0.4811252   0.0000000), wk =   0.0010667
        k(  679) = (   0.0600000   0.4888232   0.0000000), wk =   0.0010667
        k(  680) = (   0.0600000   0.4965212   0.0000000), wk =   0.0010667
        k(  681) = (   0.0600000   0.5042192   0.0000000), wk =   0.0010667
        k(  682) = (   0.0600000   0.5119172   0.0000000), wk =   0.0010667
        k(  683) = (   0.0600000   0.5196152   0.0000000), wk =   0.0010667
        k(  684) = (   0.0600000   0.5273132   0.0000000), wk =   0.0010667
        k(  685) = (   0.0600000   0.5350112   0.0000000), wk =   0.0010667
        k(  686) = (   0.0600000   0.5427093   0.0000000), wk =   0.0010667
        k(  687) = (   0.0600000   0.5504073   0.0000000), wk =   0.0010667
        k(  688) = (   0.0600000   0.5581053   0.0000000), wk =   0.0010667
        k(  689) = (   0.0600000   0.5658033   0.0000000), wk =   0.0010667
        k(  690) = (   0.0600000   0.5735013   0.0000000), wk =   0.0010667
        k(  691) = (   0.0666667   0.1154701   0.0000000), wk =   0.0005333
        k(  692) = (   0.0666667   0.1231681   0.0000000), wk =   0.0010667
        k(  693) = (   0.0666667   0.1308661   0.0000000), wk =   0.0010667
        k(  694) = (   0.0666667   0.1385641   0.0000000), wk =   0.0010667
        k(  695) = (   0.0666667   0.1462621   0.0000000), wk =   0.0010667
        k(  696) = (   0.0666667   0.1539601   0.0000000), wk =   0.0010667
        k(  697) = (   0.0666667   0.1616581   0.0000000), wk =   0.0010667
        k(  698) = (   0.0666667   0.1693561   0.0000000), wk =   0.0010667
        k(  699) = (   0.0666667   0.1770541   0.0000000), wk =   0.0010667
        k(  700) = (   0.0666667   0.1847521   0.0000000), wk =   0.0010667
        k(  701) = (   0.0666667   0.1924501   0.0000000), wk =   0.0010667
        k(  702) = (   0.0666667   0.2001481   0.0000000), wk =   0.0010667
        k(  703) = (   0.0666667   0.2078461   0.0000000), wk =   0.0010667
        k(  704) = (   0.0666667   0.2155441   0.0000000), wk =   0.0010667
        k(  705) = (   0.0666667   0.2232421   0.0000000), wk =   0.0010667
        k(  706) = (   0.0666667   0.2309401   0.0000000), wk =   0.0010667
        k(  707) = (   0.0666667   0.2386381   0.0000000), wk =   0.0010667
        k(  708) = (   0.0666667   0.2463361   0.0000000), wk =   0.0010667
        k(  709) = (   0.0666667   0.2540341   0.0000000), wk =   0.0010667
        k(  710) = (   0.0666667   0.2617321   0.0000000), wk =   0.0010667
        k(  711) = (   0.0666667   0.2694301   0.0000000), wk =   0.0010667
        k(  712) = (   0.0666667   0.2771281   0.0000000), wk =   0.0010667
        k(  713) = (   0.0666667   0.2848261   0.0000000), wk =   0.0010667
        k(  714) = (   0.0666667   0.2925241   0.0000000), wk =   0.0010667
        k(  715) = (   0.0666667   0.3002221   0.0000000), wk =   0.0010667
        k(  716) = (   0.0666667   0.3079201   0.0000000), wk =   0.0010667
        k(  717) = (   0.0666667   0.3156181   0.0000000), wk =   0.0010667
        k(  718) = (   0.0666667   0.3233162   0.0000000), wk =   0.0010667
        k(  719) = (   0.0666667   0.3310142   0.0000000), wk =   0.0010667
        k(  720) = (   0.0666667   0.3387122   0.0000000), wk =   0.0010667
        k(  721) = (   0.0666667   0.3464102   0.0000000), wk =   0.0010667
        k(  722) = (   0.0666667   0.3541082   0.0000000), wk =   0.0010667
        k(  723) = (   0.0666667   0.3618062   0.0000000), wk =   0.0010667
        k(  724) = (   0.0666667   0.3695042   0.0000000), wk =   0.0010667
        k(  725) = (   0.0666667   0.3772022   0.0000000), wk =   0.0010667
        k(  726) = (   0.0666667   0.3849002   0.0000000), wk =   0.0010667
        k(  727) = (   0.0666667   0.3925982   0.0000000), wk =   0.0010667
        k(  728) = (   0.0666667   0.4002962   0.0000000), wk =   0.0010667
        k(  729) = (   0.0666667   0.4079942   0.0000000), wk =   0.0010667
        k(  730) = (   0.0666667   0.4156922   0.0000000), wk =   0.0010667
        k(  731) = (   0.0666667   0.4233902   0.0000000), wk =   0.0010667
        k(  732) = (   0.0666667   0.4310882   0.0000000), wk =   0.0010667
        k(  733) = (   0.0666667   0.4387862   0.0000000), wk =   0.0010667
        k(  734) = (   0.0666667   0.4464842   0.0000000), wk =   0.0010667
        k(  735) = (   0.0666667   0.4541822   0.0000000), wk =   0.0010667
        k(  736) = (   0.0666667   0.4618802   0.0000000), wk =   0.0010667
        k(  737) = (   0.0666667   0.4695782   0.0000000), wk =   0.0010667
        k(  738) = (   0.0666667   0.4772762   0.0000000), wk =   0.0010667
        k(  739) = (   0.0666667   0.4849742   0.0000000), wk =   0.0010667
        k(  740) = (   0.0666667   0.4926722   0.0000000), wk =   0.0010667
        k(  741) = (   0.0666667   0.5003702   0.0000000), wk =   0.0010667
        k(  742) = (   0.0666667   0.5080682   0.0000000), wk =   0.0010667
        k(  743) = (   0.0666667   0.5157662   0.0000000), wk =   0.0010667
        k(  744) = (   0.0666667   0.5234642   0.0000000), wk =   0.0010667
        k(  745) = (   0.0666667   0.5311622   0.0000000), wk =   0.0010667
        k(  746) = (   0.0666667   0.5388603   0.0000000), wk =   0.0010667
        k(  747) = (   0.0666667   0.5465583   0.0000000), wk =   0.0010667
        k(  748) = (   0.0666667   0.5542563   0.0000000), wk =   0.0010667
        k(  749) = (   0.0666667   0.5619543   0.0000000), wk =   0.0010667
        k(  750) = (   0.0666667   0.5696523   0.0000000), wk =   0.0010667
        k(  751) = (   0.0666667   0.5773503   0.0000000), wk =   0.0005333
        k(  752) = (   0.0733333   0.1270171   0.0000000), wk =   0.0005333
        k(  753) = (   0.0733333   0.1347151   0.0000000), wk =   0.0010667
        k(  754) = (   0.0733333   0.1424131   0.0000000), wk =   0.0010667
        k(  755) = (   0.0733333   0.1501111   0.0000000), wk =   0.0010667
        k(  756) = (   0.0733333   0.1578091   0.0000000), wk =   0.0010667
        k(  757) = (   0.0733333   0.1655071   0.0000000), wk =   0.0010667
        k(  758) = (   0.0733333   0.1732051   0.0000000), wk =   0.0010667
        k(  759) = (   0.0733333   0.1809031   0.0000000), wk =   0.0010667
        k(  760) = (   0.0733333   0.1886011   0.0000000), wk =   0.0010667
        k(  761) = (   0.0733333   0.1962991   0.0000000), wk =   0.0010667
        k(  762) = (   0.0733333   0.2039971   0.0000000), wk =   0.0010667
        k(  763) = (   0.0733333   0.2116951   0.0000000), wk =   0.0010667
        k(  764) = (   0.0733333   0.2193931   0.0000000), wk =   0.0010667
        k(  765) = (   0.0733333   0.2270911   0.0000000), wk =   0.0010667
        k(  766) = (   0.0733333   0.2347891   0.0000000), wk =   0.0010667
        k(  767) = (   0.0733333   0.2424871   0.0000000), wk =   0.0010667
        k(  768) = (   0.0733333   0.2501851   0.0000000), wk =   0.0010667
        k(  769) = (   0.0733333   0.2578831   0.0000000), wk =   0.0010667
        k(  770) = (   0.0733333   0.2655811   0.0000000), wk =   0.0010667
        k(  771) = (   0.0733333   0.2732791   0.0000000), wk =   0.0010667
        k(  772) = (   0.0733333   0.2809771   0.0000000), wk =   0.0010667
        k(  773) = (   0.0733333   0.2886751   0.0000000), wk =   0.0010667
        k(  774) = (   0.0733333   0.2963731   0.0000000), wk =   0.0010667
        k(  775) = (   0.0733333   0.3040711   0.0000000), wk =   0.0010667
        k(  776) = (   0.0733333   0.3117691   0.0000000), wk =   0.0010667
        k(  777) = (   0.0733333   0.3194671   0.0000000), wk =   0.0010667
        k(  778) = (   0.0733333   0.3271652   0.0000000), wk =   0.0010667
        k(  779) = (   0.0733333   0.3348632   0.0000000), wk =   0.0010667
        k(  780) = (   0.0733333   0.3425612   0.0000000), wk =   0.0010667
        k(  781) = (   0.0733333   0.3502592   0.0000000), wk =   0.0010667
        k(  782) = (   0.0733333   0.3579572   0.0000000), wk =   0.0010667
        k(  783) = (   0.0733333   0.3656552   0.0000000), wk =   0.0010667
        k(  784) = (   0.0733333   0.3733532   0.0000000), wk =   0.0010667
        k(  785) = (   0.0733333   0.3810512   0.0000000), wk =   0.0010667
        k(  786) = (   0.0733333   0.3887492   0.0000000), wk =   0.0010667
        k(  787) = (   0.0733333   0.3964472   0.0000000), wk =   0.0010667
        k(  788) = (   0.0733333   0.4041452   0.0000000), wk =   0.0010667
        k(  789) = (   0.0733333   0.4118432   0.0000000), wk =   0.0010667
        k(  790) = (   0.0733333   0.4195412   0.0000000), wk =   0.0010667
        k(  791) = (   0.0733333   0.4272392   0.0000000), wk =   0.0010667
        k(  792) = (   0.0733333   0.4349372   0.0000000), wk =   0.0010667
        k(  793) = (   0.0733333   0.4426352   0.0000000), wk =   0.0010667
        k(  794) = (   0.0733333   0.4503332   0.0000000), wk =   0.0010667
        k(  795) = (   0.0733333   0.4580312   0.0000000), wk =   0.0010667
        k(  796) = (   0.0733333   0.4657292   0.0000000), wk =   0.0010667
        k(  797) = (   0.0733333   0.4734272   0.0000000), wk =   0.0010667
        k(  798) = (   0.0733333   0.4811252   0.0000000), wk =   0.0010667
        k(  799) = (   0.0733333   0.4888232   0.0000000), wk =   0.0010667
        k(  800) = (   0.0733333   0.4965212   0.0000000), wk =   0.0010667
        k(  801) = (   0.0733333   0.5042192   0.0000000), wk =   0.0010667
        k(  802) = (   0.0733333   0.5119172   0.0000000), wk =   0.0010667
        k(  803) = (   0.0733333   0.5196152   0.0000000), wk =   0.0010667
        k(  804) = (   0.0733333   0.5273132   0.0000000), wk =   0.0010667
        k(  805) = (   0.0733333   0.5350112   0.0000000), wk =   0.0010667
        k(  806) = (   0.0733333   0.5427093   0.0000000), wk =   0.0010667
        k(  807) = (   0.0733333   0.5504073   0.0000000), wk =   0.0010667
        k(  808) = (   0.0733333   0.5581053   0.0000000), wk =   0.0010667
        k(  809) = (   0.0733333   0.5658033   0.0000000), wk =   0.0010667
        k(  810) = (   0.0733333   0.5735013   0.0000000), wk =   0.0010667
        k(  811) = (   0.0800000   0.1385641   0.0000000), wk =   0.0005333
        k(  812) = (   0.0800000   0.1462621   0.0000000), wk =   0.0010667
        k(  813) = (   0.0800000   0.1539601   0.0000000), wk =   0.0010667
        k(  814) = (   0.0800000   0.1616581   0.0000000), wk =   0.0010667
        k(  815) = (   0.0800000   0.1693561   0.0000000), wk =   0.0010667
        k(  816) = (   0.0800000   0.1770541   0.0000000), wk =   0.0010667
        k(  817) = (   0.0800000   0.1847521   0.0000000), wk =   0.0010667
        k(  818) = (   0.0800000   0.1924501   0.0000000), wk =   0.0010667
        k(  819) = (   0.0800000   0.2001481   0.0000000), wk =   0.0010667
        k(  820) = (   0.0800000   0.2078461   0.0000000), wk =   0.0010667
        k(  821) = (   0.0800000   0.2155441   0.0000000), wk =   0.0010667
        k(  822) = (   0.0800000   0.2232421   0.0000000), wk =   0.0010667
        k(  823) = (   0.0800000   0.2309401   0.0000000), wk =   0.0010667
        k(  824) = (   0.0800000   0.2386381   0.0000000), wk =   0.0010667
        k(  825) = (   0.0800000   0.2463361   0.0000000), wk =   0.0010667
        k(  826) = (   0.0800000   0.2540341   0.0000000), wk =   0.0010667
        k(  827) = (   0.0800000   0.2617321   0.0000000), wk =   0.0010667
        k(  828) = (   0.0800000   0.2694301   0.0000000), wk =   0.0010667
        k(  829) = (   0.0800000   0.2771281   0.0000000), wk =   0.0010667
        k(  830) = (   0.0800000   0.2848261   0.0000000), wk =   0.0010667
        k(  831) = (   0.0800000   0.2925241   0.0000000), wk =   0.0010667
        k(  832) = (   0.0800000   0.3002221   0.0000000), wk =   0.0010667
        k(  833) = (   0.0800000   0.3079201   0.0000000), wk =   0.0010667
        k(  834) = (   0.0800000   0.3156181   0.0000000), wk =   0.0010667
        k(  835) = (   0.0800000   0.3233162   0.0000000), wk =   0.0010667
        k(  836) = (   0.0800000   0.3310142   0.0000000), wk =   0.0010667
        k(  837) = (   0.0800000   0.3387122   0.0000000), wk =   0.0010667
        k(  838) = (   0.0800000   0.3464102   0.0000000), wk =   0.0010667
        k(  839) = (   0.0800000   0.3541082   0.0000000), wk =   0.0010667
        k(  840) = (   0.0800000   0.3618062   0.0000000), wk =   0.0010667
        k(  841) = (   0.0800000   0.3695042   0.0000000), wk =   0.0010667
        k(  842) = (   0.0800000   0.3772022   0.0000000), wk =   0.0010667
        k(  843) = (   0.0800000   0.3849002   0.0000000), wk =   0.0010667
        k(  844) = (   0.0800000   0.3925982   0.0000000), wk =   0.0010667
        k(  845) = (   0.0800000   0.4002962   0.0000000), wk =   0.0010667
        k(  846) = (   0.0800000   0.4079942   0.0000000), wk =   0.0010667
        k(  847) = (   0.0800000   0.4156922   0.0000000), wk =   0.0010667
        k(  848) = (   0.0800000   0.4233902   0.0000000), wk =   0.0010667
        k(  849) = (   0.0800000   0.4310882   0.0000000), wk =   0.0010667
        k(  850) = (   0.0800000   0.4387862   0.0000000), wk =   0.0010667
        k(  851) = (   0.0800000   0.4464842   0.0000000), wk =   0.0010667
        k(  852) = (   0.0800000   0.4541822   0.0000000), wk =   0.0010667
        k(  853) = (   0.0800000   0.4618802   0.0000000), wk =   0.0010667
        k(  854) = (   0.0800000   0.4695782   0.0000000), wk =   0.0010667
        k(  855) = (   0.0800000   0.4772762   0.0000000), wk =   0.0010667
        k(  856) = (   0.0800000   0.4849742   0.0000000), wk =   0.0010667
        k(  857) = (   0.0800000   0.4926722   0.0000000), wk =   0.0010667
        k(  858) = (   0.0800000   0.5003702   0.0000000), wk =   0.0010667
        k(  859) = (   0.0800000   0.5080682   0.0000000), wk =   0.0010667
        k(  860) = (   0.0800000   0.5157662   0.0000000), wk =   0.0010667
        k(  861) = (   0.0800000   0.5234642   0.0000000), wk =   0.0010667
        k(  862) = (   0.0800000   0.5311622   0.0000000), wk =   0.0010667
        k(  863) = (   0.0800000   0.5388603   0.0000000), wk =   0.0010667
        k(  864) = (   0.0800000   0.5465583   0.0000000), wk =   0.0010667
        k(  865) = (   0.0800000   0.5542563   0.0000000), wk =   0.0010667
        k(  866) = (   0.0800000   0.5619543   0.0000000), wk =   0.0010667
        k(  867) = (   0.0800000   0.5696523   0.0000000), wk =   0.0010667
        k(  868) = (   0.0800000   0.5773503   0.0000000), wk =   0.0005333
        k(  869) = (   0.0866667   0.1501111   0.0000000), wk =   0.0005333
        k(  870) = (   0.0866667   0.1578091   0.0000000), wk =   0.0010667
        k(  871) = (   0.0866667   0.1655071   0.0000000), wk =   0.0010667
        k(  872) = (   0.0866667   0.1732051   0.0000000), wk =   0.0010667
        k(  873) = (   0.0866667   0.1809031   0.0000000), wk =   0.0010667
        k(  874) = (   0.0866667   0.1886011   0.0000000), wk =   0.0010667
        k(  875) = (   0.0866667   0.1962991   0.0000000), wk =   0.0010667
        k(  876) = (   0.0866667   0.2039971   0.0000000), wk =   0.0010667
        k(  877) = (   0.0866667   0.2116951   0.0000000), wk =   0.0010667
        k(  878) = (   0.0866667   0.2193931   0.0000000), wk =   0.0010667
        k(  879) = (   0.0866667   0.2270911   0.0000000), wk =   0.0010667
        k(  880) = (   0.0866667   0.2347891   0.0000000), wk =   0.0010667
        k(  881) = (   0.0866667   0.2424871   0.0000000), wk =   0.0010667
        k(  882) = (   0.0866667   0.2501851   0.0000000), wk =   0.0010667
        k(  883) = (   0.0866667   0.2578831   0.0000000), wk =   0.0010667
        k(  884) = (   0.0866667   0.2655811   0.0000000), wk =   0.0010667
        k(  885) = (   0.0866667   0.2732791   0.0000000), wk =   0.0010667
        k(  886) = (   0.0866667   0.2809771   0.0000000), wk =   0.0010667
        k(  887) = (   0.0866667   0.2886751   0.0000000), wk =   0.0010667
        k(  888) = (   0.0866667   0.2963731   0.0000000), wk =   0.0010667
        k(  889) = (   0.0866667   0.3040711   0.0000000), wk =   0.0010667
        k(  890) = (   0.0866667   0.3117691   0.0000000), wk =   0.0010667
        k(  891) = (   0.0866667   0.3194671   0.0000000), wk =   0.0010667
        k(  892) = (   0.0866667   0.3271652   0.0000000), wk =   0.0010667
        k(  893) = (   0.0866667   0.3348632   0.0000000), wk =   0.0010667
        k(  894) = (   0.0866667   0.3425612   0.0000000), wk =   0.0010667
        k(  895) = (   0.0866667   0.3502592   0.0000000), wk =   0.0010667
        k(  896) = (   0.0866667   0.3579572   0.0000000), wk =   0.0010667
        k(  897) = (   0.0866667   0.3656552   0.0000000), wk =   0.0010667
        k(  898) = (   0.0866667   0.3733532   0.0000000), wk =   0.0010667
        k(  899) = (   0.0866667   0.3810512   0.0000000), wk =   0.0010667
        k(  900) = (   0.0866667   0.3887492   0.0000000), wk =   0.0010667
        k(  901) = (   0.0866667   0.3964472   0.0000000), wk =   0.0010667
        k(  902) = (   0.0866667   0.4041452   0.0000000), wk =   0.0010667
        k(  903) = (   0.0866667   0.4118432   0.0000000), wk =   0.0010667
        k(  904) = (   0.0866667   0.4195412   0.0000000), wk =   0.0010667
        k(  905) = (   0.0866667   0.4272392   0.0000000), wk =   0.0010667
        k(  906) = (   0.0866667   0.4349372   0.0000000), wk =   0.0010667
        k(  907) = (   0.0866667   0.4426352   0.0000000), wk =   0.0010667
        k(  908) = (   0.0866667   0.4503332   0.0000000), wk =   0.0010667
        k(  909) = (   0.0866667   0.4580312   0.0000000), wk =   0.0010667
        k(  910) = (   0.0866667   0.4657292   0.0000000), wk =   0.0010667
        k(  911) = (   0.0866667   0.4734272   0.0000000), wk =   0.0010667
        k(  912) = (   0.0866667   0.4811252   0.0000000), wk =   0.0010667
        k(  913) = (   0.0866667   0.4888232   0.0000000), wk =   0.0010667
        k(  914) = (   0.0866667   0.4965212   0.0000000), wk =   0.0010667
        k(  915) = (   0.0866667   0.5042192   0.0000000), wk =   0.0010667
        k(  916) = (   0.0866667   0.5119172   0.0000000), wk =   0.0010667
        k(  917) = (   0.0866667   0.5196152   0.0000000), wk =   0.0010667
        k(  918) = (   0.0866667   0.5273132   0.0000000), wk =   0.0010667
        k(  919) = (   0.0866667   0.5350112   0.0000000), wk =   0.0010667
        k(  920) = (   0.0866667   0.5427093   0.0000000), wk =   0.0010667
        k(  921) = (   0.0866667   0.5504073   0.0000000), wk =   0.0010667
        k(  922) = (   0.0866667   0.5581053   0.0000000), wk =   0.0010667
        k(  923) = (   0.0866667   0.5658033   0.0000000), wk =   0.0010667
        k(  924) = (   0.0866667   0.5735013   0.0000000), wk =   0.0010667
        k(  925) = (   0.0933333   0.1616581   0.0000000), wk =   0.0005333
        k(  926) = (   0.0933333   0.1693561   0.0000000), wk =   0.0010667
        k(  927) = (   0.0933333   0.1770541   0.0000000), wk =   0.0010667
        k(  928) = (   0.0933333   0.1847521   0.0000000), wk =   0.0010667
        k(  929) = (   0.0933333   0.1924501   0.0000000), wk =   0.0010667
        k(  930) = (   0.0933333   0.2001481   0.0000000), wk =   0.0010667
        k(  931) = (   0.0933333   0.2078461   0.0000000), wk =   0.0010667
        k(  932) = (   0.0933333   0.2155441   0.0000000), wk =   0.0010667
        k(  933) = (   0.0933333   0.2232421   0.0000000), wk =   0.0010667
        k(  934) = (   0.0933333   0.2309401   0.0000000), wk =   0.0010667
        k(  935) = (   0.0933333   0.2386381   0.0000000), wk =   0.0010667
        k(  936) = (   0.0933333   0.2463361   0.0000000), wk =   0.0010667
        k(  937) = (   0.0933333   0.2540341   0.0000000), wk =   0.0010667
        k(  938) = (   0.0933333   0.2617321   0.0000000), wk =   0.0010667
        k(  939) = (   0.0933333   0.2694301   0.0000000), wk =   0.0010667
        k(  940) = (   0.0933333   0.2771281   0.0000000), wk =   0.0010667
        k(  941) = (   0.0933333   0.2848261   0.0000000), wk =   0.0010667
        k(  942) = (   0.0933333   0.2925241   0.0000000), wk =   0.0010667
        k(  943) = (   0.0933333   0.3002221   0.0000000), wk =   0.0010667
        k(  944) = (   0.0933333   0.3079201   0.0000000), wk =   0.0010667
        k(  945) = (   0.0933333   0.3156181   0.0000000), wk =   0.0010667
        k(  946) = (   0.0933333   0.3233162   0.0000000), wk =   0.0010667
        k(  947) = (   0.0933333   0.3310142   0.0000000), wk =   0.0010667
        k(  948) = (   0.0933333   0.3387122   0.0000000), wk =   0.0010667
        k(  949) = (   0.0933333   0.3464102   0.0000000), wk =   0.0010667
        k(  950) = (   0.0933333   0.3541082   0.0000000), wk =   0.0010667
        k(  951) = (   0.0933333   0.3618062   0.0000000), wk =   0.0010667
        k(  952) = (   0.0933333   0.3695042   0.0000000), wk =   0.0010667
        k(  953) = (   0.0933333   0.3772022   0.0000000), wk =   0.0010667
        k(  954) = (   0.0933333   0.3849002   0.0000000), wk =   0.0010667
        k(  955) = (   0.0933333   0.3925982   0.0000000), wk =   0.0010667
        k(  956) = (   0.0933333   0.4002962   0.0000000), wk =   0.0010667
        k(  957) = (   0.0933333   0.4079942   0.0000000), wk =   0.0010667
        k(  958) = (   0.0933333   0.4156922   0.0000000), wk =   0.0010667
        k(  959) = (   0.0933333   0.4233902   0.0000000), wk =   0.0010667
        k(  960) = (   0.0933333   0.4310882   0.0000000), wk =   0.0010667
        k(  961) = (   0.0933333   0.4387862   0.0000000), wk =   0.0010667
        k(  962) = (   0.0933333   0.4464842   0.0000000), wk =   0.0010667
        k(  963) = (   0.0933333   0.4541822   0.0000000), wk =   0.0010667
        k(  964) = (   0.0933333   0.4618802   0.0000000), wk =   0.0010667
        k(  965) = (   0.0933333   0.4695782   0.0000000), wk =   0.0010667
        k(  966) = (   0.0933333   0.4772762   0.0000000), wk =   0.0010667
        k(  967) = (   0.0933333   0.4849742   0.0000000), wk =   0.0010667
        k(  968) = (   0.0933333   0.4926722   0.0000000), wk =   0.0010667
        k(  969) = (   0.0933333   0.5003702   0.0000000), wk =   0.0010667
        k(  970) = (   0.0933333   0.5080682   0.0000000), wk =   0.0010667
        k(  971) = (   0.0933333   0.5157662   0.0000000), wk =   0.0010667
        k(  972) = (   0.0933333   0.5234642   0.0000000), wk =   0.0010667
        k(  973) = (   0.0933333   0.5311622   0.0000000), wk =   0.0010667
        k(  974) = (   0.0933333   0.5388603   0.0000000), wk =   0.0010667
        k(  975) = (   0.0933333   0.5465583   0.0000000), wk =   0.0010667
        k(  976) = (   0.0933333   0.5542563   0.0000000), wk =   0.0010667
        k(  977) = (   0.0933333   0.5619543   0.0000000), wk =   0.0010667
        k(  978) = (   0.0933333   0.5696523   0.0000000), wk =   0.0010667
        k(  979) = (   0.0933333   0.5773503   0.0000000), wk =   0.0005333
        k(  980) = (   0.1000000   0.1732051   0.0000000), wk =   0.0005333
        k(  981) = (   0.1000000   0.1809031   0.0000000), wk =   0.0010667
        k(  982) = (   0.1000000   0.1886011   0.0000000), wk =   0.0010667
        k(  983) = (   0.1000000   0.1962991   0.0000000), wk =   0.0010667
        k(  984) = (   0.1000000   0.2039971   0.0000000), wk =   0.0010667
        k(  985) = (   0.1000000   0.2116951   0.0000000), wk =   0.0010667
        k(  986) = (   0.1000000   0.2193931   0.0000000), wk =   0.0010667
        k(  987) = (   0.1000000   0.2270911   0.0000000), wk =   0.0010667
        k(  988) = (   0.1000000   0.2347891   0.0000000), wk =   0.0010667
        k(  989) = (   0.1000000   0.2424871   0.0000000), wk =   0.0010667
        k(  990) = (   0.1000000   0.2501851   0.0000000), wk =   0.0010667
        k(  991) = (   0.1000000   0.2578831   0.0000000), wk =   0.0010667
        k(  992) = (   0.1000000   0.2655811   0.0000000), wk =   0.0010667
        k(  993) = (   0.1000000   0.2732791   0.0000000), wk =   0.0010667
        k(  994) = (   0.1000000   0.2809771   0.0000000), wk =   0.0010667
        k(  995) = (   0.1000000   0.2886751   0.0000000), wk =   0.0010667
        k(  996) = (   0.1000000   0.2963731   0.0000000), wk =   0.0010667
        k(  997) = (   0.1000000   0.3040711   0.0000000), wk =   0.0010667
        k(  998) = (   0.1000000   0.3117691   0.0000000), wk =   0.0010667
        k(  999) = (   0.1000000   0.3194671   0.0000000), wk =   0.0010667
        k( 1000) = (   0.1000000   0.3271652   0.0000000), wk =   0.0010667
        k( 1001) = (   0.1000000   0.3348632   0.0000000), wk =   0.0010667
        k( 1002) = (   0.1000000   0.3425612   0.0000000), wk =   0.0010667
        k( 1003) = (   0.1000000   0.3502592   0.0000000), wk =   0.0010667
        k( 1004) = (   0.1000000   0.3579572   0.0000000), wk =   0.0010667
        k( 1005) = (   0.1000000   0.3656552   0.0000000), wk =   0.0010667
        k( 1006) = (   0.1000000   0.3733532   0.0000000), wk =   0.0010667
        k( 1007) = (   0.1000000   0.3810512   0.0000000), wk =   0.0010667
        k( 1008) = (   0.1000000   0.3887492   0.0000000), wk =   0.0010667
        k( 1009) = (   0.1000000   0.3964472   0.0000000), wk =   0.0010667
        k( 1010) = (   0.1000000   0.4041452   0.0000000), wk =   0.0010667
        k( 1011) = (   0.1000000   0.4118432   0.0000000), wk =   0.0010667
        k( 1012) = (   0.1000000   0.4195412   0.0000000), wk =   0.0010667
        k( 1013) = (   0.1000000   0.4272392   0.0000000), wk =   0.0010667
        k( 1014) = (   0.1000000   0.4349372   0.0000000), wk =   0.0010667
        k( 1015) = (   0.1000000   0.4426352   0.0000000), wk =   0.0010667
        k( 1016) = (   0.1000000   0.4503332   0.0000000), wk =   0.0010667
        k( 1017) = (   0.1000000   0.4580312   0.0000000), wk =   0.0010667
        k( 1018) = (   0.1000000   0.4657292   0.0000000), wk =   0.0010667
        k( 1019) = (   0.1000000   0.4734272   0.0000000), wk =   0.0010667
        k( 1020) = (   0.1000000   0.4811252   0.0000000), wk =   0.0010667
        k( 1021) = (   0.1000000   0.4888232   0.0000000), wk =   0.0010667
        k( 1022) = (   0.1000000   0.4965212   0.0000000), wk =   0.0010667
        k( 1023) = (   0.1000000   0.5042192   0.0000000), wk =   0.0010667
        k( 1024) = (   0.1000000   0.5119172   0.0000000), wk =   0.0010667
        k( 1025) = (   0.1000000   0.5196152   0.0000000), wk =   0.0010667
        k( 1026) = (   0.1000000   0.5273132   0.0000000), wk =   0.0010667
        k( 1027) = (   0.1000000   0.5350112   0.0000000), wk =   0.0010667
        k( 1028) = (   0.1000000   0.5427093   0.0000000), wk =   0.0010667
        k( 1029) = (   0.1000000   0.5504073   0.0000000), wk =   0.0010667
        k( 1030) = (   0.1000000   0.5581053   0.0000000), wk =   0.0010667
        k( 1031) = (   0.1000000   0.5658033   0.0000000), wk =   0.0010667
        k( 1032) = (   0.1000000   0.5735013   0.0000000), wk =   0.0010667
        k( 1033) = (   0.1066667   0.1847521   0.0000000), wk =   0.0005333
        k( 1034) = (   0.1066667   0.1924501   0.0000000), wk =   0.0010667
        k( 1035) = (   0.1066667   0.2001481   0.0000000), wk =   0.0010667
        k( 1036) = (   0.1066667   0.2078461   0.0000000), wk =   0.0010667
        k( 1037) = (   0.1066667   0.2155441   0.0000000), wk =   0.0010667
        k( 1038) = (   0.1066667   0.2232421   0.0000000), wk =   0.0010667
        k( 1039) = (   0.1066667   0.2309401   0.0000000), wk =   0.0010667
        k( 1040) = (   0.1066667   0.2386381   0.0000000), wk =   0.0010667
        k( 1041) = (   0.1066667   0.2463361   0.0000000), wk =   0.0010667
        k( 1042) = (   0.1066667   0.2540341   0.0000000), wk =   0.0010667
        k( 1043) = (   0.1066667   0.2617321   0.0000000), wk =   0.0010667
        k( 1044) = (   0.1066667   0.2694301   0.0000000), wk =   0.0010667
        k( 1045) = (   0.1066667   0.2771281   0.0000000), wk =   0.0010667
        k( 1046) = (   0.1066667   0.2848261   0.0000000), wk =   0.0010667
        k( 1047) = (   0.1066667   0.2925241   0.0000000), wk =   0.0010667
        k( 1048) = (   0.1066667   0.3002221   0.0000000), wk =   0.0010667
        k( 1049) = (   0.1066667   0.3079201   0.0000000), wk =   0.0010667
        k( 1050) = (   0.1066667   0.3156181   0.0000000), wk =   0.0010667
        k( 1051) = (   0.1066667   0.3233162   0.0000000), wk =   0.0010667
        k( 1052) = (   0.1066667   0.3310142   0.0000000), wk =   0.0010667
        k( 1053) = (   0.1066667   0.3387122   0.0000000), wk =   0.0010667
        k( 1054) = (   0.1066667   0.3464102   0.0000000), wk =   0.0010667
        k( 1055) = (   0.1066667   0.3541082   0.0000000), wk =   0.0010667
        k( 1056) = (   0.1066667   0.3618062   0.0000000), wk =   0.0010667
        k( 1057) = (   0.1066667   0.3695042   0.0000000), wk =   0.0010667
        k( 1058) = (   0.1066667   0.3772022   0.0000000), wk =   0.0010667
        k( 1059) = (   0.1066667   0.3849002   0.0000000), wk =   0.0010667
        k( 1060) = (   0.1066667   0.3925982   0.0000000), wk =   0.0010667
        k( 1061) = (   0.1066667   0.4002962   0.0000000), wk =   0.0010667
        k( 1062) = (   0.1066667   0.4079942   0.0000000), wk =   0.0010667
        k( 1063) = (   0.1066667   0.4156922   0.0000000), wk =   0.0010667
        k( 1064) = (   0.1066667   0.4233902   0.0000000), wk =   0.0010667
        k( 1065) = (   0.1066667   0.4310882   0.0000000), wk =   0.0010667
        k( 1066) = (   0.1066667   0.4387862   0.0000000), wk =   0.0010667
        k( 1067) = (   0.1066667   0.4464842   0.0000000), wk =   0.0010667
        k( 1068) = (   0.1066667   0.4541822   0.0000000), wk =   0.0010667
        k( 1069) = (   0.1066667   0.4618802   0.0000000), wk =   0.0010667
        k( 1070) = (   0.1066667   0.4695782   0.0000000), wk =   0.0010667
        k( 1071) = (   0.1066667   0.4772762   0.0000000), wk =   0.0010667
        k( 1072) = (   0.1066667   0.4849742   0.0000000), wk =   0.0010667
        k( 1073) = (   0.1066667   0.4926722   0.0000000), wk =   0.0010667
        k( 1074) = (   0.1066667   0.5003702   0.0000000), wk =   0.0010667
        k( 1075) = (   0.1066667   0.5080682   0.0000000), wk =   0.0010667
        k( 1076) = (   0.1066667   0.5157662   0.0000000), wk =   0.0010667
        k( 1077) = (   0.1066667   0.5234642   0.0000000), wk =   0.0010667
        k( 1078) = (   0.1066667   0.5311622   0.0000000), wk =   0.0010667
        k( 1079) = (   0.1066667   0.5388603   0.0000000), wk =   0.0010667
        k( 1080) = (   0.1066667   0.5465583   0.0000000), wk =   0.0010667
        k( 1081) = (   0.1066667   0.5542563   0.0000000), wk =   0.0010667
        k( 1082) = (   0.1066667   0.5619543   0.0000000), wk =   0.0010667
        k( 1083) = (   0.1066667   0.5696523   0.0000000), wk =   0.0010667
        k( 1084) = (   0.1066667   0.5773503   0.0000000), wk =   0.0005333
        k( 1085) = (   0.1133333   0.1962991   0.0000000), wk =   0.0005333
        k( 1086) = (   0.1133333   0.2039971   0.0000000), wk =   0.0010667
        k( 1087) = (   0.1133333   0.2116951   0.0000000), wk =   0.0010667
        k( 1088) = (   0.1133333   0.2193931   0.0000000), wk =   0.0010667
        k( 1089) = (   0.1133333   0.2270911   0.0000000), wk =   0.0010667
        k( 1090) = (   0.1133333   0.2347891   0.0000000), wk =   0.0010667
        k( 1091) = (   0.1133333   0.2424871   0.0000000), wk =   0.0010667
        k( 1092) = (   0.1133333   0.2501851   0.0000000), wk =   0.0010667
        k( 1093) = (   0.1133333   0.2578831   0.0000000), wk =   0.0010667
        k( 1094) = (   0.1133333   0.2655811   0.0000000), wk =   0.0010667
        k( 1095) = (   0.1133333   0.2732791   0.0000000), wk =   0.0010667
        k( 1096) = (   0.1133333   0.2809771   0.0000000), wk =   0.0010667
        k( 1097) = (   0.1133333   0.2886751   0.0000000), wk =   0.0010667
        k( 1098) = (   0.1133333   0.2963731   0.0000000), wk =   0.0010667
        k( 1099) = (   0.1133333   0.3040711   0.0000000), wk =   0.0010667
        k( 1100) = (   0.1133333   0.3117691   0.0000000), wk =   0.0010667
        k( 1101) = (   0.1133333   0.3194671   0.0000000), wk =   0.0010667
        k( 1102) = (   0.1133333   0.3271652   0.0000000), wk =   0.0010667
        k( 1103) = (   0.1133333   0.3348632   0.0000000), wk =   0.0010667
        k( 1104) = (   0.1133333   0.3425612   0.0000000), wk =   0.0010667
        k( 1105) = (   0.1133333   0.3502592   0.0000000), wk =   0.0010667
        k( 1106) = (   0.1133333   0.3579572   0.0000000), wk =   0.0010667
        k( 1107) = (   0.1133333   0.3656552   0.0000000), wk =   0.0010667
        k( 1108) = (   0.1133333   0.3733532   0.0000000), wk =   0.0010667
        k( 1109) = (   0.1133333   0.3810512   0.0000000), wk =   0.0010667
        k( 1110) = (   0.1133333   0.3887492   0.0000000), wk =   0.0010667
        k( 1111) = (   0.1133333   0.3964472   0.0000000), wk =   0.0010667
        k( 1112) = (   0.1133333   0.4041452   0.0000000), wk =   0.0010667
        k( 1113) = (   0.1133333   0.4118432   0.0000000), wk =   0.0010667
        k( 1114) = (   0.1133333   0.4195412   0.0000000), wk =   0.0010667
        k( 1115) = (   0.1133333   0.4272392   0.0000000), wk =   0.0010667
        k( 1116) = (   0.1133333   0.4349372   0.0000000), wk =   0.0010667
        k( 1117) = (   0.1133333   0.4426352   0.0000000), wk =   0.0010667
        k( 1118) = (   0.1133333   0.4503332   0.0000000), wk =   0.0010667
        k( 1119) = (   0.1133333   0.4580312   0.0000000), wk =   0.0010667
        k( 1120) = (   0.1133333   0.4657292   0.0000000), wk =   0.0010667
        k( 1121) = (   0.1133333   0.4734272   0.0000000), wk =   0.0010667
        k( 1122) = (   0.1133333   0.4811252   0.0000000), wk =   0.0010667
        k( 1123) = (   0.1133333   0.4888232   0.0000000), wk =   0.0010667
        k( 1124) = (   0.1133333   0.4965212   0.0000000), wk =   0.0010667
        k( 1125) = (   0.1133333   0.5042192   0.0000000), wk =   0.0010667
        k( 1126) = (   0.1133333   0.5119172   0.0000000), wk =   0.0010667
        k( 1127) = (   0.1133333   0.5196152   0.0000000), wk =   0.0010667
        k( 1128) = (   0.1133333   0.5273132   0.0000000), wk =   0.0010667
        k( 1129) = (   0.1133333   0.5350112   0.0000000), wk =   0.0010667
        k( 1130) = (   0.1133333   0.5427093   0.0000000), wk =   0.0010667
        k( 1131) = (   0.1133333   0.5504073   0.0000000), wk =   0.0010667
        k( 1132) = (   0.1133333   0.5581053   0.0000000), wk =   0.0010667
        k( 1133) = (   0.1133333   0.5658033   0.0000000), wk =   0.0010667
        k( 1134) = (   0.1133333   0.5735013   0.0000000), wk =   0.0010667
        k( 1135) = (   0.1200000   0.2078461   0.0000000), wk =   0.0005333
        k( 1136) = (   0.1200000   0.2155441   0.0000000), wk =   0.0010667
        k( 1137) = (   0.1200000   0.2232421   0.0000000), wk =   0.0010667
        k( 1138) = (   0.1200000   0.2309401   0.0000000), wk =   0.0010667
        k( 1139) = (   0.1200000   0.2386381   0.0000000), wk =   0.0010667
        k( 1140) = (   0.1200000   0.2463361   0.0000000), wk =   0.0010667
        k( 1141) = (   0.1200000   0.2540341   0.0000000), wk =   0.0010667
        k( 1142) = (   0.1200000   0.2617321   0.0000000), wk =   0.0010667
        k( 1143) = (   0.1200000   0.2694301   0.0000000), wk =   0.0010667
        k( 1144) = (   0.1200000   0.2771281   0.0000000), wk =   0.0010667
        k( 1145) = (   0.1200000   0.2848261   0.0000000), wk =   0.0010667
        k( 1146) = (   0.1200000   0.2925241   0.0000000), wk =   0.0010667
        k( 1147) = (   0.1200000   0.3002221   0.0000000), wk =   0.0010667
        k( 1148) = (   0.1200000   0.3079201   0.0000000), wk =   0.0010667
        k( 1149) = (   0.1200000   0.3156181   0.0000000), wk =   0.0010667
        k( 1150) = (   0.1200000   0.3233162   0.0000000), wk =   0.0010667
        k( 1151) = (   0.1200000   0.3310142   0.0000000), wk =   0.0010667
        k( 1152) = (   0.1200000   0.3387122   0.0000000), wk =   0.0010667
        k( 1153) = (   0.1200000   0.3464102   0.0000000), wk =   0.0010667
        k( 1154) = (   0.1200000   0.3541082   0.0000000), wk =   0.0010667
        k( 1155) = (   0.1200000   0.3618062   0.0000000), wk =   0.0010667
        k( 1156) = (   0.1200000   0.3695042   0.0000000), wk =   0.0010667
        k( 1157) = (   0.1200000   0.3772022   0.0000000), wk =   0.0010667
        k( 1158) = (   0.1200000   0.3849002   0.0000000), wk =   0.0010667
        k( 1159) = (   0.1200000   0.3925982   0.0000000), wk =   0.0010667
        k( 1160) = (   0.1200000   0.4002962   0.0000000), wk =   0.0010667
        k( 1161) = (   0.1200000   0.4079942   0.0000000), wk =   0.0010667
        k( 1162) = (   0.1200000   0.4156922   0.0000000), wk =   0.0010667
        k( 1163) = (   0.1200000   0.4233902   0.0000000), wk =   0.0010667
        k( 1164) = (   0.1200000   0.4310882   0.0000000), wk =   0.0010667
        k( 1165) = (   0.1200000   0.4387862   0.0000000), wk =   0.0010667
        k( 1166) = (   0.1200000   0.4464842   0.0000000), wk =   0.0010667
        k( 1167) = (   0.1200000   0.4541822   0.0000000), wk =   0.0010667
        k( 1168) = (   0.1200000   0.4618802   0.0000000), wk =   0.0010667
        k( 1169) = (   0.1200000   0.4695782   0.0000000), wk =   0.0010667
        k( 1170) = (   0.1200000   0.4772762   0.0000000), wk =   0.0010667
        k( 1171) = (   0.1200000   0.4849742   0.0000000), wk =   0.0010667
        k( 1172) = (   0.1200000   0.4926722   0.0000000), wk =   0.0010667
        k( 1173) = (   0.1200000   0.5003702   0.0000000), wk =   0.0010667
        k( 1174) = (   0.1200000   0.5080682   0.0000000), wk =   0.0010667
        k( 1175) = (   0.1200000   0.5157662   0.0000000), wk =   0.0010667
        k( 1176) = (   0.1200000   0.5234642   0.0000000), wk =   0.0010667
        k( 1177) = (   0.1200000   0.5311622   0.0000000), wk =   0.0010667
        k( 1178) = (   0.1200000   0.5388603   0.0000000), wk =   0.0010667
        k( 1179) = (   0.1200000   0.5465583   0.0000000), wk =   0.0010667
        k( 1180) = (   0.1200000   0.5542563   0.0000000), wk =   0.0010667
        k( 1181) = (   0.1200000   0.5619543   0.0000000), wk =   0.0010667
        k( 1182) = (   0.1200000   0.5696523   0.0000000), wk =   0.0010667
        k( 1183) = (   0.1200000   0.5773503   0.0000000), wk =   0.0005333
        k( 1184) = (   0.1266667   0.2193931   0.0000000), wk =   0.0005333
        k( 1185) = (   0.1266667   0.2270911   0.0000000), wk =   0.0010667
        k( 1186) = (   0.1266667   0.2347891   0.0000000), wk =   0.0010667
        k( 1187) = (   0.1266667   0.2424871   0.0000000), wk =   0.0010667
        k( 1188) = (   0.1266667   0.2501851   0.0000000), wk =   0.0010667
        k( 1189) = (   0.1266667   0.2578831   0.0000000), wk =   0.0010667
        k( 1190) = (   0.1266667   0.2655811   0.0000000), wk =   0.0010667
        k( 1191) = (   0.1266667   0.2732791   0.0000000), wk =   0.0010667
        k( 1192) = (   0.1266667   0.2809771   0.0000000), wk =   0.0010667
        k( 1193) = (   0.1266667   0.2886751   0.0000000), wk =   0.0010667
        k( 1194) = (   0.1266667   0.2963731   0.0000000), wk =   0.0010667
        k( 1195) = (   0.1266667   0.3040711   0.0000000), wk =   0.0010667
        k( 1196) = (   0.1266667   0.3117691   0.0000000), wk =   0.0010667
        k( 1197) = (   0.1266667   0.3194671   0.0000000), wk =   0.0010667
        k( 1198) = (   0.1266667   0.3271652   0.0000000), wk =   0.0010667
        k( 1199) = (   0.1266667   0.3348632   0.0000000), wk =   0.0010667
        k( 1200) = (   0.1266667   0.3425612   0.0000000), wk =   0.0010667
        k( 1201) = (   0.1266667   0.3502592   0.0000000), wk =   0.0010667
        k( 1202) = (   0.1266667   0.3579572   0.0000000), wk =   0.0010667
        k( 1203) = (   0.1266667   0.3656552   0.0000000), wk =   0.0010667
        k( 1204) = (   0.1266667   0.3733532   0.0000000), wk =   0.0010667
        k( 1205) = (   0.1266667   0.3810512   0.0000000), wk =   0.0010667
        k( 1206) = (   0.1266667   0.3887492   0.0000000), wk =   0.0010667
        k( 1207) = (   0.1266667   0.3964472   0.0000000), wk =   0.0010667
        k( 1208) = (   0.1266667   0.4041452   0.0000000), wk =   0.0010667
        k( 1209) = (   0.1266667   0.4118432   0.0000000), wk =   0.0010667
        k( 1210) = (   0.1266667   0.4195412   0.0000000), wk =   0.0010667
        k( 1211) = (   0.1266667   0.4272392   0.0000000), wk =   0.0010667
        k( 1212) = (   0.1266667   0.4349372   0.0000000), wk =   0.0010667
        k( 1213) = (   0.1266667   0.4426352   0.0000000), wk =   0.0010667
        k( 1214) = (   0.1266667   0.4503332   0.0000000), wk =   0.0010667
        k( 1215) = (   0.1266667   0.4580312   0.0000000), wk =   0.0010667
        k( 1216) = (   0.1266667   0.4657292   0.0000000), wk =   0.0010667
        k( 1217) = (   0.1266667   0.4734272   0.0000000), wk =   0.0010667
        k( 1218) = (   0.1266667   0.4811252   0.0000000), wk =   0.0010667
        k( 1219) = (   0.1266667   0.4888232   0.0000000), wk =   0.0010667
        k( 1220) = (   0.1266667   0.4965212   0.0000000), wk =   0.0010667
        k( 1221) = (   0.1266667   0.5042192   0.0000000), wk =   0.0010667
        k( 1222) = (   0.1266667   0.5119172   0.0000000), wk =   0.0010667
        k( 1223) = (   0.1266667   0.5196152   0.0000000), wk =   0.0010667
        k( 1224) = (   0.1266667   0.5273132   0.0000000), wk =   0.0010667
        k( 1225) = (   0.1266667   0.5350112   0.0000000), wk =   0.0010667
        k( 1226) = (   0.1266667   0.5427093   0.0000000), wk =   0.0010667
        k( 1227) = (   0.1266667   0.5504073   0.0000000), wk =   0.0010667
        k( 1228) = (   0.1266667   0.5581053   0.0000000), wk =   0.0010667
        k( 1229) = (   0.1266667   0.5658033   0.0000000), wk =   0.0010667
        k( 1230) = (   0.1266667   0.5735013   0.0000000), wk =   0.0010667
        k( 1231) = (   0.1333333   0.2309401   0.0000000), wk =   0.0005333
        k( 1232) = (   0.1333333   0.2386381   0.0000000), wk =   0.0010667
        k( 1233) = (   0.1333333   0.2463361   0.0000000), wk =   0.0010667
        k( 1234) = (   0.1333333   0.2540341   0.0000000), wk =   0.0010667
        k( 1235) = (   0.1333333   0.2617321   0.0000000), wk =   0.0010667
        k( 1236) = (   0.1333333   0.2694301   0.0000000), wk =   0.0010667
        k( 1237) = (   0.1333333   0.2771281   0.0000000), wk =   0.0010667
        k( 1238) = (   0.1333333   0.2848261   0.0000000), wk =   0.0010667
        k( 1239) = (   0.1333333   0.2925241   0.0000000), wk =   0.0010667
        k( 1240) = (   0.1333333   0.3002221   0.0000000), wk =   0.0010667
        k( 1241) = (   0.1333333   0.3079201   0.0000000), wk =   0.0010667
        k( 1242) = (   0.1333333   0.3156181   0.0000000), wk =   0.0010667
        k( 1243) = (   0.1333333   0.3233162   0.0000000), wk =   0.0010667
        k( 1244) = (   0.1333333   0.3310142   0.0000000), wk =   0.0010667
        k( 1245) = (   0.1333333   0.3387122   0.0000000), wk =   0.0010667
        k( 1246) = (   0.1333333   0.3464102   0.0000000), wk =   0.0010667
        k( 1247) = (   0.1333333   0.3541082   0.0000000), wk =   0.0010667
        k( 1248) = (   0.1333333   0.3618062   0.0000000), wk =   0.0010667
        k( 1249) = (   0.1333333   0.3695042   0.0000000), wk =   0.0010667
        k( 1250) = (   0.1333333   0.3772022   0.0000000), wk =   0.0010667
        k( 1251) = (   0.1333333   0.3849002   0.0000000), wk =   0.0010667
        k( 1252) = (   0.1333333   0.3925982   0.0000000), wk =   0.0010667
        k( 1253) = (   0.1333333   0.4002962   0.0000000), wk =   0.0010667
        k( 1254) = (   0.1333333   0.4079942   0.0000000), wk =   0.0010667
        k( 1255) = (   0.1333333   0.4156922   0.0000000), wk =   0.0010667
        k( 1256) = (   0.1333333   0.4233902   0.0000000), wk =   0.0010667
        k( 1257) = (   0.1333333   0.4310882   0.0000000), wk =   0.0010667
        k( 1258) = (   0.1333333   0.4387862   0.0000000), wk =   0.0010667
        k( 1259) = (   0.1333333   0.4464842   0.0000000), wk =   0.0010667
        k( 1260) = (   0.1333333   0.4541822   0.0000000), wk =   0.0010667
        k( 1261) = (   0.1333333   0.4618802   0.0000000), wk =   0.0010667
        k( 1262) = (   0.1333333   0.4695782   0.0000000), wk =   0.0010667
        k( 1263) = (   0.1333333   0.4772762   0.0000000), wk =   0.0010667
        k( 1264) = (   0.1333333   0.4849742   0.0000000), wk =   0.0010667
        k( 1265) = (   0.1333333   0.4926722   0.0000000), wk =   0.0010667
        k( 1266) = (   0.1333333   0.5003702   0.0000000), wk =   0.0010667
        k( 1267) = (   0.1333333   0.5080682   0.0000000), wk =   0.0010667
        k( 1268) = (   0.1333333   0.5157662   0.0000000), wk =   0.0010667
        k( 1269) = (   0.1333333   0.5234642   0.0000000), wk =   0.0010667
        k( 1270) = (   0.1333333   0.5311622   0.0000000), wk =   0.0010667
        k( 1271) = (   0.1333333   0.5388603   0.0000000), wk =   0.0010667
        k( 1272) = (   0.1333333   0.5465583   0.0000000), wk =   0.0010667
        k( 1273) = (   0.1333333   0.5542563   0.0000000), wk =   0.0010667
        k( 1274) = (   0.1333333   0.5619543   0.0000000), wk =   0.0010667
        k( 1275) = (   0.1333333   0.5696523   0.0000000), wk =   0.0010667
        k( 1276) = (   0.1333333   0.5773503   0.0000000), wk =   0.0005333
        k( 1277) = (   0.1400000   0.2424871   0.0000000), wk =   0.0005333
        k( 1278) = (   0.1400000   0.2501851   0.0000000), wk =   0.0010667
        k( 1279) = (   0.1400000   0.2578831   0.0000000), wk =   0.0010667
        k( 1280) = (   0.1400000   0.2655811   0.0000000), wk =   0.0010667
        k( 1281) = (   0.1400000   0.2732791   0.0000000), wk =   0.0010667
        k( 1282) = (   0.1400000   0.2809771   0.0000000), wk =   0.0010667
        k( 1283) = (   0.1400000   0.2886751   0.0000000), wk =   0.0010667
        k( 1284) = (   0.1400000   0.2963731   0.0000000), wk =   0.0010667
        k( 1285) = (   0.1400000   0.3040711   0.0000000), wk =   0.0010667
        k( 1286) = (   0.1400000   0.3117691   0.0000000), wk =   0.0010667
        k( 1287) = (   0.1400000   0.3194671   0.0000000), wk =   0.0010667
        k( 1288) = (   0.1400000   0.3271652   0.0000000), wk =   0.0010667
        k( 1289) = (   0.1400000   0.3348632   0.0000000), wk =   0.0010667
        k( 1290) = (   0.1400000   0.3425612   0.0000000), wk =   0.0010667
        k( 1291) = (   0.1400000   0.3502592   0.0000000), wk =   0.0010667
        k( 1292) = (   0.1400000   0.3579572   0.0000000), wk =   0.0010667
        k( 1293) = (   0.1400000   0.3656552   0.0000000), wk =   0.0010667
        k( 1294) = (   0.1400000   0.3733532   0.0000000), wk =   0.0010667
        k( 1295) = (   0.1400000   0.3810512   0.0000000), wk =   0.0010667
        k( 1296) = (   0.1400000   0.3887492   0.0000000), wk =   0.0010667
        k( 1297) = (   0.1400000   0.3964472   0.0000000), wk =   0.0010667
        k( 1298) = (   0.1400000   0.4041452   0.0000000), wk =   0.0010667
        k( 1299) = (   0.1400000   0.4118432   0.0000000), wk =   0.0010667
        k( 1300) = (   0.1400000   0.4195412   0.0000000), wk =   0.0010667
        k( 1301) = (   0.1400000   0.4272392   0.0000000), wk =   0.0010667
        k( 1302) = (   0.1400000   0.4349372   0.0000000), wk =   0.0010667
        k( 1303) = (   0.1400000   0.4426352   0.0000000), wk =   0.0010667
        k( 1304) = (   0.1400000   0.4503332   0.0000000), wk =   0.0010667
        k( 1305) = (   0.1400000   0.4580312   0.0000000), wk =   0.0010667
        k( 1306) = (   0.1400000   0.4657292   0.0000000), wk =   0.0010667
        k( 1307) = (   0.1400000   0.4734272   0.0000000), wk =   0.0010667
        k( 1308) = (   0.1400000   0.4811252   0.0000000), wk =   0.0010667
        k( 1309) = (   0.1400000   0.4888232   0.0000000), wk =   0.0010667
        k( 1310) = (   0.1400000   0.4965212   0.0000000), wk =   0.0010667
        k( 1311) = (   0.1400000   0.5042192   0.0000000), wk =   0.0010667
        k( 1312) = (   0.1400000   0.5119172   0.0000000), wk =   0.0010667
        k( 1313) = (   0.1400000   0.5196152   0.0000000), wk =   0.0010667
        k( 1314) = (   0.1400000   0.5273132   0.0000000), wk =   0.0010667
        k( 1315) = (   0.1400000   0.5350112   0.0000000), wk =   0.0010667
        k( 1316) = (   0.1400000   0.5427093   0.0000000), wk =   0.0010667
        k( 1317) = (   0.1400000   0.5504073   0.0000000), wk =   0.0010667
        k( 1318) = (   0.1400000   0.5581053   0.0000000), wk =   0.0010667
        k( 1319) = (   0.1400000   0.5658033   0.0000000), wk =   0.0010667
        k( 1320) = (   0.1400000   0.5735013   0.0000000), wk =   0.0010667
        k( 1321) = (   0.1466667   0.2540341   0.0000000), wk =   0.0005333
        k( 1322) = (   0.1466667   0.2617321   0.0000000), wk =   0.0010667
        k( 1323) = (   0.1466667   0.2694301   0.0000000), wk =   0.0010667
        k( 1324) = (   0.1466667   0.2771281   0.0000000), wk =   0.0010667
        k( 1325) = (   0.1466667   0.2848261   0.0000000), wk =   0.0010667
        k( 1326) = (   0.1466667   0.2925241   0.0000000), wk =   0.0010667
        k( 1327) = (   0.1466667   0.3002221   0.0000000), wk =   0.0010667
        k( 1328) = (   0.1466667   0.3079201   0.0000000), wk =   0.0010667
        k( 1329) = (   0.1466667   0.3156181   0.0000000), wk =   0.0010667
        k( 1330) = (   0.1466667   0.3233162   0.0000000), wk =   0.0010667
        k( 1331) = (   0.1466667   0.3310142   0.0000000), wk =   0.0010667
        k( 1332) = (   0.1466667   0.3387122   0.0000000), wk =   0.0010667
        k( 1333) = (   0.1466667   0.3464102   0.0000000), wk =   0.0010667
        k( 1334) = (   0.1466667   0.3541082   0.0000000), wk =   0.0010667
        k( 1335) = (   0.1466667   0.3618062   0.0000000), wk =   0.0010667
        k( 1336) = (   0.1466667   0.3695042   0.0000000), wk =   0.0010667
        k( 1337) = (   0.1466667   0.3772022   0.0000000), wk =   0.0010667
        k( 1338) = (   0.1466667   0.3849002   0.0000000), wk =   0.0010667
        k( 1339) = (   0.1466667   0.3925982   0.0000000), wk =   0.0010667
        k( 1340) = (   0.1466667   0.4002962   0.0000000), wk =   0.0010667
        k( 1341) = (   0.1466667   0.4079942   0.0000000), wk =   0.0010667
        k( 1342) = (   0.1466667   0.4156922   0.0000000), wk =   0.0010667
        k( 1343) = (   0.1466667   0.4233902   0.0000000), wk =   0.0010667
        k( 1344) = (   0.1466667   0.4310882   0.0000000), wk =   0.0010667
        k( 1345) = (   0.1466667   0.4387862   0.0000000), wk =   0.0010667
        k( 1346) = (   0.1466667   0.4464842   0.0000000), wk =   0.0010667
        k( 1347) = (   0.1466667   0.4541822   0.0000000), wk =   0.0010667
        k( 1348) = (   0.1466667   0.4618802   0.0000000), wk =   0.0010667
        k( 1349) = (   0.1466667   0.4695782   0.0000000), wk =   0.0010667
        k( 1350) = (   0.1466667   0.4772762   0.0000000), wk =   0.0010667
        k( 1351) = (   0.1466667   0.4849742   0.0000000), wk =   0.0010667
        k( 1352) = (   0.1466667   0.4926722   0.0000000), wk =   0.0010667
        k( 1353) = (   0.1466667   0.5003702   0.0000000), wk =   0.0010667
        k( 1354) = (   0.1466667   0.5080682   0.0000000), wk =   0.0010667
        k( 1355) = (   0.1466667   0.5157662   0.0000000), wk =   0.0010667
        k( 1356) = (   0.1466667   0.5234642   0.0000000), wk =   0.0010667
        k( 1357) = (   0.1466667   0.5311622   0.0000000), wk =   0.0010667
        k( 1358) = (   0.1466667   0.5388603   0.0000000), wk =   0.0010667
        k( 1359) = (   0.1466667   0.5465583   0.0000000), wk =   0.0010667
        k( 1360) = (   0.1466667   0.5542563   0.0000000), wk =   0.0010667
        k( 1361) = (   0.1466667   0.5619543   0.0000000), wk =   0.0010667
        k( 1362) = (   0.1466667   0.5696523   0.0000000), wk =   0.0010667
        k( 1363) = (   0.1466667   0.5773503   0.0000000), wk =   0.0005333
        k( 1364) = (   0.1533333   0.2655811   0.0000000), wk =   0.0005333
        k( 1365) = (   0.1533333   0.2732791   0.0000000), wk =   0.0010667
        k( 1366) = (   0.1533333   0.2809771   0.0000000), wk =   0.0010667
        k( 1367) = (   0.1533333   0.2886751   0.0000000), wk =   0.0010667
        k( 1368) = (   0.1533333   0.2963731   0.0000000), wk =   0.0010667
        k( 1369) = (   0.1533333   0.3040711   0.0000000), wk =   0.0010667
        k( 1370) = (   0.1533333   0.3117691   0.0000000), wk =   0.0010667
        k( 1371) = (   0.1533333   0.3194671   0.0000000), wk =   0.0010667
        k( 1372) = (   0.1533333   0.3271652   0.0000000), wk =   0.0010667
        k( 1373) = (   0.1533333   0.3348632   0.0000000), wk =   0.0010667
        k( 1374) = (   0.1533333   0.3425612   0.0000000), wk =   0.0010667
        k( 1375) = (   0.1533333   0.3502592   0.0000000), wk =   0.0010667
        k( 1376) = (   0.1533333   0.3579572   0.0000000), wk =   0.0010667
        k( 1377) = (   0.1533333   0.3656552   0.0000000), wk =   0.0010667
        k( 1378) = (   0.1533333   0.3733532   0.0000000), wk =   0.0010667
        k( 1379) = (   0.1533333   0.3810512   0.0000000), wk =   0.0010667
        k( 1380) = (   0.1533333   0.3887492   0.0000000), wk =   0.0010667
        k( 1381) = (   0.1533333   0.3964472   0.0000000), wk =   0.0010667
        k( 1382) = (   0.1533333   0.4041452   0.0000000), wk =   0.0010667
        k( 1383) = (   0.1533333   0.4118432   0.0000000), wk =   0.0010667
        k( 1384) = (   0.1533333   0.4195412   0.0000000), wk =   0.0010667
        k( 1385) = (   0.1533333   0.4272392   0.0000000), wk =   0.0010667
        k( 1386) = (   0.1533333   0.4349372   0.0000000), wk =   0.0010667
        k( 1387) = (   0.1533333   0.4426352   0.0000000), wk =   0.0010667
        k( 1388) = (   0.1533333   0.4503332   0.0000000), wk =   0.0010667
        k( 1389) = (   0.1533333   0.4580312   0.0000000), wk =   0.0010667
        k( 1390) = (   0.1533333   0.4657292   0.0000000), wk =   0.0010667
        k( 1391) = (   0.1533333   0.4734272   0.0000000), wk =   0.0010667
        k( 1392) = (   0.1533333   0.4811252   0.0000000), wk =   0.0010667
        k( 1393) = (   0.1533333   0.4888232   0.0000000), wk =   0.0010667
        k( 1394) = (   0.1533333   0.4965212   0.0000000), wk =   0.0010667
        k( 1395) = (   0.1533333   0.5042192   0.0000000), wk =   0.0010667
        k( 1396) = (   0.1533333   0.5119172   0.0000000), wk =   0.0010667
        k( 1397) = (   0.1533333   0.5196152   0.0000000), wk =   0.0010667
        k( 1398) = (   0.1533333   0.5273132   0.0000000), wk =   0.0010667
        k( 1399) = (   0.1533333   0.5350112   0.0000000), wk =   0.0010667
        k( 1400) = (   0.1533333   0.5427093   0.0000000), wk =   0.0010667
        k( 1401) = (   0.1533333   0.5504073   0.0000000), wk =   0.0010667
        k( 1402) = (   0.1533333   0.5581053   0.0000000), wk =   0.0010667
        k( 1403) = (   0.1533333   0.5658033   0.0000000), wk =   0.0010667
        k( 1404) = (   0.1533333   0.5735013   0.0000000), wk =   0.0010667
        k( 1405) = (   0.1600000   0.2771281   0.0000000), wk =   0.0005333
        k( 1406) = (   0.1600000   0.2848261   0.0000000), wk =   0.0010667
        k( 1407) = (   0.1600000   0.2925241   0.0000000), wk =   0.0010667
        k( 1408) = (   0.1600000   0.3002221   0.0000000), wk =   0.0010667
        k( 1409) = (   0.1600000   0.3079201   0.0000000), wk =   0.0010667
        k( 1410) = (   0.1600000   0.3156181   0.0000000), wk =   0.0010667
        k( 1411) = (   0.1600000   0.3233162   0.0000000), wk =   0.0010667
        k( 1412) = (   0.1600000   0.3310142   0.0000000), wk =   0.0010667
        k( 1413) = (   0.1600000   0.3387122   0.0000000), wk =   0.0010667
        k( 1414) = (   0.1600000   0.3464102   0.0000000), wk =   0.0010667
        k( 1415) = (   0.1600000   0.3541082   0.0000000), wk =   0.0010667
        k( 1416) = (   0.1600000   0.3618062   0.0000000), wk =   0.0010667
        k( 1417) = (   0.1600000   0.3695042   0.0000000), wk =   0.0010667
        k( 1418) = (   0.1600000   0.3772022   0.0000000), wk =   0.0010667
        k( 1419) = (   0.1600000   0.3849002   0.0000000), wk =   0.0010667
        k( 1420) = (   0.1600000   0.3925982   0.0000000), wk =   0.0010667
        k( 1421) = (   0.1600000   0.4002962   0.0000000), wk =   0.0010667
        k( 1422) = (   0.1600000   0.4079942   0.0000000), wk =   0.0010667
        k( 1423) = (   0.1600000   0.4156922   0.0000000), wk =   0.0010667
        k( 1424) = (   0.1600000   0.4233902   0.0000000), wk =   0.0010667
        k( 1425) = (   0.1600000   0.4310882   0.0000000), wk =   0.0010667
        k( 1426) = (   0.1600000   0.4387862   0.0000000), wk =   0.0010667
        k( 1427) = (   0.1600000   0.4464842   0.0000000), wk =   0.0010667
        k( 1428) = (   0.1600000   0.4541822   0.0000000), wk =   0.0010667
        k( 1429) = (   0.1600000   0.4618802   0.0000000), wk =   0.0010667
        k( 1430) = (   0.1600000   0.4695782   0.0000000), wk =   0.0010667
        k( 1431) = (   0.1600000   0.4772762   0.0000000), wk =   0.0010667
        k( 1432) = (   0.1600000   0.4849742   0.0000000), wk =   0.0010667
        k( 1433) = (   0.1600000   0.4926722   0.0000000), wk =   0.0010667
        k( 1434) = (   0.1600000   0.5003702   0.0000000), wk =   0.0010667
        k( 1435) = (   0.1600000   0.5080682   0.0000000), wk =   0.0010667
        k( 1436) = (   0.1600000   0.5157662   0.0000000), wk =   0.0010667
        k( 1437) = (   0.1600000   0.5234642   0.0000000), wk =   0.0010667
        k( 1438) = (   0.1600000   0.5311622   0.0000000), wk =   0.0010667
        k( 1439) = (   0.1600000   0.5388603   0.0000000), wk =   0.0010667
        k( 1440) = (   0.1600000   0.5465583   0.0000000), wk =   0.0010667
        k( 1441) = (   0.1600000   0.5542563   0.0000000), wk =   0.0010667
        k( 1442) = (   0.1600000   0.5619543   0.0000000), wk =   0.0010667
        k( 1443) = (   0.1600000   0.5696523   0.0000000), wk =   0.0010667
        k( 1444) = (   0.1600000   0.5773503   0.0000000), wk =   0.0005333
        k( 1445) = (   0.1666667   0.2886751   0.0000000), wk =   0.0005333
        k( 1446) = (   0.1666667   0.2963731   0.0000000), wk =   0.0010667
        k( 1447) = (   0.1666667   0.3040711   0.0000000), wk =   0.0010667
        k( 1448) = (   0.1666667   0.3117691   0.0000000), wk =   0.0010667
        k( 1449) = (   0.1666667   0.3194671   0.0000000), wk =   0.0010667
        k( 1450) = (   0.1666667   0.3271652   0.0000000), wk =   0.0010667
        k( 1451) = (   0.1666667   0.3348632   0.0000000), wk =   0.0010667
        k( 1452) = (   0.1666667   0.3425612   0.0000000), wk =   0.0010667
        k( 1453) = (   0.1666667   0.3502592   0.0000000), wk =   0.0010667
        k( 1454) = (   0.1666667   0.3579572   0.0000000), wk =   0.0010667
        k( 1455) = (   0.1666667   0.3656552   0.0000000), wk =   0.0010667
        k( 1456) = (   0.1666667   0.3733532   0.0000000), wk =   0.0010667
        k( 1457) = (   0.1666667   0.3810512   0.0000000), wk =   0.0010667
        k( 1458) = (   0.1666667   0.3887492   0.0000000), wk =   0.0010667
        k( 1459) = (   0.1666667   0.3964472   0.0000000), wk =   0.0010667
        k( 1460) = (   0.1666667   0.4041452   0.0000000), wk =   0.0010667
        k( 1461) = (   0.1666667   0.4118432   0.0000000), wk =   0.0010667
        k( 1462) = (   0.1666667   0.4195412   0.0000000), wk =   0.0010667
        k( 1463) = (   0.1666667   0.4272392   0.0000000), wk =   0.0010667
        k( 1464) = (   0.1666667   0.4349372   0.0000000), wk =   0.0010667
        k( 1465) = (   0.1666667   0.4426352   0.0000000), wk =   0.0010667
        k( 1466) = (   0.1666667   0.4503332   0.0000000), wk =   0.0010667
        k( 1467) = (   0.1666667   0.4580312   0.0000000), wk =   0.0010667
        k( 1468) = (   0.1666667   0.4657292   0.0000000), wk =   0.0010667
        k( 1469) = (   0.1666667   0.4734272   0.0000000), wk =   0.0010667
        k( 1470) = (   0.1666667   0.4811252   0.0000000), wk =   0.0010667
        k( 1471) = (   0.1666667   0.4888232   0.0000000), wk =   0.0010667
        k( 1472) = (   0.1666667   0.4965212   0.0000000), wk =   0.0010667
        k( 1473) = (   0.1666667   0.5042192   0.0000000), wk =   0.0010667
        k( 1474) = (   0.1666667   0.5119172   0.0000000), wk =   0.0010667
        k( 1475) = (   0.1666667   0.5196152   0.0000000), wk =   0.0010667
        k( 1476) = (   0.1666667   0.5273132   0.0000000), wk =   0.0010667
        k( 1477) = (   0.1666667   0.5350112   0.0000000), wk =   0.0010667
        k( 1478) = (   0.1666667   0.5427093   0.0000000), wk =   0.0010667
        k( 1479) = (   0.1666667   0.5504073   0.0000000), wk =   0.0010667
        k( 1480) = (   0.1666667   0.5581053   0.0000000), wk =   0.0010667
        k( 1481) = (   0.1666667   0.5658033   0.0000000), wk =   0.0010667
        k( 1482) = (   0.1666667   0.5735013   0.0000000), wk =   0.0010667
        k( 1483) = (   0.1733333   0.3002221   0.0000000), wk =   0.0005333
        k( 1484) = (   0.1733333   0.3079201   0.0000000), wk =   0.0010667
        k( 1485) = (   0.1733333   0.3156181   0.0000000), wk =   0.0010667
        k( 1486) = (   0.1733333   0.3233162   0.0000000), wk =   0.0010667
        k( 1487) = (   0.1733333   0.3310142   0.0000000), wk =   0.0010667
        k( 1488) = (   0.1733333   0.3387122   0.0000000), wk =   0.0010667
        k( 1489) = (   0.1733333   0.3464102   0.0000000), wk =   0.0010667
        k( 1490) = (   0.1733333   0.3541082   0.0000000), wk =   0.0010667
        k( 1491) = (   0.1733333   0.3618062   0.0000000), wk =   0.0010667
        k( 1492) = (   0.1733333   0.3695042   0.0000000), wk =   0.0010667
        k( 1493) = (   0.1733333   0.3772022   0.0000000), wk =   0.0010667
        k( 1494) = (   0.1733333   0.3849002   0.0000000), wk =   0.0010667
        k( 1495) = (   0.1733333   0.3925982   0.0000000), wk =   0.0010667
        k( 1496) = (   0.1733333   0.4002962   0.0000000), wk =   0.0010667
        k( 1497) = (   0.1733333   0.4079942   0.0000000), wk =   0.0010667
        k( 1498) = (   0.1733333   0.4156922   0.0000000), wk =   0.0010667
        k( 1499) = (   0.1733333   0.4233902   0.0000000), wk =   0.0010667
        k( 1500) = (   0.1733333   0.4310882   0.0000000), wk =   0.0010667
        k( 1501) = (   0.1733333   0.4387862   0.0000000), wk =   0.0010667
        k( 1502) = (   0.1733333   0.4464842   0.0000000), wk =   0.0010667
        k( 1503) = (   0.1733333   0.4541822   0.0000000), wk =   0.0010667
        k( 1504) = (   0.1733333   0.4618802   0.0000000), wk =   0.0010667
        k( 1505) = (   0.1733333   0.4695782   0.0000000), wk =   0.0010667
        k( 1506) = (   0.1733333   0.4772762   0.0000000), wk =   0.0010667
        k( 1507) = (   0.1733333   0.4849742   0.0000000), wk =   0.0010667
        k( 1508) = (   0.1733333   0.4926722   0.0000000), wk =   0.0010667
        k( 1509) = (   0.1733333   0.5003702   0.0000000), wk =   0.0010667
        k( 1510) = (   0.1733333   0.5080682   0.0000000), wk =   0.0010667
        k( 1511) = (   0.1733333   0.5157662   0.0000000), wk =   0.0010667
        k( 1512) = (   0.1733333   0.5234642   0.0000000), wk =   0.0010667
        k( 1513) = (   0.1733333   0.5311622   0.0000000), wk =   0.0010667
        k( 1514) = (   0.1733333   0.5388603   0.0000000), wk =   0.0010667
        k( 1515) = (   0.1733333   0.5465583   0.0000000), wk =   0.0010667
        k( 1516) = (   0.1733333   0.5542563   0.0000000), wk =   0.0010667
        k( 1517) = (   0.1733333   0.5619543   0.0000000), wk =   0.0010667
        k( 1518) = (   0.1733333   0.5696523   0.0000000), wk =   0.0010667
        k( 1519) = (   0.1733333   0.5773503   0.0000000), wk =   0.0005333
        k( 1520) = (   0.1800000   0.3117691   0.0000000), wk =   0.0005333
        k( 1521) = (   0.1800000   0.3194671   0.0000000), wk =   0.0010667
        k( 1522) = (   0.1800000   0.3271652   0.0000000), wk =   0.0010667
        k( 1523) = (   0.1800000   0.3348632   0.0000000), wk =   0.0010667
        k( 1524) = (   0.1800000   0.3425612   0.0000000), wk =   0.0010667
        k( 1525) = (   0.1800000   0.3502592   0.0000000), wk =   0.0010667
        k( 1526) = (   0.1800000   0.3579572   0.0000000), wk =   0.0010667
        k( 1527) = (   0.1800000   0.3656552   0.0000000), wk =   0.0010667
        k( 1528) = (   0.1800000   0.3733532   0.0000000), wk =   0.0010667
        k( 1529) = (   0.1800000   0.3810512   0.0000000), wk =   0.0010667
        k( 1530) = (   0.1800000   0.3887492   0.0000000), wk =   0.0010667
        k( 1531) = (   0.1800000   0.3964472   0.0000000), wk =   0.0010667
        k( 1532) = (   0.1800000   0.4041452   0.0000000), wk =   0.0010667
        k( 1533) = (   0.1800000   0.4118432   0.0000000), wk =   0.0010667
        k( 1534) = (   0.1800000   0.4195412   0.0000000), wk =   0.0010667
        k( 1535) = (   0.1800000   0.4272392   0.0000000), wk =   0.0010667
        k( 1536) = (   0.1800000   0.4349372   0.0000000), wk =   0.0010667
        k( 1537) = (   0.1800000   0.4426352   0.0000000), wk =   0.0010667
        k( 1538) = (   0.1800000   0.4503332   0.0000000), wk =   0.0010667
        k( 1539) = (   0.1800000   0.4580312   0.0000000), wk =   0.0010667
        k( 1540) = (   0.1800000   0.4657292   0.0000000), wk =   0.0010667
        k( 1541) = (   0.1800000   0.4734272   0.0000000), wk =   0.0010667
        k( 1542) = (   0.1800000   0.4811252   0.0000000), wk =   0.0010667
        k( 1543) = (   0.1800000   0.4888232   0.0000000), wk =   0.0010667
        k( 1544) = (   0.1800000   0.4965212   0.0000000), wk =   0.0010667
        k( 1545) = (   0.1800000   0.5042192   0.0000000), wk =   0.0010667
        k( 1546) = (   0.1800000   0.5119172   0.0000000), wk =   0.0010667
        k( 1547) = (   0.1800000   0.5196152   0.0000000), wk =   0.0010667
        k( 1548) = (   0.1800000   0.5273132   0.0000000), wk =   0.0010667
        k( 1549) = (   0.1800000   0.5350112   0.0000000), wk =   0.0010667
        k( 1550) = (   0.1800000   0.5427093   0.0000000), wk =   0.0010667
        k( 1551) = (   0.1800000   0.5504073   0.0000000), wk =   0.0010667
        k( 1552) = (   0.1800000   0.5581053   0.0000000), wk =   0.0010667
        k( 1553) = (   0.1800000   0.5658033   0.0000000), wk =   0.0010667
        k( 1554) = (   0.1800000   0.5735013   0.0000000), wk =   0.0010667
        k( 1555) = (   0.1866667   0.3233162   0.0000000), wk =   0.0005333
        k( 1556) = (   0.1866667   0.3310142   0.0000000), wk =   0.0010667
        k( 1557) = (   0.1866667   0.3387122   0.0000000), wk =   0.0010667
        k( 1558) = (   0.1866667   0.3464102   0.0000000), wk =   0.0010667
        k( 1559) = (   0.1866667   0.3541082   0.0000000), wk =   0.0010667
        k( 1560) = (   0.1866667   0.3618062   0.0000000), wk =   0.0010667
        k( 1561) = (   0.1866667   0.3695042   0.0000000), wk =   0.0010667
        k( 1562) = (   0.1866667   0.3772022   0.0000000), wk =   0.0010667
        k( 1563) = (   0.1866667   0.3849002   0.0000000), wk =   0.0010667
        k( 1564) = (   0.1866667   0.3925982   0.0000000), wk =   0.0010667
        k( 1565) = (   0.1866667   0.4002962   0.0000000), wk =   0.0010667
        k( 1566) = (   0.1866667   0.4079942   0.0000000), wk =   0.0010667
        k( 1567) = (   0.1866667   0.4156922   0.0000000), wk =   0.0010667
        k( 1568) = (   0.1866667   0.4233902   0.0000000), wk =   0.0010667
        k( 1569) = (   0.1866667   0.4310882   0.0000000), wk =   0.0010667
        k( 1570) = (   0.1866667   0.4387862   0.0000000), wk =   0.0010667
        k( 1571) = (   0.1866667   0.4464842   0.0000000), wk =   0.0010667
        k( 1572) = (   0.1866667   0.4541822   0.0000000), wk =   0.0010667
        k( 1573) = (   0.1866667   0.4618802   0.0000000), wk =   0.0010667
        k( 1574) = (   0.1866667   0.4695782   0.0000000), wk =   0.0010667
        k( 1575) = (   0.1866667   0.4772762   0.0000000), wk =   0.0010667
        k( 1576) = (   0.1866667   0.4849742   0.0000000), wk =   0.0010667
        k( 1577) = (   0.1866667   0.4926722   0.0000000), wk =   0.0010667
        k( 1578) = (   0.1866667   0.5003702   0.0000000), wk =   0.0010667
        k( 1579) = (   0.1866667   0.5080682   0.0000000), wk =   0.0010667
        k( 1580) = (   0.1866667   0.5157662   0.0000000), wk =   0.0010667
        k( 1581) = (   0.1866667   0.5234642   0.0000000), wk =   0.0010667
        k( 1582) = (   0.1866667   0.5311622   0.0000000), wk =   0.0010667
        k( 1583) = (   0.1866667   0.5388603   0.0000000), wk =   0.0010667
        k( 1584) = (   0.1866667   0.5465583   0.0000000), wk =   0.0010667
        k( 1585) = (   0.1866667   0.5542563   0.0000000), wk =   0.0010667
        k( 1586) = (   0.1866667   0.5619543   0.0000000), wk =   0.0010667
        k( 1587) = (   0.1866667   0.5696523   0.0000000), wk =   0.0010667
        k( 1588) = (   0.1866667   0.5773503   0.0000000), wk =   0.0005333
        k( 1589) = (   0.1933333   0.3348632   0.0000000), wk =   0.0005333
        k( 1590) = (   0.1933333   0.3425612   0.0000000), wk =   0.0010667
        k( 1591) = (   0.1933333   0.3502592   0.0000000), wk =   0.0010667
        k( 1592) = (   0.1933333   0.3579572   0.0000000), wk =   0.0010667
        k( 1593) = (   0.1933333   0.3656552   0.0000000), wk =   0.0010667
        k( 1594) = (   0.1933333   0.3733532   0.0000000), wk =   0.0010667
        k( 1595) = (   0.1933333   0.3810512   0.0000000), wk =   0.0010667
        k( 1596) = (   0.1933333   0.3887492   0.0000000), wk =   0.0010667
        k( 1597) = (   0.1933333   0.3964472   0.0000000), wk =   0.0010667
        k( 1598) = (   0.1933333   0.4041452   0.0000000), wk =   0.0010667
        k( 1599) = (   0.1933333   0.4118432   0.0000000), wk =   0.0010667
        k( 1600) = (   0.1933333   0.4195412   0.0000000), wk =   0.0010667
        k( 1601) = (   0.1933333   0.4272392   0.0000000), wk =   0.0010667
        k( 1602) = (   0.1933333   0.4349372   0.0000000), wk =   0.0010667
        k( 1603) = (   0.1933333   0.4426352   0.0000000), wk =   0.0010667
        k( 1604) = (   0.1933333   0.4503332   0.0000000), wk =   0.0010667
        k( 1605) = (   0.1933333   0.4580312   0.0000000), wk =   0.0010667
        k( 1606) = (   0.1933333   0.4657292   0.0000000), wk =   0.0010667
        k( 1607) = (   0.1933333   0.4734272   0.0000000), wk =   0.0010667
        k( 1608) = (   0.1933333   0.4811252   0.0000000), wk =   0.0010667
        k( 1609) = (   0.1933333   0.4888232   0.0000000), wk =   0.0010667
        k( 1610) = (   0.1933333   0.4965212   0.0000000), wk =   0.0010667
        k( 1611) = (   0.1933333   0.5042192   0.0000000), wk =   0.0010667
        k( 1612) = (   0.1933333   0.5119172   0.0000000), wk =   0.0010667
        k( 1613) = (   0.1933333   0.5196152   0.0000000), wk =   0.0010667
        k( 1614) = (   0.1933333   0.5273132   0.0000000), wk =   0.0010667
        k( 1615) = (   0.1933333   0.5350112   0.0000000), wk =   0.0010667
        k( 1616) = (   0.1933333   0.5427093   0.0000000), wk =   0.0010667
        k( 1617) = (   0.1933333   0.5504073   0.0000000), wk =   0.0010667
        k( 1618) = (   0.1933333   0.5581053   0.0000000), wk =   0.0010667
        k( 1619) = (   0.1933333   0.5658033   0.0000000), wk =   0.0010667
        k( 1620) = (   0.1933333   0.5735013   0.0000000), wk =   0.0010667
        k( 1621) = (   0.2000000   0.3464102   0.0000000), wk =   0.0005333
        k( 1622) = (   0.2000000   0.3541082   0.0000000), wk =   0.0010667
        k( 1623) = (   0.2000000   0.3618062   0.0000000), wk =   0.0010667
        k( 1624) = (   0.2000000   0.3695042   0.0000000), wk =   0.0010667
        k( 1625) = (   0.2000000   0.3772022   0.0000000), wk =   0.0010667
        k( 1626) = (   0.2000000   0.3849002   0.0000000), wk =   0.0010667
        k( 1627) = (   0.2000000   0.3925982   0.0000000), wk =   0.0010667
        k( 1628) = (   0.2000000   0.4002962   0.0000000), wk =   0.0010667
        k( 1629) = (   0.2000000   0.4079942   0.0000000), wk =   0.0010667
        k( 1630) = (   0.2000000   0.4156922   0.0000000), wk =   0.0010667
        k( 1631) = (   0.2000000   0.4233902   0.0000000), wk =   0.0010667
        k( 1632) = (   0.2000000   0.4310882   0.0000000), wk =   0.0010667
        k( 1633) = (   0.2000000   0.4387862   0.0000000), wk =   0.0010667
        k( 1634) = (   0.2000000   0.4464842   0.0000000), wk =   0.0010667
        k( 1635) = (   0.2000000   0.4541822   0.0000000), wk =   0.0010667
        k( 1636) = (   0.2000000   0.4618802   0.0000000), wk =   0.0010667
        k( 1637) = (   0.2000000   0.4695782   0.0000000), wk =   0.0010667
        k( 1638) = (   0.2000000   0.4772762   0.0000000), wk =   0.0010667
        k( 1639) = (   0.2000000   0.4849742   0.0000000), wk =   0.0010667
        k( 1640) = (   0.2000000   0.4926722   0.0000000), wk =   0.0010667
        k( 1641) = (   0.2000000   0.5003702   0.0000000), wk =   0.0010667
        k( 1642) = (   0.2000000   0.5080682   0.0000000), wk =   0.0010667
        k( 1643) = (   0.2000000   0.5157662   0.0000000), wk =   0.0010667
        k( 1644) = (   0.2000000   0.5234642   0.0000000), wk =   0.0010667
        k( 1645) = (   0.2000000   0.5311622   0.0000000), wk =   0.0010667
        k( 1646) = (   0.2000000   0.5388603   0.0000000), wk =   0.0010667
        k( 1647) = (   0.2000000   0.5465583   0.0000000), wk =   0.0010667
        k( 1648) = (   0.2000000   0.5542563   0.0000000), wk =   0.0010667
        k( 1649) = (   0.2000000   0.5619543   0.0000000), wk =   0.0010667
        k( 1650) = (   0.2000000   0.5696523   0.0000000), wk =   0.0010667
        k( 1651) = (   0.2000000   0.5773503   0.0000000), wk =   0.0005333
        k( 1652) = (   0.2066667   0.3579572   0.0000000), wk =   0.0005333
        k( 1653) = (   0.2066667   0.3656552   0.0000000), wk =   0.0010667
        k( 1654) = (   0.2066667   0.3733532   0.0000000), wk =   0.0010667
        k( 1655) = (   0.2066667   0.3810512   0.0000000), wk =   0.0010667
        k( 1656) = (   0.2066667   0.3887492   0.0000000), wk =   0.0010667
        k( 1657) = (   0.2066667   0.3964472   0.0000000), wk =   0.0010667
        k( 1658) = (   0.2066667   0.4041452   0.0000000), wk =   0.0010667
        k( 1659) = (   0.2066667   0.4118432   0.0000000), wk =   0.0010667
        k( 1660) = (   0.2066667   0.4195412   0.0000000), wk =   0.0010667
        k( 1661) = (   0.2066667   0.4272392   0.0000000), wk =   0.0010667
        k( 1662) = (   0.2066667   0.4349372   0.0000000), wk =   0.0010667
        k( 1663) = (   0.2066667   0.4426352   0.0000000), wk =   0.0010667
        k( 1664) = (   0.2066667   0.4503332   0.0000000), wk =   0.0010667
        k( 1665) = (   0.2066667   0.4580312   0.0000000), wk =   0.0010667
        k( 1666) = (   0.2066667   0.4657292   0.0000000), wk =   0.0010667
        k( 1667) = (   0.2066667   0.4734272   0.0000000), wk =   0.0010667
        k( 1668) = (   0.2066667   0.4811252   0.0000000), wk =   0.0010667
        k( 1669) = (   0.2066667   0.4888232   0.0000000), wk =   0.0010667
        k( 1670) = (   0.2066667   0.4965212   0.0000000), wk =   0.0010667
        k( 1671) = (   0.2066667   0.5042192   0.0000000), wk =   0.0010667
        k( 1672) = (   0.2066667   0.5119172   0.0000000), wk =   0.0010667
        k( 1673) = (   0.2066667   0.5196152   0.0000000), wk =   0.0010667
        k( 1674) = (   0.2066667   0.5273132   0.0000000), wk =   0.0010667
        k( 1675) = (   0.2066667   0.5350112   0.0000000), wk =   0.0010667
        k( 1676) = (   0.2066667   0.5427093   0.0000000), wk =   0.0010667
        k( 1677) = (   0.2066667   0.5504073   0.0000000), wk =   0.0010667
        k( 1678) = (   0.2066667   0.5581053   0.0000000), wk =   0.0010667
        k( 1679) = (   0.2066667   0.5658033   0.0000000), wk =   0.0010667
        k( 1680) = (   0.2066667   0.5735013   0.0000000), wk =   0.0010667
        k( 1681) = (   0.2133333   0.3695042   0.0000000), wk =   0.0005333
        k( 1682) = (   0.2133333   0.3772022   0.0000000), wk =   0.0010667
        k( 1683) = (   0.2133333   0.3849002   0.0000000), wk =   0.0010667
        k( 1684) = (   0.2133333   0.3925982   0.0000000), wk =   0.0010667
        k( 1685) = (   0.2133333   0.4002962   0.0000000), wk =   0.0010667
        k( 1686) = (   0.2133333   0.4079942   0.0000000), wk =   0.0010667
        k( 1687) = (   0.2133333   0.4156922   0.0000000), wk =   0.0010667
        k( 1688) = (   0.2133333   0.4233902   0.0000000), wk =   0.0010667
        k( 1689) = (   0.2133333   0.4310882   0.0000000), wk =   0.0010667
        k( 1690) = (   0.2133333   0.4387862   0.0000000), wk =   0.0010667
        k( 1691) = (   0.2133333   0.4464842   0.0000000), wk =   0.0010667
        k( 1692) = (   0.2133333   0.4541822   0.0000000), wk =   0.0010667
        k( 1693) = (   0.2133333   0.4618802   0.0000000), wk =   0.0010667
        k( 1694) = (   0.2133333   0.4695782   0.0000000), wk =   0.0010667
        k( 1695) = (   0.2133333   0.4772762   0.0000000), wk =   0.0010667
        k( 1696) = (   0.2133333   0.4849742   0.0000000), wk =   0.0010667
        k( 1697) = (   0.2133333   0.4926722   0.0000000), wk =   0.0010667
        k( 1698) = (   0.2133333   0.5003702   0.0000000), wk =   0.0010667
        k( 1699) = (   0.2133333   0.5080682   0.0000000), wk =   0.0010667
        k( 1700) = (   0.2133333   0.5157662   0.0000000), wk =   0.0010667
        k( 1701) = (   0.2133333   0.5234642   0.0000000), wk =   0.0010667
        k( 1702) = (   0.2133333   0.5311622   0.0000000), wk =   0.0010667
        k( 1703) = (   0.2133333   0.5388603   0.0000000), wk =   0.0010667
        k( 1704) = (   0.2133333   0.5465583   0.0000000), wk =   0.0010667
        k( 1705) = (   0.2133333   0.5542563   0.0000000), wk =   0.0010667
        k( 1706) = (   0.2133333   0.5619543   0.0000000), wk =   0.0010667
        k( 1707) = (   0.2133333   0.5696523   0.0000000), wk =   0.0010667
        k( 1708) = (   0.2133333   0.5773503   0.0000000), wk =   0.0005333
        k( 1709) = (   0.2200000   0.3810512   0.0000000), wk =   0.0005333
        k( 1710) = (   0.2200000   0.3887492   0.0000000), wk =   0.0010667
        k( 1711) = (   0.2200000   0.3964472   0.0000000), wk =   0.0010667
        k( 1712) = (   0.2200000   0.4041452   0.0000000), wk =   0.0010667
        k( 1713) = (   0.2200000   0.4118432   0.0000000), wk =   0.0010667
        k( 1714) = (   0.2200000   0.4195412   0.0000000), wk =   0.0010667
        k( 1715) = (   0.2200000   0.4272392   0.0000000), wk =   0.0010667
        k( 1716) = (   0.2200000   0.4349372   0.0000000), wk =   0.0010667
        k( 1717) = (   0.2200000   0.4426352   0.0000000), wk =   0.0010667
        k( 1718) = (   0.2200000   0.4503332   0.0000000), wk =   0.0010667
        k( 1719) = (   0.2200000   0.4580312   0.0000000), wk =   0.0010667
        k( 1720) = (   0.2200000   0.4657292   0.0000000), wk =   0.0010667
        k( 1721) = (   0.2200000   0.4734272   0.0000000), wk =   0.0010667
        k( 1722) = (   0.2200000   0.4811252   0.0000000), wk =   0.0010667
        k( 1723) = (   0.2200000   0.4888232   0.0000000), wk =   0.0010667
        k( 1724) = (   0.2200000   0.4965212   0.0000000), wk =   0.0010667
        k( 1725) = (   0.2200000   0.5042192   0.0000000), wk =   0.0010667
        k( 1726) = (   0.2200000   0.5119172   0.0000000), wk =   0.0010667
        k( 1727) = (   0.2200000   0.5196152   0.0000000), wk =   0.0010667
        k( 1728) = (   0.2200000   0.5273132   0.0000000), wk =   0.0010667
        k( 1729) = (   0.2200000   0.5350112   0.0000000), wk =   0.0010667
        k( 1730) = (   0.2200000   0.5427093   0.0000000), wk =   0.0010667
        k( 1731) = (   0.2200000   0.5504073   0.0000000), wk =   0.0010667
        k( 1732) = (   0.2200000   0.5581053   0.0000000), wk =   0.0010667
        k( 1733) = (   0.2200000   0.5658033   0.0000000), wk =   0.0010667
        k( 1734) = (   0.2200000   0.5735013   0.0000000), wk =   0.0010667
        k( 1735) = (   0.2266667   0.3925982   0.0000000), wk =   0.0005333
        k( 1736) = (   0.2266667   0.4002962   0.0000000), wk =   0.0010667
        k( 1737) = (   0.2266667   0.4079942   0.0000000), wk =   0.0010667
        k( 1738) = (   0.2266667   0.4156922   0.0000000), wk =   0.0010667
        k( 1739) = (   0.2266667   0.4233902   0.0000000), wk =   0.0010667
        k( 1740) = (   0.2266667   0.4310882   0.0000000), wk =   0.0010667
        k( 1741) = (   0.2266667   0.4387862   0.0000000), wk =   0.0010667
        k( 1742) = (   0.2266667   0.4464842   0.0000000), wk =   0.0010667
        k( 1743) = (   0.2266667   0.4541822   0.0000000), wk =   0.0010667
        k( 1744) = (   0.2266667   0.4618802   0.0000000), wk =   0.0010667
        k( 1745) = (   0.2266667   0.4695782   0.0000000), wk =   0.0010667
        k( 1746) = (   0.2266667   0.4772762   0.0000000), wk =   0.0010667
        k( 1747) = (   0.2266667   0.4849742   0.0000000), wk =   0.0010667
        k( 1748) = (   0.2266667   0.4926722   0.0000000), wk =   0.0010667
        k( 1749) = (   0.2266667   0.5003702   0.0000000), wk =   0.0010667
        k( 1750) = (   0.2266667   0.5080682   0.0000000), wk =   0.0010667
        k( 1751) = (   0.2266667   0.5157662   0.0000000), wk =   0.0010667
        k( 1752) = (   0.2266667   0.5234642   0.0000000), wk =   0.0010667
        k( 1753) = (   0.2266667   0.5311622   0.0000000), wk =   0.0010667
        k( 1754) = (   0.2266667   0.5388603   0.0000000), wk =   0.0010667
        k( 1755) = (   0.2266667   0.5465583   0.0000000), wk =   0.0010667
        k( 1756) = (   0.2266667   0.5542563   0.0000000), wk =   0.0010667
        k( 1757) = (   0.2266667   0.5619543   0.0000000), wk =   0.0010667
        k( 1758) = (   0.2266667   0.5696523   0.0000000), wk =   0.0010667
        k( 1759) = (   0.2266667   0.5773503   0.0000000), wk =   0.0005333
        k( 1760) = (   0.2333333   0.4041452   0.0000000), wk =   0.0005333
        k( 1761) = (   0.2333333   0.4118432   0.0000000), wk =   0.0010667
        k( 1762) = (   0.2333333   0.4195412   0.0000000), wk =   0.0010667
        k( 1763) = (   0.2333333   0.4272392   0.0000000), wk =   0.0010667
        k( 1764) = (   0.2333333   0.4349372   0.0000000), wk =   0.0010667
        k( 1765) = (   0.2333333   0.4426352   0.0000000), wk =   0.0010667
        k( 1766) = (   0.2333333   0.4503332   0.0000000), wk =   0.0010667
        k( 1767) = (   0.2333333   0.4580312   0.0000000), wk =   0.0010667
        k( 1768) = (   0.2333333   0.4657292   0.0000000), wk =   0.0010667
        k( 1769) = (   0.2333333   0.4734272   0.0000000), wk =   0.0010667
        k( 1770) = (   0.2333333   0.4811252   0.0000000), wk =   0.0010667
        k( 1771) = (   0.2333333   0.4888232   0.0000000), wk =   0.0010667
        k( 1772) = (   0.2333333   0.4965212   0.0000000), wk =   0.0010667
        k( 1773) = (   0.2333333   0.5042192   0.0000000), wk =   0.0010667
        k( 1774) = (   0.2333333   0.5119172   0.0000000), wk =   0.0010667
        k( 1775) = (   0.2333333   0.5196152   0.0000000), wk =   0.0010667
        k( 1776) = (   0.2333333   0.5273132   0.0000000), wk =   0.0010667
        k( 1777) = (   0.2333333   0.5350112   0.0000000), wk =   0.0010667
        k( 1778) = (   0.2333333   0.5427093   0.0000000), wk =   0.0010667
        k( 1779) = (   0.2333333   0.5504073   0.0000000), wk =   0.0010667
        k( 1780) = (   0.2333333   0.5581053   0.0000000), wk =   0.0010667
        k( 1781) = (   0.2333333   0.5658033   0.0000000), wk =   0.0010667
        k( 1782) = (   0.2333333   0.5735013   0.0000000), wk =   0.0010667
        k( 1783) = (   0.2400000   0.4156922   0.0000000), wk =   0.0005333
        k( 1784) = (   0.2400000   0.4233902   0.0000000), wk =   0.0010667
        k( 1785) = (   0.2400000   0.4310882   0.0000000), wk =   0.0010667
        k( 1786) = (   0.2400000   0.4387862   0.0000000), wk =   0.0010667
        k( 1787) = (   0.2400000   0.4464842   0.0000000), wk =   0.0010667
        k( 1788) = (   0.2400000   0.4541822   0.0000000), wk =   0.0010667
        k( 1789) = (   0.2400000   0.4618802   0.0000000), wk =   0.0010667
        k( 1790) = (   0.2400000   0.4695782   0.0000000), wk =   0.0010667
        k( 1791) = (   0.2400000   0.4772762   0.0000000), wk =   0.0010667
        k( 1792) = (   0.2400000   0.4849742   0.0000000), wk =   0.0010667
        k( 1793) = (   0.2400000   0.4926722   0.0000000), wk =   0.0010667
        k( 1794) = (   0.2400000   0.5003702   0.0000000), wk =   0.0010667
        k( 1795) = (   0.2400000   0.5080682   0.0000000), wk =   0.0010667
        k( 1796) = (   0.2400000   0.5157662   0.0000000), wk =   0.0010667
        k( 1797) = (   0.2400000   0.5234642   0.0000000), wk =   0.0010667
        k( 1798) = (   0.2400000   0.5311622   0.0000000), wk =   0.0010667
        k( 1799) = (   0.2400000   0.5388603   0.0000000), wk =   0.0010667
        k( 1800) = (   0.2400000   0.5465583   0.0000000), wk =   0.0010667
        k( 1801) = (   0.2400000   0.5542563   0.0000000), wk =   0.0010667
        k( 1802) = (   0.2400000   0.5619543   0.0000000), wk =   0.0010667
        k( 1803) = (   0.2400000   0.5696523   0.0000000), wk =   0.0010667
        k( 1804) = (   0.2400000   0.5773503   0.0000000), wk =   0.0005333
        k( 1805) = (   0.2466667   0.4272392   0.0000000), wk =   0.0005333
        k( 1806) = (   0.2466667   0.4349372   0.0000000), wk =   0.0010667
        k( 1807) = (   0.2466667   0.4426352   0.0000000), wk =   0.0010667
        k( 1808) = (   0.2466667   0.4503332   0.0000000), wk =   0.0010667
        k( 1809) = (   0.2466667   0.4580312   0.0000000), wk =   0.0010667
        k( 1810) = (   0.2466667   0.4657292   0.0000000), wk =   0.0010667
        k( 1811) = (   0.2466667   0.4734272   0.0000000), wk =   0.0010667
        k( 1812) = (   0.2466667   0.4811252   0.0000000), wk =   0.0010667
        k( 1813) = (   0.2466667   0.4888232   0.0000000), wk =   0.0010667
        k( 1814) = (   0.2466667   0.4965212   0.0000000), wk =   0.0010667
        k( 1815) = (   0.2466667   0.5042192   0.0000000), wk =   0.0010667
        k( 1816) = (   0.2466667   0.5119172   0.0000000), wk =   0.0010667
        k( 1817) = (   0.2466667   0.5196152   0.0000000), wk =   0.0010667
        k( 1818) = (   0.2466667   0.5273132   0.0000000), wk =   0.0010667
        k( 1819) = (   0.2466667   0.5350112   0.0000000), wk =   0.0010667
        k( 1820) = (   0.2466667   0.5427093   0.0000000), wk =   0.0010667
        k( 1821) = (   0.2466667   0.5504073   0.0000000), wk =   0.0010667
        k( 1822) = (   0.2466667   0.5581053   0.0000000), wk =   0.0010667
        k( 1823) = (   0.2466667   0.5658033   0.0000000), wk =   0.0010667
        k( 1824) = (   0.2466667   0.5735013   0.0000000), wk =   0.0010667
        k( 1825) = (   0.2533333   0.4387862   0.0000000), wk =   0.0005333
        k( 1826) = (   0.2533333   0.4464842   0.0000000), wk =   0.0010667
        k( 1827) = (   0.2533333   0.4541822   0.0000000), wk =   0.0010667
        k( 1828) = (   0.2533333   0.4618802   0.0000000), wk =   0.0010667
        k( 1829) = (   0.2533333   0.4695782   0.0000000), wk =   0.0010667
        k( 1830) = (   0.2533333   0.4772762   0.0000000), wk =   0.0010667
        k( 1831) = (   0.2533333   0.4849742   0.0000000), wk =   0.0010667
        k( 1832) = (   0.2533333   0.4926722   0.0000000), wk =   0.0010667
        k( 1833) = (   0.2533333   0.5003702   0.0000000), wk =   0.0010667
        k( 1834) = (   0.2533333   0.5080682   0.0000000), wk =   0.0010667
        k( 1835) = (   0.2533333   0.5157662   0.0000000), wk =   0.0010667
        k( 1836) = (   0.2533333   0.5234642   0.0000000), wk =   0.0010667
        k( 1837) = (   0.2533333   0.5311622   0.0000000), wk =   0.0010667
        k( 1838) = (   0.2533333   0.5388603   0.0000000), wk =   0.0010667
        k( 1839) = (   0.2533333   0.5465583   0.0000000), wk =   0.0010667
        k( 1840) = (   0.2533333   0.5542563   0.0000000), wk =   0.0010667
        k( 1841) = (   0.2533333   0.5619543   0.0000000), wk =   0.0010667
        k( 1842) = (   0.2533333   0.5696523   0.0000000), wk =   0.0010667
        k( 1843) = (   0.2533333   0.5773503   0.0000000), wk =   0.0005333
        k( 1844) = (   0.2600000   0.4503332   0.0000000), wk =   0.0005333
        k( 1845) = (   0.2600000   0.4580312   0.0000000), wk =   0.0010667
        k( 1846) = (   0.2600000   0.4657292   0.0000000), wk =   0.0010667
        k( 1847) = (   0.2600000   0.4734272   0.0000000), wk =   0.0010667
        k( 1848) = (   0.2600000   0.4811252   0.0000000), wk =   0.0010667
        k( 1849) = (   0.2600000   0.4888232   0.0000000), wk =   0.0010667
        k( 1850) = (   0.2600000   0.4965212   0.0000000), wk =   0.0010667
        k( 1851) = (   0.2600000   0.5042192   0.0000000), wk =   0.0010667
        k( 1852) = (   0.2600000   0.5119172   0.0000000), wk =   0.0010667
        k( 1853) = (   0.2600000   0.5196152   0.0000000), wk =   0.0010667
        k( 1854) = (   0.2600000   0.5273132   0.0000000), wk =   0.0010667
        k( 1855) = (   0.2600000   0.5350112   0.0000000), wk =   0.0010667
        k( 1856) = (   0.2600000   0.5427093   0.0000000), wk =   0.0010667
        k( 1857) = (   0.2600000   0.5504073   0.0000000), wk =   0.0010667
        k( 1858) = (   0.2600000   0.5581053   0.0000000), wk =   0.0010667
        k( 1859) = (   0.2600000   0.5658033   0.0000000), wk =   0.0010667
        k( 1860) = (   0.2600000   0.5735013   0.0000000), wk =   0.0010667
        k( 1861) = (   0.2666667   0.4618802   0.0000000), wk =   0.0005333
        k( 1862) = (   0.2666667   0.4695782   0.0000000), wk =   0.0010667
        k( 1863) = (   0.2666667   0.4772762   0.0000000), wk =   0.0010667
        k( 1864) = (   0.2666667   0.4849742   0.0000000), wk =   0.0010667
        k( 1865) = (   0.2666667   0.4926722   0.0000000), wk =   0.0010667
        k( 1866) = (   0.2666667   0.5003702   0.0000000), wk =   0.0010667
        k( 1867) = (   0.2666667   0.5080682   0.0000000), wk =   0.0010667
        k( 1868) = (   0.2666667   0.5157662   0.0000000), wk =   0.0010667
        k( 1869) = (   0.2666667   0.5234642   0.0000000), wk =   0.0010667
        k( 1870) = (   0.2666667   0.5311622   0.0000000), wk =   0.0010667
        k( 1871) = (   0.2666667   0.5388603   0.0000000), wk =   0.0010667
        k( 1872) = (   0.2666667   0.5465583   0.0000000), wk =   0.0010667
        k( 1873) = (   0.2666667   0.5542563   0.0000000), wk =   0.0010667
        k( 1874) = (   0.2666667   0.5619543   0.0000000), wk =   0.0010667
        k( 1875) = (   0.2666667   0.5696523   0.0000000), wk =   0.0010667
        k( 1876) = (   0.2666667   0.5773503   0.0000000), wk =   0.0005333
        k( 1877) = (   0.2733333   0.4734272   0.0000000), wk =   0.0005333
        k( 1878) = (   0.2733333   0.4811252   0.0000000), wk =   0.0010667
        k( 1879) = (   0.2733333   0.4888232   0.0000000), wk =   0.0010667
        k( 1880) = (   0.2733333   0.4965212   0.0000000), wk =   0.0010667
        k( 1881) = (   0.2733333   0.5042192   0.0000000), wk =   0.0010667
        k( 1882) = (   0.2733333   0.5119172   0.0000000), wk =   0.0010667
        k( 1883) = (   0.2733333   0.5196152   0.0000000), wk =   0.0010667
        k( 1884) = (   0.2733333   0.5273132   0.0000000), wk =   0.0010667
        k( 1885) = (   0.2733333   0.5350112   0.0000000), wk =   0.0010667
        k( 1886) = (   0.2733333   0.5427093   0.0000000), wk =   0.0010667
        k( 1887) = (   0.2733333   0.5504073   0.0000000), wk =   0.0010667
        k( 1888) = (   0.2733333   0.5581053   0.0000000), wk =   0.0010667
        k( 1889) = (   0.2733333   0.5658033   0.0000000), wk =   0.0010667
        k( 1890) = (   0.2733333   0.5735013   0.0000000), wk =   0.0010667
        k( 1891) = (   0.2800000   0.4849742   0.0000000), wk =   0.0005333
        k( 1892) = (   0.2800000   0.4926722   0.0000000), wk =   0.0010667
        k( 1893) = (   0.2800000   0.5003702   0.0000000), wk =   0.0010667
        k( 1894) = (   0.2800000   0.5080682   0.0000000), wk =   0.0010667
        k( 1895) = (   0.2800000   0.5157662   0.0000000), wk =   0.0010667
        k( 1896) = (   0.2800000   0.5234642   0.0000000), wk =   0.0010667
        k( 1897) = (   0.2800000   0.5311622   0.0000000), wk =   0.0010667
        k( 1898) = (   0.2800000   0.5388603   0.0000000), wk =   0.0010667
        k( 1899) = (   0.2800000   0.5465583   0.0000000), wk =   0.0010667
        k( 1900) = (   0.2800000   0.5542563   0.0000000), wk =   0.0010667
        k( 1901) = (   0.2800000   0.5619543   0.0000000), wk =   0.0010667
        k( 1902) = (   0.2800000   0.5696523   0.0000000), wk =   0.0010667
        k( 1903) = (   0.2800000   0.5773503   0.0000000), wk =   0.0005333
        k( 1904) = (   0.2866667   0.4965212   0.0000000), wk =   0.0005333
        k( 1905) = (   0.2866667   0.5042192   0.0000000), wk =   0.0010667
        k( 1906) = (   0.2866667   0.5119172   0.0000000), wk =   0.0010667
        k( 1907) = (   0.2866667   0.5196152   0.0000000), wk =   0.0010667
        k( 1908) = (   0.2866667   0.5273132   0.0000000), wk =   0.0010667
        k( 1909) = (   0.2866667   0.5350112   0.0000000), wk =   0.0010667
        k( 1910) = (   0.2866667   0.5427093   0.0000000), wk =   0.0010667
        k( 1911) = (   0.2866667   0.5504073   0.0000000), wk =   0.0010667
        k( 1912) = (   0.2866667   0.5581053   0.0000000), wk =   0.0010667
        k( 1913) = (   0.2866667   0.5658033   0.0000000), wk =   0.0010667
        k( 1914) = (   0.2866667   0.5735013   0.0000000), wk =   0.0010667
        k( 1915) = (   0.2933333   0.5080682   0.0000000), wk =   0.0005333
        k( 1916) = (   0.2933333   0.5157662   0.0000000), wk =   0.0010667
        k( 1917) = (   0.2933333   0.5234642   0.0000000), wk =   0.0010667
        k( 1918) = (   0.2933333   0.5311622   0.0000000), wk =   0.0010667
        k( 1919) = (   0.2933333   0.5388603   0.0000000), wk =   0.0010667
        k( 1920) = (   0.2933333   0.5465583   0.0000000), wk =   0.0010667
        k( 1921) = (   0.2933333   0.5542563   0.0000000), wk =   0.0010667
        k( 1922) = (   0.2933333   0.5619543   0.0000000), wk =   0.0010667
        k( 1923) = (   0.2933333   0.5696523   0.0000000), wk =   0.0010667
        k( 1924) = (   0.2933333   0.5773503   0.0000000), wk =   0.0005333
        k( 1925) = (   0.3000000   0.5196152   0.0000000), wk =   0.0005333
        k( 1926) = (   0.3000000   0.5273132   0.0000000), wk =   0.0010667
        k( 1927) = (   0.3000000   0.5350112   0.0000000), wk =   0.0010667
        k( 1928) = (   0.3000000   0.5427093   0.0000000), wk =   0.0010667
        k( 1929) = (   0.3000000   0.5504073   0.0000000), wk =   0.0010667
        k( 1930) = (   0.3000000   0.5581053   0.0000000), wk =   0.0010667
        k( 1931) = (   0.3000000   0.5658033   0.0000000), wk =   0.0010667
        k( 1932) = (   0.3000000   0.5735013   0.0000000), wk =   0.0010667
        k( 1933) = (   0.3066667   0.5311622   0.0000000), wk =   0.0005333
        k( 1934) = (   0.3066667   0.5388603   0.0000000), wk =   0.0010667
        k( 1935) = (   0.3066667   0.5465583   0.0000000), wk =   0.0010667
        k( 1936) = (   0.3066667   0.5542563   0.0000000), wk =   0.0010667
        k( 1937) = (   0.3066667   0.5619543   0.0000000), wk =   0.0010667
        k( 1938) = (   0.3066667   0.5696523   0.0000000), wk =   0.0010667
        k( 1939) = (   0.3066667   0.5773503   0.0000000), wk =   0.0005333
        k( 1940) = (   0.3133333   0.5427093   0.0000000), wk =   0.0005333
        k( 1941) = (   0.3133333   0.5504073   0.0000000), wk =   0.0010667
        k( 1942) = (   0.3133333   0.5581053   0.0000000), wk =   0.0010667
        k( 1943) = (   0.3133333   0.5658033   0.0000000), wk =   0.0010667
        k( 1944) = (   0.3133333   0.5735013   0.0000000), wk =   0.0010667
        k( 1945) = (   0.3200000   0.5542563   0.0000000), wk =   0.0005333
        k( 1946) = (   0.3200000   0.5619543   0.0000000), wk =   0.0010667
        k( 1947) = (   0.3200000   0.5696523   0.0000000), wk =   0.0010667
        k( 1948) = (   0.3200000   0.5773503   0.0000000), wk =   0.0005333
        k( 1949) = (   0.3266667   0.5658033   0.0000000), wk =   0.0005333
        k( 1950) = (   0.3266667   0.5735013   0.0000000), wk =   0.0010667
        k( 1951) = (   0.3333333   0.5773503   0.0000000), wk =   0.0001778

                       cryst. coord.
        k(    1) = (   0.0000000   0.0000000   0.0000000), wk =   0.0000889
        k(    2) = (   0.0000000   0.0066667   0.0000000), wk =   0.0005333
        k(    3) = (   0.0000000   0.0133333   0.0000000), wk =   0.0005333
        k(    4) = (   0.0000000   0.0200000   0.0000000), wk =   0.0005333
        k(    5) = (   0.0000000   0.0266667   0.0000000), wk =   0.0005333
        k(    6) = (   0.0000000   0.0333333   0.0000000), wk =   0.0005333
        k(    7) = (   0.0000000   0.0400000   0.0000000), wk =   0.0005333
        k(    8) = (   0.0000000   0.0466667   0.0000000), wk =   0.0005333
        k(    9) = (   0.0000000   0.0533333   0.0000000), wk =   0.0005333
        k(   10) = (   0.0000000   0.0600000   0.0000000), wk =   0.0005333
        k(   11) = (   0.0000000   0.0666667   0.0000000), wk =   0.0005333
        k(   12) = (   0.0000000   0.0733333   0.0000000), wk =   0.0005333
        k(   13) = (   0.0000000   0.0800000   0.0000000), wk =   0.0005333
        k(   14) = (   0.0000000   0.0866667   0.0000000), wk =   0.0005333
        k(   15) = (   0.0000000   0.0933333   0.0000000), wk =   0.0005333
        k(   16) = (   0.0000000   0.1000000   0.0000000), wk =   0.0005333
        k(   17) = (   0.0000000   0.1066667   0.0000000), wk =   0.0005333
        k(   18) = (   0.0000000   0.1133333   0.0000000), wk =   0.0005333
        k(   19) = (   0.0000000   0.1200000   0.0000000), wk =   0.0005333
        k(   20) = (   0.0000000   0.1266667   0.0000000), wk =   0.0005333
        k(   21) = (   0.0000000   0.1333333   0.0000000), wk =   0.0005333
        k(   22) = (   0.0000000   0.1400000   0.0000000), wk =   0.0005333
        k(   23) = (   0.0000000   0.1466667   0.0000000), wk =   0.0005333
        k(   24) = (   0.0000000   0.1533333   0.0000000), wk =   0.0005333
        k(   25) = (   0.0000000   0.1600000   0.0000000), wk =   0.0005333
        k(   26) = (   0.0000000   0.1666667   0.0000000), wk =   0.0005333
        k(   27) = (   0.0000000   0.1733333   0.0000000), wk =   0.0005333
        k(   28) = (   0.0000000   0.1800000   0.0000000), wk =   0.0005333
        k(   29) = (   0.0000000   0.1866667   0.0000000), wk =   0.0005333
        k(   30) = (   0.0000000   0.1933333   0.0000000), wk =   0.0005333
        k(   31) = (   0.0000000   0.2000000   0.0000000), wk =   0.0005333
        k(   32) = (   0.0000000   0.2066667   0.0000000), wk =   0.0005333
        k(   33) = (   0.0000000   0.2133333   0.0000000), wk =   0.0005333
        k(   34) = (   0.0000000   0.2200000   0.0000000), wk =   0.0005333
        k(   35) = (   0.0000000   0.2266667   0.0000000), wk =   0.0005333
        k(   36) = (   0.0000000   0.2333333   0.0000000), wk =   0.0005333
        k(   37) = (   0.0000000   0.2400000   0.0000000), wk =   0.0005333
        k(   38) = (   0.0000000   0.2466667   0.0000000), wk =   0.0005333
        k(   39) = (   0.0000000   0.2533333   0.0000000), wk =   0.0005333
        k(   40) = (   0.0000000   0.2600000   0.0000000), wk =   0.0005333
        k(   41) = (   0.0000000   0.2666667   0.0000000), wk =   0.0005333
        k(   42) = (   0.0000000   0.2733333   0.0000000), wk =   0.0005333
        k(   43) = (   0.0000000   0.2800000   0.0000000), wk =   0.0005333
        k(   44) = (   0.0000000   0.2866667   0.0000000), wk =   0.0005333
        k(   45) = (   0.0000000   0.2933333   0.0000000), wk =   0.0005333
        k(   46) = (   0.0000000   0.3000000   0.0000000), wk =   0.0005333
        k(   47) = (   0.0000000   0.3066667   0.0000000), wk =   0.0005333
        k(   48) = (   0.0000000   0.3133333   0.0000000), wk =   0.0005333
        k(   49) = (   0.0000000   0.3200000   0.0000000), wk =   0.0005333
        k(   50) = (   0.0000000   0.3266667   0.0000000), wk =   0.0005333
        k(   51) = (   0.0000000   0.3333333   0.0000000), wk =   0.0005333
        k(   52) = (   0.0000000   0.3400000   0.0000000), wk =   0.0005333
        k(   53) = (   0.0000000   0.3466667   0.0000000), wk =   0.0005333
        k(   54) = (   0.0000000   0.3533333   0.0000000), wk =   0.0005333
        k(   55) = (   0.0000000   0.3600000   0.0000000), wk =   0.0005333
        k(   56) = (   0.0000000   0.3666667   0.0000000), wk =   0.0005333
        k(   57) = (   0.0000000   0.3733333   0.0000000), wk =   0.0005333
        k(   58) = (   0.0000000   0.3800000   0.0000000), wk =   0.0005333
        k(   59) = (   0.0000000   0.3866667   0.0000000), wk =   0.0005333
        k(   60) = (   0.0000000   0.3933333   0.0000000), wk =   0.0005333
        k(   61) = (   0.0000000   0.4000000   0.0000000), wk =   0.0005333
        k(   62) = (   0.0000000   0.4066667   0.0000000), wk =   0.0005333
        k(   63) = (   0.0000000   0.4133333   0.0000000), wk =   0.0005333
        k(   64) = (   0.0000000   0.4200000   0.0000000), wk =   0.0005333
        k(   65) = (   0.0000000   0.4266667   0.0000000), wk =   0.0005333
        k(   66) = (   0.0000000   0.4333333   0.0000000), wk =   0.0005333
        k(   67) = (   0.0000000   0.4400000   0.0000000), wk =   0.0005333
        k(   68) = (   0.0000000   0.4466667   0.0000000), wk =   0.0005333
        k(   69) = (   0.0000000   0.4533333   0.0000000), wk =   0.0005333
        k(   70) = (   0.0000000   0.4600000   0.0000000), wk =   0.0005333
        k(   71) = (   0.0000000   0.4666667   0.0000000), wk =   0.0005333
        k(   72) = (   0.0000000   0.4733333   0.0000000), wk =   0.0005333
        k(   73) = (   0.0000000   0.4800000   0.0000000), wk =   0.0005333
        k(   74) = (   0.0000000   0.4866667   0.0000000), wk =   0.0005333
        k(   75) = (   0.0000000   0.4933333   0.0000000), wk =   0.0005333
        k(   76) = (   0.0000000  -0.5000000   0.0000000), wk =   0.0002667
        k(   77) = (   0.0066667   0.0066667   0.0000000), wk =   0.0005333
        k(   78) = (   0.0066667   0.0133333   0.0000000), wk =   0.0010667
        k(   79) = (   0.0066667   0.0200000   0.0000000), wk =   0.0010667
        k(   80) = (   0.0066667   0.0266667   0.0000000), wk =   0.0010667
        k(   81) = (   0.0066667   0.0333333   0.0000000), wk =   0.0010667
        k(   82) = (   0.0066667   0.0400000   0.0000000), wk =   0.0010667
        k(   83) = (   0.0066667   0.0466667   0.0000000), wk =   0.0010667
        k(   84) = (   0.0066667   0.0533333   0.0000000), wk =   0.0010667
        k(   85) = (   0.0066667   0.0600000   0.0000000), wk =   0.0010667
        k(   86) = (   0.0066667   0.0666667   0.0000000), wk =   0.0010667
        k(   87) = (   0.0066667   0.0733333   0.0000000), wk =   0.0010667
        k(   88) = (   0.0066667   0.0800000   0.0000000), wk =   0.0010667
        k(   89) = (   0.0066667   0.0866667   0.0000000), wk =   0.0010667
        k(   90) = (   0.0066667   0.0933333   0.0000000), wk =   0.0010667
        k(   91) = (   0.0066667   0.1000000   0.0000000), wk =   0.0010667
        k(   92) = (   0.0066667   0.1066667   0.0000000), wk =   0.0010667
        k(   93) = (   0.0066667   0.1133333   0.0000000), wk =   0.0010667
        k(   94) = (   0.0066667   0.1200000   0.0000000), wk =   0.0010667
        k(   95) = (   0.0066667   0.1266667   0.0000000), wk =   0.0010667
        k(   96) = (   0.0066667   0.1333333   0.0000000), wk =   0.0010667
        k(   97) = (   0.0066667   0.1400000   0.0000000), wk =   0.0010667
        k(   98) = (   0.0066667   0.1466667   0.0000000), wk =   0.0010667
        k(   99) = (   0.0066667   0.1533333   0.0000000), wk =   0.0010667
        k(  100) = (   0.0066667   0.1600000   0.0000000), wk =   0.0010667
        k(  101) = (   0.0066667   0.1666667   0.0000000), wk =   0.0010667
        k(  102) = (   0.0066667   0.1733333   0.0000000), wk =   0.0010667
        k(  103) = (   0.0066667   0.1800000   0.0000000), wk =   0.0010667
        k(  104) = (   0.0066667   0.1866667   0.0000000), wk =   0.0010667
        k(  105) = (   0.0066667   0.1933333   0.0000000), wk =   0.0010667
        k(  106) = (   0.0066667   0.2000000   0.0000000), wk =   0.0010667
        k(  107) = (   0.0066667   0.2066667   0.0000000), wk =   0.0010667
        k(  108) = (   0.0066667   0.2133333   0.0000000), wk =   0.0010667
        k(  109) = (   0.0066667   0.2200000   0.0000000), wk =   0.0010667
        k(  110) = (   0.0066667   0.2266667   0.0000000), wk =   0.0010667
        k(  111) = (   0.0066667   0.2333333   0.0000000), wk =   0.0010667
        k(  112) = (   0.0066667   0.2400000   0.0000000), wk =   0.0010667
        k(  113) = (   0.0066667   0.2466667   0.0000000), wk =   0.0010667
        k(  114) = (   0.0066667   0.2533333   0.0000000), wk =   0.0010667
        k(  115) = (   0.0066667   0.2600000   0.0000000), wk =   0.0010667
        k(  116) = (   0.0066667   0.2666667   0.0000000), wk =   0.0010667
        k(  117) = (   0.0066667   0.2733333   0.0000000), wk =   0.0010667
        k(  118) = (   0.0066667   0.2800000   0.0000000), wk =   0.0010667
        k(  119) = (   0.0066667   0.2866667   0.0000000), wk =   0.0010667
        k(  120) = (   0.0066667   0.2933333   0.0000000), wk =   0.0010667
        k(  121) = (   0.0066667   0.3000000   0.0000000), wk =   0.0010667
        k(  122) = (   0.0066667   0.3066667   0.0000000), wk =   0.0010667
        k(  123) = (   0.0066667   0.3133333   0.0000000), wk =   0.0010667
        k(  124) = (   0.0066667   0.3200000   0.0000000), wk =   0.0010667
        k(  125) = (   0.0066667   0.3266667   0.0000000), wk =   0.0010667
        k(  126) = (   0.0066667   0.3333333   0.0000000), wk =   0.0010667
        k(  127) = (   0.0066667   0.3400000   0.0000000), wk =   0.0010667
        k(  128) = (   0.0066667   0.3466667   0.0000000), wk =   0.0010667
        k(  129) = (   0.0066667   0.3533333   0.0000000), wk =   0.0010667
        k(  130) = (   0.0066667   0.3600000   0.0000000), wk =   0.0010667
        k(  131) = (   0.0066667   0.3666667   0.0000000), wk =   0.0010667
        k(  132) = (   0.0066667   0.3733333   0.0000000), wk =   0.0010667
        k(  133) = (   0.0066667   0.3800000   0.0000000), wk =   0.0010667
        k(  134) = (   0.0066667   0.3866667   0.0000000), wk =   0.0010667
        k(  135) = (   0.0066667   0.3933333   0.0000000), wk =   0.0010667
        k(  136) = (   0.0066667   0.4000000   0.0000000), wk =   0.0010667
        k(  137) = (   0.0066667   0.4066667   0.0000000), wk =   0.0010667
        k(  138) = (   0.0066667   0.4133333   0.0000000), wk =   0.0010667
        k(  139) = (   0.0066667   0.4200000   0.0000000), wk =   0.0010667
        k(  140) = (   0.0066667   0.4266667   0.0000000), wk =   0.0010667
        k(  141) = (   0.0066667   0.4333333   0.0000000), wk =   0.0010667
        k(  142) = (   0.0066667   0.4400000   0.0000000), wk =   0.0010667
        k(  143) = (   0.0066667   0.4466667   0.0000000), wk =   0.0010667
        k(  144) = (   0.0066667   0.4533333   0.0000000), wk =   0.0010667
        k(  145) = (   0.0066667   0.4600000   0.0000000), wk =   0.0010667
        k(  146) = (   0.0066667   0.4666667   0.0000000), wk =   0.0010667
        k(  147) = (   0.0066667   0.4733333   0.0000000), wk =   0.0010667
        k(  148) = (   0.0066667   0.4800000   0.0000000), wk =   0.0010667
        k(  149) = (   0.0066667   0.4866667   0.0000000), wk =   0.0010667
        k(  150) = (   0.0066667   0.4933333   0.0000000), wk =   0.0010667
        k(  151) = (   0.0133333   0.0133333   0.0000000), wk =   0.0005333
        k(  152) = (   0.0133333   0.0200000   0.0000000), wk =   0.0010667
        k(  153) = (   0.0133333   0.0266667   0.0000000), wk =   0.0010667
        k(  154) = (   0.0133333   0.0333333   0.0000000), wk =   0.0010667
        k(  155) = (   0.0133333   0.0400000   0.0000000), wk =   0.0010667
        k(  156) = (   0.0133333   0.0466667   0.0000000), wk =   0.0010667
        k(  157) = (   0.0133333   0.0533333   0.0000000), wk =   0.0010667
        k(  158) = (   0.0133333   0.0600000   0.0000000), wk =   0.0010667
        k(  159) = (   0.0133333   0.0666667   0.0000000), wk =   0.0010667
        k(  160) = (   0.0133333   0.0733333   0.0000000), wk =   0.0010667
        k(  161) = (   0.0133333   0.0800000   0.0000000), wk =   0.0010667
        k(  162) = (   0.0133333   0.0866667   0.0000000), wk =   0.0010667
        k(  163) = (   0.0133333   0.0933333   0.0000000), wk =   0.0010667
        k(  164) = (   0.0133333   0.1000000   0.0000000), wk =   0.0010667
        k(  165) = (   0.0133333   0.1066667   0.0000000), wk =   0.0010667
        k(  166) = (   0.0133333   0.1133333   0.0000000), wk =   0.0010667
        k(  167) = (   0.0133333   0.1200000   0.0000000), wk =   0.0010667
        k(  168) = (   0.0133333   0.1266667   0.0000000), wk =   0.0010667
        k(  169) = (   0.0133333   0.1333333   0.0000000), wk =   0.0010667
        k(  170) = (   0.0133333   0.1400000   0.0000000), wk =   0.0010667
        k(  171) = (   0.0133333   0.1466667   0.0000000), wk =   0.0010667
        k(  172) = (   0.0133333   0.1533333   0.0000000), wk =   0.0010667
        k(  173) = (   0.0133333   0.1600000   0.0000000), wk =   0.0010667
        k(  174) = (   0.0133333   0.1666667   0.0000000), wk =   0.0010667
        k(  175) = (   0.0133333   0.1733333   0.0000000), wk =   0.0010667
        k(  176) = (   0.0133333   0.1800000   0.0000000), wk =   0.0010667
        k(  177) = (   0.0133333   0.1866667   0.0000000), wk =   0.0010667
        k(  178) = (   0.0133333   0.1933333   0.0000000), wk =   0.0010667
        k(  179) = (   0.0133333   0.2000000   0.0000000), wk =   0.0010667
        k(  180) = (   0.0133333   0.2066667   0.0000000), wk =   0.0010667
        k(  181) = (   0.0133333   0.2133333   0.0000000), wk =   0.0010667
        k(  182) = (   0.0133333   0.2200000   0.0000000), wk =   0.0010667
        k(  183) = (   0.0133333   0.2266667   0.0000000), wk =   0.0010667
        k(  184) = (   0.0133333   0.2333333   0.0000000), wk =   0.0010667
        k(  185) = (   0.0133333   0.2400000   0.0000000), wk =   0.0010667
        k(  186) = (   0.0133333   0.2466667   0.0000000), wk =   0.0010667
        k(  187) = (   0.0133333   0.2533333   0.0000000), wk =   0.0010667
        k(  188) = (   0.0133333   0.2600000   0.0000000), wk =   0.0010667
        k(  189) = (   0.0133333   0.2666667   0.0000000), wk =   0.0010667
        k(  190) = (   0.0133333   0.2733333   0.0000000), wk =   0.0010667
        k(  191) = (   0.0133333   0.2800000   0.0000000), wk =   0.0010667
        k(  192) = (   0.0133333   0.2866667   0.0000000), wk =   0.0010667
        k(  193) = (   0.0133333   0.2933333   0.0000000), wk =   0.0010667
        k(  194) = (   0.0133333   0.3000000   0.0000000), wk =   0.0010667
        k(  195) = (   0.0133333   0.3066667   0.0000000), wk =   0.0010667
        k(  196) = (   0.0133333   0.3133333   0.0000000), wk =   0.0010667
        k(  197) = (   0.0133333   0.3200000   0.0000000), wk =   0.0010667
        k(  198) = (   0.0133333   0.3266667   0.0000000), wk =   0.0010667
        k(  199) = (   0.0133333   0.3333333   0.0000000), wk =   0.0010667
        k(  200) = (   0.0133333   0.3400000   0.0000000), wk =   0.0010667
        k(  201) = (   0.0133333   0.3466667   0.0000000), wk =   0.0010667
        k(  202) = (   0.0133333   0.3533333   0.0000000), wk =   0.0010667
        k(  203) = (   0.0133333   0.3600000   0.0000000), wk =   0.0010667
        k(  204) = (   0.0133333   0.3666667   0.0000000), wk =   0.0010667
        k(  205) = (   0.0133333   0.3733333   0.0000000), wk =   0.0010667
        k(  206) = (   0.0133333   0.3800000   0.0000000), wk =   0.0010667
        k(  207) = (   0.0133333   0.3866667   0.0000000), wk =   0.0010667
        k(  208) = (   0.0133333   0.3933333   0.0000000), wk =   0.0010667
        k(  209) = (   0.0133333   0.4000000   0.0000000), wk =   0.0010667
        k(  210) = (   0.0133333   0.4066667   0.0000000), wk =   0.0010667
        k(  211) = (   0.0133333   0.4133333   0.0000000), wk =   0.0010667
        k(  212) = (   0.0133333   0.4200000   0.0000000), wk =   0.0010667
        k(  213) = (   0.0133333   0.4266667   0.0000000), wk =   0.0010667
        k(  214) = (   0.0133333   0.4333333   0.0000000), wk =   0.0010667
        k(  215) = (   0.0133333   0.4400000   0.0000000), wk =   0.0010667
        k(  216) = (   0.0133333   0.4466667   0.0000000), wk =   0.0010667
        k(  217) = (   0.0133333   0.4533333   0.0000000), wk =   0.0010667
        k(  218) = (   0.0133333   0.4600000   0.0000000), wk =   0.0010667
        k(  219) = (   0.0133333   0.4666667   0.0000000), wk =   0.0010667
        k(  220) = (   0.0133333   0.4733333   0.0000000), wk =   0.0010667
        k(  221) = (   0.0133333   0.4800000   0.0000000), wk =   0.0010667
        k(  222) = (   0.0133333   0.4866667   0.0000000), wk =   0.0010667
        k(  223) = (   0.0133333   0.4933333   0.0000000), wk =   0.0005333
        k(  224) = (   0.0200000   0.0200000   0.0000000), wk =   0.0005333
        k(  225) = (   0.0200000   0.0266667   0.0000000), wk =   0.0010667
        k(  226) = (   0.0200000   0.0333333   0.0000000), wk =   0.0010667
        k(  227) = (   0.0200000   0.0400000   0.0000000), wk =   0.0010667
        k(  228) = (   0.0200000   0.0466667   0.0000000), wk =   0.0010667
        k(  229) = (   0.0200000   0.0533333   0.0000000), wk =   0.0010667
        k(  230) = (   0.0200000   0.0600000   0.0000000), wk =   0.0010667
        k(  231) = (   0.0200000   0.0666667   0.0000000), wk =   0.0010667
        k(  232) = (   0.0200000   0.0733333   0.0000000), wk =   0.0010667
        k(  233) = (   0.0200000   0.0800000   0.0000000), wk =   0.0010667
        k(  234) = (   0.0200000   0.0866667   0.0000000), wk =   0.0010667
        k(  235) = (   0.0200000   0.0933333   0.0000000), wk =   0.0010667
        k(  236) = (   0.0200000   0.1000000   0.0000000), wk =   0.0010667
        k(  237) = (   0.0200000   0.1066667   0.0000000), wk =   0.0010667
        k(  238) = (   0.0200000   0.1133333   0.0000000), wk =   0.0010667
        k(  239) = (   0.0200000   0.1200000   0.0000000), wk =   0.0010667
        k(  240) = (   0.0200000   0.1266667   0.0000000), wk =   0.0010667
        k(  241) = (   0.0200000   0.1333333   0.0000000), wk =   0.0010667
        k(  242) = (   0.0200000   0.1400000   0.0000000), wk =   0.0010667
        k(  243) = (   0.0200000   0.1466667   0.0000000), wk =   0.0010667
        k(  244) = (   0.0200000   0.1533333   0.0000000), wk =   0.0010667
        k(  245) = (   0.0200000   0.1600000   0.0000000), wk =   0.0010667
        k(  246) = (   0.0200000   0.1666667   0.0000000), wk =   0.0010667
        k(  247) = (   0.0200000   0.1733333   0.0000000), wk =   0.0010667
        k(  248) = (   0.0200000   0.1800000   0.0000000), wk =   0.0010667
        k(  249) = (   0.0200000   0.1866667   0.0000000), wk =   0.0010667
        k(  250) = (   0.0200000   0.1933333   0.0000000), wk =   0.0010667
        k(  251) = (   0.0200000   0.2000000   0.0000000), wk =   0.0010667
        k(  252) = (   0.0200000   0.2066667   0.0000000), wk =   0.0010667
        k(  253) = (   0.0200000   0.2133333   0.0000000), wk =   0.0010667
        k(  254) = (   0.0200000   0.2200000   0.0000000), wk =   0.0010667
        k(  255) = (   0.0200000   0.2266667   0.0000000), wk =   0.0010667
        k(  256) = (   0.0200000   0.2333333   0.0000000), wk =   0.0010667
        k(  257) = (   0.0200000   0.2400000   0.0000000), wk =   0.0010667
        k(  258) = (   0.0200000   0.2466667   0.0000000), wk =   0.0010667
        k(  259) = (   0.0200000   0.2533333   0.0000000), wk =   0.0010667
        k(  260) = (   0.0200000   0.2600000   0.0000000), wk =   0.0010667
        k(  261) = (   0.0200000   0.2666667   0.0000000), wk =   0.0010667
        k(  262) = (   0.0200000   0.2733333   0.0000000), wk =   0.0010667
        k(  263) = (   0.0200000   0.2800000   0.0000000), wk =   0.0010667
        k(  264) = (   0.0200000   0.2866667   0.0000000), wk =   0.0010667
        k(  265) = (   0.0200000   0.2933333   0.0000000), wk =   0.0010667
        k(  266) = (   0.0200000   0.3000000   0.0000000), wk =   0.0010667
        k(  267) = (   0.0200000   0.3066667   0.0000000), wk =   0.0010667
        k(  268) = (   0.0200000   0.3133333   0.0000000), wk =   0.0010667
        k(  269) = (   0.0200000   0.3200000   0.0000000), wk =   0.0010667
        k(  270) = (   0.0200000   0.3266667   0.0000000), wk =   0.0010667
        k(  271) = (   0.0200000   0.3333333   0.0000000), wk =   0.0010667
        k(  272) = (   0.0200000   0.3400000   0.0000000), wk =   0.0010667
        k(  273) = (   0.0200000   0.3466667   0.0000000), wk =   0.0010667
        k(  274) = (   0.0200000   0.3533333   0.0000000), wk =   0.0010667
        k(  275) = (   0.0200000   0.3600000   0.0000000), wk =   0.0010667
        k(  276) = (   0.0200000   0.3666667   0.0000000), wk =   0.0010667
        k(  277) = (   0.0200000   0.3733333   0.0000000), wk =   0.0010667
        k(  278) = (   0.0200000   0.3800000   0.0000000), wk =   0.0010667
        k(  279) = (   0.0200000   0.3866667   0.0000000), wk =   0.0010667
        k(  280) = (   0.0200000   0.3933333   0.0000000), wk =   0.0010667
        k(  281) = (   0.0200000   0.4000000   0.0000000), wk =   0.0010667
        k(  282) = (   0.0200000   0.4066667   0.0000000), wk =   0.0010667
        k(  283) = (   0.0200000   0.4133333   0.0000000), wk =   0.0010667
        k(  284) = (   0.0200000   0.4200000   0.0000000), wk =   0.0010667
        k(  285) = (   0.0200000   0.4266667   0.0000000), wk =   0.0010667
        k(  286) = (   0.0200000   0.4333333   0.0000000), wk =   0.0010667
        k(  287) = (   0.0200000   0.4400000   0.0000000), wk =   0.0010667
        k(  288) = (   0.0200000   0.4466667   0.0000000), wk =   0.0010667
        k(  289) = (   0.0200000   0.4533333   0.0000000), wk =   0.0010667
        k(  290) = (   0.0200000   0.4600000   0.0000000), wk =   0.0010667
        k(  291) = (   0.0200000   0.4666667   0.0000000), wk =   0.0010667
        k(  292) = (   0.0200000   0.4733333   0.0000000), wk =   0.0010667
        k(  293) = (   0.0200000   0.4800000   0.0000000), wk =   0.0010667
        k(  294) = (   0.0200000   0.4866667   0.0000000), wk =   0.0010667
        k(  295) = (   0.0266667   0.0266667   0.0000000), wk =   0.0005333
        k(  296) = (   0.0266667   0.0333333   0.0000000), wk =   0.0010667
        k(  297) = (   0.0266667   0.0400000   0.0000000), wk =   0.0010667
        k(  298) = (   0.0266667   0.0466667   0.0000000), wk =   0.0010667
        k(  299) = (   0.0266667   0.0533333   0.0000000), wk =   0.0010667
        k(  300) = (   0.0266667   0.0600000   0.0000000), wk =   0.0010667
        k(  301) = (   0.0266667   0.0666667   0.0000000), wk =   0.0010667
        k(  302) = (   0.0266667   0.0733333   0.0000000), wk =   0.0010667
        k(  303) = (   0.0266667   0.0800000   0.0000000), wk =   0.0010667
        k(  304) = (   0.0266667   0.0866667   0.0000000), wk =   0.0010667
        k(  305) = (   0.0266667   0.0933333   0.0000000), wk =   0.0010667
        k(  306) = (   0.0266667   0.1000000   0.0000000), wk =   0.0010667
        k(  307) = (   0.0266667   0.1066667   0.0000000), wk =   0.0010667
        k(  308) = (   0.0266667   0.1133333   0.0000000), wk =   0.0010667
        k(  309) = (   0.0266667   0.1200000   0.0000000), wk =   0.0010667
        k(  310) = (   0.0266667   0.1266667   0.0000000), wk =   0.0010667
        k(  311) = (   0.0266667   0.1333333   0.0000000), wk =   0.0010667
        k(  312) = (   0.0266667   0.1400000   0.0000000), wk =   0.0010667
        k(  313) = (   0.0266667   0.1466667   0.0000000), wk =   0.0010667
        k(  314) = (   0.0266667   0.1533333   0.0000000), wk =   0.0010667
        k(  315) = (   0.0266667   0.1600000   0.0000000), wk =   0.0010667
        k(  316) = (   0.0266667   0.1666667   0.0000000), wk =   0.0010667
        k(  317) = (   0.0266667   0.1733333   0.0000000), wk =   0.0010667
        k(  318) = (   0.0266667   0.1800000   0.0000000), wk =   0.0010667
        k(  319) = (   0.0266667   0.1866667   0.0000000), wk =   0.0010667
        k(  320) = (   0.0266667   0.1933333   0.0000000), wk =   0.0010667
        k(  321) = (   0.0266667   0.2000000   0.0000000), wk =   0.0010667
        k(  322) = (   0.0266667   0.2066667   0.0000000), wk =   0.0010667
        k(  323) = (   0.0266667   0.2133333   0.0000000), wk =   0.0010667
        k(  324) = (   0.0266667   0.2200000   0.0000000), wk =   0.0010667
        k(  325) = (   0.0266667   0.2266667   0.0000000), wk =   0.0010667
        k(  326) = (   0.0266667   0.2333333   0.0000000), wk =   0.0010667
        k(  327) = (   0.0266667   0.2400000   0.0000000), wk =   0.0010667
        k(  328) = (   0.0266667   0.2466667   0.0000000), wk =   0.0010667
        k(  329) = (   0.0266667   0.2533333   0.0000000), wk =   0.0010667
        k(  330) = (   0.0266667   0.2600000   0.0000000), wk =   0.0010667
        k(  331) = (   0.0266667   0.2666667   0.0000000), wk =   0.0010667
        k(  332) = (   0.0266667   0.2733333   0.0000000), wk =   0.0010667
        k(  333) = (   0.0266667   0.2800000   0.0000000), wk =   0.0010667
        k(  334) = (   0.0266667   0.2866667   0.0000000), wk =   0.0010667
        k(  335) = (   0.0266667   0.2933333   0.0000000), wk =   0.0010667
        k(  336) = (   0.0266667   0.3000000   0.0000000), wk =   0.0010667
        k(  337) = (   0.0266667   0.3066667   0.0000000), wk =   0.0010667
        k(  338) = (   0.0266667   0.3133333   0.0000000), wk =   0.0010667
        k(  339) = (   0.0266667   0.3200000   0.0000000), wk =   0.0010667
        k(  340) = (   0.0266667   0.3266667   0.0000000), wk =   0.0010667
        k(  341) = (   0.0266667   0.3333333   0.0000000), wk =   0.0010667
        k(  342) = (   0.0266667   0.3400000   0.0000000), wk =   0.0010667
        k(  343) = (   0.0266667   0.3466667   0.0000000), wk =   0.0010667
        k(  344) = (   0.0266667   0.3533333   0.0000000), wk =   0.0010667
        k(  345) = (   0.0266667   0.3600000   0.0000000), wk =   0.0010667
        k(  346) = (   0.0266667   0.3666667   0.0000000), wk =   0.0010667
        k(  347) = (   0.0266667   0.3733333   0.0000000), wk =   0.0010667
        k(  348) = (   0.0266667   0.3800000   0.0000000), wk =   0.0010667
        k(  349) = (   0.0266667   0.3866667   0.0000000), wk =   0.0010667
        k(  350) = (   0.0266667   0.3933333   0.0000000), wk =   0.0010667
        k(  351) = (   0.0266667   0.4000000   0.0000000), wk =   0.0010667
        k(  352) = (   0.0266667   0.4066667   0.0000000), wk =   0.0010667
        k(  353) = (   0.0266667   0.4133333   0.0000000), wk =   0.0010667
        k(  354) = (   0.0266667   0.4200000   0.0000000), wk =   0.0010667
        k(  355) = (   0.0266667   0.4266667   0.0000000), wk =   0.0010667
        k(  356) = (   0.0266667   0.4333333   0.0000000), wk =   0.0010667
        k(  357) = (   0.0266667   0.4400000   0.0000000), wk =   0.0010667
        k(  358) = (   0.0266667   0.4466667   0.0000000), wk =   0.0010667
        k(  359) = (   0.0266667   0.4533333   0.0000000), wk =   0.0010667
        k(  360) = (   0.0266667   0.4600000   0.0000000), wk =   0.0010667
        k(  361) = (   0.0266667   0.4666667   0.0000000), wk =   0.0010667
        k(  362) = (   0.0266667   0.4733333   0.0000000), wk =   0.0010667
        k(  363) = (   0.0266667   0.4800000   0.0000000), wk =   0.0010667
        k(  364) = (   0.0266667   0.4866667   0.0000000), wk =   0.0005333
        k(  365) = (   0.0333333   0.0333333   0.0000000), wk =   0.0005333
        k(  366) = (   0.0333333   0.0400000   0.0000000), wk =   0.0010667
        k(  367) = (   0.0333333   0.0466667   0.0000000), wk =   0.0010667
        k(  368) = (   0.0333333   0.0533333   0.0000000), wk =   0.0010667
        k(  369) = (   0.0333333   0.0600000   0.0000000), wk =   0.0010667
        k(  370) = (   0.0333333   0.0666667   0.0000000), wk =   0.0010667
        k(  371) = (   0.0333333   0.0733333   0.0000000), wk =   0.0010667
        k(  372) = (   0.0333333   0.0800000   0.0000000), wk =   0.0010667
        k(  373) = (   0.0333333   0.0866667   0.0000000), wk =   0.0010667
        k(  374) = (   0.0333333   0.0933333   0.0000000), wk =   0.0010667
        k(  375) = (   0.0333333   0.1000000   0.0000000), wk =   0.0010667
        k(  376) = (   0.0333333   0.1066667   0.0000000), wk =   0.0010667
        k(  377) = (   0.0333333   0.1133333   0.0000000), wk =   0.0010667
        k(  378) = (   0.0333333   0.1200000   0.0000000), wk =   0.0010667
        k(  379) = (   0.0333333   0.1266667   0.0000000), wk =   0.0010667
        k(  380) = (   0.0333333   0.1333333   0.0000000), wk =   0.0010667
        k(  381) = (   0.0333333   0.1400000   0.0000000), wk =   0.0010667
        k(  382) = (   0.0333333   0.1466667   0.0000000), wk =   0.0010667
        k(  383) = (   0.0333333   0.1533333   0.0000000), wk =   0.0010667
        k(  384) = (   0.0333333   0.1600000   0.0000000), wk =   0.0010667
        k(  385) = (   0.0333333   0.1666667   0.0000000), wk =   0.0010667
        k(  386) = (   0.0333333   0.1733333   0.0000000), wk =   0.0010667
        k(  387) = (   0.0333333   0.1800000   0.0000000), wk =   0.0010667
        k(  388) = (   0.0333333   0.1866667   0.0000000), wk =   0.0010667
        k(  389) = (   0.0333333   0.1933333   0.0000000), wk =   0.0010667
        k(  390) = (   0.0333333   0.2000000   0.0000000), wk =   0.0010667
        k(  391) = (   0.0333333   0.2066667   0.0000000), wk =   0.0010667
        k(  392) = (   0.0333333   0.2133333   0.0000000), wk =   0.0010667
        k(  393) = (   0.0333333   0.2200000   0.0000000), wk =   0.0010667
        k(  394) = (   0.0333333   0.2266667   0.0000000), wk =   0.0010667
        k(  395) = (   0.0333333   0.2333333   0.0000000), wk =   0.0010667
        k(  396) = (   0.0333333   0.2400000   0.0000000), wk =   0.0010667
        k(  397) = (   0.0333333   0.2466667   0.0000000), wk =   0.0010667
        k(  398) = (   0.0333333   0.2533333   0.0000000), wk =   0.0010667
        k(  399) = (   0.0333333   0.2600000   0.0000000), wk =   0.0010667
        k(  400) = (   0.0333333   0.2666667   0.0000000), wk =   0.0010667
        k(  401) = (   0.0333333   0.2733333   0.0000000), wk =   0.0010667
        k(  402) = (   0.0333333   0.2800000   0.0000000), wk =   0.0010667
        k(  403) = (   0.0333333   0.2866667   0.0000000), wk =   0.0010667
        k(  404) = (   0.0333333   0.2933333   0.0000000), wk =   0.0010667
        k(  405) = (   0.0333333   0.3000000   0.0000000), wk =   0.0010667
        k(  406) = (   0.0333333   0.3066667   0.0000000), wk =   0.0010667
        k(  407) = (   0.0333333   0.3133333   0.0000000), wk =   0.0010667
        k(  408) = (   0.0333333   0.3200000   0.0000000), wk =   0.0010667
        k(  409) = (   0.0333333   0.3266667   0.0000000), wk =   0.0010667
        k(  410) = (   0.0333333   0.3333333   0.0000000), wk =   0.0010667
        k(  411) = (   0.0333333   0.3400000   0.0000000), wk =   0.0010667
        k(  412) = (   0.0333333   0.3466667   0.0000000), wk =   0.0010667
        k(  413) = (   0.0333333   0.3533333   0.0000000), wk =   0.0010667
        k(  414) = (   0.0333333   0.3600000   0.0000000), wk =   0.0010667
        k(  415) = (   0.0333333   0.3666667   0.0000000), wk =   0.0010667
        k(  416) = (   0.0333333   0.3733333   0.0000000), wk =   0.0010667
        k(  417) = (   0.0333333   0.3800000   0.0000000), wk =   0.0010667
        k(  418) = (   0.0333333   0.3866667   0.0000000), wk =   0.0010667
        k(  419) = (   0.0333333   0.3933333   0.0000000), wk =   0.0010667
        k(  420) = (   0.0333333   0.4000000   0.0000000), wk =   0.0010667
        k(  421) = (   0.0333333   0.4066667   0.0000000), wk =   0.0010667
        k(  422) = (   0.0333333   0.4133333   0.0000000), wk =   0.0010667
        k(  423) = (   0.0333333   0.4200000   0.0000000), wk =   0.0010667
        k(  424) = (   0.0333333   0.4266667   0.0000000), wk =   0.0010667
        k(  425) = (   0.0333333   0.4333333   0.0000000), wk =   0.0010667
        k(  426) = (   0.0333333   0.4400000   0.0000000), wk =   0.0010667
        k(  427) = (   0.0333333   0.4466667   0.0000000), wk =   0.0010667
        k(  428) = (   0.0333333   0.4533333   0.0000000), wk =   0.0010667
        k(  429) = (   0.0333333   0.4600000   0.0000000), wk =   0.0010667
        k(  430) = (   0.0333333   0.4666667   0.0000000), wk =   0.0010667
        k(  431) = (   0.0333333   0.4733333   0.0000000), wk =   0.0010667
        k(  432) = (   0.0333333   0.4800000   0.0000000), wk =   0.0010667
        k(  433) = (   0.0400000   0.0400000   0.0000000), wk =   0.0005333
        k(  434) = (   0.0400000   0.0466667   0.0000000), wk =   0.0010667
        k(  435) = (   0.0400000   0.0533333   0.0000000), wk =   0.0010667
        k(  436) = (   0.0400000   0.0600000   0.0000000), wk =   0.0010667
        k(  437) = (   0.0400000   0.0666667   0.0000000), wk =   0.0010667
        k(  438) = (   0.0400000   0.0733333   0.0000000), wk =   0.0010667
        k(  439) = (   0.0400000   0.0800000   0.0000000), wk =   0.0010667
        k(  440) = (   0.0400000   0.0866667   0.0000000), wk =   0.0010667
        k(  441) = (   0.0400000   0.0933333   0.0000000), wk =   0.0010667
        k(  442) = (   0.0400000   0.1000000   0.0000000), wk =   0.0010667
        k(  443) = (   0.0400000   0.1066667   0.0000000), wk =   0.0010667
        k(  444) = (   0.0400000   0.1133333   0.0000000), wk =   0.0010667
        k(  445) = (   0.0400000   0.1200000   0.0000000), wk =   0.0010667
        k(  446) = (   0.0400000   0.1266667   0.0000000), wk =   0.0010667
        k(  447) = (   0.0400000   0.1333333   0.0000000), wk =   0.0010667
        k(  448) = (   0.0400000   0.1400000   0.0000000), wk =   0.0010667
        k(  449) = (   0.0400000   0.1466667   0.0000000), wk =   0.0010667
        k(  450) = (   0.0400000   0.1533333   0.0000000), wk =   0.0010667
        k(  451) = (   0.0400000   0.1600000   0.0000000), wk =   0.0010667
        k(  452) = (   0.0400000   0.1666667   0.0000000), wk =   0.0010667
        k(  453) = (   0.0400000   0.1733333   0.0000000), wk =   0.0010667
        k(  454) = (   0.0400000   0.1800000   0.0000000), wk =   0.0010667
        k(  455) = (   0.0400000   0.1866667   0.0000000), wk =   0.0010667
        k(  456) = (   0.0400000   0.1933333   0.0000000), wk =   0.0010667
        k(  457) = (   0.0400000   0.2000000   0.0000000), wk =   0.0010667
        k(  458) = (   0.0400000   0.2066667   0.0000000), wk =   0.0010667
        k(  459) = (   0.0400000   0.2133333   0.0000000), wk =   0.0010667
        k(  460) = (   0.0400000   0.2200000   0.0000000), wk =   0.0010667
        k(  461) = (   0.0400000   0.2266667   0.0000000), wk =   0.0010667
        k(  462) = (   0.0400000   0.2333333   0.0000000), wk =   0.0010667
        k(  463) = (   0.0400000   0.2400000   0.0000000), wk =   0.0010667
        k(  464) = (   0.0400000   0.2466667   0.0000000), wk =   0.0010667
        k(  465) = (   0.0400000   0.2533333   0.0000000), wk =   0.0010667
        k(  466) = (   0.0400000   0.2600000   0.0000000), wk =   0.0010667
        k(  467) = (   0.0400000   0.2666667   0.0000000), wk =   0.0010667
        k(  468) = (   0.0400000   0.2733333   0.0000000), wk =   0.0010667
        k(  469) = (   0.0400000   0.2800000   0.0000000), wk =   0.0010667
        k(  470) = (   0.0400000   0.2866667   0.0000000), wk =   0.0010667
        k(  471) = (   0.0400000   0.2933333   0.0000000), wk =   0.0010667
        k(  472) = (   0.0400000   0.3000000   0.0000000), wk =   0.0010667
        k(  473) = (   0.0400000   0.3066667   0.0000000), wk =   0.0010667
        k(  474) = (   0.0400000   0.3133333   0.0000000), wk =   0.0010667
        k(  475) = (   0.0400000   0.3200000   0.0000000), wk =   0.0010667
        k(  476) = (   0.0400000   0.3266667   0.0000000), wk =   0.0010667
        k(  477) = (   0.0400000   0.3333333   0.0000000), wk =   0.0010667
        k(  478) = (   0.0400000   0.3400000   0.0000000), wk =   0.0010667
        k(  479) = (   0.0400000   0.3466667   0.0000000), wk =   0.0010667
        k(  480) = (   0.0400000   0.3533333   0.0000000), wk =   0.0010667
        k(  481) = (   0.0400000   0.3600000   0.0000000), wk =   0.0010667
        k(  482) = (   0.0400000   0.3666667   0.0000000), wk =   0.0010667
        k(  483) = (   0.0400000   0.3733333   0.0000000), wk =   0.0010667
        k(  484) = (   0.0400000   0.3800000   0.0000000), wk =   0.0010667
        k(  485) = (   0.0400000   0.3866667   0.0000000), wk =   0.0010667
        k(  486) = (   0.0400000   0.3933333   0.0000000), wk =   0.0010667
        k(  487) = (   0.0400000   0.4000000   0.0000000), wk =   0.0010667
        k(  488) = (   0.0400000   0.4066667   0.0000000), wk =   0.0010667
        k(  489) = (   0.0400000   0.4133333   0.0000000), wk =   0.0010667
        k(  490) = (   0.0400000   0.4200000   0.0000000), wk =   0.0010667
        k(  491) = (   0.0400000   0.4266667   0.0000000), wk =   0.0010667
        k(  492) = (   0.0400000   0.4333333   0.0000000), wk =   0.0010667
        k(  493) = (   0.0400000   0.4400000   0.0000000), wk =   0.0010667
        k(  494) = (   0.0400000   0.4466667   0.0000000), wk =   0.0010667
        k(  495) = (   0.0400000   0.4533333   0.0000000), wk =   0.0010667
        k(  496) = (   0.0400000   0.4600000   0.0000000), wk =   0.0010667
        k(  497) = (   0.0400000   0.4666667   0.0000000), wk =   0.0010667
        k(  498) = (   0.0400000   0.4733333   0.0000000), wk =   0.0010667
        k(  499) = (   0.0400000   0.4800000   0.0000000), wk =   0.0005333
        k(  500) = (   0.0466667   0.0466667   0.0000000), wk =   0.0005333
        k(  501) = (   0.0466667   0.0533333   0.0000000), wk =   0.0010667
        k(  502) = (   0.0466667   0.0600000   0.0000000), wk =   0.0010667
        k(  503) = (   0.0466667   0.0666667   0.0000000), wk =   0.0010667
        k(  504) = (   0.0466667   0.0733333   0.0000000), wk =   0.0010667
        k(  505) = (   0.0466667   0.0800000   0.0000000), wk =   0.0010667
        k(  506) = (   0.0466667   0.0866667   0.0000000), wk =   0.0010667
        k(  507) = (   0.0466667   0.0933333   0.0000000), wk =   0.0010667
        k(  508) = (   0.0466667   0.1000000   0.0000000), wk =   0.0010667
        k(  509) = (   0.0466667   0.1066667   0.0000000), wk =   0.0010667
        k(  510) = (   0.0466667   0.1133333   0.0000000), wk =   0.0010667
        k(  511) = (   0.0466667   0.1200000   0.0000000), wk =   0.0010667
        k(  512) = (   0.0466667   0.1266667   0.0000000), wk =   0.0010667
        k(  513) = (   0.0466667   0.1333333   0.0000000), wk =   0.0010667
        k(  514) = (   0.0466667   0.1400000   0.0000000), wk =   0.0010667
        k(  515) = (   0.0466667   0.1466667   0.0000000), wk =   0.0010667
        k(  516) = (   0.0466667   0.1533333   0.0000000), wk =   0.0010667
        k(  517) = (   0.0466667   0.1600000   0.0000000), wk =   0.0010667
        k(  518) = (   0.0466667   0.1666667   0.0000000), wk =   0.0010667
        k(  519) = (   0.0466667   0.1733333   0.0000000), wk =   0.0010667
        k(  520) = (   0.0466667   0.1800000   0.0000000), wk =   0.0010667
        k(  521) = (   0.0466667   0.1866667   0.0000000), wk =   0.0010667
        k(  522) = (   0.0466667   0.1933333   0.0000000), wk =   0.0010667
        k(  523) = (   0.0466667   0.2000000   0.0000000), wk =   0.0010667
        k(  524) = (   0.0466667   0.2066667   0.0000000), wk =   0.0010667
        k(  525) = (   0.0466667   0.2133333   0.0000000), wk =   0.0010667
        k(  526) = (   0.0466667   0.2200000   0.0000000), wk =   0.0010667
        k(  527) = (   0.0466667   0.2266667   0.0000000), wk =   0.0010667
        k(  528) = (   0.0466667   0.2333333   0.0000000), wk =   0.0010667
        k(  529) = (   0.0466667   0.2400000   0.0000000), wk =   0.0010667
        k(  530) = (   0.0466667   0.2466667   0.0000000), wk =   0.0010667
        k(  531) = (   0.0466667   0.2533333   0.0000000), wk =   0.0010667
        k(  532) = (   0.0466667   0.2600000   0.0000000), wk =   0.0010667
        k(  533) = (   0.0466667   0.2666667   0.0000000), wk =   0.0010667
        k(  534) = (   0.0466667   0.2733333   0.0000000), wk =   0.0010667
        k(  535) = (   0.0466667   0.2800000   0.0000000), wk =   0.0010667
        k(  536) = (   0.0466667   0.2866667   0.0000000), wk =   0.0010667
        k(  537) = (   0.0466667   0.2933333   0.0000000), wk =   0.0010667
        k(  538) = (   0.0466667   0.3000000   0.0000000), wk =   0.0010667
        k(  539) = (   0.0466667   0.3066667   0.0000000), wk =   0.0010667
        k(  540) = (   0.0466667   0.3133333   0.0000000), wk =   0.0010667
        k(  541) = (   0.0466667   0.3200000   0.0000000), wk =   0.0010667
        k(  542) = (   0.0466667   0.3266667   0.0000000), wk =   0.0010667
        k(  543) = (   0.0466667   0.3333333   0.0000000), wk =   0.0010667
        k(  544) = (   0.0466667   0.3400000   0.0000000), wk =   0.0010667
        k(  545) = (   0.0466667   0.3466667   0.0000000), wk =   0.0010667
        k(  546) = (   0.0466667   0.3533333   0.0000000), wk =   0.0010667
        k(  547) = (   0.0466667   0.3600000   0.0000000), wk =   0.0010667
        k(  548) = (   0.0466667   0.3666667   0.0000000), wk =   0.0010667
        k(  549) = (   0.0466667   0.3733333   0.0000000), wk =   0.0010667
        k(  550) = (   0.0466667   0.3800000   0.0000000), wk =   0.0010667
        k(  551) = (   0.0466667   0.3866667   0.0000000), wk =   0.0010667
        k(  552) = (   0.0466667   0.3933333   0.0000000), wk =   0.0010667
        k(  553) = (   0.0466667   0.4000000   0.0000000), wk =   0.0010667
        k(  554) = (   0.0466667   0.4066667   0.0000000), wk =   0.0010667
        k(  555) = (   0.0466667   0.4133333   0.0000000), wk =   0.0010667
        k(  556) = (   0.0466667   0.4200000   0.0000000), wk =   0.0010667
        k(  557) = (   0.0466667   0.4266667   0.0000000), wk =   0.0010667
        k(  558) = (   0.0466667   0.4333333   0.0000000), wk =   0.0010667
        k(  559) = (   0.0466667   0.4400000   0.0000000), wk =   0.0010667
        k(  560) = (   0.0466667   0.4466667   0.0000000), wk =   0.0010667
        k(  561) = (   0.0466667   0.4533333   0.0000000), wk =   0.0010667
        k(  562) = (   0.0466667   0.4600000   0.0000000), wk =   0.0010667
        k(  563) = (   0.0466667   0.4666667   0.0000000), wk =   0.0010667
        k(  564) = (   0.0466667   0.4733333   0.0000000), wk =   0.0010667
        k(  565) = (   0.0533333   0.0533333   0.0000000), wk =   0.0005333
        k(  566) = (   0.0533333   0.0600000   0.0000000), wk =   0.0010667
        k(  567) = (   0.0533333   0.0666667   0.0000000), wk =   0.0010667
        k(  568) = (   0.0533333   0.0733333   0.0000000), wk =   0.0010667
        k(  569) = (   0.0533333   0.0800000   0.0000000), wk =   0.0010667
        k(  570) = (   0.0533333   0.0866667   0.0000000), wk =   0.0010667
        k(  571) = (   0.0533333   0.0933333   0.0000000), wk =   0.0010667
        k(  572) = (   0.0533333   0.1000000   0.0000000), wk =   0.0010667
        k(  573) = (   0.0533333   0.1066667   0.0000000), wk =   0.0010667
        k(  574) = (   0.0533333   0.1133333   0.0000000), wk =   0.0010667
        k(  575) = (   0.0533333   0.1200000   0.0000000), wk =   0.0010667
        k(  576) = (   0.0533333   0.1266667   0.0000000), wk =   0.0010667
        k(  577) = (   0.0533333   0.1333333   0.0000000), wk =   0.0010667
        k(  578) = (   0.0533333   0.1400000   0.0000000), wk =   0.0010667
        k(  579) = (   0.0533333   0.1466667   0.0000000), wk =   0.0010667
        k(  580) = (   0.0533333   0.1533333   0.0000000), wk =   0.0010667
        k(  581) = (   0.0533333   0.1600000   0.0000000), wk =   0.0010667
        k(  582) = (   0.0533333   0.1666667   0.0000000), wk =   0.0010667
        k(  583) = (   0.0533333   0.1733333   0.0000000), wk =   0.0010667
        k(  584) = (   0.0533333   0.1800000   0.0000000), wk =   0.0010667
        k(  585) = (   0.0533333   0.1866667   0.0000000), wk =   0.0010667
        k(  586) = (   0.0533333   0.1933333   0.0000000), wk =   0.0010667
        k(  587) = (   0.0533333   0.2000000   0.0000000), wk =   0.0010667
        k(  588) = (   0.0533333   0.2066667   0.0000000), wk =   0.0010667
        k(  589) = (   0.0533333   0.2133333   0.0000000), wk =   0.0010667
        k(  590) = (   0.0533333   0.2200000   0.0000000), wk =   0.0010667
        k(  591) = (   0.0533333   0.2266667   0.0000000), wk =   0.0010667
        k(  592) = (   0.0533333   0.2333333   0.0000000), wk =   0.0010667
        k(  593) = (   0.0533333   0.2400000   0.0000000), wk =   0.0010667
        k(  594) = (   0.0533333   0.2466667   0.0000000), wk =   0.0010667
        k(  595) = (   0.0533333   0.2533333   0.0000000), wk =   0.0010667
        k(  596) = (   0.0533333   0.2600000   0.0000000), wk =   0.0010667
        k(  597) = (   0.0533333   0.2666667   0.0000000), wk =   0.0010667
        k(  598) = (   0.0533333   0.2733333   0.0000000), wk =   0.0010667
        k(  599) = (   0.0533333   0.2800000   0.0000000), wk =   0.0010667
        k(  600) = (   0.0533333   0.2866667   0.0000000), wk =   0.0010667
        k(  601) = (   0.0533333   0.2933333   0.0000000), wk =   0.0010667
        k(  602) = (   0.0533333   0.3000000   0.0000000), wk =   0.0010667
        k(  603) = (   0.0533333   0.3066667   0.0000000), wk =   0.0010667
        k(  604) = (   0.0533333   0.3133333   0.0000000), wk =   0.0010667
        k(  605) = (   0.0533333   0.3200000   0.0000000), wk =   0.0010667
        k(  606) = (   0.0533333   0.3266667   0.0000000), wk =   0.0010667
        k(  607) = (   0.0533333   0.3333333   0.0000000), wk =   0.0010667
        k(  608) = (   0.0533333   0.3400000   0.0000000), wk =   0.0010667
        k(  609) = (   0.0533333   0.3466667   0.0000000), wk =   0.0010667
        k(  610) = (   0.0533333   0.3533333   0.0000000), wk =   0.0010667
        k(  611) = (   0.0533333   0.3600000   0.0000000), wk =   0.0010667
        k(  612) = (   0.0533333   0.3666667   0.0000000), wk =   0.0010667
        k(  613) = (   0.0533333   0.3733333   0.0000000), wk =   0.0010667
        k(  614) = (   0.0533333   0.3800000   0.0000000), wk =   0.0010667
        k(  615) = (   0.0533333   0.3866667   0.0000000), wk =   0.0010667
        k(  616) = (   0.0533333   0.3933333   0.0000000), wk =   0.0010667
        k(  617) = (   0.0533333   0.4000000   0.0000000), wk =   0.0010667
        k(  618) = (   0.0533333   0.4066667   0.0000000), wk =   0.0010667
        k(  619) = (   0.0533333   0.4133333   0.0000000), wk =   0.0010667
        k(  620) = (   0.0533333   0.4200000   0.0000000), wk =   0.0010667
        k(  621) = (   0.0533333   0.4266667   0.0000000), wk =   0.0010667
        k(  622) = (   0.0533333   0.4333333   0.0000000), wk =   0.0010667
        k(  623) = (   0.0533333   0.4400000   0.0000000), wk =   0.0010667
        k(  624) = (   0.0533333   0.4466667   0.0000000), wk =   0.0010667
        k(  625) = (   0.0533333   0.4533333   0.0000000), wk =   0.0010667
        k(  626) = (   0.0533333   0.4600000   0.0000000), wk =   0.0010667
        k(  627) = (   0.0533333   0.4666667   0.0000000), wk =   0.0010667
        k(  628) = (   0.0533333   0.4733333   0.0000000), wk =   0.0005333
        k(  629) = (   0.0600000   0.0600000   0.0000000), wk =   0.0005333
        k(  630) = (   0.0600000   0.0666667   0.0000000), wk =   0.0010667
        k(  631) = (   0.0600000   0.0733333   0.0000000), wk =   0.0010667
        k(  632) = (   0.0600000   0.0800000   0.0000000), wk =   0.0010667
        k(  633) = (   0.0600000   0.0866667   0.0000000), wk =   0.0010667
        k(  634) = (   0.0600000   0.0933333   0.0000000), wk =   0.0010667
        k(  635) = (   0.0600000   0.1000000   0.0000000), wk =   0.0010667
        k(  636) = (   0.0600000   0.1066667   0.0000000), wk =   0.0010667
        k(  637) = (   0.0600000   0.1133333   0.0000000), wk =   0.0010667
        k(  638) = (   0.0600000   0.1200000   0.0000000), wk =   0.0010667
        k(  639) = (   0.0600000   0.1266667   0.0000000), wk =   0.0010667
        k(  640) = (   0.0600000   0.1333333   0.0000000), wk =   0.0010667
        k(  641) = (   0.0600000   0.1400000   0.0000000), wk =   0.0010667
        k(  642) = (   0.0600000   0.1466667   0.0000000), wk =   0.0010667
        k(  643) = (   0.0600000   0.1533333   0.0000000), wk =   0.0010667
        k(  644) = (   0.0600000   0.1600000   0.0000000), wk =   0.0010667
        k(  645) = (   0.0600000   0.1666667   0.0000000), wk =   0.0010667
        k(  646) = (   0.0600000   0.1733333   0.0000000), wk =   0.0010667
        k(  647) = (   0.0600000   0.1800000   0.0000000), wk =   0.0010667
        k(  648) = (   0.0600000   0.1866667   0.0000000), wk =   0.0010667
        k(  649) = (   0.0600000   0.1933333   0.0000000), wk =   0.0010667
        k(  650) = (   0.0600000   0.2000000   0.0000000), wk =   0.0010667
        k(  651) = (   0.0600000   0.2066667   0.0000000), wk =   0.0010667
        k(  652) = (   0.0600000   0.2133333   0.0000000), wk =   0.0010667
        k(  653) = (   0.0600000   0.2200000   0.0000000), wk =   0.0010667
        k(  654) = (   0.0600000   0.2266667   0.0000000), wk =   0.0010667
        k(  655) = (   0.0600000   0.2333333   0.0000000), wk =   0.0010667
        k(  656) = (   0.0600000   0.2400000   0.0000000), wk =   0.0010667
        k(  657) = (   0.0600000   0.2466667   0.0000000), wk =   0.0010667
        k(  658) = (   0.0600000   0.2533333   0.0000000), wk =   0.0010667
        k(  659) = (   0.0600000   0.2600000   0.0000000), wk =   0.0010667
        k(  660) = (   0.0600000   0.2666667   0.0000000), wk =   0.0010667
        k(  661) = (   0.0600000   0.2733333   0.0000000), wk =   0.0010667
        k(  662) = (   0.0600000   0.2800000   0.0000000), wk =   0.0010667
        k(  663) = (   0.0600000   0.2866667   0.0000000), wk =   0.0010667
        k(  664) = (   0.0600000   0.2933333   0.0000000), wk =   0.0010667
        k(  665) = (   0.0600000   0.3000000   0.0000000), wk =   0.0010667
        k(  666) = (   0.0600000   0.3066667   0.0000000), wk =   0.0010667
        k(  667) = (   0.0600000   0.3133333   0.0000000), wk =   0.0010667
        k(  668) = (   0.0600000   0.3200000   0.0000000), wk =   0.0010667
        k(  669) = (   0.0600000   0.3266667   0.0000000), wk =   0.0010667
        k(  670) = (   0.0600000   0.3333333   0.0000000), wk =   0.0010667
        k(  671) = (   0.0600000   0.3400000   0.0000000), wk =   0.0010667
        k(  672) = (   0.0600000   0.3466667   0.0000000), wk =   0.0010667
        k(  673) = (   0.0600000   0.3533333   0.0000000), wk =   0.0010667
        k(  674) = (   0.0600000   0.3600000   0.0000000), wk =   0.0010667
        k(  675) = (   0.0600000   0.3666667   0.0000000), wk =   0.0010667
        k(  676) = (   0.0600000   0.3733333   0.0000000), wk =   0.0010667
        k(  677) = (   0.0600000   0.3800000   0.0000000), wk =   0.0010667
        k(  678) = (   0.0600000   0.3866667   0.0000000), wk =   0.0010667
        k(  679) = (   0.0600000   0.3933333   0.0000000), wk =   0.0010667
        k(  680) = (   0.0600000   0.4000000   0.0000000), wk =   0.0010667
        k(  681) = (   0.0600000   0.4066667   0.0000000), wk =   0.0010667
        k(  682) = (   0.0600000   0.4133333   0.0000000), wk =   0.0010667
        k(  683) = (   0.0600000   0.4200000   0.0000000), wk =   0.0010667
        k(  684) = (   0.0600000   0.4266667   0.0000000), wk =   0.0010667
        k(  685) = (   0.0600000   0.4333333   0.0000000), wk =   0.0010667
        k(  686) = (   0.0600000   0.4400000   0.0000000), wk =   0.0010667
        k(  687) = (   0.0600000   0.4466667   0.0000000), wk =   0.0010667
        k(  688) = (   0.0600000   0.4533333   0.0000000), wk =   0.0010667
        k(  689) = (   0.0600000   0.4600000   0.0000000), wk =   0.0010667
        k(  690) = (   0.0600000   0.4666667   0.0000000), wk =   0.0010667
        k(  691) = (   0.0666667   0.0666667   0.0000000), wk =   0.0005333
        k(  692) = (   0.0666667   0.0733333   0.0000000), wk =   0.0010667
        k(  693) = (   0.0666667   0.0800000   0.0000000), wk =   0.0010667
        k(  694) = (   0.0666667   0.0866667   0.0000000), wk =   0.0010667
        k(  695) = (   0.0666667   0.0933333   0.0000000), wk =   0.0010667
        k(  696) = (   0.0666667   0.1000000   0.0000000), wk =   0.0010667
        k(  697) = (   0.0666667   0.1066667   0.0000000), wk =   0.0010667
        k(  698) = (   0.0666667   0.1133333   0.0000000), wk =   0.0010667
        k(  699) = (   0.0666667   0.1200000   0.0000000), wk =   0.0010667
        k(  700) = (   0.0666667   0.1266667   0.0000000), wk =   0.0010667
        k(  701) = (   0.0666667   0.1333333   0.0000000), wk =   0.0010667
        k(  702) = (   0.0666667   0.1400000   0.0000000), wk =   0.0010667
        k(  703) = (   0.0666667   0.1466667   0.0000000), wk =   0.0010667
        k(  704) = (   0.0666667   0.1533333   0.0000000), wk =   0.0010667
        k(  705) = (   0.0666667   0.1600000   0.0000000), wk =   0.0010667
        k(  706) = (   0.0666667   0.1666667   0.0000000), wk =   0.0010667
        k(  707) = (   0.0666667   0.1733333   0.0000000), wk =   0.0010667
        k(  708) = (   0.0666667   0.1800000   0.0000000), wk =   0.0010667
        k(  709) = (   0.0666667   0.1866667   0.0000000), wk =   0.0010667
        k(  710) = (   0.0666667   0.1933333   0.0000000), wk =   0.0010667
        k(  711) = (   0.0666667   0.2000000   0.0000000), wk =   0.0010667
        k(  712) = (   0.0666667   0.2066667   0.0000000), wk =   0.0010667
        k(  713) = (   0.0666667   0.2133333   0.0000000), wk =   0.0010667
        k(  714) = (   0.0666667   0.2200000   0.0000000), wk =   0.0010667
        k(  715) = (   0.0666667   0.2266667   0.0000000), wk =   0.0010667
        k(  716) = (   0.0666667   0.2333333   0.0000000), wk =   0.0010667
        k(  717) = (   0.0666667   0.2400000   0.0000000), wk =   0.0010667
        k(  718) = (   0.0666667   0.2466667   0.0000000), wk =   0.0010667
        k(  719) = (   0.0666667   0.2533333   0.0000000), wk =   0.0010667
        k(  720) = (   0.0666667   0.2600000   0.0000000), wk =   0.0010667
        k(  721) = (   0.0666667   0.2666667   0.0000000), wk =   0.0010667
        k(  722) = (   0.0666667   0.2733333   0.0000000), wk =   0.0010667
        k(  723) = (   0.0666667   0.2800000   0.0000000), wk =   0.0010667
        k(  724) = (   0.0666667   0.2866667   0.0000000), wk =   0.0010667
        k(  725) = (   0.0666667   0.2933333   0.0000000), wk =   0.0010667
        k(  726) = (   0.0666667   0.3000000   0.0000000), wk =   0.0010667
        k(  727) = (   0.0666667   0.3066667   0.0000000), wk =   0.0010667
        k(  728) = (   0.0666667   0.3133333   0.0000000), wk =   0.0010667
        k(  729) = (   0.0666667   0.3200000   0.0000000), wk =   0.0010667
        k(  730) = (   0.0666667   0.3266667   0.0000000), wk =   0.0010667
        k(  731) = (   0.0666667   0.3333333   0.0000000), wk =   0.0010667
        k(  732) = (   0.0666667   0.3400000   0.0000000), wk =   0.0010667
        k(  733) = (   0.0666667   0.3466667   0.0000000), wk =   0.0010667
        k(  734) = (   0.0666667   0.3533333   0.0000000), wk =   0.0010667
        k(  735) = (   0.0666667   0.3600000   0.0000000), wk =   0.0010667
        k(  736) = (   0.0666667   0.3666667   0.0000000), wk =   0.0010667
        k(  737) = (   0.0666667   0.3733333   0.0000000), wk =   0.0010667
        k(  738) = (   0.0666667   0.3800000   0.0000000), wk =   0.0010667
        k(  739) = (   0.0666667   0.3866667   0.0000000), wk =   0.0010667
        k(  740) = (   0.0666667   0.3933333   0.0000000), wk =   0.0010667
        k(  741) = (   0.0666667   0.4000000   0.0000000), wk =   0.0010667
        k(  742) = (   0.0666667   0.4066667   0.0000000), wk =   0.0010667
        k(  743) = (   0.0666667   0.4133333   0.0000000), wk =   0.0010667
        k(  744) = (   0.0666667   0.4200000   0.0000000), wk =   0.0010667
        k(  745) = (   0.0666667   0.4266667   0.0000000), wk =   0.0010667
        k(  746) = (   0.0666667   0.4333333   0.0000000), wk =   0.0010667
        k(  747) = (   0.0666667   0.4400000   0.0000000), wk =   0.0010667
        k(  748) = (   0.0666667   0.4466667   0.0000000), wk =   0.0010667
        k(  749) = (   0.0666667   0.4533333   0.0000000), wk =   0.0010667
        k(  750) = (   0.0666667   0.4600000   0.0000000), wk =   0.0010667
        k(  751) = (   0.0666667   0.4666667   0.0000000), wk =   0.0005333
        k(  752) = (   0.0733333   0.0733333   0.0000000), wk =   0.0005333
        k(  753) = (   0.0733333   0.0800000   0.0000000), wk =   0.0010667
        k(  754) = (   0.0733333   0.0866667   0.0000000), wk =   0.0010667
        k(  755) = (   0.0733333   0.0933333   0.0000000), wk =   0.0010667
        k(  756) = (   0.0733333   0.1000000   0.0000000), wk =   0.0010667
        k(  757) = (   0.0733333   0.1066667   0.0000000), wk =   0.0010667
        k(  758) = (   0.0733333   0.1133333   0.0000000), wk =   0.0010667
        k(  759) = (   0.0733333   0.1200000   0.0000000), wk =   0.0010667
        k(  760) = (   0.0733333   0.1266667   0.0000000), wk =   0.0010667
        k(  761) = (   0.0733333   0.1333333   0.0000000), wk =   0.0010667
        k(  762) = (   0.0733333   0.1400000   0.0000000), wk =   0.0010667
        k(  763) = (   0.0733333   0.1466667   0.0000000), wk =   0.0010667
        k(  764) = (   0.0733333   0.1533333   0.0000000), wk =   0.0010667
        k(  765) = (   0.0733333   0.1600000   0.0000000), wk =   0.0010667
        k(  766) = (   0.0733333   0.1666667   0.0000000), wk =   0.0010667
        k(  767) = (   0.0733333   0.1733333   0.0000000), wk =   0.0010667
        k(  768) = (   0.0733333   0.1800000   0.0000000), wk =   0.0010667
        k(  769) = (   0.0733333   0.1866667   0.0000000), wk =   0.0010667
        k(  770) = (   0.0733333   0.1933333   0.0000000), wk =   0.0010667
        k(  771) = (   0.0733333   0.2000000   0.0000000), wk =   0.0010667
        k(  772) = (   0.0733333   0.2066667   0.0000000), wk =   0.0010667
        k(  773) = (   0.0733333   0.2133333   0.0000000), wk =   0.0010667
        k(  774) = (   0.0733333   0.2200000   0.0000000), wk =   0.0010667
        k(  775) = (   0.0733333   0.2266667   0.0000000), wk =   0.0010667
        k(  776) = (   0.0733333   0.2333333   0.0000000), wk =   0.0010667
        k(  777) = (   0.0733333   0.2400000   0.0000000), wk =   0.0010667
        k(  778) = (   0.0733333   0.2466667   0.0000000), wk =   0.0010667
        k(  779) = (   0.0733333   0.2533333   0.0000000), wk =   0.0010667
        k(  780) = (   0.0733333   0.2600000   0.0000000), wk =   0.0010667
        k(  781) = (   0.0733333   0.2666667   0.0000000), wk =   0.0010667
        k(  782) = (   0.0733333   0.2733333   0.0000000), wk =   0.0010667
        k(  783) = (   0.0733333   0.2800000   0.0000000), wk =   0.0010667
        k(  784) = (   0.0733333   0.2866667   0.0000000), wk =   0.0010667
        k(  785) = (   0.0733333   0.2933333   0.0000000), wk =   0.0010667
        k(  786) = (   0.0733333   0.3000000   0.0000000), wk =   0.0010667
        k(  787) = (   0.0733333   0.3066667   0.0000000), wk =   0.0010667
        k(  788) = (   0.0733333   0.3133333   0.0000000), wk =   0.0010667
        k(  789) = (   0.0733333   0.3200000   0.0000000), wk =   0.0010667
        k(  790) = (   0.0733333   0.3266667   0.0000000), wk =   0.0010667
        k(  791) = (   0.0733333   0.3333333   0.0000000), wk =   0.0010667
        k(  792) = (   0.0733333   0.3400000   0.0000000), wk =   0.0010667
        k(  793) = (   0.0733333   0.3466667   0.0000000), wk =   0.0010667
        k(  794) = (   0.0733333   0.3533333   0.0000000), wk =   0.0010667
        k(  795) = (   0.0733333   0.3600000   0.0000000), wk =   0.0010667
        k(  796) = (   0.0733333   0.3666667   0.0000000), wk =   0.0010667
        k(  797) = (   0.0733333   0.3733333   0.0000000), wk =   0.0010667
        k(  798) = (   0.0733333   0.3800000   0.0000000), wk =   0.0010667
        k(  799) = (   0.0733333   0.3866667   0.0000000), wk =   0.0010667
        k(  800) = (   0.0733333   0.3933333   0.0000000), wk =   0.0010667
        k(  801) = (   0.0733333   0.4000000   0.0000000), wk =   0.0010667
        k(  802) = (   0.0733333   0.4066667   0.0000000), wk =   0.0010667
        k(  803) = (   0.0733333   0.4133333   0.0000000), wk =   0.0010667
        k(  804) = (   0.0733333   0.4200000   0.0000000), wk =   0.0010667
        k(  805) = (   0.0733333   0.4266667   0.0000000), wk =   0.0010667
        k(  806) = (   0.0733333   0.4333333   0.0000000), wk =   0.0010667
        k(  807) = (   0.0733333   0.4400000   0.0000000), wk =   0.0010667
        k(  808) = (   0.0733333   0.4466667   0.0000000), wk =   0.0010667
        k(  809) = (   0.0733333   0.4533333   0.0000000), wk =   0.0010667
        k(  810) = (   0.0733333   0.4600000   0.0000000), wk =   0.0010667
        k(  811) = (   0.0800000   0.0800000   0.0000000), wk =   0.0005333
        k(  812) = (   0.0800000   0.0866667   0.0000000), wk =   0.0010667
        k(  813) = (   0.0800000   0.0933333   0.0000000), wk =   0.0010667
        k(  814) = (   0.0800000   0.1000000   0.0000000), wk =   0.0010667
        k(  815) = (   0.0800000   0.1066667   0.0000000), wk =   0.0010667
        k(  816) = (   0.0800000   0.1133333   0.0000000), wk =   0.0010667
        k(  817) = (   0.0800000   0.1200000   0.0000000), wk =   0.0010667
        k(  818) = (   0.0800000   0.1266667   0.0000000), wk =   0.0010667
        k(  819) = (   0.0800000   0.1333333   0.0000000), wk =   0.0010667
        k(  820) = (   0.0800000   0.1400000   0.0000000), wk =   0.0010667
        k(  821) = (   0.0800000   0.1466667   0.0000000), wk =   0.0010667
        k(  822) = (   0.0800000   0.1533333   0.0000000), wk =   0.0010667
        k(  823) = (   0.0800000   0.1600000   0.0000000), wk =   0.0010667
        k(  824) = (   0.0800000   0.1666667   0.0000000), wk =   0.0010667
        k(  825) = (   0.0800000   0.1733333   0.0000000), wk =   0.0010667
        k(  826) = (   0.0800000   0.1800000   0.0000000), wk =   0.0010667
        k(  827) = (   0.0800000   0.1866667   0.0000000), wk =   0.0010667
        k(  828) = (   0.0800000   0.1933333   0.0000000), wk =   0.0010667
        k(  829) = (   0.0800000   0.2000000   0.0000000), wk =   0.0010667
        k(  830) = (   0.0800000   0.2066667   0.0000000), wk =   0.0010667
        k(  831) = (   0.0800000   0.2133333   0.0000000), wk =   0.0010667
        k(  832) = (   0.0800000   0.2200000   0.0000000), wk =   0.0010667
        k(  833) = (   0.0800000   0.2266667   0.0000000), wk =   0.0010667
        k(  834) = (   0.0800000   0.2333333   0.0000000), wk =   0.0010667
        k(  835) = (   0.0800000   0.2400000   0.0000000), wk =   0.0010667
        k(  836) = (   0.0800000   0.2466667   0.0000000), wk =   0.0010667
        k(  837) = (   0.0800000   0.2533333   0.0000000), wk =   0.0010667
        k(  838) = (   0.0800000   0.2600000   0.0000000), wk =   0.0010667
        k(  839) = (   0.0800000   0.2666667   0.0000000), wk =   0.0010667
        k(  840) = (   0.0800000   0.2733333   0.0000000), wk =   0.0010667
        k(  841) = (   0.0800000   0.2800000   0.0000000), wk =   0.0010667
        k(  842) = (   0.0800000   0.2866667   0.0000000), wk =   0.0010667
        k(  843) = (   0.0800000   0.2933333   0.0000000), wk =   0.0010667
        k(  844) = (   0.0800000   0.3000000   0.0000000), wk =   0.0010667
        k(  845) = (   0.0800000   0.3066667   0.0000000), wk =   0.0010667
        k(  846) = (   0.0800000   0.3133333   0.0000000), wk =   0.0010667
        k(  847) = (   0.0800000   0.3200000   0.0000000), wk =   0.0010667
        k(  848) = (   0.0800000   0.3266667   0.0000000), wk =   0.0010667
        k(  849) = (   0.0800000   0.3333333   0.0000000), wk =   0.0010667
        k(  850) = (   0.0800000   0.3400000   0.0000000), wk =   0.0010667
        k(  851) = (   0.0800000   0.3466667   0.0000000), wk =   0.0010667
        k(  852) = (   0.0800000   0.3533333   0.0000000), wk =   0.0010667
        k(  853) = (   0.0800000   0.3600000   0.0000000), wk =   0.0010667
        k(  854) = (   0.0800000   0.3666667   0.0000000), wk =   0.0010667
        k(  855) = (   0.0800000   0.3733333   0.0000000), wk =   0.0010667
        k(  856) = (   0.0800000   0.3800000   0.0000000), wk =   0.0010667
        k(  857) = (   0.0800000   0.3866667   0.0000000), wk =   0.0010667
        k(  858) = (   0.0800000   0.3933333   0.0000000), wk =   0.0010667
        k(  859) = (   0.0800000   0.4000000   0.0000000), wk =   0.0010667
        k(  860) = (   0.0800000   0.4066667   0.0000000), wk =   0.0010667
        k(  861) = (   0.0800000   0.4133333   0.0000000), wk =   0.0010667
        k(  862) = (   0.0800000   0.4200000   0.0000000), wk =   0.0010667
        k(  863) = (   0.0800000   0.4266667   0.0000000), wk =   0.0010667
        k(  864) = (   0.0800000   0.4333333   0.0000000), wk =   0.0010667
        k(  865) = (   0.0800000   0.4400000   0.0000000), wk =   0.0010667
        k(  866) = (   0.0800000   0.4466667   0.0000000), wk =   0.0010667
        k(  867) = (   0.0800000   0.4533333   0.0000000), wk =   0.0010667
        k(  868) = (   0.0800000   0.4600000   0.0000000), wk =   0.0005333
        k(  869) = (   0.0866667   0.0866667   0.0000000), wk =   0.0005333
        k(  870) = (   0.0866667   0.0933333   0.0000000), wk =   0.0010667
        k(  871) = (   0.0866667   0.1000000   0.0000000), wk =   0.0010667
        k(  872) = (   0.0866667   0.1066667   0.0000000), wk =   0.0010667
        k(  873) = (   0.0866667   0.1133333   0.0000000), wk =   0.0010667
        k(  874) = (   0.0866667   0.1200000   0.0000000), wk =   0.0010667
        k(  875) = (   0.0866667   0.1266667   0.0000000), wk =   0.0010667
        k(  876) = (   0.0866667   0.1333333   0.0000000), wk =   0.0010667
        k(  877) = (   0.0866667   0.1400000   0.0000000), wk =   0.0010667
        k(  878) = (   0.0866667   0.1466667   0.0000000), wk =   0.0010667
        k(  879) = (   0.0866667   0.1533333   0.0000000), wk =   0.0010667
        k(  880) = (   0.0866667   0.1600000   0.0000000), wk =   0.0010667
        k(  881) = (   0.0866667   0.1666667   0.0000000), wk =   0.0010667
        k(  882) = (   0.0866667   0.1733333   0.0000000), wk =   0.0010667
        k(  883) = (   0.0866667   0.1800000   0.0000000), wk =   0.0010667
        k(  884) = (   0.0866667   0.1866667   0.0000000), wk =   0.0010667
        k(  885) = (   0.0866667   0.1933333   0.0000000), wk =   0.0010667
        k(  886) = (   0.0866667   0.2000000   0.0000000), wk =   0.0010667
        k(  887) = (   0.0866667   0.2066667   0.0000000), wk =   0.0010667
        k(  888) = (   0.0866667   0.2133333   0.0000000), wk =   0.0010667
        k(  889) = (   0.0866667   0.2200000   0.0000000), wk =   0.0010667
        k(  890) = (   0.0866667   0.2266667   0.0000000), wk =   0.0010667
        k(  891) = (   0.0866667   0.2333333   0.0000000), wk =   0.0010667
        k(  892) = (   0.0866667   0.2400000   0.0000000), wk =   0.0010667
        k(  893) = (   0.0866667   0.2466667   0.0000000), wk =   0.0010667
        k(  894) = (   0.0866667   0.2533333   0.0000000), wk =   0.0010667
        k(  895) = (   0.0866667   0.2600000   0.0000000), wk =   0.0010667
        k(  896) = (   0.0866667   0.2666667   0.0000000), wk =   0.0010667
        k(  897) = (   0.0866667   0.2733333   0.0000000), wk =   0.0010667
        k(  898) = (   0.0866667   0.2800000   0.0000000), wk =   0.0010667
        k(  899) = (   0.0866667   0.2866667   0.0000000), wk =   0.0010667
        k(  900) = (   0.0866667   0.2933333   0.0000000), wk =   0.0010667
        k(  901) = (   0.0866667   0.3000000   0.0000000), wk =   0.0010667
        k(  902) = (   0.0866667   0.3066667   0.0000000), wk =   0.0010667
        k(  903) = (   0.0866667   0.3133333   0.0000000), wk =   0.0010667
        k(  904) = (   0.0866667   0.3200000   0.0000000), wk =   0.0010667
        k(  905) = (   0.0866667   0.3266667   0.0000000), wk =   0.0010667
        k(  906) = (   0.0866667   0.3333333   0.0000000), wk =   0.0010667
        k(  907) = (   0.0866667   0.3400000   0.0000000), wk =   0.0010667
        k(  908) = (   0.0866667   0.3466667   0.0000000), wk =   0.0010667
        k(  909) = (   0.0866667   0.3533333   0.0000000), wk =   0.0010667
        k(  910) = (   0.0866667   0.3600000   0.0000000), wk =   0.0010667
        k(  911) = (   0.0866667   0.3666667   0.0000000), wk =   0.0010667
        k(  912) = (   0.0866667   0.3733333   0.0000000), wk =   0.0010667
        k(  913) = (   0.0866667   0.3800000   0.0000000), wk =   0.0010667
        k(  914) = (   0.0866667   0.3866667   0.0000000), wk =   0.0010667
        k(  915) = (   0.0866667   0.3933333   0.0000000), wk =   0.0010667
        k(  916) = (   0.0866667   0.4000000   0.0000000), wk =   0.0010667
        k(  917) = (   0.0866667   0.4066667   0.0000000), wk =   0.0010667
        k(  918) = (   0.0866667   0.4133333   0.0000000), wk =   0.0010667
        k(  919) = (   0.0866667   0.4200000   0.0000000), wk =   0.0010667
        k(  920) = (   0.0866667   0.4266667   0.0000000), wk =   0.0010667
        k(  921) = (   0.0866667   0.4333333   0.0000000), wk =   0.0010667
        k(  922) = (   0.0866667   0.4400000   0.0000000), wk =   0.0010667
        k(  923) = (   0.0866667   0.4466667   0.0000000), wk =   0.0010667
        k(  924) = (   0.0866667   0.4533333   0.0000000), wk =   0.0010667
        k(  925) = (   0.0933333   0.0933333   0.0000000), wk =   0.0005333
        k(  926) = (   0.0933333   0.1000000   0.0000000), wk =   0.0010667
        k(  927) = (   0.0933333   0.1066667   0.0000000), wk =   0.0010667
        k(  928) = (   0.0933333   0.1133333   0.0000000), wk =   0.0010667
        k(  929) = (   0.0933333   0.1200000   0.0000000), wk =   0.0010667
        k(  930) = (   0.0933333   0.1266667   0.0000000), wk =   0.0010667
        k(  931) = (   0.0933333   0.1333333   0.0000000), wk =   0.0010667
        k(  932) = (   0.0933333   0.1400000   0.0000000), wk =   0.0010667
        k(  933) = (   0.0933333   0.1466667   0.0000000), wk =   0.0010667
        k(  934) = (   0.0933333   0.1533333   0.0000000), wk =   0.0010667
        k(  935) = (   0.0933333   0.1600000   0.0000000), wk =   0.0010667
        k(  936) = (   0.0933333   0.1666667   0.0000000), wk =   0.0010667
        k(  937) = (   0.0933333   0.1733333   0.0000000), wk =   0.0010667
        k(  938) = (   0.0933333   0.1800000   0.0000000), wk =   0.0010667
        k(  939) = (   0.0933333   0.1866667   0.0000000), wk =   0.0010667
        k(  940) = (   0.0933333   0.1933333   0.0000000), wk =   0.0010667
        k(  941) = (   0.0933333   0.2000000   0.0000000), wk =   0.0010667
        k(  942) = (   0.0933333   0.2066667   0.0000000), wk =   0.0010667
        k(  943) = (   0.0933333   0.2133333   0.0000000), wk =   0.0010667
        k(  944) = (   0.0933333   0.2200000   0.0000000), wk =   0.0010667
        k(  945) = (   0.0933333   0.2266667   0.0000000), wk =   0.0010667
        k(  946) = (   0.0933333   0.2333333   0.0000000), wk =   0.0010667
        k(  947) = (   0.0933333   0.2400000   0.0000000), wk =   0.0010667
        k(  948) = (   0.0933333   0.2466667   0.0000000), wk =   0.0010667
        k(  949) = (   0.0933333   0.2533333   0.0000000), wk =   0.0010667
        k(  950) = (   0.0933333   0.2600000   0.0000000), wk =   0.0010667
        k(  951) = (   0.0933333   0.2666667   0.0000000), wk =   0.0010667
        k(  952) = (   0.0933333   0.2733333   0.0000000), wk =   0.0010667
        k(  953) = (   0.0933333   0.2800000   0.0000000), wk =   0.0010667
        k(  954) = (   0.0933333   0.2866667   0.0000000), wk =   0.0010667
        k(  955) = (   0.0933333   0.2933333   0.0000000), wk =   0.0010667
        k(  956) = (   0.0933333   0.3000000   0.0000000), wk =   0.0010667
        k(  957) = (   0.0933333   0.3066667   0.0000000), wk =   0.0010667
        k(  958) = (   0.0933333   0.3133333   0.0000000), wk =   0.0010667
        k(  959) = (   0.0933333   0.3200000   0.0000000), wk =   0.0010667
        k(  960) = (   0.0933333   0.3266667   0.0000000), wk =   0.0010667
        k(  961) = (   0.0933333   0.3333333   0.0000000), wk =   0.0010667
        k(  962) = (   0.0933333   0.3400000   0.0000000), wk =   0.0010667
        k(  963) = (   0.0933333   0.3466667   0.0000000), wk =   0.0010667
        k(  964) = (   0.0933333   0.3533333   0.0000000), wk =   0.0010667
        k(  965) = (   0.0933333   0.3600000   0.0000000), wk =   0.0010667
        k(  966) = (   0.0933333   0.3666667   0.0000000), wk =   0.0010667
        k(  967) = (   0.0933333   0.3733333   0.0000000), wk =   0.0010667
        k(  968) = (   0.0933333   0.3800000   0.0000000), wk =   0.0010667
        k(  969) = (   0.0933333   0.3866667   0.0000000), wk =   0.0010667
        k(  970) = (   0.0933333   0.3933333   0.0000000), wk =   0.0010667
        k(  971) = (   0.0933333   0.4000000   0.0000000), wk =   0.0010667
        k(  972) = (   0.0933333   0.4066667   0.0000000), wk =   0.0010667
        k(  973) = (   0.0933333   0.4133333   0.0000000), wk =   0.0010667
        k(  974) = (   0.0933333   0.4200000   0.0000000), wk =   0.0010667
        k(  975) = (   0.0933333   0.4266667   0.0000000), wk =   0.0010667
        k(  976) = (   0.0933333   0.4333333   0.0000000), wk =   0.0010667
        k(  977) = (   0.0933333   0.4400000   0.0000000), wk =   0.0010667
        k(  978) = (   0.0933333   0.4466667   0.0000000), wk =   0.0010667
        k(  979) = (   0.0933333   0.4533333   0.0000000), wk =   0.0005333
        k(  980) = (   0.1000000   0.1000000   0.0000000), wk =   0.0005333
        k(  981) = (   0.1000000   0.1066667   0.0000000), wk =   0.0010667
        k(  982) = (   0.1000000   0.1133333   0.0000000), wk =   0.0010667
        k(  983) = (   0.1000000   0.1200000   0.0000000), wk =   0.0010667
        k(  984) = (   0.1000000   0.1266667   0.0000000), wk =   0.0010667
        k(  985) = (   0.1000000   0.1333333   0.0000000), wk =   0.0010667
        k(  986) = (   0.1000000   0.1400000   0.0000000), wk =   0.0010667
        k(  987) = (   0.1000000   0.1466667   0.0000000), wk =   0.0010667
        k(  988) = (   0.1000000   0.1533333   0.0000000), wk =   0.0010667
        k(  989) = (   0.1000000   0.1600000   0.0000000), wk =   0.0010667
        k(  990) = (   0.1000000   0.1666667   0.0000000), wk =   0.0010667
        k(  991) = (   0.1000000   0.1733333   0.0000000), wk =   0.0010667
        k(  992) = (   0.1000000   0.1800000   0.0000000), wk =   0.0010667
        k(  993) = (   0.1000000   0.1866667   0.0000000), wk =   0.0010667
        k(  994) = (   0.1000000   0.1933333   0.0000000), wk =   0.0010667
        k(  995) = (   0.1000000   0.2000000   0.0000000), wk =   0.0010667
        k(  996) = (   0.1000000   0.2066667   0.0000000), wk =   0.0010667
        k(  997) = (   0.1000000   0.2133333   0.0000000), wk =   0.0010667
        k(  998) = (   0.1000000   0.2200000   0.0000000), wk =   0.0010667
        k(  999) = (   0.1000000   0.2266667   0.0000000), wk =   0.0010667
        k( 1000) = (   0.1000000   0.2333333   0.0000000), wk =   0.0010667
        k( 1001) = (   0.1000000   0.2400000   0.0000000), wk =   0.0010667
        k( 1002) = (   0.1000000   0.2466667   0.0000000), wk =   0.0010667
        k( 1003) = (   0.1000000   0.2533333   0.0000000), wk =   0.0010667
        k( 1004) = (   0.1000000   0.2600000   0.0000000), wk =   0.0010667
        k( 1005) = (   0.1000000   0.2666667   0.0000000), wk =   0.0010667
        k( 1006) = (   0.1000000   0.2733333   0.0000000), wk =   0.0010667
        k( 1007) = (   0.1000000   0.2800000   0.0000000), wk =   0.0010667
        k( 1008) = (   0.1000000   0.2866667   0.0000000), wk =   0.0010667
        k( 1009) = (   0.1000000   0.2933333   0.0000000), wk =   0.0010667
        k( 1010) = (   0.1000000   0.3000000   0.0000000), wk =   0.0010667
        k( 1011) = (   0.1000000   0.3066667   0.0000000), wk =   0.0010667
        k( 1012) = (   0.1000000   0.3133333   0.0000000), wk =   0.0010667
        k( 1013) = (   0.1000000   0.3200000   0.0000000), wk =   0.0010667
        k( 1014) = (   0.1000000   0.3266667   0.0000000), wk =   0.0010667
        k( 1015) = (   0.1000000   0.3333333   0.0000000), wk =   0.0010667
        k( 1016) = (   0.1000000   0.3400000   0.0000000), wk =   0.0010667
        k( 1017) = (   0.1000000   0.3466667   0.0000000), wk =   0.0010667
        k( 1018) = (   0.1000000   0.3533333   0.0000000), wk =   0.0010667
        k( 1019) = (   0.1000000   0.3600000   0.0000000), wk =   0.0010667
        k( 1020) = (   0.1000000   0.3666667   0.0000000), wk =   0.0010667
        k( 1021) = (   0.1000000   0.3733333   0.0000000), wk =   0.0010667
        k( 1022) = (   0.1000000   0.3800000   0.0000000), wk =   0.0010667
        k( 1023) = (   0.1000000   0.3866667   0.0000000), wk =   0.0010667
        k( 1024) = (   0.1000000   0.3933333   0.0000000), wk =   0.0010667
        k( 1025) = (   0.1000000   0.4000000   0.0000000), wk =   0.0010667
        k( 1026) = (   0.1000000   0.4066667   0.0000000), wk =   0.0010667
        k( 1027) = (   0.1000000   0.4133333   0.0000000), wk =   0.0010667
        k( 1028) = (   0.1000000   0.4200000   0.0000000), wk =   0.0010667
        k( 1029) = (   0.1000000   0.4266667   0.0000000), wk =   0.0010667
        k( 1030) = (   0.1000000   0.4333333   0.0000000), wk =   0.0010667
        k( 1031) = (   0.1000000   0.4400000   0.0000000), wk =   0.0010667
        k( 1032) = (   0.1000000   0.4466667   0.0000000), wk =   0.0010667
        k( 1033) = (   0.1066667   0.1066667   0.0000000), wk =   0.0005333
        k( 1034) = (   0.1066667   0.1133333   0.0000000), wk =   0.0010667
        k( 1035) = (   0.1066667   0.1200000   0.0000000), wk =   0.0010667
        k( 1036) = (   0.1066667   0.1266667   0.0000000), wk =   0.0010667
        k( 1037) = (   0.1066667   0.1333333   0.0000000), wk =   0.0010667
        k( 1038) = (   0.1066667   0.1400000   0.0000000), wk =   0.0010667
        k( 1039) = (   0.1066667   0.1466667   0.0000000), wk =   0.0010667
        k( 1040) = (   0.1066667   0.1533333   0.0000000), wk =   0.0010667
        k( 1041) = (   0.1066667   0.1600000   0.0000000), wk =   0.0010667
        k( 1042) = (   0.1066667   0.1666667   0.0000000), wk =   0.0010667
        k( 1043) = (   0.1066667   0.1733333   0.0000000), wk =   0.0010667
        k( 1044) = (   0.1066667   0.1800000   0.0000000), wk =   0.0010667
        k( 1045) = (   0.1066667   0.1866667   0.0000000), wk =   0.0010667
        k( 1046) = (   0.1066667   0.1933333   0.0000000), wk =   0.0010667
        k( 1047) = (   0.1066667   0.2000000   0.0000000), wk =   0.0010667
        k( 1048) = (   0.1066667   0.2066667   0.0000000), wk =   0.0010667
        k( 1049) = (   0.1066667   0.2133333   0.0000000), wk =   0.0010667
        k( 1050) = (   0.1066667   0.2200000   0.0000000), wk =   0.0010667
        k( 1051) = (   0.1066667   0.2266667   0.0000000), wk =   0.0010667
        k( 1052) = (   0.1066667   0.2333333   0.0000000), wk =   0.0010667
        k( 1053) = (   0.1066667   0.2400000   0.0000000), wk =   0.0010667
        k( 1054) = (   0.1066667   0.2466667   0.0000000), wk =   0.0010667
        k( 1055) = (   0.1066667   0.2533333   0.0000000), wk =   0.0010667
        k( 1056) = (   0.1066667   0.2600000   0.0000000), wk =   0.0010667
        k( 1057) = (   0.1066667   0.2666667   0.0000000), wk =   0.0010667
        k( 1058) = (   0.1066667   0.2733333   0.0000000), wk =   0.0010667
        k( 1059) = (   0.1066667   0.2800000   0.0000000), wk =   0.0010667
        k( 1060) = (   0.1066667   0.2866667   0.0000000), wk =   0.0010667
        k( 1061) = (   0.1066667   0.2933333   0.0000000), wk =   0.0010667
        k( 1062) = (   0.1066667   0.3000000   0.0000000), wk =   0.0010667
        k( 1063) = (   0.1066667   0.3066667   0.0000000), wk =   0.0010667
        k( 1064) = (   0.1066667   0.3133333   0.0000000), wk =   0.0010667
        k( 1065) = (   0.1066667   0.3200000   0.0000000), wk =   0.0010667
        k( 1066) = (   0.1066667   0.3266667   0.0000000), wk =   0.0010667
        k( 1067) = (   0.1066667   0.3333333   0.0000000), wk =   0.0010667
        k( 1068) = (   0.1066667   0.3400000   0.0000000), wk =   0.0010667
        k( 1069) = (   0.1066667   0.3466667   0.0000000), wk =   0.0010667
        k( 1070) = (   0.1066667   0.3533333   0.0000000), wk =   0.0010667
        k( 1071) = (   0.1066667   0.3600000   0.0000000), wk =   0.0010667
        k( 1072) = (   0.1066667   0.3666667   0.0000000), wk =   0.0010667
        k( 1073) = (   0.1066667   0.3733333   0.0000000), wk =   0.0010667
        k( 1074) = (   0.1066667   0.3800000   0.0000000), wk =   0.0010667
        k( 1075) = (   0.1066667   0.3866667   0.0000000), wk =   0.0010667
        k( 1076) = (   0.1066667   0.3933333   0.0000000), wk =   0.0010667
        k( 1077) = (   0.1066667   0.4000000   0.0000000), wk =   0.0010667
        k( 1078) = (   0.1066667   0.4066667   0.0000000), wk =   0.0010667
        k( 1079) = (   0.1066667   0.4133333   0.0000000), wk =   0.0010667
        k( 1080) = (   0.1066667   0.4200000   0.0000000), wk =   0.0010667
        k( 1081) = (   0.1066667   0.4266667   0.0000000), wk =   0.0010667
        k( 1082) = (   0.1066667   0.4333333   0.0000000), wk =   0.0010667
        k( 1083) = (   0.1066667   0.4400000   0.0000000), wk =   0.0010667
        k( 1084) = (   0.1066667   0.4466667   0.0000000), wk =   0.0005333
        k( 1085) = (   0.1133333   0.1133333   0.0000000), wk =   0.0005333
        k( 1086) = (   0.1133333   0.1200000   0.0000000), wk =   0.0010667
        k( 1087) = (   0.1133333   0.1266667   0.0000000), wk =   0.0010667
        k( 1088) = (   0.1133333   0.1333333   0.0000000), wk =   0.0010667
        k( 1089) = (   0.1133333   0.1400000   0.0000000), wk =   0.0010667
        k( 1090) = (   0.1133333   0.1466667   0.0000000), wk =   0.0010667
        k( 1091) = (   0.1133333   0.1533333   0.0000000), wk =   0.0010667
        k( 1092) = (   0.1133333   0.1600000   0.0000000), wk =   0.0010667
        k( 1093) = (   0.1133333   0.1666667   0.0000000), wk =   0.0010667
        k( 1094) = (   0.1133333   0.1733333   0.0000000), wk =   0.0010667
        k( 1095) = (   0.1133333   0.1800000   0.0000000), wk =   0.0010667
        k( 1096) = (   0.1133333   0.1866667   0.0000000), wk =   0.0010667
        k( 1097) = (   0.1133333   0.1933333   0.0000000), wk =   0.0010667
        k( 1098) = (   0.1133333   0.2000000   0.0000000), wk =   0.0010667
        k( 1099) = (   0.1133333   0.2066667   0.0000000), wk =   0.0010667
        k( 1100) = (   0.1133333   0.2133333   0.0000000), wk =   0.0010667
        k( 1101) = (   0.1133333   0.2200000   0.0000000), wk =   0.0010667
        k( 1102) = (   0.1133333   0.2266667   0.0000000), wk =   0.0010667
        k( 1103) = (   0.1133333   0.2333333   0.0000000), wk =   0.0010667
        k( 1104) = (   0.1133333   0.2400000   0.0000000), wk =   0.0010667
        k( 1105) = (   0.1133333   0.2466667   0.0000000), wk =   0.0010667
        k( 1106) = (   0.1133333   0.2533333   0.0000000), wk =   0.0010667
        k( 1107) = (   0.1133333   0.2600000   0.0000000), wk =   0.0010667
        k( 1108) = (   0.1133333   0.2666667   0.0000000), wk =   0.0010667
        k( 1109) = (   0.1133333   0.2733333   0.0000000), wk =   0.0010667
        k( 1110) = (   0.1133333   0.2800000   0.0000000), wk =   0.0010667
        k( 1111) = (   0.1133333   0.2866667   0.0000000), wk =   0.0010667
        k( 1112) = (   0.1133333   0.2933333   0.0000000), wk =   0.0010667
        k( 1113) = (   0.1133333   0.3000000   0.0000000), wk =   0.0010667
        k( 1114) = (   0.1133333   0.3066667   0.0000000), wk =   0.0010667
        k( 1115) = (   0.1133333   0.3133333   0.0000000), wk =   0.0010667
        k( 1116) = (   0.1133333   0.3200000   0.0000000), wk =   0.0010667
        k( 1117) = (   0.1133333   0.3266667   0.0000000), wk =   0.0010667
        k( 1118) = (   0.1133333   0.3333333   0.0000000), wk =   0.0010667
        k( 1119) = (   0.1133333   0.3400000   0.0000000), wk =   0.0010667
        k( 1120) = (   0.1133333   0.3466667   0.0000000), wk =   0.0010667
        k( 1121) = (   0.1133333   0.3533333   0.0000000), wk =   0.0010667
        k( 1122) = (   0.1133333   0.3600000   0.0000000), wk =   0.0010667
        k( 1123) = (   0.1133333   0.3666667   0.0000000), wk =   0.0010667
        k( 1124) = (   0.1133333   0.3733333   0.0000000), wk =   0.0010667
        k( 1125) = (   0.1133333   0.3800000   0.0000000), wk =   0.0010667
        k( 1126) = (   0.1133333   0.3866667   0.0000000), wk =   0.0010667
        k( 1127) = (   0.1133333   0.3933333   0.0000000), wk =   0.0010667
        k( 1128) = (   0.1133333   0.4000000   0.0000000), wk =   0.0010667
        k( 1129) = (   0.1133333   0.4066667   0.0000000), wk =   0.0010667
        k( 1130) = (   0.1133333   0.4133333   0.0000000), wk =   0.0010667
        k( 1131) = (   0.1133333   0.4200000   0.0000000), wk =   0.0010667
        k( 1132) = (   0.1133333   0.4266667   0.0000000), wk =   0.0010667
        k( 1133) = (   0.1133333   0.4333333   0.0000000), wk =   0.0010667
        k( 1134) = (   0.1133333   0.4400000   0.0000000), wk =   0.0010667
        k( 1135) = (   0.1200000   0.1200000   0.0000000), wk =   0.0005333
        k( 1136) = (   0.1200000   0.1266667   0.0000000), wk =   0.0010667
        k( 1137) = (   0.1200000   0.1333333   0.0000000), wk =   0.0010667
        k( 1138) = (   0.1200000   0.1400000   0.0000000), wk =   0.0010667
        k( 1139) = (   0.1200000   0.1466667   0.0000000), wk =   0.0010667
        k( 1140) = (   0.1200000   0.1533333   0.0000000), wk =   0.0010667
        k( 1141) = (   0.1200000   0.1600000   0.0000000), wk =   0.0010667
        k( 1142) = (   0.1200000   0.1666667   0.0000000), wk =   0.0010667
        k( 1143) = (   0.1200000   0.1733333   0.0000000), wk =   0.0010667
        k( 1144) = (   0.1200000   0.1800000   0.0000000), wk =   0.0010667
        k( 1145) = (   0.1200000   0.1866667   0.0000000), wk =   0.0010667
        k( 1146) = (   0.1200000   0.1933333   0.0000000), wk =   0.0010667
        k( 1147) = (   0.1200000   0.2000000   0.0000000), wk =   0.0010667
        k( 1148) = (   0.1200000   0.2066667   0.0000000), wk =   0.0010667
        k( 1149) = (   0.1200000   0.2133333   0.0000000), wk =   0.0010667
        k( 1150) = (   0.1200000   0.2200000   0.0000000), wk =   0.0010667
        k( 1151) = (   0.1200000   0.2266667   0.0000000), wk =   0.0010667
        k( 1152) = (   0.1200000   0.2333333   0.0000000), wk =   0.0010667
        k( 1153) = (   0.1200000   0.2400000   0.0000000), wk =   0.0010667
        k( 1154) = (   0.1200000   0.2466667   0.0000000), wk =   0.0010667
        k( 1155) = (   0.1200000   0.2533333   0.0000000), wk =   0.0010667
        k( 1156) = (   0.1200000   0.2600000   0.0000000), wk =   0.0010667
        k( 1157) = (   0.1200000   0.2666667   0.0000000), wk =   0.0010667
        k( 1158) = (   0.1200000   0.2733333   0.0000000), wk =   0.0010667
        k( 1159) = (   0.1200000   0.2800000   0.0000000), wk =   0.0010667
        k( 1160) = (   0.1200000   0.2866667   0.0000000), wk =   0.0010667
        k( 1161) = (   0.1200000   0.2933333   0.0000000), wk =   0.0010667
        k( 1162) = (   0.1200000   0.3000000   0.0000000), wk =   0.0010667
        k( 1163) = (   0.1200000   0.3066667   0.0000000), wk =   0.0010667
        k( 1164) = (   0.1200000   0.3133333   0.0000000), wk =   0.0010667
        k( 1165) = (   0.1200000   0.3200000   0.0000000), wk =   0.0010667
        k( 1166) = (   0.1200000   0.3266667   0.0000000), wk =   0.0010667
        k( 1167) = (   0.1200000   0.3333333   0.0000000), wk =   0.0010667
        k( 1168) = (   0.1200000   0.3400000   0.0000000), wk =   0.0010667
        k( 1169) = (   0.1200000   0.3466667   0.0000000), wk =   0.0010667
        k( 1170) = (   0.1200000   0.3533333   0.0000000), wk =   0.0010667
        k( 1171) = (   0.1200000   0.3600000   0.0000000), wk =   0.0010667
        k( 1172) = (   0.1200000   0.3666667   0.0000000), wk =   0.0010667
        k( 1173) = (   0.1200000   0.3733333   0.0000000), wk =   0.0010667
        k( 1174) = (   0.1200000   0.3800000   0.0000000), wk =   0.0010667
        k( 1175) = (   0.1200000   0.3866667   0.0000000), wk =   0.0010667
        k( 1176) = (   0.1200000   0.3933333   0.0000000), wk =   0.0010667
        k( 1177) = (   0.1200000   0.4000000   0.0000000), wk =   0.0010667
        k( 1178) = (   0.1200000   0.4066667   0.0000000), wk =   0.0010667
        k( 1179) = (   0.1200000   0.4133333   0.0000000), wk =   0.0010667
        k( 1180) = (   0.1200000   0.4200000   0.0000000), wk =   0.0010667
        k( 1181) = (   0.1200000   0.4266667   0.0000000), wk =   0.0010667
        k( 1182) = (   0.1200000   0.4333333   0.0000000), wk =   0.0010667
        k( 1183) = (   0.1200000   0.4400000   0.0000000), wk =   0.0005333
        k( 1184) = (   0.1266667   0.1266667   0.0000000), wk =   0.0005333
        k( 1185) = (   0.1266667   0.1333333   0.0000000), wk =   0.0010667
        k( 1186) = (   0.1266667   0.1400000   0.0000000), wk =   0.0010667
        k( 1187) = (   0.1266667   0.1466667   0.0000000), wk =   0.0010667
        k( 1188) = (   0.1266667   0.1533333   0.0000000), wk =   0.0010667
        k( 1189) = (   0.1266667   0.1600000   0.0000000), wk =   0.0010667
        k( 1190) = (   0.1266667   0.1666667   0.0000000), wk =   0.0010667
        k( 1191) = (   0.1266667   0.1733333   0.0000000), wk =   0.0010667
        k( 1192) = (   0.1266667   0.1800000   0.0000000), wk =   0.0010667
        k( 1193) = (   0.1266667   0.1866667   0.0000000), wk =   0.0010667
        k( 1194) = (   0.1266667   0.1933333   0.0000000), wk =   0.0010667
        k( 1195) = (   0.1266667   0.2000000   0.0000000), wk =   0.0010667
        k( 1196) = (   0.1266667   0.2066667   0.0000000), wk =   0.0010667
        k( 1197) = (   0.1266667   0.2133333   0.0000000), wk =   0.0010667
        k( 1198) = (   0.1266667   0.2200000   0.0000000), wk =   0.0010667
        k( 1199) = (   0.1266667   0.2266667   0.0000000), wk =   0.0010667
        k( 1200) = (   0.1266667   0.2333333   0.0000000), wk =   0.0010667
        k( 1201) = (   0.1266667   0.2400000   0.0000000), wk =   0.0010667
        k( 1202) = (   0.1266667   0.2466667   0.0000000), wk =   0.0010667
        k( 1203) = (   0.1266667   0.2533333   0.0000000), wk =   0.0010667
        k( 1204) = (   0.1266667   0.2600000   0.0000000), wk =   0.0010667
        k( 1205) = (   0.1266667   0.2666667   0.0000000), wk =   0.0010667
        k( 1206) = (   0.1266667   0.2733333   0.0000000), wk =   0.0010667
        k( 1207) = (   0.1266667   0.2800000   0.0000000), wk =   0.0010667
        k( 1208) = (   0.1266667   0.2866667   0.0000000), wk =   0.0010667
        k( 1209) = (   0.1266667   0.2933333   0.0000000), wk =   0.0010667
        k( 1210) = (   0.1266667   0.3000000   0.0000000), wk =   0.0010667
        k( 1211) = (   0.1266667   0.3066667   0.0000000), wk =   0.0010667
        k( 1212) = (   0.1266667   0.3133333   0.0000000), wk =   0.0010667
        k( 1213) = (   0.1266667   0.3200000   0.0000000), wk =   0.0010667
        k( 1214) = (   0.1266667   0.3266667   0.0000000), wk =   0.0010667
        k( 1215) = (   0.1266667   0.3333333   0.0000000), wk =   0.0010667
        k( 1216) = (   0.1266667   0.3400000   0.0000000), wk =   0.0010667
        k( 1217) = (   0.1266667   0.3466667   0.0000000), wk =   0.0010667
        k( 1218) = (   0.1266667   0.3533333   0.0000000), wk =   0.0010667
        k( 1219) = (   0.1266667   0.3600000   0.0000000), wk =   0.0010667
        k( 1220) = (   0.1266667   0.3666667   0.0000000), wk =   0.0010667
        k( 1221) = (   0.1266667   0.3733333   0.0000000), wk =   0.0010667
        k( 1222) = (   0.1266667   0.3800000   0.0000000), wk =   0.0010667
        k( 1223) = (   0.1266667   0.3866667   0.0000000), wk =   0.0010667
        k( 1224) = (   0.1266667   0.3933333   0.0000000), wk =   0.0010667
        k( 1225) = (   0.1266667   0.4000000   0.0000000), wk =   0.0010667
        k( 1226) = (   0.1266667   0.4066667   0.0000000), wk =   0.0010667
        k( 1227) = (   0.1266667   0.4133333   0.0000000), wk =   0.0010667
        k( 1228) = (   0.1266667   0.4200000   0.0000000), wk =   0.0010667
        k( 1229) = (   0.1266667   0.4266667   0.0000000), wk =   0.0010667
        k( 1230) = (   0.1266667   0.4333333   0.0000000), wk =   0.0010667
        k( 1231) = (   0.1333333   0.1333333   0.0000000), wk =   0.0005333
        k( 1232) = (   0.1333333   0.1400000   0.0000000), wk =   0.0010667
        k( 1233) = (   0.1333333   0.1466667   0.0000000), wk =   0.0010667
        k( 1234) = (   0.1333333   0.1533333   0.0000000), wk =   0.0010667
        k( 1235) = (   0.1333333   0.1600000   0.0000000), wk =   0.0010667
        k( 1236) = (   0.1333333   0.1666667   0.0000000), wk =   0.0010667
        k( 1237) = (   0.1333333   0.1733333   0.0000000), wk =   0.0010667
        k( 1238) = (   0.1333333   0.1800000   0.0000000), wk =   0.0010667
        k( 1239) = (   0.1333333   0.1866667   0.0000000), wk =   0.0010667
        k( 1240) = (   0.1333333   0.1933333   0.0000000), wk =   0.0010667
        k( 1241) = (   0.1333333   0.2000000   0.0000000), wk =   0.0010667
        k( 1242) = (   0.1333333   0.2066667   0.0000000), wk =   0.0010667
        k( 1243) = (   0.1333333   0.2133333   0.0000000), wk =   0.0010667
        k( 1244) = (   0.1333333   0.2200000   0.0000000), wk =   0.0010667
        k( 1245) = (   0.1333333   0.2266667   0.0000000), wk =   0.0010667
        k( 1246) = (   0.1333333   0.2333333   0.0000000), wk =   0.0010667
        k( 1247) = (   0.1333333   0.2400000   0.0000000), wk =   0.0010667
        k( 1248) = (   0.1333333   0.2466667   0.0000000), wk =   0.0010667
        k( 1249) = (   0.1333333   0.2533333   0.0000000), wk =   0.0010667
        k( 1250) = (   0.1333333   0.2600000   0.0000000), wk =   0.0010667
        k( 1251) = (   0.1333333   0.2666667   0.0000000), wk =   0.0010667
        k( 1252) = (   0.1333333   0.2733333   0.0000000), wk =   0.0010667
        k( 1253) = (   0.1333333   0.2800000   0.0000000), wk =   0.0010667
        k( 1254) = (   0.1333333   0.2866667   0.0000000), wk =   0.0010667
        k( 1255) = (   0.1333333   0.2933333   0.0000000), wk =   0.0010667
        k( 1256) = (   0.1333333   0.3000000   0.0000000), wk =   0.0010667
        k( 1257) = (   0.1333333   0.3066667   0.0000000), wk =   0.0010667
        k( 1258) = (   0.1333333   0.3133333   0.0000000), wk =   0.0010667
        k( 1259) = (   0.1333333   0.3200000   0.0000000), wk =   0.0010667
        k( 1260) = (   0.1333333   0.3266667   0.0000000), wk =   0.0010667
        k( 1261) = (   0.1333333   0.3333333   0.0000000), wk =   0.0010667
        k( 1262) = (   0.1333333   0.3400000   0.0000000), wk =   0.0010667
        k( 1263) = (   0.1333333   0.3466667   0.0000000), wk =   0.0010667
        k( 1264) = (   0.1333333   0.3533333   0.0000000), wk =   0.0010667
        k( 1265) = (   0.1333333   0.3600000   0.0000000), wk =   0.0010667
        k( 1266) = (   0.1333333   0.3666667   0.0000000), wk =   0.0010667
        k( 1267) = (   0.1333333   0.3733333   0.0000000), wk =   0.0010667
        k( 1268) = (   0.1333333   0.3800000   0.0000000), wk =   0.0010667
        k( 1269) = (   0.1333333   0.3866667   0.0000000), wk =   0.0010667
        k( 1270) = (   0.1333333   0.3933333   0.0000000), wk =   0.0010667
        k( 1271) = (   0.1333333   0.4000000   0.0000000), wk =   0.0010667
        k( 1272) = (   0.1333333   0.4066667   0.0000000), wk =   0.0010667
        k( 1273) = (   0.1333333   0.4133333   0.0000000), wk =   0.0010667
        k( 1274) = (   0.1333333   0.4200000   0.0000000), wk =   0.0010667
        k( 1275) = (   0.1333333   0.4266667   0.0000000), wk =   0.0010667
        k( 1276) = (   0.1333333   0.4333333   0.0000000), wk =   0.0005333
        k( 1277) = (   0.1400000   0.1400000   0.0000000), wk =   0.0005333
        k( 1278) = (   0.1400000   0.1466667   0.0000000), wk =   0.0010667
        k( 1279) = (   0.1400000   0.1533333   0.0000000), wk =   0.0010667
        k( 1280) = (   0.1400000   0.1600000   0.0000000), wk =   0.0010667
        k( 1281) = (   0.1400000   0.1666667   0.0000000), wk =   0.0010667
        k( 1282) = (   0.1400000   0.1733333   0.0000000), wk =   0.0010667
        k( 1283) = (   0.1400000   0.1800000   0.0000000), wk =   0.0010667
        k( 1284) = (   0.1400000   0.1866667   0.0000000), wk =   0.0010667
        k( 1285) = (   0.1400000   0.1933333   0.0000000), wk =   0.0010667
        k( 1286) = (   0.1400000   0.2000000   0.0000000), wk =   0.0010667
        k( 1287) = (   0.1400000   0.2066667   0.0000000), wk =   0.0010667
        k( 1288) = (   0.1400000   0.2133333   0.0000000), wk =   0.0010667
        k( 1289) = (   0.1400000   0.2200000   0.0000000), wk =   0.0010667
        k( 1290) = (   0.1400000   0.2266667   0.0000000), wk =   0.0010667
        k( 1291) = (   0.1400000   0.2333333   0.0000000), wk =   0.0010667
        k( 1292) = (   0.1400000   0.2400000   0.0000000), wk =   0.0010667
        k( 1293) = (   0.1400000   0.2466667   0.0000000), wk =   0.0010667
        k( 1294) = (   0.1400000   0.2533333   0.0000000), wk =   0.0010667
        k( 1295) = (   0.1400000   0.2600000   0.0000000), wk =   0.0010667
        k( 1296) = (   0.1400000   0.2666667   0.0000000), wk =   0.0010667
        k( 1297) = (   0.1400000   0.2733333   0.0000000), wk =   0.0010667
        k( 1298) = (   0.1400000   0.2800000   0.0000000), wk =   0.0010667
        k( 1299) = (   0.1400000   0.2866667   0.0000000), wk =   0.0010667
        k( 1300) = (   0.1400000   0.2933333   0.0000000), wk =   0.0010667
        k( 1301) = (   0.1400000   0.3000000   0.0000000), wk =   0.0010667
        k( 1302) = (   0.1400000   0.3066667   0.0000000), wk =   0.0010667
        k( 1303) = (   0.1400000   0.3133333   0.0000000), wk =   0.0010667
        k( 1304) = (   0.1400000   0.3200000   0.0000000), wk =   0.0010667
        k( 1305) = (   0.1400000   0.3266667   0.0000000), wk =   0.0010667
        k( 1306) = (   0.1400000   0.3333333   0.0000000), wk =   0.0010667
        k( 1307) = (   0.1400000   0.3400000   0.0000000), wk =   0.0010667
        k( 1308) = (   0.1400000   0.3466667   0.0000000), wk =   0.0010667
        k( 1309) = (   0.1400000   0.3533333   0.0000000), wk =   0.0010667
        k( 1310) = (   0.1400000   0.3600000   0.0000000), wk =   0.0010667
        k( 1311) = (   0.1400000   0.3666667   0.0000000), wk =   0.0010667
        k( 1312) = (   0.1400000   0.3733333   0.0000000), wk =   0.0010667
        k( 1313) = (   0.1400000   0.3800000   0.0000000), wk =   0.0010667
        k( 1314) = (   0.1400000   0.3866667   0.0000000), wk =   0.0010667
        k( 1315) = (   0.1400000   0.3933333   0.0000000), wk =   0.0010667
        k( 1316) = (   0.1400000   0.4000000   0.0000000), wk =   0.0010667
        k( 1317) = (   0.1400000   0.4066667   0.0000000), wk =   0.0010667
        k( 1318) = (   0.1400000   0.4133333   0.0000000), wk =   0.0010667
        k( 1319) = (   0.1400000   0.4200000   0.0000000), wk =   0.0010667
        k( 1320) = (   0.1400000   0.4266667   0.0000000), wk =   0.0010667
        k( 1321) = (   0.1466667   0.1466667   0.0000000), wk =   0.0005333
        k( 1322) = (   0.1466667   0.1533333   0.0000000), wk =   0.0010667
        k( 1323) = (   0.1466667   0.1600000   0.0000000), wk =   0.0010667
        k( 1324) = (   0.1466667   0.1666667   0.0000000), wk =   0.0010667
        k( 1325) = (   0.1466667   0.1733333   0.0000000), wk =   0.0010667
        k( 1326) = (   0.1466667   0.1800000   0.0000000), wk =   0.0010667
        k( 1327) = (   0.1466667   0.1866667   0.0000000), wk =   0.0010667
        k( 1328) = (   0.1466667   0.1933333   0.0000000), wk =   0.0010667
        k( 1329) = (   0.1466667   0.2000000   0.0000000), wk =   0.0010667
        k( 1330) = (   0.1466667   0.2066667   0.0000000), wk =   0.0010667
        k( 1331) = (   0.1466667   0.2133333   0.0000000), wk =   0.0010667
        k( 1332) = (   0.1466667   0.2200000   0.0000000), wk =   0.0010667
        k( 1333) = (   0.1466667   0.2266667   0.0000000), wk =   0.0010667
        k( 1334) = (   0.1466667   0.2333333   0.0000000), wk =   0.0010667
        k( 1335) = (   0.1466667   0.2400000   0.0000000), wk =   0.0010667
        k( 1336) = (   0.1466667   0.2466667   0.0000000), wk =   0.0010667
        k( 1337) = (   0.1466667   0.2533333   0.0000000), wk =   0.0010667
        k( 1338) = (   0.1466667   0.2600000   0.0000000), wk =   0.0010667
        k( 1339) = (   0.1466667   0.2666667   0.0000000), wk =   0.0010667
        k( 1340) = (   0.1466667   0.2733333   0.0000000), wk =   0.0010667
        k( 1341) = (   0.1466667   0.2800000   0.0000000), wk =   0.0010667
        k( 1342) = (   0.1466667   0.2866667   0.0000000), wk =   0.0010667
        k( 1343) = (   0.1466667   0.2933333   0.0000000), wk =   0.0010667
        k( 1344) = (   0.1466667   0.3000000   0.0000000), wk =   0.0010667
        k( 1345) = (   0.1466667   0.3066667   0.0000000), wk =   0.0010667
        k( 1346) = (   0.1466667   0.3133333   0.0000000), wk =   0.0010667
        k( 1347) = (   0.1466667   0.3200000   0.0000000), wk =   0.0010667
        k( 1348) = (   0.1466667   0.3266667   0.0000000), wk =   0.0010667
        k( 1349) = (   0.1466667   0.3333333   0.0000000), wk =   0.0010667
        k( 1350) = (   0.1466667   0.3400000   0.0000000), wk =   0.0010667
        k( 1351) = (   0.1466667   0.3466667   0.0000000), wk =   0.0010667
        k( 1352) = (   0.1466667   0.3533333   0.0000000), wk =   0.0010667
        k( 1353) = (   0.1466667   0.3600000   0.0000000), wk =   0.0010667
        k( 1354) = (   0.1466667   0.3666667   0.0000000), wk =   0.0010667
        k( 1355) = (   0.1466667   0.3733333   0.0000000), wk =   0.0010667
        k( 1356) = (   0.1466667   0.3800000   0.0000000), wk =   0.0010667
        k( 1357) = (   0.1466667   0.3866667   0.0000000), wk =   0.0010667
        k( 1358) = (   0.1466667   0.3933333   0.0000000), wk =   0.0010667
        k( 1359) = (   0.1466667   0.4000000   0.0000000), wk =   0.0010667
        k( 1360) = (   0.1466667   0.4066667   0.0000000), wk =   0.0010667
        k( 1361) = (   0.1466667   0.4133333   0.0000000), wk =   0.0010667
        k( 1362) = (   0.1466667   0.4200000   0.0000000), wk =   0.0010667
        k( 1363) = (   0.1466667   0.4266667   0.0000000), wk =   0.0005333
        k( 1364) = (   0.1533333   0.1533333   0.0000000), wk =   0.0005333
        k( 1365) = (   0.1533333   0.1600000   0.0000000), wk =   0.0010667
        k( 1366) = (   0.1533333   0.1666667   0.0000000), wk =   0.0010667
        k( 1367) = (   0.1533333   0.1733333   0.0000000), wk =   0.0010667
        k( 1368) = (   0.1533333   0.1800000   0.0000000), wk =   0.0010667
        k( 1369) = (   0.1533333   0.1866667   0.0000000), wk =   0.0010667
        k( 1370) = (   0.1533333   0.1933333   0.0000000), wk =   0.0010667
        k( 1371) = (   0.1533333   0.2000000   0.0000000), wk =   0.0010667
        k( 1372) = (   0.1533333   0.2066667   0.0000000), wk =   0.0010667
        k( 1373) = (   0.1533333   0.2133333   0.0000000), wk =   0.0010667
        k( 1374) = (   0.1533333   0.2200000   0.0000000), wk =   0.0010667
        k( 1375) = (   0.1533333   0.2266667   0.0000000), wk =   0.0010667
        k( 1376) = (   0.1533333   0.2333333   0.0000000), wk =   0.0010667
        k( 1377) = (   0.1533333   0.2400000   0.0000000), wk =   0.0010667
        k( 1378) = (   0.1533333   0.2466667   0.0000000), wk =   0.0010667
        k( 1379) = (   0.1533333   0.2533333   0.0000000), wk =   0.0010667
        k( 1380) = (   0.1533333   0.2600000   0.0000000), wk =   0.0010667
        k( 1381) = (   0.1533333   0.2666667   0.0000000), wk =   0.0010667
        k( 1382) = (   0.1533333   0.2733333   0.0000000), wk =   0.0010667
        k( 1383) = (   0.1533333   0.2800000   0.0000000), wk =   0.0010667
        k( 1384) = (   0.1533333   0.2866667   0.0000000), wk =   0.0010667
        k( 1385) = (   0.1533333   0.2933333   0.0000000), wk =   0.0010667
        k( 1386) = (   0.1533333   0.3000000   0.0000000), wk =   0.0010667
        k( 1387) = (   0.1533333   0.3066667   0.0000000), wk =   0.0010667
        k( 1388) = (   0.1533333   0.3133333   0.0000000), wk =   0.0010667
        k( 1389) = (   0.1533333   0.3200000   0.0000000), wk =   0.0010667
        k( 1390) = (   0.1533333   0.3266667   0.0000000), wk =   0.0010667
        k( 1391) = (   0.1533333   0.3333333   0.0000000), wk =   0.0010667
        k( 1392) = (   0.1533333   0.3400000   0.0000000), wk =   0.0010667
        k( 1393) = (   0.1533333   0.3466667   0.0000000), wk =   0.0010667
        k( 1394) = (   0.1533333   0.3533333   0.0000000), wk =   0.0010667
        k( 1395) = (   0.1533333   0.3600000   0.0000000), wk =   0.0010667
        k( 1396) = (   0.1533333   0.3666667   0.0000000), wk =   0.0010667
        k( 1397) = (   0.1533333   0.3733333   0.0000000), wk =   0.0010667
        k( 1398) = (   0.1533333   0.3800000   0.0000000), wk =   0.0010667
        k( 1399) = (   0.1533333   0.3866667   0.0000000), wk =   0.0010667
        k( 1400) = (   0.1533333   0.3933333   0.0000000), wk =   0.0010667
        k( 1401) = (   0.1533333   0.4000000   0.0000000), wk =   0.0010667
        k( 1402) = (   0.1533333   0.4066667   0.0000000), wk =   0.0010667
        k( 1403) = (   0.1533333   0.4133333   0.0000000), wk =   0.0010667
        k( 1404) = (   0.1533333   0.4200000   0.0000000), wk =   0.0010667
        k( 1405) = (   0.1600000   0.1600000   0.0000000), wk =   0.0005333
        k( 1406) = (   0.1600000   0.1666667   0.0000000), wk =   0.0010667
        k( 1407) = (   0.1600000   0.1733333   0.0000000), wk =   0.0010667
        k( 1408) = (   0.1600000   0.1800000   0.0000000), wk =   0.0010667
        k( 1409) = (   0.1600000   0.1866667   0.0000000), wk =   0.0010667
        k( 1410) = (   0.1600000   0.1933333   0.0000000), wk =   0.0010667
        k( 1411) = (   0.1600000   0.2000000   0.0000000), wk =   0.0010667
        k( 1412) = (   0.1600000   0.2066667   0.0000000), wk =   0.0010667
        k( 1413) = (   0.1600000   0.2133333   0.0000000), wk =   0.0010667
        k( 1414) = (   0.1600000   0.2200000   0.0000000), wk =   0.0010667
        k( 1415) = (   0.1600000   0.2266667   0.0000000), wk =   0.0010667
        k( 1416) = (   0.1600000   0.2333333   0.0000000), wk =   0.0010667
        k( 1417) = (   0.1600000   0.2400000   0.0000000), wk =   0.0010667
        k( 1418) = (   0.1600000   0.2466667   0.0000000), wk =   0.0010667
        k( 1419) = (   0.1600000   0.2533333   0.0000000), wk =   0.0010667
        k( 1420) = (   0.1600000   0.2600000   0.0000000), wk =   0.0010667
        k( 1421) = (   0.1600000   0.2666667   0.0000000), wk =   0.0010667
        k( 1422) = (   0.1600000   0.2733333   0.0000000), wk =   0.0010667
        k( 1423) = (   0.1600000   0.2800000   0.0000000), wk =   0.0010667
        k( 1424) = (   0.1600000   0.2866667   0.0000000), wk =   0.0010667
        k( 1425) = (   0.1600000   0.2933333   0.0000000), wk =   0.0010667
        k( 1426) = (   0.1600000   0.3000000   0.0000000), wk =   0.0010667
        k( 1427) = (   0.1600000   0.3066667   0.0000000), wk =   0.0010667
        k( 1428) = (   0.1600000   0.3133333   0.0000000), wk =   0.0010667
        k( 1429) = (   0.1600000   0.3200000   0.0000000), wk =   0.0010667
        k( 1430) = (   0.1600000   0.3266667   0.0000000), wk =   0.0010667
        k( 1431) = (   0.1600000   0.3333333   0.0000000), wk =   0.0010667
        k( 1432) = (   0.1600000   0.3400000   0.0000000), wk =   0.0010667
        k( 1433) = (   0.1600000   0.3466667   0.0000000), wk =   0.0010667
        k( 1434) = (   0.1600000   0.3533333   0.0000000), wk =   0.0010667
        k( 1435) = (   0.1600000   0.3600000   0.0000000), wk =   0.0010667
        k( 1436) = (   0.1600000   0.3666667   0.0000000), wk =   0.0010667
        k( 1437) = (   0.1600000   0.3733333   0.0000000), wk =   0.0010667
        k( 1438) = (   0.1600000   0.3800000   0.0000000), wk =   0.0010667
        k( 1439) = (   0.1600000   0.3866667   0.0000000), wk =   0.0010667
        k( 1440) = (   0.1600000   0.3933333   0.0000000), wk =   0.0010667
        k( 1441) = (   0.1600000   0.4000000   0.0000000), wk =   0.0010667
        k( 1442) = (   0.1600000   0.4066667   0.0000000), wk =   0.0010667
        k( 1443) = (   0.1600000   0.4133333   0.0000000), wk =   0.0010667
        k( 1444) = (   0.1600000   0.4200000   0.0000000), wk =   0.0005333
        k( 1445) = (   0.1666667   0.1666667   0.0000000), wk =   0.0005333
        k( 1446) = (   0.1666667   0.1733333   0.0000000), wk =   0.0010667
        k( 1447) = (   0.1666667   0.1800000   0.0000000), wk =   0.0010667
        k( 1448) = (   0.1666667   0.1866667   0.0000000), wk =   0.0010667
        k( 1449) = (   0.1666667   0.1933333   0.0000000), wk =   0.0010667
        k( 1450) = (   0.1666667   0.2000000   0.0000000), wk =   0.0010667
        k( 1451) = (   0.1666667   0.2066667   0.0000000), wk =   0.0010667
        k( 1452) = (   0.1666667   0.2133333   0.0000000), wk =   0.0010667
        k( 1453) = (   0.1666667   0.2200000   0.0000000), wk =   0.0010667
        k( 1454) = (   0.1666667   0.2266667   0.0000000), wk =   0.0010667
        k( 1455) = (   0.1666667   0.2333333   0.0000000), wk =   0.0010667
        k( 1456) = (   0.1666667   0.2400000   0.0000000), wk =   0.0010667
        k( 1457) = (   0.1666667   0.2466667   0.0000000), wk =   0.0010667
        k( 1458) = (   0.1666667   0.2533333   0.0000000), wk =   0.0010667
        k( 1459) = (   0.1666667   0.2600000   0.0000000), wk =   0.0010667
        k( 1460) = (   0.1666667   0.2666667   0.0000000), wk =   0.0010667
        k( 1461) = (   0.1666667   0.2733333   0.0000000), wk =   0.0010667
        k( 1462) = (   0.1666667   0.2800000   0.0000000), wk =   0.0010667
        k( 1463) = (   0.1666667   0.2866667   0.0000000), wk =   0.0010667
        k( 1464) = (   0.1666667   0.2933333   0.0000000), wk =   0.0010667
        k( 1465) = (   0.1666667   0.3000000   0.0000000), wk =   0.0010667
        k( 1466) = (   0.1666667   0.3066667   0.0000000), wk =   0.0010667
        k( 1467) = (   0.1666667   0.3133333   0.0000000), wk =   0.0010667
        k( 1468) = (   0.1666667   0.3200000   0.0000000), wk =   0.0010667
        k( 1469) = (   0.1666667   0.3266667   0.0000000), wk =   0.0010667
        k( 1470) = (   0.1666667   0.3333333   0.0000000), wk =   0.0010667
        k( 1471) = (   0.1666667   0.3400000   0.0000000), wk =   0.0010667
        k( 1472) = (   0.1666667   0.3466667   0.0000000), wk =   0.0010667
        k( 1473) = (   0.1666667   0.3533333   0.0000000), wk =   0.0010667
        k( 1474) = (   0.1666667   0.3600000   0.0000000), wk =   0.0010667
        k( 1475) = (   0.1666667   0.3666667   0.0000000), wk =   0.0010667
        k( 1476) = (   0.1666667   0.3733333   0.0000000), wk =   0.0010667
        k( 1477) = (   0.1666667   0.3800000   0.0000000), wk =   0.0010667
        k( 1478) = (   0.1666667   0.3866667   0.0000000), wk =   0.0010667
        k( 1479) = (   0.1666667   0.3933333   0.0000000), wk =   0.0010667
        k( 1480) = (   0.1666667   0.4000000   0.0000000), wk =   0.0010667
        k( 1481) = (   0.1666667   0.4066667   0.0000000), wk =   0.0010667
        k( 1482) = (   0.1666667   0.4133333   0.0000000), wk =   0.0010667
        k( 1483) = (   0.1733333   0.1733333   0.0000000), wk =   0.0005333
        k( 1484) = (   0.1733333   0.1800000   0.0000000), wk =   0.0010667
        k( 1485) = (   0.1733333   0.1866667   0.0000000), wk =   0.0010667
        k( 1486) = (   0.1733333   0.1933333   0.0000000), wk =   0.0010667
        k( 1487) = (   0.1733333   0.2000000   0.0000000), wk =   0.0010667
        k( 1488) = (   0.1733333   0.2066667   0.0000000), wk =   0.0010667
        k( 1489) = (   0.1733333   0.2133333   0.0000000), wk =   0.0010667
        k( 1490) = (   0.1733333   0.2200000   0.0000000), wk =   0.0010667
        k( 1491) = (   0.1733333   0.2266667   0.0000000), wk =   0.0010667
        k( 1492) = (   0.1733333   0.2333333   0.0000000), wk =   0.0010667
        k( 1493) = (   0.1733333   0.2400000   0.0000000), wk =   0.0010667
        k( 1494) = (   0.1733333   0.2466667   0.0000000), wk =   0.0010667
        k( 1495) = (   0.1733333   0.2533333   0.0000000), wk =   0.0010667
        k( 1496) = (   0.1733333   0.2600000   0.0000000), wk =   0.0010667
        k( 1497) = (   0.1733333   0.2666667   0.0000000), wk =   0.0010667
        k( 1498) = (   0.1733333   0.2733333   0.0000000), wk =   0.0010667
        k( 1499) = (   0.1733333   0.2800000   0.0000000), wk =   0.0010667
        k( 1500) = (   0.1733333   0.2866667   0.0000000), wk =   0.0010667
        k( 1501) = (   0.1733333   0.2933333   0.0000000), wk =   0.0010667
        k( 1502) = (   0.1733333   0.3000000   0.0000000), wk =   0.0010667
        k( 1503) = (   0.1733333   0.3066667   0.0000000), wk =   0.0010667
        k( 1504) = (   0.1733333   0.3133333   0.0000000), wk =   0.0010667
        k( 1505) = (   0.1733333   0.3200000   0.0000000), wk =   0.0010667
        k( 1506) = (   0.1733333   0.3266667   0.0000000), wk =   0.0010667
        k( 1507) = (   0.1733333   0.3333333   0.0000000), wk =   0.0010667
        k( 1508) = (   0.1733333   0.3400000   0.0000000), wk =   0.0010667
        k( 1509) = (   0.1733333   0.3466667   0.0000000), wk =   0.0010667
        k( 1510) = (   0.1733333   0.3533333   0.0000000), wk =   0.0010667
        k( 1511) = (   0.1733333   0.3600000   0.0000000), wk =   0.0010667
        k( 1512) = (   0.1733333   0.3666667   0.0000000), wk =   0.0010667
        k( 1513) = (   0.1733333   0.3733333   0.0000000), wk =   0.0010667
        k( 1514) = (   0.1733333   0.3800000   0.0000000), wk =   0.0010667
        k( 1515) = (   0.1733333   0.3866667   0.0000000), wk =   0.0010667
        k( 1516) = (   0.1733333   0.3933333   0.0000000), wk =   0.0010667
        k( 1517) = (   0.1733333   0.4000000   0.0000000), wk =   0.0010667
        k( 1518) = (   0.1733333   0.4066667   0.0000000), wk =   0.0010667
        k( 1519) = (   0.1733333   0.4133333   0.0000000), wk =   0.0005333
        k( 1520) = (   0.1800000   0.1800000   0.0000000), wk =   0.0005333
        k( 1521) = (   0.1800000   0.1866667   0.0000000), wk =   0.0010667
        k( 1522) = (   0.1800000   0.1933333   0.0000000), wk =   0.0010667
        k( 1523) = (   0.1800000   0.2000000   0.0000000), wk =   0.0010667
        k( 1524) = (   0.1800000   0.2066667   0.0000000), wk =   0.0010667
        k( 1525) = (   0.1800000   0.2133333   0.0000000), wk =   0.0010667
        k( 1526) = (   0.1800000   0.2200000   0.0000000), wk =   0.0010667
        k( 1527) = (   0.1800000   0.2266667   0.0000000), wk =   0.0010667
        k( 1528) = (   0.1800000   0.2333333   0.0000000), wk =   0.0010667
        k( 1529) = (   0.1800000   0.2400000   0.0000000), wk =   0.0010667
        k( 1530) = (   0.1800000   0.2466667   0.0000000), wk =   0.0010667
        k( 1531) = (   0.1800000   0.2533333   0.0000000), wk =   0.0010667
        k( 1532) = (   0.1800000   0.2600000   0.0000000), wk =   0.0010667
        k( 1533) = (   0.1800000   0.2666667   0.0000000), wk =   0.0010667
        k( 1534) = (   0.1800000   0.2733333   0.0000000), wk =   0.0010667
        k( 1535) = (   0.1800000   0.2800000   0.0000000), wk =   0.0010667
        k( 1536) = (   0.1800000   0.2866667   0.0000000), wk =   0.0010667
        k( 1537) = (   0.1800000   0.2933333   0.0000000), wk =   0.0010667
        k( 1538) = (   0.1800000   0.3000000   0.0000000), wk =   0.0010667
        k( 1539) = (   0.1800000   0.3066667   0.0000000), wk =   0.0010667
        k( 1540) = (   0.1800000   0.3133333   0.0000000), wk =   0.0010667
        k( 1541) = (   0.1800000   0.3200000   0.0000000), wk =   0.0010667
        k( 1542) = (   0.1800000   0.3266667   0.0000000), wk =   0.0010667
        k( 1543) = (   0.1800000   0.3333333   0.0000000), wk =   0.0010667
        k( 1544) = (   0.1800000   0.3400000   0.0000000), wk =   0.0010667
        k( 1545) = (   0.1800000   0.3466667   0.0000000), wk =   0.0010667
        k( 1546) = (   0.1800000   0.3533333   0.0000000), wk =   0.0010667
        k( 1547) = (   0.1800000   0.3600000   0.0000000), wk =   0.0010667
        k( 1548) = (   0.1800000   0.3666667   0.0000000), wk =   0.0010667
        k( 1549) = (   0.1800000   0.3733333   0.0000000), wk =   0.0010667
        k( 1550) = (   0.1800000   0.3800000   0.0000000), wk =   0.0010667
        k( 1551) = (   0.1800000   0.3866667   0.0000000), wk =   0.0010667
        k( 1552) = (   0.1800000   0.3933333   0.0000000), wk =   0.0010667
        k( 1553) = (   0.1800000   0.4000000   0.0000000), wk =   0.0010667
        k( 1554) = (   0.1800000   0.4066667   0.0000000), wk =   0.0010667
        k( 1555) = (   0.1866667   0.1866667   0.0000000), wk =   0.0005333
        k( 1556) = (   0.1866667   0.1933333   0.0000000), wk =   0.0010667
        k( 1557) = (   0.1866667   0.2000000   0.0000000), wk =   0.0010667
        k( 1558) = (   0.1866667   0.2066667   0.0000000), wk =   0.0010667
        k( 1559) = (   0.1866667   0.2133333   0.0000000), wk =   0.0010667
        k( 1560) = (   0.1866667   0.2200000   0.0000000), wk =   0.0010667
        k( 1561) = (   0.1866667   0.2266667   0.0000000), wk =   0.0010667
        k( 1562) = (   0.1866667   0.2333333   0.0000000), wk =   0.0010667
        k( 1563) = (   0.1866667   0.2400000   0.0000000), wk =   0.0010667
        k( 1564) = (   0.1866667   0.2466667   0.0000000), wk =   0.0010667
        k( 1565) = (   0.1866667   0.2533333   0.0000000), wk =   0.0010667
        k( 1566) = (   0.1866667   0.2600000   0.0000000), wk =   0.0010667
        k( 1567) = (   0.1866667   0.2666667   0.0000000), wk =   0.0010667
        k( 1568) = (   0.1866667   0.2733333   0.0000000), wk =   0.0010667
        k( 1569) = (   0.1866667   0.2800000   0.0000000), wk =   0.0010667
        k( 1570) = (   0.1866667   0.2866667   0.0000000), wk =   0.0010667
        k( 1571) = (   0.1866667   0.2933333   0.0000000), wk =   0.0010667
        k( 1572) = (   0.1866667   0.3000000   0.0000000), wk =   0.0010667
        k( 1573) = (   0.1866667   0.3066667   0.0000000), wk =   0.0010667
        k( 1574) = (   0.1866667   0.3133333   0.0000000), wk =   0.0010667
        k( 1575) = (   0.1866667   0.3200000   0.0000000), wk =   0.0010667
        k( 1576) = (   0.1866667   0.3266667   0.0000000), wk =   0.0010667
        k( 1577) = (   0.1866667   0.3333333   0.0000000), wk =   0.0010667
        k( 1578) = (   0.1866667   0.3400000   0.0000000), wk =   0.0010667
        k( 1579) = (   0.1866667   0.3466667   0.0000000), wk =   0.0010667
        k( 1580) = (   0.1866667   0.3533333   0.0000000), wk =   0.0010667
        k( 1581) = (   0.1866667   0.3600000   0.0000000), wk =   0.0010667
        k( 1582) = (   0.1866667   0.3666667   0.0000000), wk =   0.0010667
        k( 1583) = (   0.1866667   0.3733333   0.0000000), wk =   0.0010667
        k( 1584) = (   0.1866667   0.3800000   0.0000000), wk =   0.0010667
        k( 1585) = (   0.1866667   0.3866667   0.0000000), wk =   0.0010667
        k( 1586) = (   0.1866667   0.3933333   0.0000000), wk =   0.0010667
        k( 1587) = (   0.1866667   0.4000000   0.0000000), wk =   0.0010667
        k( 1588) = (   0.1866667   0.4066667   0.0000000), wk =   0.0005333
        k( 1589) = (   0.1933333   0.1933333   0.0000000), wk =   0.0005333
        k( 1590) = (   0.1933333   0.2000000   0.0000000), wk =   0.0010667
        k( 1591) = (   0.1933333   0.2066667   0.0000000), wk =   0.0010667
        k( 1592) = (   0.1933333   0.2133333   0.0000000), wk =   0.0010667
        k( 1593) = (   0.1933333   0.2200000   0.0000000), wk =   0.0010667
        k( 1594) = (   0.1933333   0.2266667   0.0000000), wk =   0.0010667
        k( 1595) = (   0.1933333   0.2333333   0.0000000), wk =   0.0010667
        k( 1596) = (   0.1933333   0.2400000   0.0000000), wk =   0.0010667
        k( 1597) = (   0.1933333   0.2466667   0.0000000), wk =   0.0010667
        k( 1598) = (   0.1933333   0.2533333   0.0000000), wk =   0.0010667
        k( 1599) = (   0.1933333   0.2600000   0.0000000), wk =   0.0010667
        k( 1600) = (   0.1933333   0.2666667   0.0000000), wk =   0.0010667
        k( 1601) = (   0.1933333   0.2733333   0.0000000), wk =   0.0010667
        k( 1602) = (   0.1933333   0.2800000   0.0000000), wk =   0.0010667
        k( 1603) = (   0.1933333   0.2866667   0.0000000), wk =   0.0010667
        k( 1604) = (   0.1933333   0.2933333   0.0000000), wk =   0.0010667
        k( 1605) = (   0.1933333   0.3000000   0.0000000), wk =   0.0010667
        k( 1606) = (   0.1933333   0.3066667   0.0000000), wk =   0.0010667
        k( 1607) = (   0.1933333   0.3133333   0.0000000), wk =   0.0010667
        k( 1608) = (   0.1933333   0.3200000   0.0000000), wk =   0.0010667
        k( 1609) = (   0.1933333   0.3266667   0.0000000), wk =   0.0010667
        k( 1610) = (   0.1933333   0.3333333   0.0000000), wk =   0.0010667
        k( 1611) = (   0.1933333   0.3400000   0.0000000), wk =   0.0010667
        k( 1612) = (   0.1933333   0.3466667   0.0000000), wk =   0.0010667
        k( 1613) = (   0.1933333   0.3533333   0.0000000), wk =   0.0010667
        k( 1614) = (   0.1933333   0.3600000   0.0000000), wk =   0.0010667
        k( 1615) = (   0.1933333   0.3666667   0.0000000), wk =   0.0010667
        k( 1616) = (   0.1933333   0.3733333   0.0000000), wk =   0.0010667
        k( 1617) = (   0.1933333   0.3800000   0.0000000), wk =   0.0010667
        k( 1618) = (   0.1933333   0.3866667   0.0000000), wk =   0.0010667
        k( 1619) = (   0.1933333   0.3933333   0.0000000), wk =   0.0010667
        k( 1620) = (   0.1933333   0.4000000   0.0000000), wk =   0.0010667
        k( 1621) = (   0.2000000   0.2000000   0.0000000), wk =   0.0005333
        k( 1622) = (   0.2000000   0.2066667   0.0000000), wk =   0.0010667
        k( 1623) = (   0.2000000   0.2133333   0.0000000), wk =   0.0010667
        k( 1624) = (   0.2000000   0.2200000   0.0000000), wk =   0.0010667
        k( 1625) = (   0.2000000   0.2266667   0.0000000), wk =   0.0010667
        k( 1626) = (   0.2000000   0.2333333   0.0000000), wk =   0.0010667
        k( 1627) = (   0.2000000   0.2400000   0.0000000), wk =   0.0010667
        k( 1628) = (   0.2000000   0.2466667   0.0000000), wk =   0.0010667
        k( 1629) = (   0.2000000   0.2533333   0.0000000), wk =   0.0010667
        k( 1630) = (   0.2000000   0.2600000   0.0000000), wk =   0.0010667
        k( 1631) = (   0.2000000   0.2666667   0.0000000), wk =   0.0010667
        k( 1632) = (   0.2000000   0.2733333   0.0000000), wk =   0.0010667
        k( 1633) = (   0.2000000   0.2800000   0.0000000), wk =   0.0010667
        k( 1634) = (   0.2000000   0.2866667   0.0000000), wk =   0.0010667
        k( 1635) = (   0.2000000   0.2933333   0.0000000), wk =   0.0010667
        k( 1636) = (   0.2000000   0.3000000   0.0000000), wk =   0.0010667
        k( 1637) = (   0.2000000   0.3066667   0.0000000), wk =   0.0010667
        k( 1638) = (   0.2000000   0.3133333   0.0000000), wk =   0.0010667
        k( 1639) = (   0.2000000   0.3200000   0.0000000), wk =   0.0010667
        k( 1640) = (   0.2000000   0.3266667   0.0000000), wk =   0.0010667
        k( 1641) = (   0.2000000   0.3333333   0.0000000), wk =   0.0010667
        k( 1642) = (   0.2000000   0.3400000   0.0000000), wk =   0.0010667
        k( 1643) = (   0.2000000   0.3466667   0.0000000), wk =   0.0010667
        k( 1644) = (   0.2000000   0.3533333   0.0000000), wk =   0.0010667
        k( 1645) = (   0.2000000   0.3600000   0.0000000), wk =   0.0010667
        k( 1646) = (   0.2000000   0.3666667   0.0000000), wk =   0.0010667
        k( 1647) = (   0.2000000   0.3733333   0.0000000), wk =   0.0010667
        k( 1648) = (   0.2000000   0.3800000   0.0000000), wk =   0.0010667
        k( 1649) = (   0.2000000   0.3866667   0.0000000), wk =   0.0010667
        k( 1650) = (   0.2000000   0.3933333   0.0000000), wk =   0.0010667
        k( 1651) = (   0.2000000   0.4000000   0.0000000), wk =   0.0005333
        k( 1652) = (   0.2066667   0.2066667   0.0000000), wk =   0.0005333
        k( 1653) = (   0.2066667   0.2133333   0.0000000), wk =   0.0010667
        k( 1654) = (   0.2066667   0.2200000   0.0000000), wk =   0.0010667
        k( 1655) = (   0.2066667   0.2266667   0.0000000), wk =   0.0010667
        k( 1656) = (   0.2066667   0.2333333   0.0000000), wk =   0.0010667
        k( 1657) = (   0.2066667   0.2400000   0.0000000), wk =   0.0010667
        k( 1658) = (   0.2066667   0.2466667   0.0000000), wk =   0.0010667
        k( 1659) = (   0.2066667   0.2533333   0.0000000), wk =   0.0010667
        k( 1660) = (   0.2066667   0.2600000   0.0000000), wk =   0.0010667
        k( 1661) = (   0.2066667   0.2666667   0.0000000), wk =   0.0010667
        k( 1662) = (   0.2066667   0.2733333   0.0000000), wk =   0.0010667
        k( 1663) = (   0.2066667   0.2800000   0.0000000), wk =   0.0010667
        k( 1664) = (   0.2066667   0.2866667   0.0000000), wk =   0.0010667
        k( 1665) = (   0.2066667   0.2933333   0.0000000), wk =   0.0010667
        k( 1666) = (   0.2066667   0.3000000   0.0000000), wk =   0.0010667
        k( 1667) = (   0.2066667   0.3066667   0.0000000), wk =   0.0010667
        k( 1668) = (   0.2066667   0.3133333   0.0000000), wk =   0.0010667
        k( 1669) = (   0.2066667   0.3200000   0.0000000), wk =   0.0010667
        k( 1670) = (   0.2066667   0.3266667   0.0000000), wk =   0.0010667
        k( 1671) = (   0.2066667   0.3333333   0.0000000), wk =   0.0010667
        k( 1672) = (   0.2066667   0.3400000   0.0000000), wk =   0.0010667
        k( 1673) = (   0.2066667   0.3466667   0.0000000), wk =   0.0010667
        k( 1674) = (   0.2066667   0.3533333   0.0000000), wk =   0.0010667
        k( 1675) = (   0.2066667   0.3600000   0.0000000), wk =   0.0010667
        k( 1676) = (   0.2066667   0.3666667   0.0000000), wk =   0.0010667
        k( 1677) = (   0.2066667   0.3733333   0.0000000), wk =   0.0010667
        k( 1678) = (   0.2066667   0.3800000   0.0000000), wk =   0.0010667
        k( 1679) = (   0.2066667   0.3866667   0.0000000), wk =   0.0010667
        k( 1680) = (   0.2066667   0.3933333   0.0000000), wk =   0.0010667
        k( 1681) = (   0.2133333   0.2133333   0.0000000), wk =   0.0005333
        k( 1682) = (   0.2133333   0.2200000   0.0000000), wk =   0.0010667
        k( 1683) = (   0.2133333   0.2266667   0.0000000), wk =   0.0010667
        k( 1684) = (   0.2133333   0.2333333   0.0000000), wk =   0.0010667
        k( 1685) = (   0.2133333   0.2400000   0.0000000), wk =   0.0010667
        k( 1686) = (   0.2133333   0.2466667   0.0000000), wk =   0.0010667
        k( 1687) = (   0.2133333   0.2533333   0.0000000), wk =   0.0010667
        k( 1688) = (   0.2133333   0.2600000   0.0000000), wk =   0.0010667
        k( 1689) = (   0.2133333   0.2666667   0.0000000), wk =   0.0010667
        k( 1690) = (   0.2133333   0.2733333   0.0000000), wk =   0.0010667
        k( 1691) = (   0.2133333   0.2800000   0.0000000), wk =   0.0010667
        k( 1692) = (   0.2133333   0.2866667   0.0000000), wk =   0.0010667
        k( 1693) = (   0.2133333   0.2933333   0.0000000), wk =   0.0010667
        k( 1694) = (   0.2133333   0.3000000   0.0000000), wk =   0.0010667
        k( 1695) = (   0.2133333   0.3066667   0.0000000), wk =   0.0010667
        k( 1696) = (   0.2133333   0.3133333   0.0000000), wk =   0.0010667
        k( 1697) = (   0.2133333   0.3200000   0.0000000), wk =   0.0010667
        k( 1698) = (   0.2133333   0.3266667   0.0000000), wk =   0.0010667
        k( 1699) = (   0.2133333   0.3333333   0.0000000), wk =   0.0010667
        k( 1700) = (   0.2133333   0.3400000   0.0000000), wk =   0.0010667
        k( 1701) = (   0.2133333   0.3466667   0.0000000), wk =   0.0010667
        k( 1702) = (   0.2133333   0.3533333   0.0000000), wk =   0.0010667
        k( 1703) = (   0.2133333   0.3600000   0.0000000), wk =   0.0010667
        k( 1704) = (   0.2133333   0.3666667   0.0000000), wk =   0.0010667
        k( 1705) = (   0.2133333   0.3733333   0.0000000), wk =   0.0010667
        k( 1706) = (   0.2133333   0.3800000   0.0000000), wk =   0.0010667
        k( 1707) = (   0.2133333   0.3866667   0.0000000), wk =   0.0010667
        k( 1708) = (   0.2133333   0.3933333   0.0000000), wk =   0.0005333
        k( 1709) = (   0.2200000   0.2200000   0.0000000), wk =   0.0005333
        k( 1710) = (   0.2200000   0.2266667   0.0000000), wk =   0.0010667
        k( 1711) = (   0.2200000   0.2333333   0.0000000), wk =   0.0010667
        k( 1712) = (   0.2200000   0.2400000   0.0000000), wk =   0.0010667
        k( 1713) = (   0.2200000   0.2466667   0.0000000), wk =   0.0010667
        k( 1714) = (   0.2200000   0.2533333   0.0000000), wk =   0.0010667
        k( 1715) = (   0.2200000   0.2600000   0.0000000), wk =   0.0010667
        k( 1716) = (   0.2200000   0.2666667   0.0000000), wk =   0.0010667
        k( 1717) = (   0.2200000   0.2733333   0.0000000), wk =   0.0010667
        k( 1718) = (   0.2200000   0.2800000   0.0000000), wk =   0.0010667
        k( 1719) = (   0.2200000   0.2866667   0.0000000), wk =   0.0010667
        k( 1720) = (   0.2200000   0.2933333   0.0000000), wk =   0.0010667
        k( 1721) = (   0.2200000   0.3000000   0.0000000), wk =   0.0010667
        k( 1722) = (   0.2200000   0.3066667   0.0000000), wk =   0.0010667
        k( 1723) = (   0.2200000   0.3133333   0.0000000), wk =   0.0010667
        k( 1724) = (   0.2200000   0.3200000   0.0000000), wk =   0.0010667
        k( 1725) = (   0.2200000   0.3266667   0.0000000), wk =   0.0010667
        k( 1726) = (   0.2200000   0.3333333   0.0000000), wk =   0.0010667
        k( 1727) = (   0.2200000   0.3400000   0.0000000), wk =   0.0010667
        k( 1728) = (   0.2200000   0.3466667   0.0000000), wk =   0.0010667
        k( 1729) = (   0.2200000   0.3533333   0.0000000), wk =   0.0010667
        k( 1730) = (   0.2200000   0.3600000   0.0000000), wk =   0.0010667
        k( 1731) = (   0.2200000   0.3666667   0.0000000), wk =   0.0010667
        k( 1732) = (   0.2200000   0.3733333   0.0000000), wk =   0.0010667
        k( 1733) = (   0.2200000   0.3800000   0.0000000), wk =   0.0010667
        k( 1734) = (   0.2200000   0.3866667   0.0000000), wk =   0.0010667
        k( 1735) = (   0.2266667   0.2266667   0.0000000), wk =   0.0005333
        k( 1736) = (   0.2266667   0.2333333   0.0000000), wk =   0.0010667
        k( 1737) = (   0.2266667   0.2400000   0.0000000), wk =   0.0010667
        k( 1738) = (   0.2266667   0.2466667   0.0000000), wk =   0.0010667
        k( 1739) = (   0.2266667   0.2533333   0.0000000), wk =   0.0010667
        k( 1740) = (   0.2266667   0.2600000   0.0000000), wk =   0.0010667
        k( 1741) = (   0.2266667   0.2666667   0.0000000), wk =   0.0010667
        k( 1742) = (   0.2266667   0.2733333   0.0000000), wk =   0.0010667
        k( 1743) = (   0.2266667   0.2800000   0.0000000), wk =   0.0010667
        k( 1744) = (   0.2266667   0.2866667   0.0000000), wk =   0.0010667
        k( 1745) = (   0.2266667   0.2933333   0.0000000), wk =   0.0010667
        k( 1746) = (   0.2266667   0.3000000   0.0000000), wk =   0.0010667
        k( 1747) = (   0.2266667   0.3066667   0.0000000), wk =   0.0010667
        k( 1748) = (   0.2266667   0.3133333   0.0000000), wk =   0.0010667
        k( 1749) = (   0.2266667   0.3200000   0.0000000), wk =   0.0010667
        k( 1750) = (   0.2266667   0.3266667   0.0000000), wk =   0.0010667
        k( 1751) = (   0.2266667   0.3333333   0.0000000), wk =   0.0010667
        k( 1752) = (   0.2266667   0.3400000   0.0000000), wk =   0.0010667
        k( 1753) = (   0.2266667   0.3466667   0.0000000), wk =   0.0010667
        k( 1754) = (   0.2266667   0.3533333   0.0000000), wk =   0.0010667
        k( 1755) = (   0.2266667   0.3600000   0.0000000), wk =   0.0010667
        k( 1756) = (   0.2266667   0.3666667   0.0000000), wk =   0.0010667
        k( 1757) = (   0.2266667   0.3733333   0.0000000), wk =   0.0010667
        k( 1758) = (   0.2266667   0.3800000   0.0000000), wk =   0.0010667
        k( 1759) = (   0.2266667   0.3866667   0.0000000), wk =   0.0005333
        k( 1760) = (   0.2333333   0.2333333   0.0000000), wk =   0.0005333
        k( 1761) = (   0.2333333   0.2400000   0.0000000), wk =   0.0010667
        k( 1762) = (   0.2333333   0.2466667   0.0000000), wk =   0.0010667
        k( 1763) = (   0.2333333   0.2533333   0.0000000), wk =   0.0010667
        k( 1764) = (   0.2333333   0.2600000   0.0000000), wk =   0.0010667
        k( 1765) = (   0.2333333   0.2666667   0.0000000), wk =   0.0010667
        k( 1766) = (   0.2333333   0.2733333   0.0000000), wk =   0.0010667
        k( 1767) = (   0.2333333   0.2800000   0.0000000), wk =   0.0010667
        k( 1768) = (   0.2333333   0.2866667   0.0000000), wk =   0.0010667
        k( 1769) = (   0.2333333   0.2933333   0.0000000), wk =   0.0010667
        k( 1770) = (   0.2333333   0.3000000   0.0000000), wk =   0.0010667
        k( 1771) = (   0.2333333   0.3066667   0.0000000), wk =   0.0010667
        k( 1772) = (   0.2333333   0.3133333   0.0000000), wk =   0.0010667
        k( 1773) = (   0.2333333   0.3200000   0.0000000), wk =   0.0010667
        k( 1774) = (   0.2333333   0.3266667   0.0000000), wk =   0.0010667
        k( 1775) = (   0.2333333   0.3333333   0.0000000), wk =   0.0010667
        k( 1776) = (   0.2333333   0.3400000   0.0000000), wk =   0.0010667
        k( 1777) = (   0.2333333   0.3466667   0.0000000), wk =   0.0010667
        k( 1778) = (   0.2333333   0.3533333   0.0000000), wk =   0.0010667
        k( 1779) = (   0.2333333   0.3600000   0.0000000), wk =   0.0010667
        k( 1780) = (   0.2333333   0.3666667   0.0000000), wk =   0.0010667
        k( 1781) = (   0.2333333   0.3733333   0.0000000), wk =   0.0010667
        k( 1782) = (   0.2333333   0.3800000   0.0000000), wk =   0.0010667
        k( 1783) = (   0.2400000   0.2400000   0.0000000), wk =   0.0005333
        k( 1784) = (   0.2400000   0.2466667   0.0000000), wk =   0.0010667
        k( 1785) = (   0.2400000   0.2533333   0.0000000), wk =   0.0010667
        k( 1786) = (   0.2400000   0.2600000   0.0000000), wk =   0.0010667
        k( 1787) = (   0.2400000   0.2666667   0.0000000), wk =   0.0010667
        k( 1788) = (   0.2400000   0.2733333   0.0000000), wk =   0.0010667
        k( 1789) = (   0.2400000   0.2800000   0.0000000), wk =   0.0010667
        k( 1790) = (   0.2400000   0.2866667   0.0000000), wk =   0.0010667
        k( 1791) = (   0.2400000   0.2933333   0.0000000), wk =   0.0010667
        k( 1792) = (   0.2400000   0.3000000   0.0000000), wk =   0.0010667
        k( 1793) = (   0.2400000   0.3066667   0.0000000), wk =   0.0010667
        k( 1794) = (   0.2400000   0.3133333   0.0000000), wk =   0.0010667
        k( 1795) = (   0.2400000   0.3200000   0.0000000), wk =   0.0010667
        k( 1796) = (   0.2400000   0.3266667   0.0000000), wk =   0.0010667
        k( 1797) = (   0.2400000   0.3333333   0.0000000), wk =   0.0010667
        k( 1798) = (   0.2400000   0.3400000   0.0000000), wk =   0.0010667
        k( 1799) = (   0.2400000   0.3466667   0.0000000), wk =   0.0010667
        k( 1800) = (   0.2400000   0.3533333   0.0000000), wk =   0.0010667
        k( 1801) = (   0.2400000   0.3600000   0.0000000), wk =   0.0010667
        k( 1802) = (   0.2400000   0.3666667   0.0000000), wk =   0.0010667
        k( 1803) = (   0.2400000   0.3733333   0.0000000), wk =   0.0010667
        k( 1804) = (   0.2400000   0.3800000   0.0000000), wk =   0.0005333
        k( 1805) = (   0.2466667   0.2466667   0.0000000), wk =   0.0005333
        k( 1806) = (   0.2466667   0.2533333   0.0000000), wk =   0.0010667
        k( 1807) = (   0.2466667   0.2600000   0.0000000), wk =   0.0010667
        k( 1808) = (   0.2466667   0.2666667   0.0000000), wk =   0.0010667
        k( 1809) = (   0.2466667   0.2733333   0.0000000), wk =   0.0010667
        k( 1810) = (   0.2466667   0.2800000   0.0000000), wk =   0.0010667
        k( 1811) = (   0.2466667   0.2866667   0.0000000), wk =   0.0010667
        k( 1812) = (   0.2466667   0.2933333   0.0000000), wk =   0.0010667
        k( 1813) = (   0.2466667   0.3000000   0.0000000), wk =   0.0010667
        k( 1814) = (   0.2466667   0.3066667   0.0000000), wk =   0.0010667
        k( 1815) = (   0.2466667   0.3133333   0.0000000), wk =   0.0010667
        k( 1816) = (   0.2466667   0.3200000   0.0000000), wk =   0.0010667
        k( 1817) = (   0.2466667   0.3266667   0.0000000), wk =   0.0010667
        k( 1818) = (   0.2466667   0.3333333   0.0000000), wk =   0.0010667
        k( 1819) = (   0.2466667   0.3400000   0.0000000), wk =   0.0010667
        k( 1820) = (   0.2466667   0.3466667   0.0000000), wk =   0.0010667
        k( 1821) = (   0.2466667   0.3533333   0.0000000), wk =   0.0010667
        k( 1822) = (   0.2466667   0.3600000   0.0000000), wk =   0.0010667
        k( 1823) = (   0.2466667   0.3666667   0.0000000), wk =   0.0010667
        k( 1824) = (   0.2466667   0.3733333   0.0000000), wk =   0.0010667
        k( 1825) = (   0.2533333   0.2533333   0.0000000), wk =   0.0005333
        k( 1826) = (   0.2533333   0.2600000   0.0000000), wk =   0.0010667
        k( 1827) = (   0.2533333   0.2666667   0.0000000), wk =   0.0010667
        k( 1828) = (   0.2533333   0.2733333   0.0000000), wk =   0.0010667
        k( 1829) = (   0.2533333   0.2800000   0.0000000), wk =   0.0010667
        k( 1830) = (   0.2533333   0.2866667   0.0000000), wk =   0.0010667
        k( 1831) = (   0.2533333   0.2933333   0.0000000), wk =   0.0010667
        k( 1832) = (   0.2533333   0.3000000   0.0000000), wk =   0.0010667
        k( 1833) = (   0.2533333   0.3066667   0.0000000), wk =   0.0010667
        k( 1834) = (   0.2533333   0.3133333   0.0000000), wk =   0.0010667
        k( 1835) = (   0.2533333   0.3200000   0.0000000), wk =   0.0010667
        k( 1836) = (   0.2533333   0.3266667   0.0000000), wk =   0.0010667
        k( 1837) = (   0.2533333   0.3333333   0.0000000), wk =   0.0010667
        k( 1838) = (   0.2533333   0.3400000   0.0000000), wk =   0.0010667
        k( 1839) = (   0.2533333   0.3466667   0.0000000), wk =   0.0010667
        k( 1840) = (   0.2533333   0.3533333   0.0000000), wk =   0.0010667
        k( 1841) = (   0.2533333   0.3600000   0.0000000), wk =   0.0010667
        k( 1842) = (   0.2533333   0.3666667   0.0000000), wk =   0.0010667
        k( 1843) = (   0.2533333   0.3733333   0.0000000), wk =   0.0005333
        k( 1844) = (   0.2600000   0.2600000   0.0000000), wk =   0.0005333
        k( 1845) = (   0.2600000   0.2666667   0.0000000), wk =   0.0010667
        k( 1846) = (   0.2600000   0.2733333   0.0000000), wk =   0.0010667
        k( 1847) = (   0.2600000   0.2800000   0.0000000), wk =   0.0010667
        k( 1848) = (   0.2600000   0.2866667   0.0000000), wk =   0.0010667
        k( 1849) = (   0.2600000   0.2933333   0.0000000), wk =   0.0010667
        k( 1850) = (   0.2600000   0.3000000   0.0000000), wk =   0.0010667
        k( 1851) = (   0.2600000   0.3066667   0.0000000), wk =   0.0010667
        k( 1852) = (   0.2600000   0.3133333   0.0000000), wk =   0.0010667
        k( 1853) = (   0.2600000   0.3200000   0.0000000), wk =   0.0010667
        k( 1854) = (   0.2600000   0.3266667   0.0000000), wk =   0.0010667
        k( 1855) = (   0.2600000   0.3333333   0.0000000), wk =   0.0010667
        k( 1856) = (   0.2600000   0.3400000   0.0000000), wk =   0.0010667
        k( 1857) = (   0.2600000   0.3466667   0.0000000), wk =   0.0010667
        k( 1858) = (   0.2600000   0.3533333   0.0000000), wk =   0.0010667
        k( 1859) = (   0.2600000   0.3600000   0.0000000), wk =   0.0010667
        k( 1860) = (   0.2600000   0.3666667   0.0000000), wk =   0.0010667
        k( 1861) = (   0.2666667   0.2666667   0.0000000), wk =   0.0005333
        k( 1862) = (   0.2666667   0.2733333   0.0000000), wk =   0.0010667
        k( 1863) = (   0.2666667   0.2800000   0.0000000), wk =   0.0010667
        k( 1864) = (   0.2666667   0.2866667   0.0000000), wk =   0.0010667
        k( 1865) = (   0.2666667   0.2933333   0.0000000), wk =   0.0010667
        k( 1866) = (   0.2666667   0.3000000   0.0000000), wk =   0.0010667
        k( 1867) = (   0.2666667   0.3066667   0.0000000), wk =   0.0010667
        k( 1868) = (   0.2666667   0.3133333   0.0000000), wk =   0.0010667
        k( 1869) = (   0.2666667   0.3200000   0.0000000), wk =   0.0010667
        k( 1870) = (   0.2666667   0.3266667   0.0000000), wk =   0.0010667
        k( 1871) = (   0.2666667   0.3333333   0.0000000), wk =   0.0010667
        k( 1872) = (   0.2666667   0.3400000   0.0000000), wk =   0.0010667
        k( 1873) = (   0.2666667   0.3466667   0.0000000), wk =   0.0010667
        k( 1874) = (   0.2666667   0.3533333   0.0000000), wk =   0.0010667
        k( 1875) = (   0.2666667   0.3600000   0.0000000), wk =   0.0010667
        k( 1876) = (   0.2666667   0.3666667   0.0000000), wk =   0.0005333
        k( 1877) = (   0.2733333   0.2733333   0.0000000), wk =   0.0005333
        k( 1878) = (   0.2733333   0.2800000   0.0000000), wk =   0.0010667
        k( 1879) = (   0.2733333   0.2866667   0.0000000), wk =   0.0010667
        k( 1880) = (   0.2733333   0.2933333   0.0000000), wk =   0.0010667
        k( 1881) = (   0.2733333   0.3000000   0.0000000), wk =   0.0010667
        k( 1882) = (   0.2733333   0.3066667   0.0000000), wk =   0.0010667
        k( 1883) = (   0.2733333   0.3133333   0.0000000), wk =   0.0010667
        k( 1884) = (   0.2733333   0.3200000   0.0000000), wk =   0.0010667
        k( 1885) = (   0.2733333   0.3266667   0.0000000), wk =   0.0010667
        k( 1886) = (   0.2733333   0.3333333   0.0000000), wk =   0.0010667
        k( 1887) = (   0.2733333   0.3400000   0.0000000), wk =   0.0010667
        k( 1888) = (   0.2733333   0.3466667   0.0000000), wk =   0.0010667
        k( 1889) = (   0.2733333   0.3533333   0.0000000), wk =   0.0010667
        k( 1890) = (   0.2733333   0.3600000   0.0000000), wk =   0.0010667
        k( 1891) = (   0.2800000   0.2800000   0.0000000), wk =   0.0005333
        k( 1892) = (   0.2800000   0.2866667   0.0000000), wk =   0.0010667
        k( 1893) = (   0.2800000   0.2933333   0.0000000), wk =   0.0010667
        k( 1894) = (   0.2800000   0.3000000   0.0000000), wk =   0.0010667
        k( 1895) = (   0.2800000   0.3066667   0.0000000), wk =   0.0010667
        k( 1896) = (   0.2800000   0.3133333   0.0000000), wk =   0.0010667
        k( 1897) = (   0.2800000   0.3200000   0.0000000), wk =   0.0010667
        k( 1898) = (   0.2800000   0.3266667   0.0000000), wk =   0.0010667
        k( 1899) = (   0.2800000   0.3333333   0.0000000), wk =   0.0010667
        k( 1900) = (   0.2800000   0.3400000   0.0000000), wk =   0.0010667
        k( 1901) = (   0.2800000   0.3466667   0.0000000), wk =   0.0010667
        k( 1902) = (   0.2800000   0.3533333   0.0000000), wk =   0.0010667
        k( 1903) = (   0.2800000   0.3600000   0.0000000), wk =   0.0005333
        k( 1904) = (   0.2866667   0.2866667   0.0000000), wk =   0.0005333
        k( 1905) = (   0.2866667   0.2933333   0.0000000), wk =   0.0010667
        k( 1906) = (   0.2866667   0.3000000   0.0000000), wk =   0.0010667
        k( 1907) = (   0.2866667   0.3066667   0.0000000), wk =   0.0010667
        k( 1908) = (   0.2866667   0.3133333   0.0000000), wk =   0.0010667
        k( 1909) = (   0.2866667   0.3200000   0.0000000), wk =   0.0010667
        k( 1910) = (   0.2866667   0.3266667   0.0000000), wk =   0.0010667
        k( 1911) = (   0.2866667   0.3333333   0.0000000), wk =   0.0010667
        k( 1912) = (   0.2866667   0.3400000   0.0000000), wk =   0.0010667
        k( 1913) = (   0.2866667   0.3466667   0.0000000), wk =   0.0010667
        k( 1914) = (   0.2866667   0.3533333   0.0000000), wk =   0.0010667
        k( 1915) = (   0.2933333   0.2933333   0.0000000), wk =   0.0005333
        k( 1916) = (   0.2933333   0.3000000   0.0000000), wk =   0.0010667
        k( 1917) = (   0.2933333   0.3066667   0.0000000), wk =   0.0010667
        k( 1918) = (   0.2933333   0.3133333   0.0000000), wk =   0.0010667
        k( 1919) = (   0.2933333   0.3200000   0.0000000), wk =   0.0010667
        k( 1920) = (   0.2933333   0.3266667   0.0000000), wk =   0.0010667
        k( 1921) = (   0.2933333   0.3333333   0.0000000), wk =   0.0010667
        k( 1922) = (   0.2933333   0.3400000   0.0000000), wk =   0.0010667
        k( 1923) = (   0.2933333   0.3466667   0.0000000), wk =   0.0010667
        k( 1924) = (   0.2933333   0.3533333   0.0000000), wk =   0.0005333
        k( 1925) = (   0.3000000   0.3000000   0.0000000), wk =   0.0005333
        k( 1926) = (   0.3000000   0.3066667   0.0000000), wk =   0.0010667
        k( 1927) = (   0.3000000   0.3133333   0.0000000), wk =   0.0010667
        k( 1928) = (   0.3000000   0.3200000   0.0000000), wk =   0.0010667
        k( 1929) = (   0.3000000   0.3266667   0.0000000), wk =   0.0010667
        k( 1930) = (   0.3000000   0.3333333   0.0000000), wk =   0.0010667
        k( 1931) = (   0.3000000   0.3400000   0.0000000), wk =   0.0010667
        k( 1932) = (   0.3000000   0.3466667   0.0000000), wk =   0.0010667
        k( 1933) = (   0.3066667   0.3066667   0.0000000), wk =   0.0005333
        k( 1934) = (   0.3066667   0.3133333   0.0000000), wk =   0.0010667
        k( 1935) = (   0.3066667   0.3200000   0.0000000), wk =   0.0010667
        k( 1936) = (   0.3066667   0.3266667   0.0000000), wk =   0.0010667
        k( 1937) = (   0.3066667   0.3333333   0.0000000), wk =   0.0010667
        k( 1938) = (   0.3066667   0.3400000   0.0000000), wk =   0.0010667
        k( 1939) = (   0.3066667   0.3466667   0.0000000), wk =   0.0005333
        k( 1940) = (   0.3133333   0.3133333   0.0000000), wk =   0.0005333
        k( 1941) = (   0.3133333   0.3200000   0.0000000), wk =   0.0010667
        k( 1942) = (   0.3133333   0.3266667   0.0000000), wk =   0.0010667
        k( 1943) = (   0.3133333   0.3333333   0.0000000), wk =   0.0010667
        k( 1944) = (   0.3133333   0.3400000   0.0000000), wk =   0.0010667
        k( 1945) = (   0.3200000   0.3200000   0.0000000), wk =   0.0005333
        k( 1946) = (   0.3200000   0.3266667   0.0000000), wk =   0.0010667
        k( 1947) = (   0.3200000   0.3333333   0.0000000), wk =   0.0010667
        k( 1948) = (   0.3200000   0.3400000   0.0000000), wk =   0.0005333
        k( 1949) = (   0.3266667   0.3266667   0.0000000), wk =   0.0005333
        k( 1950) = (   0.3266667   0.3333333   0.0000000), wk =   0.0010667
        k( 1951) = (   0.3333333   0.3333333   0.0000000), wk =   0.0001778

     Dense  grid:   166859 G-vectors     FFT dimensions: (  45,  45, 240)

     Smooth grid:    42343 G-vectors     FFT dimensions: (  27,  27, 160)

     Dynamical RAM for                 wfc:       0.64 MB

     Dynamical RAM for     wfc (w. buffer):       0.64 MB

     Dynamical RAM for           str. fact:       2.55 MB

     Dynamical RAM for           local pot:       0.00 MB

     Dynamical RAM for          nlocal pot:       1.29 MB

     Dynamical RAM for                qrad:       0.61 MB

     Dynamical RAM for          rho,v,vnew:      18.76 MB

     Dynamical RAM for           G-vectors:       9.87 MB

     Dynamical RAM for          h,s,v(r/c):       0.01 MB

     Dynamical RAM for          <psi|beta>:       0.00 MB

     Dynamical RAM for                 psi:       1.29 MB

     Dynamical RAM for                hpsi:       1.29 MB

     Dynamical RAM for                spsi:       1.29 MB

     Dynamical RAM for      wfcinit/wfcrot:       1.29 MB

     Dynamical RAM for           addusdens:     114.57 MB

     Estimated static dynamical RAM per process >      57.35 MB

     Estimated max dynamical RAM per process >     171.92 MB

     Atomic positions and unit cell read from directory:
     ./tmp/graphene.save/


     The potential is recalculated from file :
     ./tmp/graphene.save/charge-density


     negative rho (up, down):  2.634E-06 0.000E+00
     Starting wfcs are random

     Band Structure Calculation
     Davidson diagonalization with overlap

     Computing kpt #:     1  of  1951
     total cpu time spent up to now is        3.9 secs

     Computing kpt #:     2  of  1951
     total cpu time spent up to now is        5.6 secs

     Computing kpt #:     3  of  1951
     total cpu time spent up to now is        7.3 secs

     Computing kpt #:     4  of  1951
     total cpu time spent up to now is        8.9 secs

     Computing kpt #:     5  of  1951
     total cpu time spent up to now is       10.6 secs

     Computing kpt #:     6  of  1951
     total cpu time spent up to now is       12.2 secs

     Computing kpt #:     7  of  1951
     total cpu time spent up to now is       13.9 secs

     Computing kpt #:     8  of  1951
     total cpu time spent up to now is       15.5 secs

     Computing kpt #:     9  of  1951
     total cpu time spent up to now is       17.3 secs

     Computing kpt #:    10  of  1951
     total cpu time spent up to now is       18.9 secs

     Computing kpt #:    11  of  1951
     total cpu time spent up to now is       20.3 secs

     Computing kpt #:    12  of  1951
     total cpu time spent up to now is       22.0 secs

     Computing kpt #:    13  of  1951
     total cpu time spent up to now is       23.6 secs

     Computing kpt #:    14  of  1951
     total cpu time spent up to now is       25.2 secs

     Computing kpt #:    15  of  1951
     total cpu time spent up to now is       26.8 secs

     Computing kpt #:    16  of  1951
     total cpu time spent up to now is       28.4 secs

     Computing kpt #:    17  of  1951
     total cpu time spent up to now is       29.9 secs

     Computing kpt #:    18  of  1951
     total cpu time spent up to now is       31.5 secs

     Computing kpt #:    19  of  1951
     total cpu time spent up to now is       33.3 secs

     Computing kpt #:    20  of  1951
     total cpu time spent up to now is       34.9 secs

     Computing kpt #:    21  of  1951
     total cpu time spent up to now is       36.4 secs

     Computing kpt #:    22  of  1951
     total cpu time spent up to now is       37.9 secs

     Computing kpt #:    23  of  1951
     total cpu time spent up to now is       39.5 secs

     Computing kpt #:    24  of  1951
     total cpu time spent up to now is       41.0 secs

     Computing kpt #:    25  of  1951
     total cpu time spent up to now is       42.6 secs

     Computing kpt #:    26  of  1951
     total cpu time spent up to now is       44.1 secs

     Computing kpt #:    27  of  1951
     total cpu time spent up to now is       46.0 secs

     Computing kpt #:    28  of  1951
     total cpu time spent up to now is       47.7 secs

     Computing kpt #:    29  of  1951
     total cpu time spent up to now is       49.4 secs

     Computing kpt #:    30  of  1951
     total cpu time spent up to now is       51.2 secs

     Computing kpt #:    31  of  1951
     c_bands:  1 eigenvalues not converged
     total cpu time spent up to now is       53.0 secs

     Computing kpt #:    32  of  1951
     c_bands:  1 eigenvalues not converged
     total cpu time spent up to now is       54.8 secs

     Computing kpt #:    33  of  1951
     c_bands:  1 eigenvalues not converged
     total cpu time spent up to now is       56.6 secs

     Computing kpt #:    34  of  1951
     c_bands:  1 eigenvalues not converged
     total cpu time spent up to now is       58.3 secs

     Computing kpt #:    35  of  1951
     total cpu time spent up to now is       60.0 secs

     Computing kpt #:    36  of  1951
     total cpu time spent up to now is       61.7 secs

     Computing kpt #:    37  of  1951
     total cpu time spent up to now is       63.3 secs

     Computing kpt #:    38  of  1951
     total cpu time spent up to now is       64.8 secs

     Computing kpt #:    39  of  1951
     total cpu time spent up to now is       66.6 secs

     Computing kpt #:    40  of  1951
     total cpu time spent up to now is       68.1 secs

     Computing kpt #:    41  of  1951
     total cpu time spent up to now is       69.6 secs

     Computing kpt #:    42  of  1951
     total cpu time spent up to now is       71.1 secs

     Computing kpt #:    43  of  1951
     c_bands:  1 eigenvalues not converged
     total cpu time spent up to now is       72.9 secs

     Computing kpt #:    44  of  1951
     total cpu time spent up to now is       74.5 secs

     Computing kpt #:    45  of  1951
     c_bands:  1 eigenvalues not converged
     total cpu time spent up to now is       76.2 secs

     Computing kpt #:    46  of  1951
     c_bands:  1 eigenvalues not converged
     total cpu time spent up to now is       77.9 secs

     Computing kpt #:    47  of  1951
     total cpu time spent up to now is       79.4 secs

     Computing kpt #:    48  of  1951
     total cpu time spent up to now is       80.9 secs

     Computing kpt #:    49  of  1951
     total cpu time spent up to now is       82.3 secs

     Computing kpt #:    50  of  1951
     total cpu time spent up to now is       83.7 secs

     Computing kpt #:    51  of  1951
     total cpu time spent up to now is       85.2 secs

     Computing kpt #:    52  of  1951
     total cpu time spent up to now is       86.6 secs

     Computing kpt #:    53  of  1951
     total cpu time spent up to now is       87.8 secs

     Computing kpt #:    54  of  1951
     total cpu time spent up to now is       89.2 secs

     Computing kpt #:    55  of  1951
     total cpu time spent up to now is       90.4 secs

     Computing kpt #:    56  of  1951
     total cpu time spent up to now is       91.8 secs

     Computing kpt #:    57  of  1951
     total cpu time spent up to now is       93.3 secs

     Computing kpt #:    58  of  1951
     total cpu time spent up to now is       94.7 secs

     Computing kpt #:    59  of  1951
     total cpu time spent up to now is       96.0 secs

     Computing kpt #:    60  of  1951
     total cpu time spent up to now is       97.2 secs

     Computing kpt #:    61  of  1951
     total cpu time spent up to now is       98.5 secs

     Computing kpt #:    62  of  1951
     total cpu time spent up to now is       99.8 secs

     Computing kpt #:    63  of  1951
     total cpu time spent up to now is      100.9 secs

     Computing kpt #:    64  of  1951
     total cpu time spent up to now is      102.2 secs

     Computing kpt #:    65  of  1951
     total cpu time spent up to now is      103.5 secs

     Computing kpt #:    66  of  1951
     total cpu time spent up to now is      104.9 secs

     Computing kpt #:    67  of  1951
     total cpu time spent up to now is      106.3 secs

     Computing kpt #:    68  of  1951
     total cpu time spent up to now is      107.6 secs

     Computing kpt #:    69  of  1951
     total cpu time spent up to now is      108.9 secs

     Computing kpt #:    70  of  1951
     total cpu time spent up to now is      110.1 secs

     Computing kpt #:    71  of  1951
     total cpu time spent up to now is      111.4 secs

     Computing kpt #:    72  of  1951
     total cpu time spent up to now is      112.8 secs

     Computing kpt #:    73  of  1951
     total cpu time spent up to now is      114.4 secs

     Computing kpt #:    74  of  1951
     total cpu time spent up to now is      115.9 secs

     Computing kpt #:    75  of  1951
     total cpu time spent up to now is      117.5 secs

     Computing kpt #:    76  of  1951
     total cpu time spent up to now is      119.0 secs

     Computing kpt #:    77  of  1951
     total cpu time spent up to now is      120.6 secs

     Computing kpt #:    78  of  1951
     total cpu time spent up to now is      122.4 secs

     Computing kpt #:    79  of  1951
     total cpu time spent up to now is      124.1 secs

     Computing kpt #:    80  of  1951
     total cpu time spent up to now is      125.7 secs

     Computing kpt #:    81  of  1951
     total cpu time spent up to now is      127.5 secs

     Computing kpt #:    82  of  1951
     total cpu time spent up to now is      129.2 secs

     Computing kpt #:    83  of  1951
     total cpu time spent up to now is      130.8 secs

     Computing kpt #:    84  of  1951
     total cpu time spent up to now is      132.4 secs

     Computing kpt #:    85  of  1951
     total cpu time spent up to now is      134.0 secs

     Computing kpt #:    86  of  1951
     total cpu time spent up to now is      135.6 secs

     Computing kpt #:    87  of  1951
     total cpu time spent up to now is      137.2 secs

     Computing kpt #:    88  of  1951
     total cpu time spent up to now is      138.9 secs

     Computing kpt #:    89  of  1951
     total cpu time spent up to now is      140.6 secs

     Computing kpt #:    90  of  1951
     total cpu time spent up to now is      142.2 secs

     Computing kpt #:    91  of  1951
     total cpu time spent up to now is      143.8 secs

     Computing kpt #:    92  of  1951
     total cpu time spent up to now is      145.4 secs

     Computing kpt #:    93  of  1951
     total cpu time spent up to now is      147.0 secs

     Computing kpt #:    94  of  1951
     total cpu time spent up to now is      148.6 secs

     Computing kpt #:    95  of  1951
     total cpu time spent up to now is      150.3 secs

     Computing kpt #:    96  of  1951
     total cpu time spent up to now is      151.8 secs

     Computing kpt #:    97  of  1951
     total cpu time spent up to now is      153.5 secs

     Computing kpt #:    98  of  1951
     total cpu time spent up to now is      155.2 secs

     Computing kpt #:    99  of  1951
     total cpu time spent up to now is      156.9 secs

     Computing kpt #:   100  of  1951
     total cpu time spent up to now is      158.6 secs

     Computing kpt #:   101  of  1951
     total cpu time spent up to now is      160.3 secs

     Computing kpt #:   102  of  1951
     total cpu time spent up to now is      162.3 secs

     Computing kpt #:   103  of  1951
     total cpu time spent up to now is      164.0 secs

     Computing kpt #:   104  of  1951
     total cpu time spent up to now is      165.9 secs

     Computing kpt #:   105  of  1951
     c_bands:  1 eigenvalues not converged
     total cpu time spent up to now is      167.8 secs

     Computing kpt #:   106  of  1951
     c_bands:  1 eigenvalues not converged
     total cpu time spent up to now is      169.5 secs

     Computing kpt #:   107  of  1951
     c_bands:  1 eigenvalues not converged
     total cpu time spent up to now is      171.4 secs

     Computing kpt #:   108  of  1951
     c_bands:  1 eigenvalues not converged
     total cpu time spent up to now is      173.4 secs

     Computing kpt #:   109  of  1951
     c_bands:  1 eigenvalues not converged
     total cpu time spent up to now is      175.2 secs

     Computing kpt #:   110  of  1951
     total cpu time spent up to now is      177.1 secs

     Computing kpt #:   111  of  1951
     total cpu time spent up to now is      178.8 secs

     Computing kpt #:   112  of  1951
     total cpu time spent up to now is      180.8 secs

     Computing kpt #:   113  of  1951
     total cpu time spent up to now is      182.4 secs

     Computing kpt #:   114  of  1951
     total cpu time spent up to now is      184.3 secs

     Computing kpt #:   115  of  1951
     total cpu time spent up to now is      186.0 secs

     Computing kpt #:   116  of  1951
     total cpu time spent up to now is      187.6 secs

     Computing kpt #:   117  of  1951
     total cpu time spent up to now is      189.6 secs

     Computing kpt #:   118  of  1951
     total cpu time spent up to now is      191.5 secs

     Computing kpt #:   119  of  1951
     total cpu time spent up to now is      193.4 secs

     Computing kpt #:   120  of  1951
     c_bands:  1 eigenvalues not converged
     total cpu time spent up to now is      195.3 secs

     Computing kpt #:   121  of  1951
     total cpu time spent up to now is      197.2 secs

     Computing kpt #:   122  of  1951
     total cpu time spent up to now is      199.1 secs

     Computing kpt #:   123  of  1951
     total cpu time spent up to now is      201.0 secs

     Computing kpt #:   124  of  1951
     total cpu time spent up to now is      202.4 secs

     Computing kpt #:   125  of  1951
     total cpu time spent up to now is      204.1 secs

     Computing kpt #:   126  of  1951
     total cpu time spent up to now is      205.5 secs

     Computing kpt #:   127  of  1951
     total cpu time spent up to now is      206.8 secs

     Computing kpt #:   128  of  1951
     total cpu time spent up to now is      208.1 secs

     Computing kpt #:   129  of  1951
     total cpu time spent up to now is      209.4 secs

     Computing kpt #:   130  of  1951
     total cpu time spent up to now is      210.7 secs

     Computing kpt #:   131  of  1951
     total cpu time spent up to now is      212.0 secs

     Computing kpt #:   132  of  1951
     total cpu time spent up to now is      213.3 secs

     Computing kpt #:   133  of  1951
     total cpu time spent up to now is      214.6 secs

     Computing kpt #:   134  of  1951
     total cpu time spent up to now is      215.8 secs

     Computing kpt #:   135  of  1951
     total cpu time spent up to now is      217.1 secs

     Computing kpt #:   136  of  1951
     total cpu time spent up to now is      218.4 secs

     Computing kpt #:   137  of  1951
     total cpu time spent up to now is      219.7 secs

     Computing kpt #:   138  of  1951
     total cpu time spent up to now is      220.9 secs

     Computing kpt #:   139  of  1951
     total cpu time spent up to now is      222.1 secs

     Computing kpt #:   140  of  1951
     total cpu time spent up to now is      223.3 secs

     Computing kpt #:   141  of  1951
     total cpu time spent up to now is      224.5 secs

     Computing kpt #:   142  of  1951
     total cpu time spent up to now is      225.7 secs

     Computing kpt #:   143  of  1951
     total cpu time spent up to now is      227.0 secs

     Computing kpt #:   144  of  1951
     total cpu time spent up to now is      228.1 secs

     Computing kpt #:   145  of  1951
     total cpu time spent up to now is      229.4 secs

     Computing kpt #:   146  of  1951
     total cpu time spent up to now is      230.6 secs

     Computing kpt #:   147  of  1951
     total cpu time spent up to now is      231.9 secs

     Computing kpt #:   148  of  1951
     c_bands:  1 eigenvalues not converged
     total cpu time spent up to now is      233.3 secs

     Computing kpt #:   149  of  1951
     total cpu time spent up to now is      234.7 secs

     Computing kpt #:   150  of  1951
     total cpu time spent up to now is      236.0 secs

     Computing kpt #:   151  of  1951
     total cpu time spent up to now is      237.6 secs

     Computing kpt #:   152  of  1951
     total cpu time spent up to now is      239.2 secs

     Computing kpt #:   153  of  1951
     total cpu time spent up to now is      240.9 secs

     Computing kpt #:   154  of  1951
     total cpu time spent up to now is      242.5 secs

     Computing kpt #:   155  of  1951
     total cpu time spent up to now is      244.2 secs

     Computing kpt #:   156  of  1951
     total cpu time spent up to now is      246.0 secs

     Computing kpt #:   157  of  1951
     total cpu time spent up to now is      247.6 secs

     Computing kpt #:   158  of  1951
     total cpu time spent up to now is      249.3 secs

     Computing kpt #:   159  of  1951
     total cpu time spent up to now is      250.9 secs

     Computing kpt #:   160  of  1951
     total cpu time spent up to now is      252.5 secs

     Computing kpt #:   161  of  1951
     total cpu time spent up to now is      254.1 secs

     Computing kpt #:   162  of  1951
     total cpu time spent up to now is      255.7 secs

     Computing kpt #:   163  of  1951
     total cpu time spent up to now is      257.4 secs

     Computing kpt #:   164  of  1951
     total cpu time spent up to now is      259.0 secs

     Computing kpt #:   165  of  1951
     total cpu time spent up to now is      260.6 secs

     Computing kpt #:   166  of  1951
     total cpu time spent up to now is      262.2 secs

     Computing kpt #:   167  of  1951
     total cpu time spent up to now is      263.8 secs

     Computing kpt #:   168  of  1951
     total cpu time spent up to now is      265.5 secs

     Computing kpt #:   169  of  1951
     total cpu time spent up to now is      267.3 secs

     Computing kpt #:   170  of  1951
     total cpu time spent up to now is      269.1 secs

     Computing kpt #:   171  of  1951
     total cpu time spent up to now is      270.9 secs

     Computing kpt #:   172  of  1951
     total cpu time spent up to now is      272.6 secs

     Computing kpt #:   173  of  1951
     total cpu time spent up to now is      274.3 secs

     Computing kpt #:   174  of  1951
     total cpu time spent up to now is      276.2 secs

     Computing kpt #:   175  of  1951
     total cpu time spent up to now is      278.2 secs

     Computing kpt #:   176  of  1951
     total cpu time spent up to now is      280.0 secs

     Computing kpt #:   177  of  1951
     total cpu time spent up to now is      281.9 secs

     Computing kpt #:   178  of  1951
     total cpu time spent up to now is      283.8 secs

     Computing kpt #:   179  of  1951
     c_bands:  1 eigenvalues not converged
     total cpu time spent up to now is      285.6 secs

     Computing kpt #:   180  of  1951
     c_bands:  1 eigenvalues not converged
     total cpu time spent up to now is      287.4 secs

     Computing kpt #:   181  of  1951
     c_bands:  1 eigenvalues not converged
     total cpu time spent up to now is      289.2 secs

     Computing kpt #:   182  of  1951
     total cpu time spent up to now is      291.0 secs

     Computing kpt #:   183  of  1951
     total cpu time spent up to now is      292.8 secs

     Computing kpt #:   184  of  1951
     total cpu time spent up to now is      294.7 secs

     Computing kpt #:   185  of  1951
     total cpu time spent up to now is      296.4 secs

     Computing kpt #:   186  of  1951
     total cpu time spent up to now is      298.3 secs

     Computing kpt #:   187  of  1951
     total cpu time spent up to now is      300.3 secs

     Computing kpt #:   188  of  1951
     total cpu time spent up to now is      302.3 secs

     Computing kpt #:   189  of  1951
     total cpu time spent up to now is      304.4 secs

     Computing kpt #:   190  of  1951
     total cpu time spent up to now is      306.3 secs

     Computing kpt #:   191  of  1951
     total cpu time spent up to now is      308.1 secs

     Computing kpt #:   192  of  1951
     c_bands:  1 eigenvalues not converged
     total cpu time spent up to now is      309.9 secs

     Computing kpt #:   193  of  1951
     c_bands:  1 eigenvalues not converged
     total cpu time spent up to now is      311.8 secs

     Computing kpt #:   194  of  1951
     c_bands:  1 eigenvalues not converged
     total cpu time spent up to now is      313.7 secs

     Computing kpt #:   195  of  1951
     total cpu time spent up to now is      315.3 secs

     Computing kpt #:   196  of  1951
     total cpu time spent up to now is      316.9 secs

     Computing kpt #:   197  of  1951
     total cpu time spent up to now is      318.5 secs

     Computing kpt #:   198  of  1951
     total cpu time spent up to now is      319.9 secs

     Computing kpt #:   199  of  1951
     total cpu time spent up to now is      321.4 secs

     Computing kpt #:   200  of  1951
     total cpu time spent up to now is      322.8 secs

     Computing kpt #:   201  of  1951
     total cpu time spent up to now is      324.2 secs

     Computing kpt #:   202  of  1951
     total cpu time spent up to now is      325.7 secs

     Computing kpt #:   203  of  1951
     total cpu time spent up to now is      327.1 secs

     Computing kpt #:   204  of  1951
     total cpu time spent up to now is      328.5 secs

     Computing kpt #:   205  of  1951
     total cpu time spent up to now is      330.0 secs

     Computing kpt #:   206  of  1951
     total cpu time spent up to now is      331.5 secs

     Computing kpt #:   207  of  1951
     total cpu time spent up to now is      332.8 secs

     Computing kpt #:   208  of  1951
     total cpu time spent up to now is      334.2 secs

     Computing kpt #:   209  of  1951
     total cpu time spent up to now is      335.6 secs

     Computing kpt #:   210  of  1951
     total cpu time spent up to now is      336.9 secs

     Computing kpt #:   211  of  1951
     total cpu time spent up to now is      338.2 secs

     Computing kpt #:   212  of  1951
     total cpu time spent up to now is      339.5 secs

     Computing kpt #:   213  of  1951
     total cpu time spent up to now is      340.7 secs

     Computing kpt #:   214  of  1951
     total cpu time spent up to now is      342.1 secs

     Computing kpt #:   215  of  1951
     total cpu time spent up to now is      343.3 secs

     Computing kpt #:   216  of  1951
     total cpu time spent up to now is      344.7 secs

     Computing kpt #:   217  of  1951
     total cpu time spent up to now is      346.0 secs

     Computing kpt #:   218  of  1951
     total cpu time spent up to now is      347.3 secs

     Computing kpt #:   219  of  1951
     total cpu time spent up to now is      348.7 secs

     Computing kpt #:   220  of  1951
     total cpu time spent up to now is      350.2 secs

     Computing kpt #:   221  of  1951
     total cpu time spent up to now is      351.8 secs

     Computing kpt #:   222  of  1951
     total cpu time spent up to now is      353.2 secs

     Computing kpt #:   223  of  1951
     total cpu time spent up to now is      354.5 secs

     Computing kpt #:   224  of  1951
     total cpu time spent up to now is      356.0 secs

     Computing kpt #:   225  of  1951
     total cpu time spent up to now is      357.7 secs

     Computing kpt #:   226  of  1951
     total cpu time spent up to now is      359.3 secs

     Computing kpt #:   227  of  1951
     total cpu time spent up to now is      360.9 secs

     Computing kpt #:   228  of  1951
     total cpu time spent up to now is      362.6 secs

     Computing kpt #:   229  of  1951
     total cpu time spent up to now is      364.4 secs

     Computing kpt #:   230  of  1951
     total cpu time spent up to now is      366.1 secs

     Computing kpt #:   231  of  1951
     total cpu time spent up to now is      367.7 secs

     Computing kpt #:   232  of  1951
     total cpu time spent up to now is      369.3 secs

     Computing kpt #:   233  of  1951
     total cpu time spent up to now is      371.0 secs

     Computing kpt #:   234  of  1951
     total cpu time spent up to now is      372.6 secs

     Computing kpt #:   235  of  1951
     total cpu time spent up to now is      374.4 secs

     Computing kpt #:   236  of  1951
     total cpu time spent up to now is      376.0 secs

     Computing kpt #:   237  of  1951
     total cpu time spent up to now is      377.7 secs

     Computing kpt #:   238  of  1951
     total cpu time spent up to now is      379.4 secs

     Computing kpt #:   239  of  1951
     total cpu time spent up to now is      381.1 secs

     Computing kpt #:   240  of  1951
     total cpu time spent up to now is      382.8 secs

     Computing kpt #:   241  of  1951
     total cpu time spent up to now is      384.5 secs

     Computing kpt #:   242  of  1951
     total cpu time spent up to now is      386.2 secs

     Computing kpt #:   243  of  1951
     total cpu time spent up to now is      387.9 secs

     Computing kpt #:   244  of  1951
     total cpu time spent up to now is      389.6 secs

     Computing kpt #:   245  of  1951
     total cpu time spent up to now is      391.3 secs

     Computing kpt #:   246  of  1951
     total cpu time spent up to now is      392.9 secs

     Computing kpt #:   247  of  1951
     total cpu time spent up to now is      394.6 secs

     Computing kpt #:   248  of  1951
     total cpu time spent up to now is      396.3 secs

     Computing kpt #:   249  of  1951
     c_bands:  1 eigenvalues not converged
     total cpu time spent up to now is      398.0 secs

     Computing kpt #:   250  of  1951
     c_bands:  1 eigenvalues not converged
     total cpu time spent up to now is      399.8 secs

     Computing kpt #:   251  of  1951
     c_bands:  1 eigenvalues not converged
     total cpu time spent up to now is      401.5 secs

     Computing kpt #:   252  of  1951
     c_bands:  1 eigenvalues not converged
     total cpu time spent up to now is      403.3 secs

     Computing kpt #:   253  of  1951
     c_bands:  1 eigenvalues not converged
     total cpu time spent up to now is      405.2 secs

     Computing kpt #:   254  of  1951
     total cpu time spent up to now is      406.8 secs

     Computing kpt #:   255  of  1951
     total cpu time spent up to now is      408.5 secs

     Computing kpt #:   256  of  1951
     total cpu time spent up to now is      410.2 secs

     Computing kpt #:   257  of  1951
     total cpu time spent up to now is      412.2 secs

     Computing kpt #:   258  of  1951
     total cpu time spent up to now is      413.9 secs

     Computing kpt #:   259  of  1951
     total cpu time spent up to now is      415.9 secs

     Computing kpt #:   260  of  1951
     total cpu time spent up to now is      417.8 secs

     Computing kpt #:   261  of  1951
     total cpu time spent up to now is      419.5 secs

     Computing kpt #:   262  of  1951
     c_bands:  1 eigenvalues not converged
     total cpu time spent up to now is      421.4 secs

     Computing kpt #:   263  of  1951
     c_bands:  1 eigenvalues not converged
     total cpu time spent up to now is      423.3 secs

     Computing kpt #:   264  of  1951
     c_bands:  1 eigenvalues not converged
     total cpu time spent up to now is      425.1 secs

     Computing kpt #:   265  of  1951
     c_bands:  1 eigenvalues not converged
     total cpu time spent up to now is      426.9 secs

     Computing kpt #:   266  of  1951
     total cpu time spent up to now is      428.7 secs

     Computing kpt #:   267  of  1951
     total cpu time spent up to now is      430.3 secs

     Computing kpt #:   268  of  1951
     total cpu time spent up to now is      431.9 secs

     Computing kpt #:   269  of  1951
     total cpu time spent up to now is      433.3 secs

     Computing kpt #:   270  of  1951
     total cpu time spent up to now is      434.6 secs

     Computing kpt #:   271  of  1951
     total cpu time spent up to now is      435.9 secs

     Computing kpt #:   272  of  1951
     total cpu time spent up to now is      437.2 secs

     Computing kpt #:   273  of  1951
     total cpu time spent up to now is      438.5 secs

     Computing kpt #:   274  of  1951
     total cpu time spent up to now is      439.8 secs

     Computing kpt #:   275  of  1951
     total cpu time spent up to now is      441.1 secs

     Computing kpt #:   276  of  1951
     total cpu time spent up to now is      442.4 secs

     Computing kpt #:   277  of  1951
     total cpu time spent up to now is      443.7 secs

     Computing kpt #:   278  of  1951
     total cpu time spent up to now is      445.1 secs

     Computing kpt #:   279  of  1951
     total cpu time spent up to now is      446.4 secs

     Computing kpt #:   280  of  1951
     total cpu time spent up to now is      447.8 secs

     Computing kpt #:   281  of  1951
     total cpu time spent up to now is      449.2 secs

     Computing kpt #:   282  of  1951
     total cpu time spent up to now is      450.5 secs

     Computing kpt #:   283  of  1951
     total cpu time spent up to now is      451.7 secs

     Computing kpt #:   284  of  1951
     total cpu time spent up to now is      453.0 secs

     Computing kpt #:   285  of  1951
     total cpu time spent up to now is      454.3 secs

     Computing kpt #:   286  of  1951
     total cpu time spent up to now is      455.7 secs

     Computing kpt #:   287  of  1951
     total cpu time spent up to now is      456.9 secs

     Computing kpt #:   288  of  1951
     total cpu time spent up to now is      458.2 secs

     Computing kpt #:   289  of  1951
     total cpu time spent up to now is      459.5 secs

     Computing kpt #:   290  of  1951
     total cpu time spent up to now is      460.8 secs

     Computing kpt #:   291  of  1951
     total cpu time spent up to now is      462.3 secs

     Computing kpt #:   292  of  1951
     c_bands:  1 eigenvalues not converged
     total cpu time spent up to now is      463.9 secs

     Computing kpt #:   293  of  1951
     total cpu time spent up to now is      465.5 secs

     Computing kpt #:   294  of  1951
     total cpu time spent up to now is      466.9 secs

     Computing kpt #:   295  of  1951
     total cpu time spent up to now is      468.5 secs

     Computing kpt #:   296  of  1951
     total cpu time spent up to now is      470.2 secs

     Computing kpt #:   297  of  1951
     total cpu time spent up to now is      471.8 secs

     Computing kpt #:   298  of  1951
     total cpu time spent up to now is      473.5 secs

     Computing kpt #:   299  of  1951
     total cpu time spent up to now is      475.1 secs

     Computing kpt #:   300  of  1951
     total cpu time spent up to now is      476.8 secs

     Computing kpt #:   301  of  1951
     total cpu time spent up to now is      478.4 secs

     Computing kpt #:   302  of  1951
     total cpu time spent up to now is      480.1 secs

     Computing kpt #:   303  of  1951
     total cpu time spent up to now is      481.7 secs

     Computing kpt #:   304  of  1951
     total cpu time spent up to now is      483.4 secs

     Computing kpt #:   305  of  1951
     total cpu time spent up to now is      484.9 secs

     Computing kpt #:   306  of  1951
     total cpu time spent up to now is      486.5 secs

     Computing kpt #:   307  of  1951
     total cpu time spent up to now is      488.2 secs

     Computing kpt #:   308  of  1951
     total cpu time spent up to now is      489.8 secs

     Computing kpt #:   309  of  1951
     total cpu time spent up to now is      491.4 secs

     Computing kpt #:   310  of  1951
     total cpu time spent up to now is      492.9 secs

     Computing kpt #:   311  of  1951
     total cpu time spent up to now is      494.6 secs

     Computing kpt #:   312  of  1951
     total cpu time spent up to now is      496.2 secs

     Computing kpt #:   313  of  1951
     total cpu time spent up to now is      497.7 secs

     Computing kpt #:   314  of  1951
     total cpu time spent up to now is      499.3 secs

     Computing kpt #:   315  of  1951
     total cpu time spent up to now is      500.9 secs

     Computing kpt #:   316  of  1951
     total cpu time spent up to now is      502.7 secs

     Computing kpt #:   317  of  1951
     total cpu time spent up to now is      504.5 secs

     Computing kpt #:   318  of  1951
     total cpu time spent up to now is      506.2 secs

     Computing kpt #:   319  of  1951
     c_bands:  1 eigenvalues not converged
     total cpu time spent up to now is      507.9 secs

     Computing kpt #:   320  of  1951
     c_bands:  1 eigenvalues not converged
     total cpu time spent up to now is      509.8 secs

     Computing kpt #:   321  of  1951
     c_bands:  1 eigenvalues not converged
     total cpu time spent up to now is      511.5 secs

     Computing kpt #:   322  of  1951
     total cpu time spent up to now is      513.1 secs

     Computing kpt #:   323  of  1951
     c_bands:  1 eigenvalues not converged
     total cpu time spent up to now is      514.8 secs

     Computing kpt #:   324  of  1951
     c_bands:  1 eigenvalues not converged
     total cpu time spent up to now is      516.7 secs

     Computing kpt #:   325  of  1951
     total cpu time spent up to now is      518.6 secs

     Computing kpt #:   326  of  1951
     total cpu time spent up to now is      520.5 secs

     Computing kpt #:   327  of  1951
     total cpu time spent up to now is      522.2 secs

     Computing kpt #:   328  of  1951
     total cpu time spent up to now is      523.9 secs

     Computing kpt #:   329  of  1951
     total cpu time spent up to now is      525.9 secs

     Computing kpt #:   330  of  1951
     total cpu time spent up to now is      527.8 secs

     Computing kpt #:   331  of  1951
     total cpu time spent up to now is      529.5 secs

     Computing kpt #:   332  of  1951
     total cpu time spent up to now is      531.5 secs

     Computing kpt #:   333  of  1951
     total cpu time spent up to now is      533.2 secs

     Computing kpt #:   334  of  1951
     c_bands:  1 eigenvalues not converged
     total cpu time spent up to now is      535.0 secs

     Computing kpt #:   335  of  1951
     total cpu time spent up to now is      536.9 secs

     Computing kpt #:   336  of  1951
     total cpu time spent up to now is      538.8 secs

     Computing kpt #:   337  of  1951
     total cpu time spent up to now is      540.4 secs

     Computing kpt #:   338  of  1951
     total cpu time spent up to now is      542.5 secs

     Computing kpt #:   339  of  1951
     total cpu time spent up to now is      544.2 secs

     Computing kpt #:   340  of  1951
     total cpu time spent up to now is      545.6 secs

     Computing kpt #:   341  of  1951
     total cpu time spent up to now is      547.3 secs

     Computing kpt #:   342  of  1951
     total cpu time spent up to now is      548.9 secs

     Computing kpt #:   343  of  1951
     total cpu time spent up to now is      550.4 secs

     Computing kpt #:   344  of  1951
     total cpu time spent up to now is      552.0 secs

     Computing kpt #:   345  of  1951
     total cpu time spent up to now is      553.5 secs

     Computing kpt #:   346  of  1951
     total cpu time spent up to now is      555.0 secs

     Computing kpt #:   347  of  1951
     total cpu time spent up to now is      556.3 secs

     Computing kpt #:   348  of  1951
     total cpu time spent up to now is      557.6 secs

     Computing kpt #:   349  of  1951
     total cpu time spent up to now is      559.0 secs

     Computing kpt #:   350  of  1951
     total cpu time spent up to now is      560.4 secs

     Computing kpt #:   351  of  1951
     total cpu time spent up to now is      561.8 secs

     Computing kpt #:   352  of  1951
     total cpu time spent up to now is      563.3 secs

     Computing kpt #:   353  of  1951
     total cpu time spent up to now is      564.6 secs

     Computing kpt #:   354  of  1951
     total cpu time spent up to now is      566.0 secs

     Computing kpt #:   355  of  1951
     total cpu time spent up to now is      567.3 secs

     Computing kpt #:   356  of  1951
     total cpu time spent up to now is      568.7 secs

     Computing kpt #:   357  of  1951
     total cpu time spent up to now is      570.1 secs

     Computing kpt #:   358  of  1951
     total cpu time spent up to now is      571.3 secs

     Computing kpt #:   359  of  1951
     total cpu time spent up to now is      572.7 secs

     Computing kpt #:   360  of  1951
     total cpu time spent up to now is      574.1 secs

     Computing kpt #:   361  of  1951
     total cpu time spent up to now is      575.6 secs

     Computing kpt #:   362  of  1951
     total cpu time spent up to now is      577.2 secs

     Computing kpt #:   363  of  1951
     total cpu time spent up to now is      578.6 secs

     Computing kpt #:   364  of  1951
     total cpu time spent up to now is      579.9 secs

     Computing kpt #:   365  of  1951
     total cpu time spent up to now is      581.6 secs

     Computing kpt #:   366  of  1951
     total cpu time spent up to now is      583.1 secs

     Computing kpt #:   367  of  1951
     total cpu time spent up to now is      584.7 secs

     Computing kpt #:   368  of  1951
     total cpu time spent up to now is      586.4 secs

     Computing kpt #:   369  of  1951
     total cpu time spent up to now is      588.1 secs

     Computing kpt #:   370  of  1951
     total cpu time spent up to now is      589.6 secs

     Computing kpt #:   371  of  1951
     total cpu time spent up to now is      591.1 secs

     Computing kpt #:   372  of  1951
     total cpu time spent up to now is      592.6 secs

     Computing kpt #:   373  of  1951
     total cpu time spent up to now is      594.3 secs

     Computing kpt #:   374  of  1951
     total cpu time spent up to now is      595.9 secs

     Computing kpt #:   375  of  1951
     total cpu time spent up to now is      597.4 secs

     Computing kpt #:   376  of  1951
     total cpu time spent up to now is      599.0 secs

     Computing kpt #:   377  of  1951
     total cpu time spent up to now is      600.5 secs

     Computing kpt #:   378  of  1951
     total cpu time spent up to now is      602.1 secs

     Computing kpt #:   379  of  1951
     total cpu time spent up to now is      603.6 secs

     Computing kpt #:   380  of  1951
     total cpu time spent up to now is      605.4 secs

     Computing kpt #:   381  of  1951
     total cpu time spent up to now is      607.0 secs

     Computing kpt #:   382  of  1951
     total cpu time spent up to now is      608.8 secs

     Computing kpt #:   383  of  1951
     total cpu time spent up to now is      610.7 secs

     Computing kpt #:   384  of  1951
     total cpu time spent up to now is      612.7 secs

     Computing kpt #:   385  of  1951
     total cpu time spent up to now is      614.5 secs

     Computing kpt #:   386  of  1951
     total cpu time spent up to now is      616.4 secs

     Computing kpt #:   387  of  1951
     total cpu time spent up to now is      618.2 secs

     Computing kpt #:   388  of  1951
     c_bands:  1 eigenvalues not converged
     total cpu time spent up to now is      620.1 secs

     Computing kpt #:   389  of  1951
     c_bands:  1 eigenvalues not converged
     total cpu time spent up to now is      621.9 secs

     Computing kpt #:   390  of  1951
     c_bands:  1 eigenvalues not converged
     total cpu time spent up to now is      623.6 secs

     Computing kpt #:   391  of  1951
     total cpu time spent up to now is      625.4 secs

     Computing kpt #:   392  of  1951
     total cpu time spent up to now is      627.3 secs

     Computing kpt #:   393  of  1951
     total cpu time spent up to now is      629.2 secs

     Computing kpt #:   394  of  1951
     total cpu time spent up to now is      631.4 secs

     Computing kpt #:   395  of  1951
     total cpu time spent up to now is      633.2 secs

     Computing kpt #:   396  of  1951
     total cpu time spent up to now is      634.9 secs

     Computing kpt #:   397  of  1951
     total cpu time spent up to now is      636.9 secs

     Computing kpt #:   398  of  1951
     total cpu time spent up to now is      638.6 secs

     Computing kpt #:   399  of  1951
     total cpu time spent up to now is      640.5 secs

     Computing kpt #:   400  of  1951
     total cpu time spent up to now is      642.0 secs

     Computing kpt #:   401  of  1951
     total cpu time spent up to now is      643.8 secs

     Computing kpt #:   402  of  1951
     total cpu time spent up to now is      645.8 secs

     Computing kpt #:   403  of  1951
     total cpu time spent up to now is      647.8 secs

     Computing kpt #:   404  of  1951
     c_bands:  1 eigenvalues not converged
     total cpu time spent up to now is      649.7 secs

     Computing kpt #:   405  of  1951
     total cpu time spent up to now is      651.2 secs

     Computing kpt #:   406  of  1951
     total cpu time spent up to now is      652.7 secs

     Computing kpt #:   407  of  1951
     total cpu time spent up to now is      654.7 secs

     Computing kpt #:   408  of  1951
     total cpu time spent up to now is      656.1 secs

     Computing kpt #:   409  of  1951
     total cpu time spent up to now is      657.7 secs

     Computing kpt #:   410  of  1951
     total cpu time spent up to now is      659.1 secs

     Computing kpt #:   411  of  1951
     total cpu time spent up to now is      660.6 secs

     Computing kpt #:   412  of  1951
     total cpu time spent up to now is      662.1 secs

     Computing kpt #:   413  of  1951
     total cpu time spent up to now is      663.3 secs

     Computing kpt #:   414  of  1951
     total cpu time spent up to now is      664.7 secs

     Computing kpt #:   415  of  1951
     total cpu time spent up to now is      666.0 secs

     Computing kpt #:   416  of  1951
     total cpu time spent up to now is      667.4 secs

     Computing kpt #:   417  of  1951
     total cpu time spent up to now is      668.6 secs

     Computing kpt #:   418  of  1951
     total cpu time spent up to now is      669.9 secs

     Computing kpt #:   419  of  1951
     total cpu time spent up to now is      671.2 secs

     Computing kpt #:   420  of  1951
     total cpu time spent up to now is      672.5 secs

     Computing kpt #:   421  of  1951
     total cpu time spent up to now is      673.7 secs

     Computing kpt #:   422  of  1951
     total cpu time spent up to now is      675.0 secs

     Computing kpt #:   423  of  1951
     total cpu time spent up to now is      676.3 secs

     Computing kpt #:   424  of  1951
     total cpu time spent up to now is      677.5 secs

     Computing kpt #:   425  of  1951
     total cpu time spent up to now is      678.8 secs

     Computing kpt #:   426  of  1951
     total cpu time spent up to now is      680.0 secs

     Computing kpt #:   427  of  1951
     total cpu time spent up to now is      681.3 secs

     Computing kpt #:   428  of  1951
     total cpu time spent up to now is      682.5 secs

     Computing kpt #:   429  of  1951
     total cpu time spent up to now is      683.9 secs

     Computing kpt #:   430  of  1951
     c_bands:  1 eigenvalues not converged
     total cpu time spent up to now is      685.4 secs

     Computing kpt #:   431  of  1951
     total cpu time spent up to now is      686.8 secs

     Computing kpt #:   432  of  1951
     total cpu time spent up to now is      688.1 secs

     Computing kpt #:   433  of  1951
     total cpu time spent up to now is      689.7 secs

     Computing kpt #:   434  of  1951
     total cpu time spent up to now is      691.4 secs

     Computing kpt #:   435  of  1951
     total cpu time spent up to now is      693.2 secs

     Computing kpt #:   436  of  1951
     total cpu time spent up to now is      694.7 secs

     Computing kpt #:   437  of  1951
     total cpu time spent up to now is      696.2 secs

     Computing kpt #:   438  of  1951
     total cpu time spent up to now is      697.8 secs

     Computing kpt #:   439  of  1951
     total cpu time spent up to now is      699.3 secs

     Computing kpt #:   440  of  1951
     total cpu time spent up to now is      701.0 secs

     Computing kpt #:   441  of  1951
     total cpu time spent up to now is      702.6 secs

     Computing kpt #:   442  of  1951
     total cpu time spent up to now is      704.0 secs

     Computing kpt #:   443  of  1951
     total cpu time spent up to now is      705.5 secs

     Computing kpt #:   444  of  1951
     total cpu time spent up to now is      707.1 secs

     Computing kpt #:   445  of  1951
     total cpu time spent up to now is      708.8 secs

     Computing kpt #:   446  of  1951
     total cpu time spent up to now is      710.4 secs

     Computing kpt #:   447  of  1951
     total cpu time spent up to now is      712.0 secs

     Computing kpt #:   448  of  1951
     total cpu time spent up to now is      713.5 secs

     Computing kpt #:   449  of  1951
     total cpu time spent up to now is      715.2 secs

     Computing kpt #:   450  of  1951
     total cpu time spent up to now is      716.7 secs

     Computing kpt #:   451  of  1951
     total cpu time spent up to now is      718.5 secs

     Computing kpt #:   452  of  1951
     total cpu time spent up to now is      720.3 secs

     Computing kpt #:   453  of  1951
     total cpu time spent up to now is      722.2 secs

     Computing kpt #:   454  of  1951
     c_bands:  1 eigenvalues not converged
     total cpu time spent up to now is      723.9 secs

     Computing kpt #:   455  of  1951
     total cpu time spent up to now is      725.7 secs

     Computing kpt #:   456  of  1951
     c_bands:  1 eigenvalues not converged
     total cpu time spent up to now is      727.6 secs

     Computing kpt #:   457  of  1951
     total cpu time spent up to now is      729.5 secs

     Computing kpt #:   458  of  1951
     total cpu time spent up to now is      731.5 secs

     Computing kpt #:   459  of  1951
     total cpu time spent up to now is      733.6 secs

     Computing kpt #:   460  of  1951
     total cpu time spent up to now is      735.4 secs

     Computing kpt #:   461  of  1951
     total cpu time spent up to now is      737.3 secs

     Computing kpt #:   462  of  1951
     total cpu time spent up to now is      739.1 secs

     Computing kpt #:   463  of  1951
     total cpu time spent up to now is      740.8 secs

     Computing kpt #:   464  of  1951
     total cpu time spent up to now is      742.5 secs

     Computing kpt #:   465  of  1951
     c_bands:  1 eigenvalues not converged
     total cpu time spent up to now is      744.6 secs

     Computing kpt #:   466  of  1951
     total cpu time spent up to now is      746.4 secs

     Computing kpt #:   467  of  1951
     total cpu time spent up to now is      748.3 secs

     Computing kpt #:   468  of  1951
     total cpu time spent up to now is      750.2 secs

     Computing kpt #:   469  of  1951
     c_bands:  1 eigenvalues not converged
     total cpu time spent up to now is      752.1 secs

     Computing kpt #:   470  of  1951
     c_bands:  2 eigenvalues not converged
     total cpu time spent up to now is      754.2 secs

     Computing kpt #:   471  of  1951
     total cpu time spent up to now is      756.0 secs

     Computing kpt #:   472  of  1951
     total cpu time spent up to now is      757.9 secs

     Computing kpt #:   473  of  1951
     total cpu time spent up to now is      759.6 secs

     Computing kpt #:   474  of  1951
     total cpu time spent up to now is      761.1 secs

     Computing kpt #:   475  of  1951
     total cpu time spent up to now is      762.7 secs

     Computing kpt #:   476  of  1951
     total cpu time spent up to now is      764.2 secs

     Computing kpt #:   477  of  1951
     total cpu time spent up to now is      765.6 secs

     Computing kpt #:   478  of  1951
     total cpu time spent up to now is      767.0 secs

     Computing kpt #:   479  of  1951
     total cpu time spent up to now is      768.5 secs

     Computing kpt #:   480  of  1951
     total cpu time spent up to now is      769.9 secs

     Computing kpt #:   481  of  1951
     total cpu time spent up to now is      771.3 secs

     Computing kpt #:   482  of  1951
     total cpu time spent up to now is      772.7 secs

     Computing kpt #:   483  of  1951
     total cpu time spent up to now is      774.1 secs

     Computing kpt #:   484  of  1951
     total cpu time spent up to now is      775.4 secs

     Computing kpt #:   485  of  1951
     total cpu time spent up to now is      776.8 secs

     Computing kpt #:   486  of  1951
     total cpu time spent up to now is      778.2 secs

     Computing kpt #:   487  of  1951
     total cpu time spent up to now is      779.7 secs

     Computing kpt #:   488  of  1951
     total cpu time spent up to now is      781.0 secs

     Computing kpt #:   489  of  1951
     total cpu time spent up to now is      782.5 secs

     Computing kpt #:   490  of  1951
     total cpu time spent up to now is      783.8 secs

     Computing kpt #:   491  of  1951
     total cpu time spent up to now is      785.2 secs

     Computing kpt #:   492  of  1951
     total cpu time spent up to now is      786.6 secs

     Computing kpt #:   493  of  1951
     total cpu time spent up to now is      787.8 secs

     Computing kpt #:   494  of  1951
     total cpu time spent up to now is      789.1 secs

     Computing kpt #:   495  of  1951
     total cpu time spent up to now is      790.5 secs

     Computing kpt #:   496  of  1951
     total cpu time spent up to now is      792.0 secs

     Computing kpt #:   497  of  1951
     total cpu time spent up to now is      793.4 secs

     Computing kpt #:   498  of  1951
     total cpu time spent up to now is      794.7 secs

     Computing kpt #:   499  of  1951
     total cpu time spent up to now is      796.0 secs

     Computing kpt #:   500  of  1951
     total cpu time spent up to now is      797.7 secs

     Computing kpt #:   501  of  1951
     total cpu time spent up to now is      799.3 secs

     Computing kpt #:   502  of  1951
     total cpu time spent up to now is      800.9 secs

     Computing kpt #:   503  of  1951
     total cpu time spent up to now is      802.6 secs

     Computing kpt #:   504  of  1951
     total cpu time spent up to now is      804.3 secs

     Computing kpt #:   505  of  1951
     total cpu time spent up to now is      806.0 secs

     Computing kpt #:   506  of  1951
     total cpu time spent up to now is      807.7 secs

     Computing kpt #:   507  of  1951
     total cpu time spent up to now is      809.2 secs

     Computing kpt #:   508  of  1951
     total cpu time spent up to now is      810.9 secs

     Computing kpt #:   509  of  1951
     total cpu time spent up to now is      812.5 secs

     Computing kpt #:   510  of  1951
     total cpu time spent up to now is      814.2 secs

     Computing kpt #:   511  of  1951
     total cpu time spent up to now is      815.8 secs

     Computing kpt #:   512  of  1951
     total cpu time spent up to now is      817.5 secs

     Computing kpt #:   513  of  1951
     total cpu time spent up to now is      819.1 secs

     Computing kpt #:   514  of  1951
     total cpu time spent up to now is      820.9 secs

     Computing kpt #:   515  of  1951
     total cpu time spent up to now is      822.6 secs

     Computing kpt #:   516  of  1951
     total cpu time spent up to now is      824.3 secs

     Computing kpt #:   517  of  1951
     total cpu time spent up to now is      825.9 secs

     Computing kpt #:   518  of  1951
     total cpu time spent up to now is      827.6 secs

     Computing kpt #:   519  of  1951
     total cpu time spent up to now is      829.4 secs

     Computing kpt #:   520  of  1951
     total cpu time spent up to now is      831.1 secs

     Computing kpt #:   521  of  1951
     c_bands:  1 eigenvalues not converged
     total cpu time spent up to now is      832.9 secs

     Computing kpt #:   522  of  1951
     c_bands:  1 eigenvalues not converged
     total cpu time spent up to now is      834.7 secs

     Computing kpt #:   523  of  1951
     total cpu time spent up to now is      836.5 secs

     Computing kpt #:   524  of  1951
     total cpu time spent up to now is      838.1 secs

     Computing kpt #:   525  of  1951
     total cpu time spent up to now is      839.8 secs

     Computing kpt #:   526  of  1951
     total cpu time spent up to now is      841.3 secs

     Computing kpt #:   527  of  1951
     total cpu time spent up to now is      843.1 secs

     Computing kpt #:   528  of  1951
     total cpu time spent up to now is      844.6 secs

     Computing kpt #:   529  of  1951
     total cpu time spent up to now is      846.4 secs

     Computing kpt #:   530  of  1951
     total cpu time spent up to now is      848.1 secs

     Computing kpt #:   531  of  1951
     total cpu time spent up to now is      850.0 secs

     Computing kpt #:   532  of  1951
     total cpu time spent up to now is      852.0 secs

     Computing kpt #:   533  of  1951
     total cpu time spent up to now is      853.5 secs

     Computing kpt #:   534  of  1951
     c_bands:  1 eigenvalues not converged
     total cpu time spent up to now is      855.3 secs

     Computing kpt #:   535  of  1951
     c_bands:  1 eigenvalues not converged
     total cpu time spent up to now is      857.0 secs

     Computing kpt #:   536  of  1951
     total cpu time spent up to now is      858.7 secs

     Computing kpt #:   537  of  1951
     total cpu time spent up to now is      860.4 secs

     Computing kpt #:   538  of  1951
     total cpu time spent up to now is      862.0 secs

     Computing kpt #:   539  of  1951
     total cpu time spent up to now is      863.5 secs

     Computing kpt #:   540  of  1951
     total cpu time spent up to now is      865.0 secs

     Computing kpt #:   541  of  1951
     total cpu time spent up to now is      866.4 secs

     Computing kpt #:   542  of  1951
     total cpu time spent up to now is      867.8 secs

     Computing kpt #:   543  of  1951
     total cpu time spent up to now is      869.3 secs

     Computing kpt #:   544  of  1951
     total cpu time spent up to now is      870.7 secs

     Computing kpt #:   545  of  1951
     total cpu time spent up to now is      872.2 secs

     Computing kpt #:   546  of  1951
     total cpu time spent up to now is      873.6 secs

     Computing kpt #:   547  of  1951
     total cpu time spent up to now is      875.0 secs

     Computing kpt #:   548  of  1951
     total cpu time spent up to now is      876.3 secs

     Computing kpt #:   549  of  1951
     total cpu time spent up to now is      877.6 secs

     Computing kpt #:   550  of  1951
     total cpu time spent up to now is      879.0 secs

     Computing kpt #:   551  of  1951
     total cpu time spent up to now is      880.3 secs

     Computing kpt #:   552  of  1951
     total cpu time spent up to now is      881.6 secs

     Computing kpt #:   553  of  1951
     total cpu time spent up to now is      882.9 secs

     Computing kpt #:   554  of  1951
     total cpu time spent up to now is      884.3 secs

     Computing kpt #:   555  of  1951
     total cpu time spent up to now is      885.6 secs

     Computing kpt #:   556  of  1951
     total cpu time spent up to now is      886.9 secs

     Computing kpt #:   557  of  1951
     total cpu time spent up to now is      888.2 secs

     Computing kpt #:   558  of  1951
     total cpu time spent up to now is      889.5 secs

     Computing kpt #:   559  of  1951
     total cpu time spent up to now is      890.8 secs

     Computing kpt #:   560  of  1951
     total cpu time spent up to now is      892.1 secs

     Computing kpt #:   561  of  1951
     total cpu time spent up to now is      893.6 secs

     Computing kpt #:   562  of  1951
     c_bands:  1 eigenvalues not converged
     total cpu time spent up to now is      895.3 secs

     Computing kpt #:   563  of  1951
     total cpu time spent up to now is      896.7 secs

     Computing kpt #:   564  of  1951
     total cpu time spent up to now is      898.2 secs

     Computing kpt #:   565  of  1951
     total cpu time spent up to now is      900.0 secs

     Computing kpt #:   566  of  1951
     total cpu time spent up to now is      901.6 secs

     Computing kpt #:   567  of  1951
     total cpu time spent up to now is      903.3 secs

     Computing kpt #:   568  of  1951
     total cpu time spent up to now is      905.0 secs

     Computing kpt #:   569  of  1951
     total cpu time spent up to now is      906.8 secs

     Computing kpt #:   570  of  1951
     total cpu time spent up to now is      908.4 secs

     Computing kpt #:   571  of  1951
     total cpu time spent up to now is      910.2 secs

     Computing kpt #:   572  of  1951
     total cpu time spent up to now is      911.9 secs

     Computing kpt #:   573  of  1951
     total cpu time spent up to now is      913.6 secs

     Computing kpt #:   574  of  1951
     total cpu time spent up to now is      915.2 secs

     Computing kpt #:   575  of  1951
     total cpu time spent up to now is      916.8 secs

     Computing kpt #:   576  of  1951
     total cpu time spent up to now is      918.4 secs

     Computing kpt #:   577  of  1951
     total cpu time spent up to now is      920.0 secs

     Computing kpt #:   578  of  1951
     total cpu time spent up to now is      921.6 secs

     Computing kpt #:   579  of  1951
     total cpu time spent up to now is      923.5 secs

     Computing kpt #:   580  of  1951
     total cpu time spent up to now is      925.2 secs

     Computing kpt #:   581  of  1951
     total cpu time spent up to now is      927.0 secs

     Computing kpt #:   582  of  1951
     total cpu time spent up to now is      928.8 secs

     Computing kpt #:   583  of  1951
     total cpu time spent up to now is      930.5 secs

     Computing kpt #:   584  of  1951
     total cpu time spent up to now is      932.1 secs

     Computing kpt #:   585  of  1951
     c_bands:  1 eigenvalues not converged
     total cpu time spent up to now is      933.8 secs

     Computing kpt #:   586  of  1951
     total cpu time spent up to now is      935.5 secs

     Computing kpt #:   587  of  1951
     total cpu time spent up to now is      937.0 secs

     Computing kpt #:   588  of  1951
     total cpu time spent up to now is      938.5 secs

     Computing kpt #:   589  of  1951
     total cpu time spent up to now is      940.1 secs

     Computing kpt #:   590  of  1951
     total cpu time spent up to now is      941.5 secs

     Computing kpt #:   591  of  1951
     total cpu time spent up to now is      943.0 secs

     Computing kpt #:   592  of  1951
     total cpu time spent up to now is      944.5 secs

     Computing kpt #:   593  of  1951
     total cpu time spent up to now is      946.2 secs

     Computing kpt #:   594  of  1951
     total cpu time spent up to now is      947.9 secs

     Computing kpt #:   595  of  1951
     total cpu time spent up to now is      949.4 secs

     Computing kpt #:   596  of  1951
     total cpu time spent up to now is      951.0 secs

     Computing kpt #:   597  of  1951
     total cpu time spent up to now is      952.8 secs

     Computing kpt #:   598  of  1951
     total cpu time spent up to now is      954.6 secs

     Computing kpt #:   599  of  1951
     c_bands:  1 eigenvalues not converged
     total cpu time spent up to now is      956.4 secs

     Computing kpt #:   600  of  1951
     total cpu time spent up to now is      958.1 secs

     Computing kpt #:   601  of  1951
     total cpu time spent up to now is      959.6 secs

     Computing kpt #:   602  of  1951
     total cpu time spent up to now is      961.4 secs

     Computing kpt #:   603  of  1951
     total cpu time spent up to now is      963.2 secs

     Computing kpt #:   604  of  1951
     total cpu time spent up to now is      964.8 secs

     Computing kpt #:   605  of  1951
     total cpu time spent up to now is      966.2 secs

     Computing kpt #:   606  of  1951
     total cpu time spent up to now is      967.7 secs

     Computing kpt #:   607  of  1951
     total cpu time spent up to now is      969.1 secs

     Computing kpt #:   608  of  1951
     total cpu time spent up to now is      970.4 secs

     Computing kpt #:   609  of  1951
     total cpu time spent up to now is      971.8 secs

     Computing kpt #:   610  of  1951
     total cpu time spent up to now is      973.2 secs

     Computing kpt #:   611  of  1951
     total cpu time spent up to now is      974.5 secs

     Computing kpt #:   612  of  1951
     total cpu time spent up to now is      975.8 secs

     Computing kpt #:   613  of  1951
     total cpu time spent up to now is      977.2 secs

     Computing kpt #:   614  of  1951
     total cpu time spent up to now is      978.5 secs

     Computing kpt #:   615  of  1951
     total cpu time spent up to now is      979.8 secs

     Computing kpt #:   616  of  1951
     total cpu time spent up to now is      981.1 secs

     Computing kpt #:   617  of  1951
     total cpu time spent up to now is      982.4 secs

     Computing kpt #:   618  of  1951
     total cpu time spent up to now is      983.7 secs

     Computing kpt #:   619  of  1951
     total cpu time spent up to now is      984.9 secs

     Computing kpt #:   620  of  1951
     total cpu time spent up to now is      986.2 secs

     Computing kpt #:   621  of  1951
     total cpu time spent up to now is      987.4 secs

     Computing kpt #:   622  of  1951
     total cpu time spent up to now is      988.8 secs

     Computing kpt #:   623  of  1951
     total cpu time spent up to now is      989.9 secs

     Computing kpt #:   624  of  1951
     total cpu time spent up to now is      991.5 secs

     Computing kpt #:   625  of  1951
     total cpu time spent up to now is      993.2 secs

     Computing kpt #:   626  of  1951
     c_bands:  1 eigenvalues not converged
     total cpu time spent up to now is      994.9 secs

     Computing kpt #:   627  of  1951
     total cpu time spent up to now is      996.4 secs

     Computing kpt #:   628  of  1951
     total cpu time spent up to now is      997.9 secs

     Computing kpt #:   629  of  1951
     total cpu time spent up to now is      999.5 secs

     Computing kpt #:   630  of  1951
     total cpu time spent up to now is     1001.2 secs

     Computing kpt #:   631  of  1951
     total cpu time spent up to now is     1002.9 secs

     Computing kpt #:   632  of  1951
     total cpu time spent up to now is     1004.5 secs

     Computing kpt #:   633  of  1951
     total cpu time spent up to now is     1006.2 secs

     Computing kpt #:   634  of  1951
     total cpu time spent up to now is     1008.0 secs

     Computing kpt #:   635  of  1951
     total cpu time spent up to now is     1009.7 secs

     Computing kpt #:   636  of  1951
     total cpu time spent up to now is     1011.4 secs

     Computing kpt #:   637  of  1951
     total cpu time spent up to now is     1013.2 secs

     Computing kpt #:   638  of  1951
     total cpu time spent up to now is     1014.8 secs

     Computing kpt #:   639  of  1951
     total cpu time spent up to now is     1016.6 secs

     Computing kpt #:   640  of  1951
     total cpu time spent up to now is     1018.3 secs

     Computing kpt #:   641  of  1951
     total cpu time spent up to now is     1020.0 secs

     Computing kpt #:   642  of  1951
     total cpu time spent up to now is     1021.7 secs

     Computing kpt #:   643  of  1951
     total cpu time spent up to now is     1023.4 secs

     Computing kpt #:   644  of  1951
     total cpu time spent up to now is     1025.3 secs

     Computing kpt #:   645  of  1951
     total cpu time spent up to now is     1027.1 secs

     Computing kpt #:   646  of  1951
     c_bands:  1 eigenvalues not converged
     total cpu time spent up to now is     1028.9 secs

     Computing kpt #:   647  of  1951
     total cpu time spent up to now is     1030.7 secs

     Computing kpt #:   648  of  1951
     total cpu time spent up to now is     1032.5 secs

     Computing kpt #:   649  of  1951
     total cpu time spent up to now is     1034.2 secs

     Computing kpt #:   650  of  1951
     total cpu time spent up to now is     1035.9 secs

     Computing kpt #:   651  of  1951
     total cpu time spent up to now is     1037.5 secs

     Computing kpt #:   652  of  1951
     total cpu time spent up to now is     1039.3 secs

     Computing kpt #:   653  of  1951
     total cpu time spent up to now is     1040.9 secs

     Computing kpt #:   654  of  1951
     total cpu time spent up to now is     1042.6 secs

     Computing kpt #:   655  of  1951
     total cpu time spent up to now is     1044.3 secs

     Computing kpt #:   656  of  1951
     total cpu time spent up to now is     1046.0 secs

     Computing kpt #:   657  of  1951
     total cpu time spent up to now is     1047.7 secs

     Computing kpt #:   658  of  1951
     total cpu time spent up to now is     1049.5 secs

     Computing kpt #:   659  of  1951
     total cpu time spent up to now is     1051.2 secs

     Computing kpt #:   660  of  1951
     total cpu time spent up to now is     1052.9 secs

     Computing kpt #:   661  of  1951
     total cpu time spent up to now is     1054.8 secs

     Computing kpt #:   662  of  1951
     total cpu time spent up to now is     1056.7 secs

     Computing kpt #:   663  of  1951
     c_bands:  1 eigenvalues not converged
     total cpu time spent up to now is     1058.6 secs

     Computing kpt #:   664  of  1951
     total cpu time spent up to now is     1060.5 secs

     Computing kpt #:   665  of  1951
     total cpu time spent up to now is     1062.3 secs

     Computing kpt #:   666  of  1951
     total cpu time spent up to now is     1064.0 secs

     Computing kpt #:   667  of  1951
     total cpu time spent up to now is     1065.8 secs

     Computing kpt #:   668  of  1951
     total cpu time spent up to now is     1067.3 secs

     Computing kpt #:   669  of  1951
     total cpu time spent up to now is     1068.9 secs

     Computing kpt #:   670  of  1951
     total cpu time spent up to now is     1070.5 secs

     Computing kpt #:   671  of  1951
     total cpu time spent up to now is     1072.2 secs

     Computing kpt #:   672  of  1951
     total cpu time spent up to now is     1073.8 secs

     Computing kpt #:   673  of  1951
     total cpu time spent up to now is     1075.3 secs

     Computing kpt #:   674  of  1951
     total cpu time spent up to now is     1076.9 secs

     Computing kpt #:   675  of  1951
     total cpu time spent up to now is     1078.3 secs

     Computing kpt #:   676  of  1951
     total cpu time spent up to now is     1079.7 secs

     Computing kpt #:   677  of  1951
     total cpu time spent up to now is     1081.0 secs

     Computing kpt #:   678  of  1951
     total cpu time spent up to now is     1082.4 secs

     Computing kpt #:   679  of  1951
     total cpu time spent up to now is     1083.7 secs

     Computing kpt #:   680  of  1951
     total cpu time spent up to now is     1085.2 secs

     Computing kpt #:   681  of  1951
     total cpu time spent up to now is     1086.6 secs

     Computing kpt #:   682  of  1951
     total cpu time spent up to now is     1088.0 secs

     Computing kpt #:   683  of  1951
     total cpu time spent up to now is     1089.4 secs

     Computing kpt #:   684  of  1951
     total cpu time spent up to now is     1090.7 secs

     Computing kpt #:   685  of  1951
     total cpu time spent up to now is     1092.1 secs

     Computing kpt #:   686  of  1951
     total cpu time spent up to now is     1093.5 secs

     Computing kpt #:   687  of  1951
     total cpu time spent up to now is     1095.0 secs

     Computing kpt #:   688  of  1951
     c_bands:  1 eigenvalues not converged
     total cpu time spent up to now is     1096.7 secs

     Computing kpt #:   689  of  1951
     total cpu time spent up to now is     1098.4 secs

     Computing kpt #:   690  of  1951
     total cpu time spent up to now is     1100.0 secs

     Computing kpt #:   691  of  1951
     total cpu time spent up to now is     1101.7 secs

     Computing kpt #:   692  of  1951
     total cpu time spent up to now is     1103.2 secs

     Computing kpt #:   693  of  1951
     total cpu time spent up to now is     1104.8 secs

     Computing kpt #:   694  of  1951
     total cpu time spent up to now is     1106.7 secs

     Computing kpt #:   695  of  1951
     total cpu time spent up to now is     1108.4 secs

     Computing kpt #:   696  of  1951
     total cpu time spent up to now is     1110.1 secs

     Computing kpt #:   697  of  1951
     total cpu time spent up to now is     1111.8 secs

     Computing kpt #:   698  of  1951
     total cpu time spent up to now is     1113.4 secs

     Computing kpt #:   699  of  1951
     total cpu time spent up to now is     1115.1 secs

     Computing kpt #:   700  of  1951
     total cpu time spent up to now is     1116.7 secs

     Computing kpt #:   701  of  1951
     total cpu time spent up to now is     1118.5 secs

     Computing kpt #:   702  of  1951
     total cpu time spent up to now is     1120.4 secs

     Computing kpt #:   703  of  1951
     total cpu time spent up to now is     1122.3 secs

     Computing kpt #:   704  of  1951
     total cpu time spent up to now is     1124.3 secs

     Computing kpt #:   705  of  1951
     c_bands:  1 eigenvalues not converged
     total cpu time spent up to now is     1126.2 secs

     Computing kpt #:   706  of  1951
     c_bands:  1 eigenvalues not converged
     total cpu time spent up to now is     1128.0 secs

     Computing kpt #:   707  of  1951
     total cpu time spent up to now is     1129.7 secs

     Computing kpt #:   708  of  1951
     total cpu time spent up to now is     1131.7 secs

     Computing kpt #:   709  of  1951
     total cpu time spent up to now is     1133.7 secs

     Computing kpt #:   710  of  1951
     total cpu time spent up to now is     1135.5 secs

     Computing kpt #:   711  of  1951
     total cpu time spent up to now is     1137.2 secs

     Computing kpt #:   712  of  1951
     total cpu time spent up to now is     1139.0 secs

     Computing kpt #:   713  of  1951
     total cpu time spent up to now is     1140.8 secs

     Computing kpt #:   714  of  1951
     total cpu time spent up to now is     1142.5 secs

     Computing kpt #:   715  of  1951
     total cpu time spent up to now is     1144.2 secs

     Computing kpt #:   716  of  1951
     total cpu time spent up to now is     1145.9 secs

     Computing kpt #:   717  of  1951
     total cpu time spent up to now is     1147.6 secs

     Computing kpt #:   718  of  1951
     total cpu time spent up to now is     1149.3 secs

     Computing kpt #:   719  of  1951
     total cpu time spent up to now is     1150.9 secs

     Computing kpt #:   720  of  1951
     total cpu time spent up to now is     1153.1 secs

     Computing kpt #:   721  of  1951
     total cpu time spent up to now is     1154.8 secs

     Computing kpt #:   722  of  1951
     total cpu time spent up to now is     1156.6 secs

     Computing kpt #:   723  of  1951
     c_bands:  1 eigenvalues not converged
     total cpu time spent up to now is     1158.4 secs

     Computing kpt #:   724  of  1951
     c_bands:  1 eigenvalues not converged
     total cpu time spent up to now is     1160.3 secs

     Computing kpt #:   725  of  1951
     total cpu time spent up to now is     1162.0 secs

     Computing kpt #:   726  of  1951
     total cpu time spent up to now is     1163.5 secs

     Computing kpt #:   727  of  1951
     total cpu time spent up to now is     1165.2 secs

     Computing kpt #:   728  of  1951
     total cpu time spent up to now is     1166.6 secs

     Computing kpt #:   729  of  1951
     total cpu time spent up to now is     1168.1 secs

     Computing kpt #:   730  of  1951
     total cpu time spent up to now is     1169.6 secs

     Computing kpt #:   731  of  1951
     total cpu time spent up to now is     1171.1 secs

     Computing kpt #:   732  of  1951
     total cpu time spent up to now is     1172.5 secs

     Computing kpt #:   733  of  1951
     total cpu time spent up to now is     1173.9 secs

     Computing kpt #:   734  of  1951
     total cpu time spent up to now is     1175.4 secs

     Computing kpt #:   735  of  1951
     total cpu time spent up to now is     1176.7 secs

     Computing kpt #:   736  of  1951
     total cpu time spent up to now is     1178.0 secs

     Computing kpt #:   737  of  1951
     total cpu time spent up to now is     1179.4 secs

     Computing kpt #:   738  of  1951
     total cpu time spent up to now is     1180.8 secs

     Computing kpt #:   739  of  1951
     total cpu time spent up to now is     1182.3 secs

     Computing kpt #:   740  of  1951
     total cpu time spent up to now is     1183.6 secs

     Computing kpt #:   741  of  1951
     total cpu time spent up to now is     1185.0 secs

     Computing kpt #:   742  of  1951
     total cpu time spent up to now is     1186.3 secs

     Computing kpt #:   743  of  1951
     total cpu time spent up to now is     1187.8 secs

     Computing kpt #:   744  of  1951
     total cpu time spent up to now is     1189.2 secs

     Computing kpt #:   745  of  1951
     total cpu time spent up to now is     1190.5 secs

     Computing kpt #:   746  of  1951
     total cpu time spent up to now is     1191.8 secs

     Computing kpt #:   747  of  1951
     total cpu time spent up to now is     1193.2 secs

     Computing kpt #:   748  of  1951
     total cpu time spent up to now is     1194.8 secs

     Computing kpt #:   749  of  1951
     c_bands:  1 eigenvalues not converged
     total cpu time spent up to now is     1196.5 secs

     Computing kpt #:   750  of  1951
     total cpu time spent up to now is     1197.8 secs

     Computing kpt #:   751  of  1951
     total cpu time spent up to now is     1199.2 secs

     Computing kpt #:   752  of  1951
     total cpu time spent up to now is     1200.8 secs

     Computing kpt #:   753  of  1951
     total cpu time spent up to now is     1202.5 secs

     Computing kpt #:   754  of  1951
     total cpu time spent up to now is     1204.1 secs

     Computing kpt #:   755  of  1951
     total cpu time spent up to now is     1205.7 secs

     Computing kpt #:   756  of  1951
     total cpu time spent up to now is     1207.4 secs

     Computing kpt #:   757  of  1951
     total cpu time spent up to now is     1209.0 secs

     Computing kpt #:   758  of  1951
     total cpu time spent up to now is     1210.7 secs

     Computing kpt #:   759  of  1951
     total cpu time spent up to now is     1212.3 secs

     Computing kpt #:   760  of  1951
     total cpu time spent up to now is     1213.8 secs

     Computing kpt #:   761  of  1951
     total cpu time spent up to now is     1215.5 secs

     Computing kpt #:   762  of  1951
     total cpu time spent up to now is     1217.1 secs

     Computing kpt #:   763  of  1951
     total cpu time spent up to now is     1218.7 secs

     Computing kpt #:   764  of  1951
     total cpu time spent up to now is     1220.3 secs

     Computing kpt #:   765  of  1951
     c_bands:  1 eigenvalues not converged
     total cpu time spent up to now is     1222.0 secs

     Computing kpt #:   766  of  1951
     c_bands:  1 eigenvalues not converged
     total cpu time spent up to now is     1223.7 secs

     Computing kpt #:   767  of  1951
     total cpu time spent up to now is     1225.3 secs

     Computing kpt #:   768  of  1951
     total cpu time spent up to now is     1227.0 secs

     Computing kpt #:   769  of  1951
     total cpu time spent up to now is     1228.7 secs

     Computing kpt #:   770  of  1951
     total cpu time spent up to now is     1230.6 secs

     Computing kpt #:   771  of  1951
     total cpu time spent up to now is     1232.3 secs

     Computing kpt #:   772  of  1951
     total cpu time spent up to now is     1233.9 secs

     Computing kpt #:   773  of  1951
     total cpu time spent up to now is     1235.8 secs

     Computing kpt #:   774  of  1951
     total cpu time spent up to now is     1237.5 secs

     Computing kpt #:   775  of  1951
     total cpu time spent up to now is     1239.1 secs

     Computing kpt #:   776  of  1951
     total cpu time spent up to now is     1240.9 secs

     Computing kpt #:   777  of  1951
     total cpu time spent up to now is     1242.7 secs

     Computing kpt #:   778  of  1951
     total cpu time spent up to now is     1244.4 secs

     Computing kpt #:   779  of  1951
     total cpu time spent up to now is     1246.0 secs

     Computing kpt #:   780  of  1951
     total cpu time spent up to now is     1247.8 secs

     Computing kpt #:   781  of  1951
     total cpu time spent up to now is     1249.4 secs

     Computing kpt #:   782  of  1951
     c_bands:  1 eigenvalues not converged
     total cpu time spent up to now is     1251.2 secs

     Computing kpt #:   783  of  1951
     c_bands:  1 eigenvalues not converged
     total cpu time spent up to now is     1253.1 secs

     Computing kpt #:   784  of  1951
     total cpu time spent up to now is     1254.6 secs

     Computing kpt #:   785  of  1951
     total cpu time spent up to now is     1256.3 secs

     Computing kpt #:   786  of  1951
     total cpu time spent up to now is     1257.7 secs

     Computing kpt #:   787  of  1951
     total cpu time spent up to now is     1259.2 secs

     Computing kpt #:   788  of  1951
     total cpu time spent up to now is     1260.7 secs

     Computing kpt #:   789  of  1951
     total cpu time spent up to now is     1262.2 secs

     Computing kpt #:   790  of  1951
     total cpu time spent up to now is     1263.7 secs

     Computing kpt #:   791  of  1951
     total cpu time spent up to now is     1265.1 secs

     Computing kpt #:   792  of  1951
     total cpu time spent up to now is     1266.5 secs

     Computing kpt #:   793  of  1951
     total cpu time spent up to now is     1267.9 secs

     Computing kpt #:   794  of  1951
     total cpu time spent up to now is     1269.2 secs

     Computing kpt #:   795  of  1951
     total cpu time spent up to now is     1270.8 secs

     Computing kpt #:   796  of  1951
     total cpu time spent up to now is     1272.2 secs

     Computing kpt #:   797  of  1951
     total cpu time spent up to now is     1273.6 secs

     Computing kpt #:   798  of  1951
     total cpu time spent up to now is     1275.0 secs

     Computing kpt #:   799  of  1951
     total cpu time spent up to now is     1276.4 secs

     Computing kpt #:   800  of  1951
     total cpu time spent up to now is     1277.6 secs

     Computing kpt #:   801  of  1951
     total cpu time spent up to now is     1278.8 secs

     Computing kpt #:   802  of  1951
     total cpu time spent up to now is     1280.2 secs

     Computing kpt #:   803  of  1951
     total cpu time spent up to now is     1281.4 secs

     Computing kpt #:   804  of  1951
     total cpu time spent up to now is     1282.8 secs

     Computing kpt #:   805  of  1951
     total cpu time spent up to now is     1284.1 secs

     Computing kpt #:   806  of  1951
     total cpu time spent up to now is     1285.5 secs

     Computing kpt #:   807  of  1951
     total cpu time spent up to now is     1286.8 secs

     Computing kpt #:   808  of  1951
     c_bands:  1 eigenvalues not converged
     total cpu time spent up to now is     1288.4 secs

     Computing kpt #:   809  of  1951
     total cpu time spent up to now is     1290.0 secs

     Computing kpt #:   810  of  1951
     total cpu time spent up to now is     1291.4 secs

     Computing kpt #:   811  of  1951
     total cpu time spent up to now is     1293.0 secs

     Computing kpt #:   812  of  1951
     total cpu time spent up to now is     1294.8 secs

     Computing kpt #:   813  of  1951
     total cpu time spent up to now is     1296.3 secs

     Computing kpt #:   814  of  1951
     total cpu time spent up to now is     1298.0 secs

     Computing kpt #:   815  of  1951
     total cpu time spent up to now is     1299.8 secs

     Computing kpt #:   816  of  1951
     total cpu time spent up to now is     1301.5 secs

     Computing kpt #:   817  of  1951
     total cpu time spent up to now is     1303.2 secs

     Computing kpt #:   818  of  1951
     total cpu time spent up to now is     1304.8 secs

     Computing kpt #:   819  of  1951
     total cpu time spent up to now is     1306.4 secs

     Computing kpt #:   820  of  1951
     total cpu time spent up to now is     1308.3 secs

     Computing kpt #:   821  of  1951
     total cpu time spent up to now is     1310.0 secs

     Computing kpt #:   822  of  1951
     c_bands:  1 eigenvalues not converged
     total cpu time spent up to now is     1311.8 secs

     Computing kpt #:   823  of  1951
     c_bands:  1 eigenvalues not converged
     total cpu time spent up to now is     1313.8 secs

     Computing kpt #:   824  of  1951
     total cpu time spent up to now is     1315.7 secs

     Computing kpt #:   825  of  1951
     total cpu time spent up to now is     1317.5 secs

     Computing kpt #:   826  of  1951
     total cpu time spent up to now is     1319.3 secs

     Computing kpt #:   827  of  1951
     total cpu time spent up to now is     1321.2 secs

     Computing kpt #:   828  of  1951
     total cpu time spent up to now is     1322.9 secs

     Computing kpt #:   829  of  1951
     total cpu time spent up to now is     1324.9 secs

     Computing kpt #:   830  of  1951
     total cpu time spent up to now is     1326.6 secs

     Computing kpt #:   831  of  1951
     total cpu time spent up to now is     1328.4 secs

     Computing kpt #:   832  of  1951
     total cpu time spent up to now is     1330.0 secs

     Computing kpt #:   833  of  1951
     total cpu time spent up to now is     1331.8 secs

     Computing kpt #:   834  of  1951
     total cpu time spent up to now is     1333.5 secs

     Computing kpt #:   835  of  1951
     total cpu time spent up to now is     1335.1 secs

     Computing kpt #:   836  of  1951
     total cpu time spent up to now is     1336.6 secs

     Computing kpt #:   837  of  1951
     total cpu time spent up to now is     1338.3 secs

     Computing kpt #:   838  of  1951
     total cpu time spent up to now is     1339.9 secs

     Computing kpt #:   839  of  1951
     total cpu time spent up to now is     1341.7 secs

     Computing kpt #:   840  of  1951
     total cpu time spent up to now is     1343.4 secs

     Computing kpt #:   841  of  1951
     c_bands:  1 eigenvalues not converged
     total cpu time spent up to now is     1345.2 secs

     Computing kpt #:   842  of  1951
     total cpu time spent up to now is     1346.7 secs

     Computing kpt #:   843  of  1951
     total cpu time spent up to now is     1348.4 secs

     Computing kpt #:   844  of  1951
     c_bands:  1 eigenvalues not converged
     total cpu time spent up to now is     1350.2 secs

     Computing kpt #:   845  of  1951
     total cpu time spent up to now is     1351.7 secs

     Computing kpt #:   846  of  1951
     total cpu time spent up to now is     1353.1 secs

     Computing kpt #:   847  of  1951
     total cpu time spent up to now is     1354.6 secs

     Computing kpt #:   848  of  1951
     total cpu time spent up to now is     1356.0 secs

     Computing kpt #:   849  of  1951
     total cpu time spent up to now is     1357.3 secs

     Computing kpt #:   850  of  1951
     total cpu time spent up to now is     1358.7 secs

     Computing kpt #:   851  of  1951
     total cpu time spent up to now is     1360.1 secs

     Computing kpt #:   852  of  1951
     total cpu time spent up to now is     1361.3 secs

     Computing kpt #:   853  of  1951
     total cpu time spent up to now is     1362.7 secs

     Computing kpt #:   854  of  1951
     total cpu time spent up to now is     1364.0 secs

     Computing kpt #:   855  of  1951
     total cpu time spent up to now is     1365.3 secs

     Computing kpt #:   856  of  1951
     total cpu time spent up to now is     1366.8 secs

     Computing kpt #:   857  of  1951
     total cpu time spent up to now is     1368.2 secs

     Computing kpt #:   858  of  1951
     total cpu time spent up to now is     1369.5 secs

     Computing kpt #:   859  of  1951
     total cpu time spent up to now is     1370.9 secs

     Computing kpt #:   860  of  1951
     total cpu time spent up to now is     1372.3 secs

     Computing kpt #:   861  of  1951
     total cpu time spent up to now is     1373.5 secs

     Computing kpt #:   862  of  1951
     total cpu time spent up to now is     1374.8 secs

     Computing kpt #:   863  of  1951
     total cpu time spent up to now is     1376.0 secs

     Computing kpt #:   864  of  1951
     total cpu time spent up to now is     1377.4 secs

     Computing kpt #:   865  of  1951
     total cpu time spent up to now is     1378.8 secs

     Computing kpt #:   866  of  1951
     c_bands:  1 eigenvalues not converged
     total cpu time spent up to now is     1380.5 secs

     Computing kpt #:   867  of  1951
     total cpu time spent up to now is     1382.0 secs

     Computing kpt #:   868  of  1951
     total cpu time spent up to now is     1383.5 secs

     Computing kpt #:   869  of  1951
     total cpu time spent up to now is     1385.3 secs

     Computing kpt #:   870  of  1951
     total cpu time spent up to now is     1387.0 secs

     Computing kpt #:   871  of  1951
     total cpu time spent up to now is     1388.5 secs

     Computing kpt #:   872  of  1951
     total cpu time spent up to now is     1390.2 secs

     Computing kpt #:   873  of  1951
     total cpu time spent up to now is     1391.7 secs

     Computing kpt #:   874  of  1951
     total cpu time spent up to now is     1393.3 secs

     Computing kpt #:   875  of  1951
     total cpu time spent up to now is     1394.9 secs

     Computing kpt #:   876  of  1951
     total cpu time spent up to now is     1396.8 secs

     Computing kpt #:   877  of  1951
     total cpu time spent up to now is     1398.3 secs

     Computing kpt #:   878  of  1951
     c_bands:  1 eigenvalues not converged
     total cpu time spent up to now is     1399.9 secs

     Computing kpt #:   879  of  1951
     c_bands:  1 eigenvalues not converged
     total cpu time spent up to now is     1401.8 secs

     Computing kpt #:   880  of  1951
     c_bands:  1 eigenvalues not converged
     total cpu time spent up to now is     1403.7 secs

     Computing kpt #:   881  of  1951
     total cpu time spent up to now is     1405.4 secs

     Computing kpt #:   882  of  1951
     total cpu time spent up to now is     1407.0 secs

     Computing kpt #:   883  of  1951
     total cpu time spent up to now is     1408.7 secs

     Computing kpt #:   884  of  1951
     total cpu time spent up to now is     1410.4 secs

     Computing kpt #:   885  of  1951
     total cpu time spent up to now is     1412.2 secs

     Computing kpt #:   886  of  1951
     total cpu time spent up to now is     1413.8 secs

     Computing kpt #:   887  of  1951
     total cpu time spent up to now is     1415.5 secs

     Computing kpt #:   888  of  1951
     total cpu time spent up to now is     1416.9 secs

     Computing kpt #:   889  of  1951
     total cpu time spent up to now is     1418.5 secs

     Computing kpt #:   890  of  1951
     total cpu time spent up to now is     1420.2 secs

     Computing kpt #:   891  of  1951
     total cpu time spent up to now is     1421.7 secs

     Computing kpt #:   892  of  1951
     total cpu time spent up to now is     1423.2 secs

     Computing kpt #:   893  of  1951
     total cpu time spent up to now is     1424.6 secs

     Computing kpt #:   894  of  1951
     total cpu time spent up to now is     1426.2 secs

     Computing kpt #:   895  of  1951
     total cpu time spent up to now is     1427.8 secs

     Computing kpt #:   896  of  1951
     total cpu time spent up to now is     1429.5 secs

     Computing kpt #:   897  of  1951
     total cpu time spent up to now is     1431.2 secs

     Computing kpt #:   898  of  1951
     c_bands:  1 eigenvalues not converged
     total cpu time spent up to now is     1432.9 secs

     Computing kpt #:   899  of  1951
     total cpu time spent up to now is     1434.6 secs

     Computing kpt #:   900  of  1951
     total cpu time spent up to now is     1436.0 secs

     Computing kpt #:   901  of  1951
     total cpu time spent up to now is     1437.6 secs

     Computing kpt #:   902  of  1951
     total cpu time spent up to now is     1439.1 secs

     Computing kpt #:   903  of  1951
     total cpu time spent up to now is     1440.5 secs

     Computing kpt #:   904  of  1951
     total cpu time spent up to now is     1441.8 secs

     Computing kpt #:   905  of  1951
     total cpu time spent up to now is     1443.5 secs

     Computing kpt #:   906  of  1951
     total cpu time spent up to now is     1445.1 secs

     Computing kpt #:   907  of  1951
     total cpu time spent up to now is     1446.4 secs

     Computing kpt #:   908  of  1951
     total cpu time spent up to now is     1447.8 secs

     Computing kpt #:   909  of  1951
     total cpu time spent up to now is     1449.0 secs

     Computing kpt #:   910  of  1951
     total cpu time spent up to now is     1450.4 secs

     Computing kpt #:   911  of  1951
     total cpu time spent up to now is     1451.8 secs

     Computing kpt #:   912  of  1951
     total cpu time spent up to now is     1453.2 secs

     Computing kpt #:   913  of  1951
     total cpu time spent up to now is     1454.5 secs

     Computing kpt #:   914  of  1951
     total cpu time spent up to now is     1455.9 secs

     Computing kpt #:   915  of  1951
     total cpu time spent up to now is     1457.3 secs

     Computing kpt #:   916  of  1951
     total cpu time spent up to now is     1458.7 secs

     Computing kpt #:   917  of  1951
     total cpu time spent up to now is     1460.1 secs

     Computing kpt #:   918  of  1951
     total cpu time spent up to now is     1461.5 secs

     Computing kpt #:   919  of  1951
     total cpu time spent up to now is     1462.9 secs

     Computing kpt #:   920  of  1951
     total cpu time spent up to now is     1464.4 secs

     Computing kpt #:   921  of  1951
     total cpu time spent up to now is     1465.8 secs

     Computing kpt #:   922  of  1951
     total cpu time spent up to now is     1467.4 secs

     Computing kpt #:   923  of  1951
     total cpu time spent up to now is     1469.0 secs

     Computing kpt #:   924  of  1951
     total cpu time spent up to now is     1470.4 secs

     Computing kpt #:   925  of  1951
     total cpu time spent up to now is     1472.1 secs

     Computing kpt #:   926  of  1951
     total cpu time spent up to now is     1473.8 secs

     Computing kpt #:   927  of  1951
     total cpu time spent up to now is     1475.5 secs

     Computing kpt #:   928  of  1951
     total cpu time spent up to now is     1477.4 secs

     Computing kpt #:   929  of  1951
     total cpu time spent up to now is     1479.1 secs

     Computing kpt #:   930  of  1951
     total cpu time spent up to now is     1480.8 secs

     Computing kpt #:   931  of  1951
     total cpu time spent up to now is     1482.7 secs

     Computing kpt #:   932  of  1951
     total cpu time spent up to now is     1484.6 secs

     Computing kpt #:   933  of  1951
     c_bands:  1 eigenvalues not converged
     total cpu time spent up to now is     1486.6 secs

     Computing kpt #:   934  of  1951
     c_bands:  1 eigenvalues not converged
     total cpu time spent up to now is     1488.5 secs

     Computing kpt #:   935  of  1951
     total cpu time spent up to now is     1490.7 secs

     Computing kpt #:   936  of  1951
     total cpu time spent up to now is     1492.5 secs

     Computing kpt #:   937  of  1951
     total cpu time spent up to now is     1494.1 secs

     Computing kpt #:   938  of  1951
     total cpu time spent up to now is     1495.7 secs

     Computing kpt #:   939  of  1951
     total cpu time spent up to now is     1497.3 secs

     Computing kpt #:   940  of  1951
     total cpu time spent up to now is     1498.9 secs

     Computing kpt #:   941  of  1951
     total cpu time spent up to now is     1500.5 secs

     Computing kpt #:   942  of  1951
     total cpu time spent up to now is     1502.2 secs

     Computing kpt #:   943  of  1951
     total cpu time spent up to now is     1503.9 secs

     Computing kpt #:   944  of  1951
     total cpu time spent up to now is     1505.6 secs

     Computing kpt #:   945  of  1951
     total cpu time spent up to now is     1507.4 secs

     Computing kpt #:   946  of  1951
     total cpu time spent up to now is     1509.1 secs

     Computing kpt #:   947  of  1951
     total cpu time spent up to now is     1510.5 secs

     Computing kpt #:   948  of  1951
     total cpu time spent up to now is     1511.9 secs

     Computing kpt #:   949  of  1951
     total cpu time spent up to now is     1513.5 secs

     Computing kpt #:   950  of  1951
     total cpu time spent up to now is     1515.0 secs

     Computing kpt #:   951  of  1951
     total cpu time spent up to now is     1516.7 secs

     Computing kpt #:   952  of  1951
     c_bands:  1 eigenvalues not converged
     total cpu time spent up to now is     1518.4 secs

     Computing kpt #:   953  of  1951
     c_bands:  1 eigenvalues not converged
     total cpu time spent up to now is     1520.4 secs

     Computing kpt #:   954  of  1951
     total cpu time spent up to now is     1522.1 secs

     Computing kpt #:   955  of  1951
     total cpu time spent up to now is     1523.5 secs

     Computing kpt #:   956  of  1951
     total cpu time spent up to now is     1525.1 secs

     Computing kpt #:   957  of  1951
     total cpu time spent up to now is     1526.5 secs

     Computing kpt #:   958  of  1951
     total cpu time spent up to now is     1528.0 secs

     Computing kpt #:   959  of  1951
     total cpu time spent up to now is     1529.4 secs

     Computing kpt #:   960  of  1951
     total cpu time spent up to now is     1530.8 secs

     Computing kpt #:   961  of  1951
     total cpu time spent up to now is     1532.1 secs

     Computing kpt #:   962  of  1951
     total cpu time spent up to now is     1533.5 secs

     Computing kpt #:   963  of  1951
     total cpu time spent up to now is     1534.9 secs

     Computing kpt #:   964  of  1951
     total cpu time spent up to now is     1536.3 secs

     Computing kpt #:   965  of  1951
     total cpu time spent up to now is     1537.6 secs

     Computing kpt #:   966  of  1951
     total cpu time spent up to now is     1538.9 secs

     Computing kpt #:   967  of  1951
     total cpu time spent up to now is     1540.2 secs

     Computing kpt #:   968  of  1951
     total cpu time spent up to now is     1541.5 secs

     Computing kpt #:   969  of  1951
     total cpu time spent up to now is     1542.9 secs

     Computing kpt #:   970  of  1951
     total cpu time spent up to now is     1544.1 secs

     Computing kpt #:   971  of  1951
     total cpu time spent up to now is     1545.4 secs

     Computing kpt #:   972  of  1951
     total cpu time spent up to now is     1546.7 secs

     Computing kpt #:   973  of  1951
     total cpu time spent up to now is     1548.0 secs

     Computing kpt #:   974  of  1951
     total cpu time spent up to now is     1549.4 secs

     Computing kpt #:   975  of  1951
     total cpu time spent up to now is     1550.7 secs

     Computing kpt #:   976  of  1951
     total cpu time spent up to now is     1552.2 secs

     Computing kpt #:   977  of  1951
     c_bands:  1 eigenvalues not converged
     total cpu time spent up to now is     1553.8 secs

     Computing kpt #:   978  of  1951
     total cpu time spent up to now is     1555.4 secs

     Computing kpt #:   979  of  1951
     total cpu time spent up to now is     1556.8 secs

     Computing kpt #:   980  of  1951
     total cpu time spent up to now is     1558.4 secs

     Computing kpt #:   981  of  1951
     total cpu time spent up to now is     1560.0 secs

     Computing kpt #:   982  of  1951
     total cpu time spent up to now is     1561.7 secs

     Computing kpt #:   983  of  1951
     total cpu time spent up to now is     1563.3 secs

     Computing kpt #:   984  of  1951
     total cpu time spent up to now is     1564.8 secs

     Computing kpt #:   985  of  1951
     total cpu time spent up to now is     1566.5 secs

     Computing kpt #:   986  of  1951
     c_bands:  1 eigenvalues not converged
     total cpu time spent up to now is     1568.3 secs

     Computing kpt #:   987  of  1951
     c_bands:  1 eigenvalues not converged
     total cpu time spent up to now is     1570.0 secs

     Computing kpt #:   988  of  1951
     total cpu time spent up to now is     1571.8 secs

     Computing kpt #:   989  of  1951
     total cpu time spent up to now is     1573.3 secs

     Computing kpt #:   990  of  1951
     total cpu time spent up to now is     1574.9 secs

     Computing kpt #:   991  of  1951
     total cpu time spent up to now is     1576.5 secs

     Computing kpt #:   992  of  1951
     total cpu time spent up to now is     1578.1 secs

     Computing kpt #:   993  of  1951
     total cpu time spent up to now is     1579.7 secs

     Computing kpt #:   994  of  1951
     total cpu time spent up to now is     1581.2 secs

     Computing kpt #:   995  of  1951
     total cpu time spent up to now is     1582.8 secs

     Computing kpt #:   996  of  1951
     total cpu time spent up to now is     1584.2 secs

     Computing kpt #:   997  of  1951
     total cpu time spent up to now is     1585.9 secs

     Computing kpt #:   998  of  1951
     total cpu time spent up to now is     1587.3 secs

     Computing kpt #:   999  of  1951
     total cpu time spent up to now is     1588.7 secs

     Computing kpt #:  1000  of  1951
     total cpu time spent up to now is     1590.3 secs

     Computing kpt #:  1001  of  1951
     total cpu time spent up to now is     1591.7 secs

     Computing kpt #:  1002  of  1951
     total cpu time spent up to now is     1593.7 secs

     Computing kpt #:  1003  of  1951
     total cpu time spent up to now is     1595.3 secs

     Computing kpt #:  1004  of  1951
     total cpu time spent up to now is     1597.0 secs

     Computing kpt #:  1005  of  1951
     total cpu time spent up to now is     1598.7 secs

     Computing kpt #:  1006  of  1951
     c_bands:  1 eigenvalues not converged
     total cpu time spent up to now is     1600.5 secs

     Computing kpt #:  1007  of  1951
     c_bands:  1 eigenvalues not converged
     total cpu time spent up to now is     1602.2 secs

     Computing kpt #:  1008  of  1951
     total cpu time spent up to now is     1603.9 secs

     Computing kpt #:  1009  of  1951
     total cpu time spent up to now is     1605.6 secs

     Computing kpt #:  1010  of  1951
     total cpu time spent up to now is     1607.4 secs

     Computing kpt #:  1011  of  1951
     total cpu time spent up to now is     1609.0 secs

     Computing kpt #:  1012  of  1951
     total cpu time spent up to now is     1610.5 secs

     Computing kpt #:  1013  of  1951
     total cpu time spent up to now is     1611.8 secs

     Computing kpt #:  1014  of  1951
     total cpu time spent up to now is     1613.2 secs

     Computing kpt #:  1015  of  1951
     total cpu time spent up to now is     1614.6 secs

     Computing kpt #:  1016  of  1951
     total cpu time spent up to now is     1615.9 secs

     Computing kpt #:  1017  of  1951
     total cpu time spent up to now is     1617.1 secs

     Computing kpt #:  1018  of  1951
     total cpu time spent up to now is     1618.4 secs

     Computing kpt #:  1019  of  1951
     total cpu time spent up to now is     1619.6 secs

     Computing kpt #:  1020  of  1951
     total cpu time spent up to now is     1620.9 secs

     Computing kpt #:  1021  of  1951
     total cpu time spent up to now is     1622.2 secs

     Computing kpt #:  1022  of  1951
     total cpu time spent up to now is     1623.5 secs

     Computing kpt #:  1023  of  1951
     total cpu time spent up to now is     1624.9 secs

     Computing kpt #:  1024  of  1951
     total cpu time spent up to now is     1626.2 secs

     Computing kpt #:  1025  of  1951
     total cpu time spent up to now is     1627.4 secs

     Computing kpt #:  1026  of  1951
     total cpu time spent up to now is     1628.7 secs

     Computing kpt #:  1027  of  1951
     total cpu time spent up to now is     1629.9 secs

     Computing kpt #:  1028  of  1951
     total cpu time spent up to now is     1631.3 secs

     Computing kpt #:  1029  of  1951
     total cpu time spent up to now is     1632.7 secs

     Computing kpt #:  1030  of  1951
     total cpu time spent up to now is     1634.2 secs

     Computing kpt #:  1031  of  1951
     total cpu time spent up to now is     1635.8 secs

     Computing kpt #:  1032  of  1951
     total cpu time spent up to now is     1637.5 secs

     Computing kpt #:  1033  of  1951
     total cpu time spent up to now is     1639.1 secs

     Computing kpt #:  1034  of  1951
     total cpu time spent up to now is     1640.7 secs

     Computing kpt #:  1035  of  1951
     total cpu time spent up to now is     1642.5 secs

     Computing kpt #:  1036  of  1951
     total cpu time spent up to now is     1644.3 secs

     Computing kpt #:  1037  of  1951
     c_bands:  1 eigenvalues not converged
     total cpu time spent up to now is     1646.0 secs

     Computing kpt #:  1038  of  1951
     c_bands:  1 eigenvalues not converged
     total cpu time spent up to now is     1647.7 secs

     Computing kpt #:  1039  of  1951
     total cpu time spent up to now is     1649.4 secs

     Computing kpt #:  1040  of  1951
     total cpu time spent up to now is     1651.0 secs

     Computing kpt #:  1041  of  1951
     total cpu time spent up to now is     1652.6 secs

     Computing kpt #:  1042  of  1951
     total cpu time spent up to now is     1654.2 secs

     Computing kpt #:  1043  of  1951
     total cpu time spent up to now is     1655.5 secs

     Computing kpt #:  1044  of  1951
     total cpu time spent up to now is     1657.1 secs

     Computing kpt #:  1045  of  1951
     total cpu time spent up to now is     1658.7 secs

     Computing kpt #:  1046  of  1951
     total cpu time spent up to now is     1660.2 secs

     Computing kpt #:  1047  of  1951
     total cpu time spent up to now is     1661.7 secs

     Computing kpt #:  1048  of  1951
     total cpu time spent up to now is     1663.3 secs

     Computing kpt #:  1049  of  1951
     total cpu time spent up to now is     1664.8 secs

     Computing kpt #:  1050  of  1951
     total cpu time spent up to now is     1666.3 secs

     Computing kpt #:  1051  of  1951
     total cpu time spent up to now is     1667.7 secs

     Computing kpt #:  1052  of  1951
     total cpu time spent up to now is     1669.2 secs

     Computing kpt #:  1053  of  1951
     total cpu time spent up to now is     1670.5 secs

     Computing kpt #:  1054  of  1951
     total cpu time spent up to now is     1672.2 secs

     Computing kpt #:  1055  of  1951
     total cpu time spent up to now is     1673.8 secs

     Computing kpt #:  1056  of  1951
     total cpu time spent up to now is     1675.5 secs

     Computing kpt #:  1057  of  1951
     total cpu time spent up to now is     1677.3 secs

     Computing kpt #:  1058  of  1951
     c_bands:  1 eigenvalues not converged
     total cpu time spent up to now is     1679.2 secs

     Computing kpt #:  1059  of  1951
     c_bands:  1 eigenvalues not converged
     total cpu time spent up to now is     1680.9 secs

     Computing kpt #:  1060  of  1951
     total cpu time spent up to now is     1682.4 secs

     Computing kpt #:  1061  of  1951
     total cpu time spent up to now is     1684.0 secs

     Computing kpt #:  1062  of  1951
     total cpu time spent up to now is     1685.5 secs

     Computing kpt #:  1063  of  1951
     total cpu time spent up to now is     1687.0 secs

     Computing kpt #:  1064  of  1951
     total cpu time spent up to now is     1688.4 secs

     Computing kpt #:  1065  of  1951
     total cpu time spent up to now is     1689.9 secs

     Computing kpt #:  1066  of  1951
     total cpu time spent up to now is     1691.4 secs

     Computing kpt #:  1067  of  1951
     total cpu time spent up to now is     1692.7 secs

     Computing kpt #:  1068  of  1951
     total cpu time spent up to now is     1694.1 secs

     Computing kpt #:  1069  of  1951
     total cpu time spent up to now is     1695.4 secs

     Computing kpt #:  1070  of  1951
     total cpu time spent up to now is     1696.8 secs

     Computing kpt #:  1071  of  1951
     total cpu time spent up to now is     1698.2 secs

     Computing kpt #:  1072  of  1951
     total cpu time spent up to now is     1699.6 secs

     Computing kpt #:  1073  of  1951
     total cpu time spent up to now is     1701.0 secs

     Computing kpt #:  1074  of  1951
     total cpu time spent up to now is     1702.4 secs

     Computing kpt #:  1075  of  1951
     total cpu time spent up to now is     1703.8 secs

     Computing kpt #:  1076  of  1951
     total cpu time spent up to now is     1705.2 secs

     Computing kpt #:  1077  of  1951
     total cpu time spent up to now is     1706.5 secs

     Computing kpt #:  1078  of  1951
     total cpu time spent up to now is     1707.8 secs

     Computing kpt #:  1079  of  1951
     total cpu time spent up to now is     1709.1 secs

     Computing kpt #:  1080  of  1951
     total cpu time spent up to now is     1710.4 secs

     Computing kpt #:  1081  of  1951
     total cpu time spent up to now is     1711.8 secs

     Computing kpt #:  1082  of  1951
     c_bands:  1 eigenvalues not converged
     total cpu time spent up to now is     1713.5 secs

     Computing kpt #:  1083  of  1951
     total cpu time spent up to now is     1715.1 secs

     Computing kpt #:  1084  of  1951
     total cpu time spent up to now is     1716.6 secs

     Computing kpt #:  1085  of  1951
     total cpu time spent up to now is     1718.3 secs

     Computing kpt #:  1086  of  1951
     total cpu time spent up to now is     1720.1 secs

     Computing kpt #:  1087  of  1951
     c_bands:  1 eigenvalues not converged
     total cpu time spent up to now is     1722.0 secs

     Computing kpt #:  1088  of  1951
     c_bands:  1 eigenvalues not converged
     total cpu time spent up to now is     1723.6 secs

     Computing kpt #:  1089  of  1951
     total cpu time spent up to now is     1725.4 secs

     Computing kpt #:  1090  of  1951
     total cpu time spent up to now is     1727.0 secs

     Computing kpt #:  1091  of  1951
     total cpu time spent up to now is     1728.6 secs

     Computing kpt #:  1092  of  1951
     total cpu time spent up to now is     1730.2 secs

     Computing kpt #:  1093  of  1951
     total cpu time spent up to now is     1731.8 secs

     Computing kpt #:  1094  of  1951
     total cpu time spent up to now is     1733.3 secs

     Computing kpt #:  1095  of  1951
     total cpu time spent up to now is     1734.7 secs

     Computing kpt #:  1096  of  1951
     total cpu time spent up to now is     1736.2 secs

     Computing kpt #:  1097  of  1951
     total cpu time spent up to now is     1737.6 secs

     Computing kpt #:  1098  of  1951
     total cpu time spent up to now is     1739.3 secs

     Computing kpt #:  1099  of  1951
     total cpu time spent up to now is     1740.8 secs

     Computing kpt #:  1100  of  1951
     total cpu time spent up to now is     1742.3 secs

     Computing kpt #:  1101  of  1951
     total cpu time spent up to now is     1743.7 secs

     Computing kpt #:  1102  of  1951
     total cpu time spent up to now is     1745.1 secs

     Computing kpt #:  1103  of  1951
     total cpu time spent up to now is     1746.7 secs

     Computing kpt #:  1104  of  1951
     total cpu time spent up to now is     1748.2 secs

     Computing kpt #:  1105  of  1951
     total cpu time spent up to now is     1749.9 secs

     Computing kpt #:  1106  of  1951
     total cpu time spent up to now is     1751.4 secs

     Computing kpt #:  1107  of  1951
     total cpu time spent up to now is     1753.1 secs

     Computing kpt #:  1108  of  1951
     c_bands:  1 eigenvalues not converged
     total cpu time spent up to now is     1754.9 secs

     Computing kpt #:  1109  of  1951
     total cpu time spent up to now is     1756.5 secs

     Computing kpt #:  1110  of  1951
     total cpu time spent up to now is     1758.2 secs

     Computing kpt #:  1111  of  1951
     c_bands:  1 eigenvalues not converged
     total cpu time spent up to now is     1759.9 secs

     Computing kpt #:  1112  of  1951
     total cpu time spent up to now is     1761.5 secs

     Computing kpt #:  1113  of  1951
     total cpu time spent up to now is     1763.0 secs

     Computing kpt #:  1114  of  1951
     total cpu time spent up to now is     1764.6 secs

     Computing kpt #:  1115  of  1951
     total cpu time spent up to now is     1766.0 secs

     Computing kpt #:  1116  of  1951
     total cpu time spent up to now is     1767.4 secs

     Computing kpt #:  1117  of  1951
     total cpu time spent up to now is     1768.7 secs

     Computing kpt #:  1118  of  1951
     total cpu time spent up to now is     1770.2 secs

     Computing kpt #:  1119  of  1951
     total cpu time spent up to now is     1771.6 secs

     Computing kpt #:  1120  of  1951
     total cpu time spent up to now is     1773.0 secs

     Computing kpt #:  1121  of  1951
     total cpu time spent up to now is     1774.3 secs

     Computing kpt #:  1122  of  1951
     total cpu time spent up to now is     1775.6 secs

     Computing kpt #:  1123  of  1951
     total cpu time spent up to now is     1776.9 secs

     Computing kpt #:  1124  of  1951
     total cpu time spent up to now is     1778.3 secs

     Computing kpt #:  1125  of  1951
     total cpu time spent up to now is     1779.5 secs

     Computing kpt #:  1126  of  1951
     total cpu time spent up to now is     1781.0 secs

     Computing kpt #:  1127  of  1951
     total cpu time spent up to now is     1782.4 secs

     Computing kpt #:  1128  of  1951
     total cpu time spent up to now is     1783.8 secs

     Computing kpt #:  1129  of  1951
     total cpu time spent up to now is     1785.1 secs

     Computing kpt #:  1130  of  1951
     total cpu time spent up to now is     1786.7 secs

     Computing kpt #:  1131  of  1951
     total cpu time spent up to now is     1788.0 secs

     Computing kpt #:  1132  of  1951
     total cpu time spent up to now is     1789.7 secs

     Computing kpt #:  1133  of  1951
     c_bands:  1 eigenvalues not converged
     total cpu time spent up to now is     1791.4 secs

     Computing kpt #:  1134  of  1951
     c_bands:  1 eigenvalues not converged
     total cpu time spent up to now is     1793.1 secs

     Computing kpt #:  1135  of  1951
     c_bands:  1 eigenvalues not converged
     total cpu time spent up to now is     1794.9 secs

     Computing kpt #:  1136  of  1951
     c_bands:  1 eigenvalues not converged
     total cpu time spent up to now is     1796.7 secs

     Computing kpt #:  1137  of  1951
     c_bands:  1 eigenvalues not converged
     total cpu time spent up to now is     1798.6 secs

     Computing kpt #:  1138  of  1951
     total cpu time spent up to now is     1800.4 secs

     Computing kpt #:  1139  of  1951
     total cpu time spent up to now is     1801.8 secs

     Computing kpt #:  1140  of  1951
     total cpu time spent up to now is     1803.5 secs

     Computing kpt #:  1141  of  1951
     total cpu time spent up to now is     1804.9 secs

     Computing kpt #:  1142  of  1951
     total cpu time spent up to now is     1806.3 secs

     Computing kpt #:  1143  of  1951
     total cpu time spent up to now is     1807.8 secs

     Computing kpt #:  1144  of  1951
     total cpu time spent up to now is     1809.3 secs

     Computing kpt #:  1145  of  1951
     total cpu time spent up to now is     1810.7 secs

     Computing kpt #:  1146  of  1951
     total cpu time spent up to now is     1812.2 secs

     Computing kpt #:  1147  of  1951
     total cpu time spent up to now is     1813.6 secs

     Computing kpt #:  1148  of  1951
     total cpu time spent up to now is     1815.0 secs

     Computing kpt #:  1149  of  1951
     total cpu time spent up to now is     1816.4 secs

     Computing kpt #:  1150  of  1951
     total cpu time spent up to now is     1817.8 secs

     Computing kpt #:  1151  of  1951
     total cpu time spent up to now is     1819.4 secs

     Computing kpt #:  1152  of  1951
     total cpu time spent up to now is     1820.8 secs

     Computing kpt #:  1153  of  1951
     total cpu time spent up to now is     1822.5 secs

     Computing kpt #:  1154  of  1951
     total cpu time spent up to now is     1824.1 secs

     Computing kpt #:  1155  of  1951
     total cpu time spent up to now is     1825.7 secs

     Computing kpt #:  1156  of  1951
     total cpu time spent up to now is     1827.3 secs

     Computing kpt #:  1157  of  1951
     total cpu time spent up to now is     1829.0 secs

     Computing kpt #:  1158  of  1951
     c_bands:  1 eigenvalues not converged
     total cpu time spent up to now is     1830.8 secs

     Computing kpt #:  1159  of  1951
     c_bands:  1 eigenvalues not converged
     total cpu time spent up to now is     1832.7 secs

     Computing kpt #:  1160  of  1951
     total cpu time spent up to now is     1834.4 secs

     Computing kpt #:  1161  of  1951
     total cpu time spent up to now is     1836.1 secs

     Computing kpt #:  1162  of  1951
     total cpu time spent up to now is     1837.6 secs

     Computing kpt #:  1163  of  1951
     total cpu time spent up to now is     1839.3 secs

     Computing kpt #:  1164  of  1951
     total cpu time spent up to now is     1840.8 secs

     Computing kpt #:  1165  of  1951
     total cpu time spent up to now is     1842.2 secs

     Computing kpt #:  1166  of  1951
     total cpu time spent up to now is     1843.5 secs

     Computing kpt #:  1167  of  1951
     total cpu time spent up to now is     1844.9 secs

     Computing kpt #:  1168  of  1951
     total cpu time spent up to now is     1846.3 secs

     Computing kpt #:  1169  of  1951
     total cpu time spent up to now is     1847.6 secs

     Computing kpt #:  1170  of  1951
     total cpu time spent up to now is     1848.9 secs

     Computing kpt #:  1171  of  1951
     total cpu time spent up to now is     1850.2 secs

     Computing kpt #:  1172  of  1951
     total cpu time spent up to now is     1851.6 secs

     Computing kpt #:  1173  of  1951
     total cpu time spent up to now is     1852.9 secs

     Computing kpt #:  1174  of  1951
     total cpu time spent up to now is     1854.3 secs

     Computing kpt #:  1175  of  1951
     total cpu time spent up to now is     1855.6 secs

     Computing kpt #:  1176  of  1951
     total cpu time spent up to now is     1856.8 secs

     Computing kpt #:  1177  of  1951
     total cpu time spent up to now is     1858.2 secs

     Computing kpt #:  1178  of  1951
     total cpu time spent up to now is     1859.6 secs

     Computing kpt #:  1179  of  1951
     total cpu time spent up to now is     1860.9 secs

     Computing kpt #:  1180  of  1951
     total cpu time spent up to now is     1862.4 secs

     Computing kpt #:  1181  of  1951
     total cpu time spent up to now is     1864.0 secs

     Computing kpt #:  1182  of  1951
     c_bands:  1 eigenvalues not converged
     total cpu time spent up to now is     1865.6 secs

     Computing kpt #:  1183  of  1951
     c_bands:  1 eigenvalues not converged
     total cpu time spent up to now is     1867.3 secs

     Computing kpt #:  1184  of  1951
     total cpu time spent up to now is     1869.0 secs

     Computing kpt #:  1185  of  1951
     total cpu time spent up to now is     1870.6 secs

     Computing kpt #:  1186  of  1951
     total cpu time spent up to now is     1872.1 secs

     Computing kpt #:  1187  of  1951
     total cpu time spent up to now is     1873.6 secs

     Computing kpt #:  1188  of  1951
     total cpu time spent up to now is     1875.0 secs

     Computing kpt #:  1189  of  1951
     total cpu time spent up to now is     1876.5 secs

     Computing kpt #:  1190  of  1951
     total cpu time spent up to now is     1878.0 secs

     Computing kpt #:  1191  of  1951
     total cpu time spent up to now is     1879.5 secs

     Computing kpt #:  1192  of  1951
     total cpu time spent up to now is     1881.1 secs

     Computing kpt #:  1193  of  1951
     total cpu time spent up to now is     1882.5 secs

     Computing kpt #:  1194  of  1951
     total cpu time spent up to now is     1883.9 secs

     Computing kpt #:  1195  of  1951
     total cpu time spent up to now is     1885.5 secs

     Computing kpt #:  1196  of  1951
     total cpu time spent up to now is     1887.0 secs

     Computing kpt #:  1197  of  1951
     total cpu time spent up to now is     1888.3 secs

     Computing kpt #:  1198  of  1951
     total cpu time spent up to now is     1889.8 secs

     Computing kpt #:  1199  of  1951
     total cpu time spent up to now is     1891.1 secs

     Computing kpt #:  1200  of  1951
     total cpu time spent up to now is     1892.5 secs

     Computing kpt #:  1201  of  1951
     total cpu time spent up to now is     1894.0 secs

     Computing kpt #:  1202  of  1951
     total cpu time spent up to now is     1895.6 secs

     Computing kpt #:  1203  of  1951
     total cpu time spent up to now is     1896.9 secs

     Computing kpt #:  1204  of  1951
     total cpu time spent up to now is     1898.6 secs

     Computing kpt #:  1205  of  1951
     total cpu time spent up to now is     1900.1 secs

     Computing kpt #:  1206  of  1951
     c_bands:  1 eigenvalues not converged
     total cpu time spent up to now is     1901.8 secs

     Computing kpt #:  1207  of  1951
     c_bands:  1 eigenvalues not converged
     total cpu time spent up to now is     1903.4 secs

     Computing kpt #:  1208  of  1951
     c_bands:  1 eigenvalues not converged
     total cpu time spent up to now is     1905.3 secs

     Computing kpt #:  1209  of  1951
     total cpu time spent up to now is     1906.9 secs

     Computing kpt #:  1210  of  1951
     total cpu time spent up to now is     1908.4 secs

     Computing kpt #:  1211  of  1951
     total cpu time spent up to now is     1910.1 secs

     Computing kpt #:  1212  of  1951
     total cpu time spent up to now is     1911.6 secs

     Computing kpt #:  1213  of  1951
     total cpu time spent up to now is     1913.0 secs

     Computing kpt #:  1214  of  1951
     total cpu time spent up to now is     1914.5 secs

     Computing kpt #:  1215  of  1951
     total cpu time spent up to now is     1915.8 secs

     Computing kpt #:  1216  of  1951
     total cpu time spent up to now is     1917.1 secs

     Computing kpt #:  1217  of  1951
     total cpu time spent up to now is     1918.6 secs

     Computing kpt #:  1218  of  1951
     total cpu time spent up to now is     1920.0 secs

     Computing kpt #:  1219  of  1951
     total cpu time spent up to now is     1921.4 secs

     Computing kpt #:  1220  of  1951
     total cpu time spent up to now is     1922.8 secs

     Computing kpt #:  1221  of  1951
     total cpu time spent up to now is     1924.2 secs

     Computing kpt #:  1222  of  1951
     total cpu time spent up to now is     1925.6 secs

     Computing kpt #:  1223  of  1951
     total cpu time spent up to now is     1927.0 secs

     Computing kpt #:  1224  of  1951
     total cpu time spent up to now is     1928.3 secs

     Computing kpt #:  1225  of  1951
     total cpu time spent up to now is     1929.5 secs

     Computing kpt #:  1226  of  1951
     total cpu time spent up to now is     1930.8 secs

     Computing kpt #:  1227  of  1951
     total cpu time spent up to now is     1932.1 secs

     Computing kpt #:  1228  of  1951
     total cpu time spent up to now is     1933.5 secs

     Computing kpt #:  1229  of  1951
     c_bands:  1 eigenvalues not converged
     total cpu time spent up to now is     1935.2 secs

     Computing kpt #:  1230  of  1951
     c_bands:  1 eigenvalues not converged
     total cpu time spent up to now is     1936.9 secs

     Computing kpt #:  1231  of  1951
     total cpu time spent up to now is     1938.6 secs

     Computing kpt #:  1232  of  1951
     total cpu time spent up to now is     1940.1 secs

     Computing kpt #:  1233  of  1951
     total cpu time spent up to now is     1941.7 secs

     Computing kpt #:  1234  of  1951
     total cpu time spent up to now is     1943.2 secs

     Computing kpt #:  1235  of  1951
     total cpu time spent up to now is     1944.6 secs

     Computing kpt #:  1236  of  1951
     total cpu time spent up to now is     1946.1 secs

     Computing kpt #:  1237  of  1951
     total cpu time spent up to now is     1947.7 secs

     Computing kpt #:  1238  of  1951
     total cpu time spent up to now is     1949.3 secs

     Computing kpt #:  1239  of  1951
     total cpu time spent up to now is     1950.8 secs

     Computing kpt #:  1240  of  1951
     total cpu time spent up to now is     1952.2 secs

     Computing kpt #:  1241  of  1951
     total cpu time spent up to now is     1953.8 secs

     Computing kpt #:  1242  of  1951
     total cpu time spent up to now is     1955.4 secs

     Computing kpt #:  1243  of  1951
     total cpu time spent up to now is     1956.7 secs

     Computing kpt #:  1244  of  1951
     total cpu time spent up to now is     1958.2 secs

     Computing kpt #:  1245  of  1951
     total cpu time spent up to now is     1959.5 secs

     Computing kpt #:  1246  of  1951
     total cpu time spent up to now is     1960.9 secs

     Computing kpt #:  1247  of  1951
     total cpu time spent up to now is     1962.5 secs

     Computing kpt #:  1248  of  1951
     total cpu time spent up to now is     1964.1 secs

     Computing kpt #:  1249  of  1951
     total cpu time spent up to now is     1965.7 secs

     Computing kpt #:  1250  of  1951
     total cpu time spent up to now is     1967.3 secs

     Computing kpt #:  1251  of  1951
     total cpu time spent up to now is     1969.1 secs

     Computing kpt #:  1252  of  1951
     total cpu time spent up to now is     1970.9 secs

     Computing kpt #:  1253  of  1951
     total cpu time spent up to now is     1972.4 secs

     Computing kpt #:  1254  of  1951
     c_bands:  1 eigenvalues not converged
     total cpu time spent up to now is     1974.2 secs

     Computing kpt #:  1255  of  1951
     total cpu time spent up to now is     1976.0 secs

     Computing kpt #:  1256  of  1951
     total cpu time spent up to now is     1977.5 secs

     Computing kpt #:  1257  of  1951
     total cpu time spent up to now is     1979.1 secs

     Computing kpt #:  1258  of  1951
     total cpu time spent up to now is     1980.7 secs

     Computing kpt #:  1259  of  1951
     total cpu time spent up to now is     1982.1 secs

     Computing kpt #:  1260  of  1951
     total cpu time spent up to now is     1983.6 secs

     Computing kpt #:  1261  of  1951
     total cpu time spent up to now is     1985.1 secs

     Computing kpt #:  1262  of  1951
     total cpu time spent up to now is     1986.5 secs

     Computing kpt #:  1263  of  1951
     total cpu time spent up to now is     1987.8 secs

     Computing kpt #:  1264  of  1951
     total cpu time spent up to now is     1989.1 secs

     Computing kpt #:  1265  of  1951
     total cpu time spent up to now is     1990.5 secs

     Computing kpt #:  1266  of  1951
     total cpu time spent up to now is     1991.8 secs

     Computing kpt #:  1267  of  1951
     total cpu time spent up to now is     1993.2 secs

     Computing kpt #:  1268  of  1951
     total cpu time spent up to now is     1994.5 secs

     Computing kpt #:  1269  of  1951
     total cpu time spent up to now is     1995.8 secs

     Computing kpt #:  1270  of  1951
     total cpu time spent up to now is     1997.0 secs

     Computing kpt #:  1271  of  1951
     total cpu time spent up to now is     1998.3 secs

     Computing kpt #:  1272  of  1951
     total cpu time spent up to now is     1999.7 secs

     Computing kpt #:  1273  of  1951
     total cpu time spent up to now is     2001.1 secs

     Computing kpt #:  1274  of  1951
     total cpu time spent up to now is     2002.7 secs

     Computing kpt #:  1275  of  1951
     c_bands:  1 eigenvalues not converged
     total cpu time spent up to now is     2004.4 secs

     Computing kpt #:  1276  of  1951
     c_bands:  2 eigenvalues not converged
     total cpu time spent up to now is     2006.2 secs

     Computing kpt #:  1277  of  1951
     total cpu time spent up to now is     2007.7 secs

     Computing kpt #:  1278  of  1951
     total cpu time spent up to now is     2009.1 secs

     Computing kpt #:  1279  of  1951
     total cpu time spent up to now is     2010.7 secs

     Computing kpt #:  1280  of  1951
     total cpu time spent up to now is     2012.1 secs

     Computing kpt #:  1281  of  1951
     total cpu time spent up to now is     2013.5 secs

     Computing kpt #:  1282  of  1951
     total cpu time spent up to now is     2014.9 secs

     Computing kpt #:  1283  of  1951
     total cpu time spent up to now is     2016.3 secs

     Computing kpt #:  1284  of  1951
     total cpu time spent up to now is     2017.6 secs

     Computing kpt #:  1285  of  1951
     total cpu time spent up to now is     2019.2 secs

     Computing kpt #:  1286  of  1951
     total cpu time spent up to now is     2020.7 secs

     Computing kpt #:  1287  of  1951
     total cpu time spent up to now is     2022.2 secs

     Computing kpt #:  1288  of  1951
     total cpu time spent up to now is     2023.6 secs

     Computing kpt #:  1289  of  1951
     total cpu time spent up to now is     2025.2 secs

     Computing kpt #:  1290  of  1951
     total cpu time spent up to now is     2026.8 secs

     Computing kpt #:  1291  of  1951
     total cpu time spent up to now is     2028.2 secs

     Computing kpt #:  1292  of  1951
     total cpu time spent up to now is     2029.6 secs

     Computing kpt #:  1293  of  1951
     total cpu time spent up to now is     2031.0 secs

     Computing kpt #:  1294  of  1951
     total cpu time spent up to now is     2032.6 secs

     Computing kpt #:  1295  of  1951
     total cpu time spent up to now is     2034.1 secs

     Computing kpt #:  1296  of  1951
     total cpu time spent up to now is     2035.9 secs

     Computing kpt #:  1297  of  1951
     c_bands:  1 eigenvalues not converged
     total cpu time spent up to now is     2037.7 secs

     Computing kpt #:  1298  of  1951
     c_bands:  1 eigenvalues not converged
     total cpu time spent up to now is     2039.5 secs

     Computing kpt #:  1299  of  1951
     c_bands:  1 eigenvalues not converged
     total cpu time spent up to now is     2041.4 secs

     Computing kpt #:  1300  of  1951
     c_bands:  1 eigenvalues not converged
     total cpu time spent up to now is     2043.3 secs

     Computing kpt #:  1301  of  1951
     total cpu time spent up to now is     2044.9 secs

     Computing kpt #:  1302  of  1951
     total cpu time spent up to now is     2046.3 secs

     Computing kpt #:  1303  of  1951
     total cpu time spent up to now is     2047.9 secs

     Computing kpt #:  1304  of  1951
     total cpu time spent up to now is     2049.3 secs

     Computing kpt #:  1305  of  1951
     total cpu time spent up to now is     2050.8 secs

     Computing kpt #:  1306  of  1951
     total cpu time spent up to now is     2052.3 secs

     Computing kpt #:  1307  of  1951
     total cpu time spent up to now is     2053.6 secs

     Computing kpt #:  1308  of  1951
     total cpu time spent up to now is     2054.9 secs

     Computing kpt #:  1309  of  1951
     total cpu time spent up to now is     2056.3 secs

     Computing kpt #:  1310  of  1951
     total cpu time spent up to now is     2057.7 secs

     Computing kpt #:  1311  of  1951
     total cpu time spent up to now is     2059.0 secs

     Computing kpt #:  1312  of  1951
     total cpu time spent up to now is     2060.4 secs

     Computing kpt #:  1313  of  1951
     total cpu time spent up to now is     2061.7 secs

     Computing kpt #:  1314  of  1951
     total cpu time spent up to now is     2063.0 secs

     Computing kpt #:  1315  of  1951
     total cpu time spent up to now is     2064.3 secs

     Computing kpt #:  1316  of  1951
     total cpu time spent up to now is     2065.5 secs

     Computing kpt #:  1317  of  1951
     total cpu time spent up to now is     2066.8 secs

     Computing kpt #:  1318  of  1951
     total cpu time spent up to now is     2068.2 secs

     Computing kpt #:  1319  of  1951
     total cpu time spent up to now is     2069.9 secs

     Computing kpt #:  1320  of  1951
     c_bands:  1 eigenvalues not converged
     total cpu time spent up to now is     2071.6 secs

     Computing kpt #:  1321  of  1951
     total cpu time spent up to now is     2073.1 secs

     Computing kpt #:  1322  of  1951
     total cpu time spent up to now is     2074.5 secs

     Computing kpt #:  1323  of  1951
     total cpu time spent up to now is     2076.0 secs

     Computing kpt #:  1324  of  1951
     total cpu time spent up to now is     2077.4 secs

     Computing kpt #:  1325  of  1951
     total cpu time spent up to now is     2078.8 secs

     Computing kpt #:  1326  of  1951
     total cpu time spent up to now is     2080.3 secs

     Computing kpt #:  1327  of  1951
     total cpu time spent up to now is     2081.8 secs

     Computing kpt #:  1328  of  1951
     total cpu time spent up to now is     2083.4 secs

     Computing kpt #:  1329  of  1951
     total cpu time spent up to now is     2084.8 secs

     Computing kpt #:  1330  of  1951
     total cpu time spent up to now is     2086.3 secs

     Computing kpt #:  1331  of  1951
     total cpu time spent up to now is     2087.8 secs

     Computing kpt #:  1332  of  1951
     total cpu time spent up to now is     2089.5 secs

     Computing kpt #:  1333  of  1951
     total cpu time spent up to now is     2091.0 secs

     Computing kpt #:  1334  of  1951
     total cpu time spent up to now is     2092.5 secs

     Computing kpt #:  1335  of  1951
     total cpu time spent up to now is     2094.2 secs

     Computing kpt #:  1336  of  1951
     total cpu time spent up to now is     2095.9 secs

     Computing kpt #:  1337  of  1951
     total cpu time spent up to now is     2097.4 secs

     Computing kpt #:  1338  of  1951
     total cpu time spent up to now is     2098.9 secs

     Computing kpt #:  1339  of  1951
     total cpu time spent up to now is     2100.5 secs

     Computing kpt #:  1340  of  1951
     c_bands:  1 eigenvalues not converged
     total cpu time spent up to now is     2102.3 secs

     Computing kpt #:  1341  of  1951
     c_bands:  1 eigenvalues not converged
     total cpu time spent up to now is     2104.0 secs

     Computing kpt #:  1342  of  1951
     total cpu time spent up to now is     2105.7 secs

     Computing kpt #:  1343  of  1951
     total cpu time spent up to now is     2107.2 secs

     Computing kpt #:  1344  of  1951
     total cpu time spent up to now is     2108.6 secs

     Computing kpt #:  1345  of  1951
     total cpu time spent up to now is     2110.2 secs

     Computing kpt #:  1346  of  1951
     total cpu time spent up to now is     2111.7 secs

     Computing kpt #:  1347  of  1951
     total cpu time spent up to now is     2113.0 secs

     Computing kpt #:  1348  of  1951
     total cpu time spent up to now is     2114.6 secs

     Computing kpt #:  1349  of  1951
     total cpu time spent up to now is     2115.9 secs

     Computing kpt #:  1350  of  1951
     total cpu time spent up to now is     2117.3 secs

     Computing kpt #:  1351  of  1951
     total cpu time spent up to now is     2118.7 secs

     Computing kpt #:  1352  of  1951
     total cpu time spent up to now is     2120.1 secs

     Computing kpt #:  1353  of  1951
     total cpu time spent up to now is     2121.5 secs

     Computing kpt #:  1354  of  1951
     total cpu time spent up to now is     2122.8 secs

     Computing kpt #:  1355  of  1951
     total cpu time spent up to now is     2124.1 secs

     Computing kpt #:  1356  of  1951
     total cpu time spent up to now is     2125.4 secs

     Computing kpt #:  1357  of  1951
     total cpu time spent up to now is     2126.7 secs

     Computing kpt #:  1358  of  1951
     total cpu time spent up to now is     2128.1 secs

     Computing kpt #:  1359  of  1951
     total cpu time spent up to now is     2129.5 secs

     Computing kpt #:  1360  of  1951
     total cpu time spent up to now is     2130.9 secs

     Computing kpt #:  1361  of  1951
     total cpu time spent up to now is     2132.2 secs

     Computing kpt #:  1362  of  1951
     total cpu time spent up to now is     2133.8 secs

     Computing kpt #:  1363  of  1951
     c_bands:  2 eigenvalues not converged
     total cpu time spent up to now is     2135.6 secs

     Computing kpt #:  1364  of  1951
     total cpu time spent up to now is     2137.1 secs

     Computing kpt #:  1365  of  1951
     total cpu time spent up to now is     2138.5 secs

     Computing kpt #:  1366  of  1951
     total cpu time spent up to now is     2140.0 secs

     Computing kpt #:  1367  of  1951
     total cpu time spent up to now is     2141.5 secs

     Computing kpt #:  1368  of  1951
     total cpu time spent up to now is     2143.0 secs

     Computing kpt #:  1369  of  1951
     total cpu time spent up to now is     2144.2 secs

     Computing kpt #:  1370  of  1951
     total cpu time spent up to now is     2145.9 secs

     Computing kpt #:  1371  of  1951
     total cpu time spent up to now is     2147.4 secs

     Computing kpt #:  1372  of  1951
     total cpu time spent up to now is     2148.8 secs

     Computing kpt #:  1373  of  1951
     total cpu time spent up to now is     2150.3 secs

     Computing kpt #:  1374  of  1951
     total cpu time spent up to now is     2151.8 secs

     Computing kpt #:  1375  of  1951
     total cpu time spent up to now is     2153.2 secs

     Computing kpt #:  1376  of  1951
     total cpu time spent up to now is     2154.6 secs

     Computing kpt #:  1377  of  1951
     total cpu time spent up to now is     2156.1 secs

     Computing kpt #:  1378  of  1951
     total cpu time spent up to now is     2157.5 secs

     Computing kpt #:  1379  of  1951
     total cpu time spent up to now is     2159.0 secs

     Computing kpt #:  1380  of  1951
     total cpu time spent up to now is     2160.6 secs

     Computing kpt #:  1381  of  1951
     total cpu time spent up to now is     2162.2 secs

     Computing kpt #:  1382  of  1951
     total cpu time spent up to now is     2163.8 secs

     Computing kpt #:  1383  of  1951
     total cpu time spent up to now is     2165.6 secs

     Computing kpt #:  1384  of  1951
     c_bands:  1 eigenvalues not converged
     total cpu time spent up to now is     2167.2 secs

     Computing kpt #:  1385  of  1951
     total cpu time spent up to now is     2168.7 secs

     Computing kpt #:  1386  of  1951
     total cpu time spent up to now is     2170.3 secs

     Computing kpt #:  1387  of  1951
     total cpu time spent up to now is     2172.0 secs

     Computing kpt #:  1388  of  1951
     total cpu time spent up to now is     2173.5 secs

     Computing kpt #:  1389  of  1951
     total cpu time spent up to now is     2174.9 secs

     Computing kpt #:  1390  of  1951
     total cpu time spent up to now is     2176.3 secs

     Computing kpt #:  1391  of  1951
     total cpu time spent up to now is     2177.6 secs

     Computing kpt #:  1392  of  1951
     total cpu time spent up to now is     2179.0 secs

     Computing kpt #:  1393  of  1951
     total cpu time spent up to now is     2180.4 secs

     Computing kpt #:  1394  of  1951
     total cpu time spent up to now is     2181.8 secs

     Computing kpt #:  1395  of  1951
     total cpu time spent up to now is     2183.1 secs

     Computing kpt #:  1396  of  1951
     total cpu time spent up to now is     2184.4 secs

     Computing kpt #:  1397  of  1951
     total cpu time spent up to now is     2185.7 secs

     Computing kpt #:  1398  of  1951
     total cpu time spent up to now is     2187.0 secs

     Computing kpt #:  1399  of  1951
     total cpu time spent up to now is     2188.4 secs

     Computing kpt #:  1400  of  1951
     total cpu time spent up to now is     2189.7 secs

     Computing kpt #:  1401  of  1951
     total cpu time spent up to now is     2191.2 secs

     Computing kpt #:  1402  of  1951
     total cpu time spent up to now is     2192.9 secs

     Computing kpt #:  1403  of  1951
     total cpu time spent up to now is     2194.8 secs

     Computing kpt #:  1404  of  1951
     c_bands:  2 eigenvalues not converged
     total cpu time spent up to now is     2196.8 secs

     Computing kpt #:  1405  of  1951
     total cpu time spent up to now is     2198.4 secs

     Computing kpt #:  1406  of  1951
     total cpu time spent up to now is     2200.0 secs

     Computing kpt #:  1407  of  1951
     total cpu time spent up to now is     2201.6 secs

     Computing kpt #:  1408  of  1951
     total cpu time spent up to now is     2203.3 secs

     Computing kpt #:  1409  of  1951
     total cpu time spent up to now is     2204.7 secs

     Computing kpt #:  1410  of  1951
     total cpu time spent up to now is     2206.2 secs

     Computing kpt #:  1411  of  1951
     total cpu time spent up to now is     2207.6 secs

     Computing kpt #:  1412  of  1951
     total cpu time spent up to now is     2209.0 secs

     Computing kpt #:  1413  of  1951
     total cpu time spent up to now is     2210.5 secs

     Computing kpt #:  1414  of  1951
     total cpu time spent up to now is     2212.0 secs

     Computing kpt #:  1415  of  1951
     total cpu time spent up to now is     2213.4 secs

     Computing kpt #:  1416  of  1951
     total cpu time spent up to now is     2214.8 secs

     Computing kpt #:  1417  of  1951
     total cpu time spent up to now is     2216.3 secs

     Computing kpt #:  1418  of  1951
     total cpu time spent up to now is     2217.7 secs

     Computing kpt #:  1419  of  1951
     total cpu time spent up to now is     2219.1 secs

     Computing kpt #:  1420  of  1951
     total cpu time spent up to now is     2220.8 secs

     Computing kpt #:  1421  of  1951
     total cpu time spent up to now is     2222.5 secs

     Computing kpt #:  1422  of  1951
     total cpu time spent up to now is     2224.1 secs

     Computing kpt #:  1423  of  1951
     c_bands:  1 eigenvalues not converged
     total cpu time spent up to now is     2225.8 secs

     Computing kpt #:  1424  of  1951
     c_bands:  1 eigenvalues not converged
     total cpu time spent up to now is     2227.5 secs

     Computing kpt #:  1425  of  1951
     total cpu time spent up to now is     2229.1 secs

     Computing kpt #:  1426  of  1951
     total cpu time spent up to now is     2230.9 secs

     Computing kpt #:  1427  of  1951
     total cpu time spent up to now is     2232.5 secs

     Computing kpt #:  1428  of  1951
     total cpu time spent up to now is     2234.0 secs

     Computing kpt #:  1429  of  1951
     total cpu time spent up to now is     2235.4 secs

     Computing kpt #:  1430  of  1951
     total cpu time spent up to now is     2236.7 secs

     Computing kpt #:  1431  of  1951
     total cpu time spent up to now is     2238.2 secs

     Computing kpt #:  1432  of  1951
     total cpu time spent up to now is     2239.5 secs

     Computing kpt #:  1433  of  1951
     total cpu time spent up to now is     2240.8 secs

     Computing kpt #:  1434  of  1951
     total cpu time spent up to now is     2242.3 secs

     Computing kpt #:  1435  of  1951
     total cpu time spent up to now is     2243.7 secs

     Computing kpt #:  1436  of  1951
     total cpu time spent up to now is     2245.2 secs

     Computing kpt #:  1437  of  1951
     total cpu time spent up to now is     2246.6 secs

     Computing kpt #:  1438  of  1951
     total cpu time spent up to now is     2248.0 secs

     Computing kpt #:  1439  of  1951
     total cpu time spent up to now is     2249.4 secs

     Computing kpt #:  1440  of  1951
     total cpu time spent up to now is     2250.8 secs

     Computing kpt #:  1441  of  1951
     total cpu time spent up to now is     2252.2 secs

     Computing kpt #:  1442  of  1951
     total cpu time spent up to now is     2253.7 secs

     Computing kpt #:  1443  of  1951
     total cpu time spent up to now is     2255.3 secs

     Computing kpt #:  1444  of  1951
     total cpu time spent up to now is     2256.9 secs

     Computing kpt #:  1445  of  1951
     total cpu time spent up to now is     2258.3 secs

     Computing kpt #:  1446  of  1951
     total cpu time spent up to now is     2259.7 secs

     Computing kpt #:  1447  of  1951
     total cpu time spent up to now is     2261.1 secs

     Computing kpt #:  1448  of  1951
     total cpu time spent up to now is     2262.5 secs

     Computing kpt #:  1449  of  1951
     total cpu time spent up to now is     2264.0 secs

     Computing kpt #:  1450  of  1951
     total cpu time spent up to now is     2265.3 secs

     Computing kpt #:  1451  of  1951
     total cpu time spent up to now is     2266.8 secs

     Computing kpt #:  1452  of  1951
     total cpu time spent up to now is     2268.2 secs

     Computing kpt #:  1453  of  1951
     total cpu time spent up to now is     2269.6 secs

     Computing kpt #:  1454  of  1951
     total cpu time spent up to now is     2271.1 secs

     Computing kpt #:  1455  of  1951
     total cpu time spent up to now is     2272.6 secs

     Computing kpt #:  1456  of  1951
     total cpu time spent up to now is     2274.2 secs

     Computing kpt #:  1457  of  1951
     total cpu time spent up to now is     2275.6 secs

     Computing kpt #:  1458  of  1951
     total cpu time spent up to now is     2277.1 secs

     Computing kpt #:  1459  of  1951
     total cpu time spent up to now is     2278.6 secs

     Computing kpt #:  1460  of  1951
     total cpu time spent up to now is     2280.1 secs

     Computing kpt #:  1461  of  1951
     total cpu time spent up to now is     2281.7 secs

     Computing kpt #:  1462  of  1951
     c_bands:  1 eigenvalues not converged
     total cpu time spent up to now is     2283.3 secs

     Computing kpt #:  1463  of  1951
     c_bands:  1 eigenvalues not converged
     total cpu time spent up to now is     2285.1 secs

     Computing kpt #:  1464  of  1951
     total cpu time spent up to now is     2286.7 secs

     Computing kpt #:  1465  of  1951
     total cpu time spent up to now is     2288.3 secs

     Computing kpt #:  1466  of  1951
     total cpu time spent up to now is     2289.8 secs

     Computing kpt #:  1467  of  1951
     total cpu time spent up to now is     2291.2 secs

     Computing kpt #:  1468  of  1951
     total cpu time spent up to now is     2292.5 secs

     Computing kpt #:  1469  of  1951
     total cpu time spent up to now is     2293.9 secs

     Computing kpt #:  1470  of  1951
     total cpu time spent up to now is     2295.3 secs

     Computing kpt #:  1471  of  1951
     total cpu time spent up to now is     2296.6 secs

     Computing kpt #:  1472  of  1951
     total cpu time spent up to now is     2297.9 secs

     Computing kpt #:  1473  of  1951
     total cpu time spent up to now is     2299.2 secs

     Computing kpt #:  1474  of  1951
     total cpu time spent up to now is     2300.6 secs

     Computing kpt #:  1475  of  1951
     total cpu time spent up to now is     2301.9 secs

     Computing kpt #:  1476  of  1951
     total cpu time spent up to now is     2303.3 secs

     Computing kpt #:  1477  of  1951
     total cpu time spent up to now is     2304.6 secs

     Computing kpt #:  1478  of  1951
     total cpu time spent up to now is     2306.0 secs

     Computing kpt #:  1479  of  1951
     total cpu time spent up to now is     2307.4 secs

     Computing kpt #:  1480  of  1951
     total cpu time spent up to now is     2308.7 secs

     Computing kpt #:  1481  of  1951
     total cpu time spent up to now is     2310.1 secs

     Computing kpt #:  1482  of  1951
     total cpu time spent up to now is     2311.9 secs

     Computing kpt #:  1483  of  1951
     total cpu time spent up to now is     2313.2 secs

     Computing kpt #:  1484  of  1951
     total cpu time spent up to now is     2314.7 secs

     Computing kpt #:  1485  of  1951
     total cpu time spent up to now is     2316.3 secs

     Computing kpt #:  1486  of  1951
     total cpu time spent up to now is     2317.8 secs

     Computing kpt #:  1487  of  1951
     total cpu time spent up to now is     2319.2 secs

     Computing kpt #:  1488  of  1951
     total cpu time spent up to now is     2320.6 secs

     Computing kpt #:  1489  of  1951
     total cpu time spent up to now is     2322.1 secs

     Computing kpt #:  1490  of  1951
     total cpu time spent up to now is     2323.5 secs

     Computing kpt #:  1491  of  1951
     total cpu time spent up to now is     2325.0 secs

     Computing kpt #:  1492  of  1951
     total cpu time spent up to now is     2326.5 secs

     Computing kpt #:  1493  of  1951
     total cpu time spent up to now is     2327.9 secs

     Computing kpt #:  1494  of  1951
     total cpu time spent up to now is     2329.4 secs

     Computing kpt #:  1495  of  1951
     total cpu time spent up to now is     2330.9 secs

     Computing kpt #:  1496  of  1951
     total cpu time spent up to now is     2332.5 secs

     Computing kpt #:  1497  of  1951
     total cpu time spent up to now is     2334.2 secs

     Computing kpt #:  1498  of  1951
     total cpu time spent up to now is     2335.6 secs

     Computing kpt #:  1499  of  1951
     c_bands:  1 eigenvalues not converged
     total cpu time spent up to now is     2337.3 secs

     Computing kpt #:  1500  of  1951
     c_bands:  1 eigenvalues not converged
     total cpu time spent up to now is     2339.0 secs

     Computing kpt #:  1501  of  1951
     total cpu time spent up to now is     2340.9 secs

     Computing kpt #:  1502  of  1951
     total cpu time spent up to now is     2342.8 secs

     Computing kpt #:  1503  of  1951
     total cpu time spent up to now is     2344.2 secs

     Computing kpt #:  1504  of  1951
     total cpu time spent up to now is     2345.7 secs

     Computing kpt #:  1505  of  1951
     total cpu time spent up to now is     2347.1 secs

     Computing kpt #:  1506  of  1951
     total cpu time spent up to now is     2348.4 secs

     Computing kpt #:  1507  of  1951
     total cpu time spent up to now is     2349.7 secs

     Computing kpt #:  1508  of  1951
     total cpu time spent up to now is     2351.1 secs

     Computing kpt #:  1509  of  1951
     total cpu time spent up to now is     2352.5 secs

     Computing kpt #:  1510  of  1951
     total cpu time spent up to now is     2353.9 secs

     Computing kpt #:  1511  of  1951
     total cpu time spent up to now is     2355.1 secs

     Computing kpt #:  1512  of  1951
     total cpu time spent up to now is     2356.6 secs

     Computing kpt #:  1513  of  1951
     total cpu time spent up to now is     2358.0 secs

     Computing kpt #:  1514  of  1951
     total cpu time spent up to now is     2359.3 secs

     Computing kpt #:  1515  of  1951
     total cpu time spent up to now is     2360.8 secs

     Computing kpt #:  1516  of  1951
     total cpu time spent up to now is     2362.2 secs

     Computing kpt #:  1517  of  1951
     total cpu time spent up to now is     2363.6 secs

     Computing kpt #:  1518  of  1951
     total cpu time spent up to now is     2365.3 secs

     Computing kpt #:  1519  of  1951
     c_bands:  1 eigenvalues not converged
     total cpu time spent up to now is     2367.0 secs

     Computing kpt #:  1520  of  1951
     total cpu time spent up to now is     2368.5 secs

     Computing kpt #:  1521  of  1951
     total cpu time spent up to now is     2369.8 secs

     Computing kpt #:  1522  of  1951
     total cpu time spent up to now is     2371.3 secs

     Computing kpt #:  1523  of  1951
     total cpu time spent up to now is     2372.8 secs

     Computing kpt #:  1524  of  1951
     total cpu time spent up to now is     2374.2 secs

     Computing kpt #:  1525  of  1951
     total cpu time spent up to now is     2375.7 secs

     Computing kpt #:  1526  of  1951
     total cpu time spent up to now is     2377.2 secs

     Computing kpt #:  1527  of  1951
     total cpu time spent up to now is     2378.5 secs

     Computing kpt #:  1528  of  1951
     total cpu time spent up to now is     2379.8 secs

     Computing kpt #:  1529  of  1951
     total cpu time spent up to now is     2381.3 secs

     Computing kpt #:  1530  of  1951
     total cpu time spent up to now is     2382.7 secs

     Computing kpt #:  1531  of  1951
     total cpu time spent up to now is     2384.3 secs

     Computing kpt #:  1532  of  1951
     total cpu time spent up to now is     2385.7 secs

     Computing kpt #:  1533  of  1951
     total cpu time spent up to now is     2387.2 secs

     Computing kpt #:  1534  of  1951
     total cpu time spent up to now is     2388.8 secs

     Computing kpt #:  1535  of  1951
     c_bands:  1 eigenvalues not converged
     total cpu time spent up to now is     2390.5 secs

     Computing kpt #:  1536  of  1951
     c_bands:  1 eigenvalues not converged
     total cpu time spent up to now is     2392.2 secs

     Computing kpt #:  1537  of  1951
     total cpu time spent up to now is     2393.7 secs

     Computing kpt #:  1538  of  1951
     c_bands:  1 eigenvalues not converged
     total cpu time spent up to now is     2395.4 secs

     Computing kpt #:  1539  of  1951
     total cpu time spent up to now is     2396.8 secs

     Computing kpt #:  1540  of  1951
     total cpu time spent up to now is     2398.3 secs

     Computing kpt #:  1541  of  1951
     total cpu time spent up to now is     2399.7 secs

     Computing kpt #:  1542  of  1951
     total cpu time spent up to now is     2401.1 secs

     Computing kpt #:  1543  of  1951
     total cpu time spent up to now is     2402.5 secs

     Computing kpt #:  1544  of  1951
     total cpu time spent up to now is     2403.9 secs

     Computing kpt #:  1545  of  1951
     total cpu time spent up to now is     2405.2 secs

     Computing kpt #:  1546  of  1951
     total cpu time spent up to now is     2406.6 secs

     Computing kpt #:  1547  of  1951
     total cpu time spent up to now is     2408.0 secs

     Computing kpt #:  1548  of  1951
     total cpu time spent up to now is     2409.4 secs

     Computing kpt #:  1549  of  1951
     total cpu time spent up to now is     2410.8 secs

     Computing kpt #:  1550  of  1951
     total cpu time spent up to now is     2412.1 secs

     Computing kpt #:  1551  of  1951
     total cpu time spent up to now is     2413.4 secs

     Computing kpt #:  1552  of  1951
     total cpu time spent up to now is     2414.8 secs

     Computing kpt #:  1553  of  1951
     total cpu time spent up to now is     2416.2 secs

     Computing kpt #:  1554  of  1951
     total cpu time spent up to now is     2417.8 secs

     Computing kpt #:  1555  of  1951
     total cpu time spent up to now is     2419.1 secs

     Computing kpt #:  1556  of  1951
     total cpu time spent up to now is     2420.4 secs

     Computing kpt #:  1557  of  1951
     total cpu time spent up to now is     2421.8 secs

     Computing kpt #:  1558  of  1951
     total cpu time spent up to now is     2423.1 secs

     Computing kpt #:  1559  of  1951
     total cpu time spent up to now is     2424.5 secs

     Computing kpt #:  1560  of  1951
     total cpu time spent up to now is     2425.8 secs

     Computing kpt #:  1561  of  1951
     total cpu time spent up to now is     2427.1 secs

     Computing kpt #:  1562  of  1951
     total cpu time spent up to now is     2428.5 secs

     Computing kpt #:  1563  of  1951
     total cpu time spent up to now is     2429.9 secs

     Computing kpt #:  1564  of  1951
     total cpu time spent up to now is     2431.2 secs

     Computing kpt #:  1565  of  1951
     total cpu time spent up to now is     2432.7 secs

     Computing kpt #:  1566  of  1951
     total cpu time spent up to now is     2434.1 secs

     Computing kpt #:  1567  of  1951
     total cpu time spent up to now is     2435.5 secs

     Computing kpt #:  1568  of  1951
     total cpu time spent up to now is     2437.0 secs

     Computing kpt #:  1569  of  1951
     total cpu time spent up to now is     2438.7 secs

     Computing kpt #:  1570  of  1951
     c_bands:  1 eigenvalues not converged
     total cpu time spent up to now is     2440.5 secs

     Computing kpt #:  1571  of  1951
     c_bands:  1 eigenvalues not converged
     total cpu time spent up to now is     2442.2 secs

     Computing kpt #:  1572  of  1951
     total cpu time spent up to now is     2443.6 secs

     Computing kpt #:  1573  of  1951
     total cpu time spent up to now is     2445.1 secs

     Computing kpt #:  1574  of  1951
     total cpu time spent up to now is     2446.8 secs

     Computing kpt #:  1575  of  1951
     total cpu time spent up to now is     2448.2 secs

     Computing kpt #:  1576  of  1951
     total cpu time spent up to now is     2449.7 secs

     Computing kpt #:  1577  of  1951
     total cpu time spent up to now is     2451.2 secs

     Computing kpt #:  1578  of  1951
     total cpu time spent up to now is     2452.6 secs

     Computing kpt #:  1579  of  1951
     total cpu time spent up to now is     2454.0 secs

     Computing kpt #:  1580  of  1951
     total cpu time spent up to now is     2455.5 secs

     Computing kpt #:  1581  of  1951
     total cpu time spent up to now is     2456.9 secs

     Computing kpt #:  1582  of  1951
     total cpu time spent up to now is     2458.3 secs

     Computing kpt #:  1583  of  1951
     total cpu time spent up to now is     2459.7 secs

     Computing kpt #:  1584  of  1951
     total cpu time spent up to now is     2461.0 secs

     Computing kpt #:  1585  of  1951
     total cpu time spent up to now is     2462.5 secs

     Computing kpt #:  1586  of  1951
     total cpu time spent up to now is     2463.8 secs

     Computing kpt #:  1587  of  1951
     total cpu time spent up to now is     2465.3 secs

     Computing kpt #:  1588  of  1951
     total cpu time spent up to now is     2467.0 secs

     Computing kpt #:  1589  of  1951
     total cpu time spent up to now is     2468.4 secs

     Computing kpt #:  1590  of  1951
     total cpu time spent up to now is     2469.8 secs

     Computing kpt #:  1591  of  1951
     total cpu time spent up to now is     2471.3 secs

     Computing kpt #:  1592  of  1951
     total cpu time spent up to now is     2472.7 secs

     Computing kpt #:  1593  of  1951
     total cpu time spent up to now is     2474.0 secs

     Computing kpt #:  1594  of  1951
     total cpu time spent up to now is     2475.4 secs

     Computing kpt #:  1595  of  1951
     total cpu time spent up to now is     2476.8 secs

     Computing kpt #:  1596  of  1951
     total cpu time spent up to now is     2478.3 secs

     Computing kpt #:  1597  of  1951
     total cpu time spent up to now is     2479.9 secs

     Computing kpt #:  1598  of  1951
     total cpu time spent up to now is     2481.3 secs

     Computing kpt #:  1599  of  1951
     total cpu time spent up to now is     2482.7 secs

     Computing kpt #:  1600  of  1951
     total cpu time spent up to now is     2484.3 secs

     Computing kpt #:  1601  of  1951
     total cpu time spent up to now is     2486.1 secs

     Computing kpt #:  1602  of  1951
     total cpu time spent up to now is     2487.8 secs

     Computing kpt #:  1603  of  1951
     c_bands:  1 eigenvalues not converged
     total cpu time spent up to now is     2489.5 secs

     Computing kpt #:  1604  of  1951
     total cpu time spent up to now is     2491.1 secs

     Computing kpt #:  1605  of  1951
     c_bands:  1 eigenvalues not converged
     total cpu time spent up to now is     2493.1 secs

     Computing kpt #:  1606  of  1951
     total cpu time spent up to now is     2494.6 secs

     Computing kpt #:  1607  of  1951
     total cpu time spent up to now is     2496.1 secs

     Computing kpt #:  1608  of  1951
     total cpu time spent up to now is     2497.4 secs

     Computing kpt #:  1609  of  1951
     total cpu time spent up to now is     2498.9 secs

     Computing kpt #:  1610  of  1951
     total cpu time spent up to now is     2500.4 secs

     Computing kpt #:  1611  of  1951
     total cpu time spent up to now is     2501.7 secs

     Computing kpt #:  1612  of  1951
     total cpu time spent up to now is     2503.1 secs

     Computing kpt #:  1613  of  1951
     total cpu time spent up to now is     2504.6 secs

     Computing kpt #:  1614  of  1951
     total cpu time spent up to now is     2505.9 secs

     Computing kpt #:  1615  of  1951
     total cpu time spent up to now is     2507.3 secs

     Computing kpt #:  1616  of  1951
     total cpu time spent up to now is     2508.7 secs

     Computing kpt #:  1617  of  1951
     total cpu time spent up to now is     2510.0 secs

     Computing kpt #:  1618  of  1951
     total cpu time spent up to now is     2511.6 secs

     Computing kpt #:  1619  of  1951
     total cpu time spent up to now is     2513.2 secs

     Computing kpt #:  1620  of  1951
     total cpu time spent up to now is     2514.9 secs

     Computing kpt #:  1621  of  1951
     total cpu time spent up to now is     2516.2 secs

     Computing kpt #:  1622  of  1951
     total cpu time spent up to now is     2517.6 secs

     Computing kpt #:  1623  of  1951
     total cpu time spent up to now is     2519.1 secs

     Computing kpt #:  1624  of  1951
     total cpu time spent up to now is     2520.7 secs

     Computing kpt #:  1625  of  1951
     total cpu time spent up to now is     2522.1 secs

     Computing kpt #:  1626  of  1951
     total cpu time spent up to now is     2523.5 secs

     Computing kpt #:  1627  of  1951
     total cpu time spent up to now is     2525.0 secs

     Computing kpt #:  1628  of  1951
     total cpu time spent up to now is     2526.4 secs

     Computing kpt #:  1629  of  1951
     total cpu time spent up to now is     2527.7 secs

     Computing kpt #:  1630  of  1951
     total cpu time spent up to now is     2529.3 secs

     Computing kpt #:  1631  of  1951
     total cpu time spent up to now is     2530.9 secs

     Computing kpt #:  1632  of  1951
     total cpu time spent up to now is     2532.6 secs

     Computing kpt #:  1633  of  1951
     c_bands:  1 eigenvalues not converged
     total cpu time spent up to now is     2534.4 secs

     Computing kpt #:  1634  of  1951
     c_bands:  1 eigenvalues not converged
     total cpu time spent up to now is     2536.2 secs

     Computing kpt #:  1635  of  1951
     c_bands:  1 eigenvalues not converged
     total cpu time spent up to now is     2537.9 secs

     Computing kpt #:  1636  of  1951
     total cpu time spent up to now is     2539.6 secs

     Computing kpt #:  1637  of  1951
     total cpu time spent up to now is     2541.2 secs

     Computing kpt #:  1638  of  1951
     total cpu time spent up to now is     2542.6 secs

     Computing kpt #:  1639  of  1951
     total cpu time spent up to now is     2544.1 secs

     Computing kpt #:  1640  of  1951
     total cpu time spent up to now is     2545.4 secs

     Computing kpt #:  1641  of  1951
     total cpu time spent up to now is     2546.9 secs

     Computing kpt #:  1642  of  1951
     total cpu time spent up to now is     2548.2 secs

     Computing kpt #:  1643  of  1951
     total cpu time spent up to now is     2549.6 secs

     Computing kpt #:  1644  of  1951
     total cpu time spent up to now is     2551.1 secs

     Computing kpt #:  1645  of  1951
     total cpu time spent up to now is     2552.5 secs

     Computing kpt #:  1646  of  1951
     total cpu time spent up to now is     2553.9 secs

     Computing kpt #:  1647  of  1951
     total cpu time spent up to now is     2555.3 secs

     Computing kpt #:  1648  of  1951
     total cpu time spent up to now is     2556.6 secs

     Computing kpt #:  1649  of  1951
     total cpu time spent up to now is     2558.0 secs

     Computing kpt #:  1650  of  1951
     total cpu time spent up to now is     2559.5 secs

     Computing kpt #:  1651  of  1951
     c_bands:  1 eigenvalues not converged
     total cpu time spent up to now is     2561.3 secs

     Computing kpt #:  1652  of  1951
     total cpu time spent up to now is     2562.6 secs

     Computing kpt #:  1653  of  1951
     total cpu time spent up to now is     2564.1 secs

     Computing kpt #:  1654  of  1951
     total cpu time spent up to now is     2565.5 secs

     Computing kpt #:  1655  of  1951
     total cpu time spent up to now is     2566.9 secs

     Computing kpt #:  1656  of  1951
     total cpu time spent up to now is     2568.3 secs

     Computing kpt #:  1657  of  1951
     total cpu time spent up to now is     2569.7 secs

     Computing kpt #:  1658  of  1951
     total cpu time spent up to now is     2571.1 secs

     Computing kpt #:  1659  of  1951
     total cpu time spent up to now is     2572.7 secs

     Computing kpt #:  1660  of  1951
     total cpu time spent up to now is     2574.3 secs

     Computing kpt #:  1661  of  1951
     total cpu time spent up to now is     2576.0 secs

     Computing kpt #:  1662  of  1951
     total cpu time spent up to now is     2577.9 secs

     Computing kpt #:  1663  of  1951
     total cpu time spent up to now is     2579.7 secs

     Computing kpt #:  1664  of  1951
     c_bands:  1 eigenvalues not converged
     total cpu time spent up to now is     2581.5 secs

     Computing kpt #:  1665  of  1951
     c_bands:  1 eigenvalues not converged
     total cpu time spent up to now is     2583.4 secs

     Computing kpt #:  1666  of  1951
     total cpu time spent up to now is     2585.0 secs

     Computing kpt #:  1667  of  1951
     total cpu time spent up to now is     2586.7 secs

     Computing kpt #:  1668  of  1951
     total cpu time spent up to now is     2588.3 secs

     Computing kpt #:  1669  of  1951
     total cpu time spent up to now is     2589.8 secs

     Computing kpt #:  1670  of  1951
     total cpu time spent up to now is     2591.1 secs

     Computing kpt #:  1671  of  1951
     total cpu time spent up to now is     2592.5 secs

     Computing kpt #:  1672  of  1951
     total cpu time spent up to now is     2593.8 secs

     Computing kpt #:  1673  of  1951
     total cpu time spent up to now is     2595.2 secs

     Computing kpt #:  1674  of  1951
     total cpu time spent up to now is     2596.5 secs

     Computing kpt #:  1675  of  1951
     total cpu time spent up to now is     2597.9 secs

     Computing kpt #:  1676  of  1951
     total cpu time spent up to now is     2599.4 secs

     Computing kpt #:  1677  of  1951
     total cpu time spent up to now is     2600.9 secs

     Computing kpt #:  1678  of  1951
     total cpu time spent up to now is     2602.5 secs

     Computing kpt #:  1679  of  1951
     total cpu time spent up to now is     2604.1 secs

     Computing kpt #:  1680  of  1951
     total cpu time spent up to now is     2605.7 secs

     Computing kpt #:  1681  of  1951
     total cpu time spent up to now is     2607.0 secs

     Computing kpt #:  1682  of  1951
     total cpu time spent up to now is     2608.6 secs

     Computing kpt #:  1683  of  1951
     total cpu time spent up to now is     2609.9 secs

     Computing kpt #:  1684  of  1951
     total cpu time spent up to now is     2611.2 secs

     Computing kpt #:  1685  of  1951
     total cpu time spent up to now is     2612.9 secs

     Computing kpt #:  1686  of  1951
     total cpu time spent up to now is     2614.3 secs

     Computing kpt #:  1687  of  1951
     total cpu time spent up to now is     2615.8 secs

     Computing kpt #:  1688  of  1951
     total cpu time spent up to now is     2617.2 secs

     Computing kpt #:  1689  of  1951
     total cpu time spent up to now is     2618.9 secs

     Computing kpt #:  1690  of  1951
     total cpu time spent up to now is     2620.4 secs

     Computing kpt #:  1691  of  1951
     total cpu time spent up to now is     2622.1 secs

     Computing kpt #:  1692  of  1951
     c_bands:  1 eigenvalues not converged
     total cpu time spent up to now is     2623.7 secs

     Computing kpt #:  1693  of  1951
     c_bands:  1 eigenvalues not converged
     total cpu time spent up to now is     2625.3 secs

     Computing kpt #:  1694  of  1951
     total cpu time spent up to now is     2626.9 secs

     Computing kpt #:  1695  of  1951
     total cpu time spent up to now is     2628.4 secs

     Computing kpt #:  1696  of  1951
     total cpu time spent up to now is     2630.0 secs

     Computing kpt #:  1697  of  1951
     total cpu time spent up to now is     2631.5 secs

     Computing kpt #:  1698  of  1951
     total cpu time spent up to now is     2632.9 secs

     Computing kpt #:  1699  of  1951
     total cpu time spent up to now is     2634.5 secs

     Computing kpt #:  1700  of  1951
     total cpu time spent up to now is     2635.9 secs

     Computing kpt #:  1701  of  1951
     total cpu time spent up to now is     2637.1 secs

     Computing kpt #:  1702  of  1951
     total cpu time spent up to now is     2638.4 secs

     Computing kpt #:  1703  of  1951
     total cpu time spent up to now is     2639.7 secs

     Computing kpt #:  1704  of  1951
     total cpu time spent up to now is     2641.0 secs

     Computing kpt #:  1705  of  1951
     total cpu time spent up to now is     2642.3 secs

     Computing kpt #:  1706  of  1951
     total cpu time spent up to now is     2643.8 secs

     Computing kpt #:  1707  of  1951
     total cpu time spent up to now is     2645.4 secs

     Computing kpt #:  1708  of  1951
     total cpu time spent up to now is     2646.8 secs

     Computing kpt #:  1709  of  1951
     total cpu time spent up to now is     2648.2 secs

     Computing kpt #:  1710  of  1951
     total cpu time spent up to now is     2649.7 secs

     Computing kpt #:  1711  of  1951
     total cpu time spent up to now is     2651.1 secs

     Computing kpt #:  1712  of  1951
     total cpu time spent up to now is     2652.5 secs

     Computing kpt #:  1713  of  1951
     total cpu time spent up to now is     2653.9 secs

     Computing kpt #:  1714  of  1951
     total cpu time spent up to now is     2655.4 secs

     Computing kpt #:  1715  of  1951
     total cpu time spent up to now is     2656.8 secs

     Computing kpt #:  1716  of  1951
     total cpu time spent up to now is     2658.2 secs

     Computing kpt #:  1717  of  1951
     total cpu time spent up to now is     2659.6 secs

     Computing kpt #:  1718  of  1951
     total cpu time spent up to now is     2661.2 secs

     Computing kpt #:  1719  of  1951
     total cpu time spent up to now is     2662.8 secs

     Computing kpt #:  1720  of  1951
     c_bands:  1 eigenvalues not converged
     total cpu time spent up to now is     2664.4 secs

     Computing kpt #:  1721  of  1951
     c_bands:  1 eigenvalues not converged
     total cpu time spent up to now is     2666.3 secs

     Computing kpt #:  1722  of  1951
     total cpu time spent up to now is     2667.9 secs

     Computing kpt #:  1723  of  1951
     total cpu time spent up to now is     2669.3 secs

     Computing kpt #:  1724  of  1951
     total cpu time spent up to now is     2670.6 secs

     Computing kpt #:  1725  of  1951
     total cpu time spent up to now is     2672.0 secs

     Computing kpt #:  1726  of  1951
     total cpu time spent up to now is     2673.4 secs

     Computing kpt #:  1727  of  1951
     total cpu time spent up to now is     2674.7 secs

     Computing kpt #:  1728  of  1951
     total cpu time spent up to now is     2676.1 secs

     Computing kpt #:  1729  of  1951
     total cpu time spent up to now is     2677.4 secs

     Computing kpt #:  1730  of  1951
     total cpu time spent up to now is     2678.8 secs

     Computing kpt #:  1731  of  1951
     total cpu time spent up to now is     2680.3 secs

     Computing kpt #:  1732  of  1951
     total cpu time spent up to now is     2681.7 secs

     Computing kpt #:  1733  of  1951
     total cpu time spent up to now is     2683.3 secs

     Computing kpt #:  1734  of  1951
     total cpu time spent up to now is     2685.1 secs

     Computing kpt #:  1735  of  1951
     total cpu time spent up to now is     2686.6 secs

     Computing kpt #:  1736  of  1951
     total cpu time spent up to now is     2688.1 secs

     Computing kpt #:  1737  of  1951
     total cpu time spent up to now is     2689.6 secs

     Computing kpt #:  1738  of  1951
     total cpu time spent up to now is     2691.0 secs

     Computing kpt #:  1739  of  1951
     total cpu time spent up to now is     2692.4 secs

     Computing kpt #:  1740  of  1951
     total cpu time spent up to now is     2693.8 secs

     Computing kpt #:  1741  of  1951
     total cpu time spent up to now is     2695.2 secs

     Computing kpt #:  1742  of  1951
     total cpu time spent up to now is     2696.9 secs

     Computing kpt #:  1743  of  1951
     total cpu time spent up to now is     2698.4 secs

     Computing kpt #:  1744  of  1951
     c_bands:  1 eigenvalues not converged
     total cpu time spent up to now is     2700.0 secs

     Computing kpt #:  1745  of  1951
     c_bands:  1 eigenvalues not converged
     total cpu time spent up to now is     2701.8 secs

     Computing kpt #:  1746  of  1951
     total cpu time spent up to now is     2703.6 secs

     Computing kpt #:  1747  of  1951
     total cpu time spent up to now is     2705.1 secs

     Computing kpt #:  1748  of  1951
     total cpu time spent up to now is     2706.5 secs

     Computing kpt #:  1749  of  1951
     total cpu time spent up to now is     2707.8 secs

     Computing kpt #:  1750  of  1951
     total cpu time spent up to now is     2709.3 secs

     Computing kpt #:  1751  of  1951
     total cpu time spent up to now is     2710.9 secs

     Computing kpt #:  1752  of  1951
     total cpu time spent up to now is     2712.3 secs

     Computing kpt #:  1753  of  1951
     total cpu time spent up to now is     2713.7 secs

     Computing kpt #:  1754  of  1951
     total cpu time spent up to now is     2715.1 secs

     Computing kpt #:  1755  of  1951
     total cpu time spent up to now is     2716.5 secs

     Computing kpt #:  1756  of  1951
     total cpu time spent up to now is     2718.1 secs

     Computing kpt #:  1757  of  1951
     total cpu time spent up to now is     2719.6 secs

     Computing kpt #:  1758  of  1951
     total cpu time spent up to now is     2721.1 secs

     Computing kpt #:  1759  of  1951
     c_bands:  1 eigenvalues not converged
     total cpu time spent up to now is     2722.8 secs

     Computing kpt #:  1760  of  1951
     total cpu time spent up to now is     2724.2 secs

     Computing kpt #:  1761  of  1951
     total cpu time spent up to now is     2725.5 secs

     Computing kpt #:  1762  of  1951
     total cpu time spent up to now is     2726.9 secs

     Computing kpt #:  1763  of  1951
     total cpu time spent up to now is     2728.4 secs

     Computing kpt #:  1764  of  1951
     total cpu time spent up to now is     2729.9 secs

     Computing kpt #:  1765  of  1951
     total cpu time spent up to now is     2731.4 secs

     Computing kpt #:  1766  of  1951
     total cpu time spent up to now is     2733.1 secs

     Computing kpt #:  1767  of  1951
     total cpu time spent up to now is     2734.6 secs

     Computing kpt #:  1768  of  1951
     total cpu time spent up to now is     2736.2 secs

     Computing kpt #:  1769  of  1951
     c_bands:  1 eigenvalues not converged
     total cpu time spent up to now is     2737.7 secs

     Computing kpt #:  1770  of  1951
     c_bands:  1 eigenvalues not converged
     total cpu time spent up to now is     2739.4 secs

     Computing kpt #:  1771  of  1951
     c_bands:  1 eigenvalues not converged
     total cpu time spent up to now is     2741.3 secs

     Computing kpt #:  1772  of  1951
     total cpu time spent up to now is     2742.7 secs

     Computing kpt #:  1773  of  1951
     total cpu time spent up to now is     2744.1 secs

     Computing kpt #:  1774  of  1951
     total cpu time spent up to now is     2745.5 secs

     Computing kpt #:  1775  of  1951
     total cpu time spent up to now is     2746.9 secs

     Computing kpt #:  1776  of  1951
     total cpu time spent up to now is     2748.3 secs

     Computing kpt #:  1777  of  1951
     total cpu time spent up to now is     2749.7 secs

     Computing kpt #:  1778  of  1951
     total cpu time spent up to now is     2751.1 secs

     Computing kpt #:  1779  of  1951
     total cpu time spent up to now is     2752.6 secs

     Computing kpt #:  1780  of  1951
     total cpu time spent up to now is     2754.1 secs

     Computing kpt #:  1781  of  1951
     total cpu time spent up to now is     2755.7 secs

     Computing kpt #:  1782  of  1951
     total cpu time spent up to now is     2757.2 secs

     Computing kpt #:  1783  of  1951
     total cpu time spent up to now is     2758.6 secs

     Computing kpt #:  1784  of  1951
     total cpu time spent up to now is     2760.1 secs

     Computing kpt #:  1785  of  1951
     total cpu time spent up to now is     2761.5 secs

     Computing kpt #:  1786  of  1951
     total cpu time spent up to now is     2763.0 secs

     Computing kpt #:  1787  of  1951
     total cpu time spent up to now is     2764.5 secs

     Computing kpt #:  1788  of  1951
     total cpu time spent up to now is     2766.1 secs

     Computing kpt #:  1789  of  1951
     total cpu time spent up to now is     2767.7 secs

     Computing kpt #:  1790  of  1951
     c_bands:  1 eigenvalues not converged
     total cpu time spent up to now is     2769.4 secs

     Computing kpt #:  1791  of  1951
     c_bands:  1 eigenvalues not converged
     total cpu time spent up to now is     2771.1 secs

     Computing kpt #:  1792  of  1951
     total cpu time spent up to now is     2772.7 secs

     Computing kpt #:  1793  of  1951
     total cpu time spent up to now is     2774.2 secs

     Computing kpt #:  1794  of  1951
     total cpu time spent up to now is     2775.6 secs

     Computing kpt #:  1795  of  1951
     total cpu time spent up to now is     2777.2 secs

     Computing kpt #:  1796  of  1951
     total cpu time spent up to now is     2778.6 secs

     Computing kpt #:  1797  of  1951
     total cpu time spent up to now is     2780.1 secs

     Computing kpt #:  1798  of  1951
     total cpu time spent up to now is     2781.5 secs

     Computing kpt #:  1799  of  1951
     total cpu time spent up to now is     2782.9 secs

     Computing kpt #:  1800  of  1951
     total cpu time spent up to now is     2784.3 secs

     Computing kpt #:  1801  of  1951
     total cpu time spent up to now is     2785.7 secs

     Computing kpt #:  1802  of  1951
     total cpu time spent up to now is     2787.4 secs

     Computing kpt #:  1803  of  1951
     total cpu time spent up to now is     2789.1 secs

     Computing kpt #:  1804  of  1951
     c_bands:  1 eigenvalues not converged
     total cpu time spent up to now is     2790.8 secs

     Computing kpt #:  1805  of  1951
     total cpu time spent up to now is     2792.3 secs

     Computing kpt #:  1806  of  1951
     total cpu time spent up to now is     2793.7 secs

     Computing kpt #:  1807  of  1951
     total cpu time spent up to now is     2795.3 secs

     Computing kpt #:  1808  of  1951
     total cpu time spent up to now is     2796.7 secs

     Computing kpt #:  1809  of  1951
     total cpu time spent up to now is     2798.2 secs

     Computing kpt #:  1810  of  1951
     total cpu time spent up to now is     2799.9 secs

     Computing kpt #:  1811  of  1951
     c_bands:  1 eigenvalues not converged
     total cpu time spent up to now is     2801.5 secs

     Computing kpt #:  1812  of  1951
     c_bands:  1 eigenvalues not converged
     total cpu time spent up to now is     2803.1 secs

     Computing kpt #:  1813  of  1951
     c_bands:  1 eigenvalues not converged
     total cpu time spent up to now is     2804.9 secs

     Computing kpt #:  1814  of  1951
     total cpu time spent up to now is     2806.4 secs

     Computing kpt #:  1815  of  1951
     total cpu time spent up to now is     2808.1 secs

     Computing kpt #:  1816  of  1951
     total cpu time spent up to now is     2809.5 secs

     Computing kpt #:  1817  of  1951
     total cpu time spent up to now is     2811.0 secs

     Computing kpt #:  1818  of  1951
     total cpu time spent up to now is     2812.6 secs

     Computing kpt #:  1819  of  1951
     total cpu time spent up to now is     2814.3 secs

     Computing kpt #:  1820  of  1951
     total cpu time spent up to now is     2815.6 secs

     Computing kpt #:  1821  of  1951
     total cpu time spent up to now is     2817.0 secs

     Computing kpt #:  1822  of  1951
     total cpu time spent up to now is     2818.6 secs

     Computing kpt #:  1823  of  1951
     total cpu time spent up to now is     2820.2 secs

     Computing kpt #:  1824  of  1951
     total cpu time spent up to now is     2821.8 secs

     Computing kpt #:  1825  of  1951
     total cpu time spent up to now is     2823.4 secs

     Computing kpt #:  1826  of  1951
     total cpu time spent up to now is     2824.9 secs

     Computing kpt #:  1827  of  1951
     total cpu time spent up to now is     2826.3 secs

     Computing kpt #:  1828  of  1951
     total cpu time spent up to now is     2827.9 secs

     Computing kpt #:  1829  of  1951
     total cpu time spent up to now is     2829.5 secs

     Computing kpt #:  1830  of  1951
     total cpu time spent up to now is     2831.0 secs

     Computing kpt #:  1831  of  1951
     c_bands:  1 eigenvalues not converged
     total cpu time spent up to now is     2832.7 secs

     Computing kpt #:  1832  of  1951
     c_bands:  1 eigenvalues not converged
     total cpu time spent up to now is     2834.4 secs

     Computing kpt #:  1833  of  1951
     total cpu time spent up to now is     2836.1 secs

     Computing kpt #:  1834  of  1951
     total cpu time spent up to now is     2837.7 secs

     Computing kpt #:  1835  of  1951
     total cpu time spent up to now is     2839.2 secs

     Computing kpt #:  1836  of  1951
     total cpu time spent up to now is     2840.7 secs

     Computing kpt #:  1837  of  1951
     total cpu time spent up to now is     2842.2 secs

     Computing kpt #:  1838  of  1951
     total cpu time spent up to now is     2843.6 secs

     Computing kpt #:  1839  of  1951
     total cpu time spent up to now is     2845.1 secs

     Computing kpt #:  1840  of  1951
     total cpu time spent up to now is     2846.7 secs

     Computing kpt #:  1841  of  1951
     total cpu time spent up to now is     2848.3 secs

     Computing kpt #:  1842  of  1951
     total cpu time spent up to now is     2849.9 secs

     Computing kpt #:  1843  of  1951
     c_bands:  2 eigenvalues not converged
     total cpu time spent up to now is     2851.6 secs

     Computing kpt #:  1844  of  1951
     total cpu time spent up to now is     2853.2 secs

     Computing kpt #:  1845  of  1951
     total cpu time spent up to now is     2854.5 secs

     Computing kpt #:  1846  of  1951
     total cpu time spent up to now is     2856.2 secs

     Computing kpt #:  1847  of  1951
     total cpu time spent up to now is     2857.9 secs

     Computing kpt #:  1848  of  1951
     c_bands:  1 eigenvalues not converged
     total cpu time spent up to now is     2859.6 secs

     Computing kpt #:  1849  of  1951
     c_bands:  1 eigenvalues not converged
     total cpu time spent up to now is     2861.3 secs

     Computing kpt #:  1850  of  1951
     total cpu time spent up to now is     2863.2 secs

     Computing kpt #:  1851  of  1951
     total cpu time spent up to now is     2865.0 secs

     Computing kpt #:  1852  of  1951
     total cpu time spent up to now is     2866.7 secs

     Computing kpt #:  1853  of  1951
     total cpu time spent up to now is     2868.4 secs

     Computing kpt #:  1854  of  1951
     total cpu time spent up to now is     2870.2 secs

     Computing kpt #:  1855  of  1951
     total cpu time spent up to now is     2871.7 secs

     Computing kpt #:  1856  of  1951
     total cpu time spent up to now is     2873.2 secs

     Computing kpt #:  1857  of  1951
     total cpu time spent up to now is     2875.0 secs

     Computing kpt #:  1858  of  1951
     total cpu time spent up to now is     2876.6 secs

     Computing kpt #:  1859  of  1951
     total cpu time spent up to now is     2878.3 secs

     Computing kpt #:  1860  of  1951
     c_bands:  2 eigenvalues not converged
     total cpu time spent up to now is     2880.2 secs

     Computing kpt #:  1861  of  1951
     total cpu time spent up to now is     2882.0 secs

     Computing kpt #:  1862  of  1951
     total cpu time spent up to now is     2883.6 secs

     Computing kpt #:  1863  of  1951
     total cpu time spent up to now is     2885.3 secs

     Computing kpt #:  1864  of  1951
     total cpu time spent up to now is     2887.0 secs

     Computing kpt #:  1865  of  1951
     c_bands:  1 eigenvalues not converged
     total cpu time spent up to now is     2888.7 secs

     Computing kpt #:  1866  of  1951
     total cpu time spent up to now is     2890.3 secs

     Computing kpt #:  1867  of  1951
     total cpu time spent up to now is     2891.8 secs

     Computing kpt #:  1868  of  1951
     total cpu time spent up to now is     2893.3 secs

     Computing kpt #:  1869  of  1951
     total cpu time spent up to now is     2895.0 secs

     Computing kpt #:  1870  of  1951
     total cpu time spent up to now is     2896.6 secs

     Computing kpt #:  1871  of  1951
     total cpu time spent up to now is     2898.3 secs

     Computing kpt #:  1872  of  1951
     total cpu time spent up to now is     2899.9 secs

     Computing kpt #:  1873  of  1951
     total cpu time spent up to now is     2901.4 secs

     Computing kpt #:  1874  of  1951
     total cpu time spent up to now is     2902.9 secs

     Computing kpt #:  1875  of  1951
     c_bands:  2 eigenvalues not converged
     total cpu time spent up to now is     2904.8 secs

     Computing kpt #:  1876  of  1951
     total cpu time spent up to now is     2906.7 secs

     Computing kpt #:  1877  of  1951
     total cpu time spent up to now is     2908.4 secs

     Computing kpt #:  1878  of  1951
     total cpu time spent up to now is     2910.0 secs

     Computing kpt #:  1879  of  1951
     c_bands:  1 eigenvalues not converged
     total cpu time spent up to now is     2911.8 secs

     Computing kpt #:  1880  of  1951
     c_bands:  1 eigenvalues not converged
     total cpu time spent up to now is     2913.6 secs

     Computing kpt #:  1881  of  1951
     total cpu time spent up to now is     2915.4 secs

     Computing kpt #:  1882  of  1951
     total cpu time spent up to now is     2917.0 secs

     Computing kpt #:  1883  of  1951
     total cpu time spent up to now is     2918.6 secs

     Computing kpt #:  1884  of  1951
     total cpu time spent up to now is     2920.3 secs

     Computing kpt #:  1885  of  1951
     total cpu time spent up to now is     2921.8 secs

     Computing kpt #:  1886  of  1951
     total cpu time spent up to now is     2923.2 secs

     Computing kpt #:  1887  of  1951
     total cpu time spent up to now is     2924.7 secs

     Computing kpt #:  1888  of  1951
     total cpu time spent up to now is     2926.3 secs

     Computing kpt #:  1889  of  1951
     total cpu time spent up to now is     2927.9 secs

     Computing kpt #:  1890  of  1951
     total cpu time spent up to now is     2929.7 secs

     Computing kpt #:  1891  of  1951
     total cpu time spent up to now is     2931.2 secs

     Computing kpt #:  1892  of  1951
     c_bands:  1 eigenvalues not converged
     total cpu time spent up to now is     2932.9 secs

     Computing kpt #:  1893  of  1951
     c_bands:  1 eigenvalues not converged
     total cpu time spent up to now is     2934.6 secs

     Computing kpt #:  1894  of  1951
     c_bands:  1 eigenvalues not converged
     total cpu time spent up to now is     2936.2 secs

     Computing kpt #:  1895  of  1951
     total cpu time spent up to now is     2937.9 secs

     Computing kpt #:  1896  of  1951
     total cpu time spent up to now is     2939.4 secs

     Computing kpt #:  1897  of  1951
     total cpu time spent up to now is     2940.8 secs

     Computing kpt #:  1898  of  1951
     total cpu time spent up to now is     2942.3 secs

     Computing kpt #:  1899  of  1951
     total cpu time spent up to now is     2944.0 secs

     Computing kpt #:  1900  of  1951
     total cpu time spent up to now is     2945.4 secs

     Computing kpt #:  1901  of  1951
     total cpu time spent up to now is     2947.0 secs

     Computing kpt #:  1902  of  1951
     total cpu time spent up to now is     2948.7 secs

     Computing kpt #:  1903  of  1951
     total cpu time spent up to now is     2950.4 secs

     Computing kpt #:  1904  of  1951
     c_bands:  1 eigenvalues not converged
     total cpu time spent up to now is     2952.0 secs

     Computing kpt #:  1905  of  1951
     c_bands:  1 eigenvalues not converged
     total cpu time spent up to now is     2953.8 secs

     Computing kpt #:  1906  of  1951
     c_bands:  1 eigenvalues not converged
     total cpu time spent up to now is     2955.4 secs

     Computing kpt #:  1907  of  1951
     total cpu time spent up to now is     2957.0 secs

     Computing kpt #:  1908  of  1951
     total cpu time spent up to now is     2958.8 secs

     Computing kpt #:  1909  of  1951
     total cpu time spent up to now is     2960.4 secs

     Computing kpt #:  1910  of  1951
     total cpu time spent up to now is     2961.9 secs

     Computing kpt #:  1911  of  1951
     total cpu time spent up to now is     2963.5 secs

     Computing kpt #:  1912  of  1951
     total cpu time spent up to now is     2965.0 secs

     Computing kpt #:  1913  of  1951
     total cpu time spent up to now is     2966.5 secs

     Computing kpt #:  1914  of  1951
     total cpu time spent up to now is     2968.2 secs

     Computing kpt #:  1915  of  1951
     c_bands:  1 eigenvalues not converged
     total cpu time spent up to now is     2969.8 secs

     Computing kpt #:  1916  of  1951
     c_bands:  1 eigenvalues not converged
     total cpu time spent up to now is     2971.4 secs

     Computing kpt #:  1917  of  1951
     c_bands:  1 eigenvalues not converged
     total cpu time spent up to now is     2973.1 secs

     Computing kpt #:  1918  of  1951
     total cpu time spent up to now is     2974.8 secs

     Computing kpt #:  1919  of  1951
     total cpu time spent up to now is     2976.4 secs

     Computing kpt #:  1920  of  1951
     total cpu time spent up to now is     2977.9 secs

     Computing kpt #:  1921  of  1951
     total cpu time spent up to now is     2979.6 secs

     Computing kpt #:  1922  of  1951
     total cpu time spent up to now is     2981.1 secs

     Computing kpt #:  1923  of  1951
     total cpu time spent up to now is     2982.7 secs

     Computing kpt #:  1924  of  1951
     c_bands:  2 eigenvalues not converged
     total cpu time spent up to now is     2984.4 secs

     Computing kpt #:  1925  of  1951
     total cpu time spent up to now is     2986.0 secs

     Computing kpt #:  1926  of  1951
     c_bands:  1 eigenvalues not converged
     total cpu time spent up to now is     2987.7 secs

     Computing kpt #:  1927  of  1951
     c_bands:  1 eigenvalues not converged
     total cpu time spent up to now is     2989.3 secs

     Computing kpt #:  1928  of  1951
     total cpu time spent up to now is     2990.8 secs

     Computing kpt #:  1929  of  1951
     total cpu time spent up to now is     2992.3 secs

     Computing kpt #:  1930  of  1951
     total cpu time spent up to now is     2993.8 secs

     Computing kpt #:  1931  of  1951
     total cpu time spent up to now is     2995.4 secs

     Computing kpt #:  1932  of  1951
     total cpu time spent up to now is     2996.9 secs

     Computing kpt #:  1933  of  1951
     total cpu time spent up to now is     2998.4 secs

     Computing kpt #:  1934  of  1951
     total cpu time spent up to now is     3000.0 secs

     Computing kpt #:  1935  of  1951
     total cpu time spent up to now is     3001.4 secs

     Computing kpt #:  1936  of  1951
     total cpu time spent up to now is     3003.0 secs

     Computing kpt #:  1937  of  1951
     total cpu time spent up to now is     3004.5 secs

     Computing kpt #:  1938  of  1951
     total cpu time spent up to now is     3006.2 secs

     Computing kpt #:  1939  of  1951
     total cpu time spent up to now is     3007.9 secs

     Computing kpt #:  1940  of  1951
     c_bands:  1 eigenvalues not converged
     total cpu time spent up to now is     3009.6 secs

     Computing kpt #:  1941  of  1951
     total cpu time spent up to now is     3011.2 secs

     Computing kpt #:  1942  of  1951
     total cpu time spent up to now is     3012.6 secs

     Computing kpt #:  1943  of  1951
     total cpu time spent up to now is     3014.0 secs

     Computing kpt #:  1944  of  1951
     total cpu time spent up to now is     3015.4 secs

     Computing kpt #:  1945  of  1951
     total cpu time spent up to now is     3016.9 secs

     Computing kpt #:  1946  of  1951
     total cpu time spent up to now is     3018.5 secs

     Computing kpt #:  1947  of  1951
     total cpu time spent up to now is     3020.1 secs

     Computing kpt #:  1948  of  1951
     total cpu time spent up to now is     3021.5 secs

     Computing kpt #:  1949  of  1951
     total cpu time spent up to now is     3022.9 secs

     Computing kpt #:  1950  of  1951
     total cpu time spent up to now is     3024.4 secs

     Computing kpt #:  1951  of  1951
     total cpu time spent up to now is     3025.7 secs

     ethr =  1.25E-10,  avg # of iterations = 87.6

     total cpu time spent up to now is     3025.7 secs

     End of band structure calculation

          k = 0.0000 0.0000 0.0000 (  5307 PWs)   bands (ev):

   -21.3036  -9.6560  -5.1078  -5.1078   1.3814   2.4280   2.8930   4.7428

     occupation numbers 
     1.0000   1.0000   1.0000   1.0000   0.0000   0.0000   0.0000   0.0000

          k = 0.0000 0.0077 0.0000 (  5295 PWs)   bands (ev):

   -21.3026  -9.6547  -5.1121  -5.1102   1.3829   2.4294   2.8944   4.7442

     occupation numbers 
     1.0000   1.0000   1.0000   1.0000   0.0000   0.0000   0.0000   0.0000

          k = 0.0000 0.0154 0.0000 (  5295 PWs)   bands (ev):

   -21.2995  -9.6510  -5.1248  -5.1171   1.3871   2.4337   2.8988   4.7485

     occupation numbers 
     1.0000   1.0000   1.0000   1.0000   0.0000   0.0000   0.0000   0.0000

          k = 0.0000 0.0231 0.0000 (  5299 PWs)   bands (ev):

   -21.2943  -9.6447  -5.1459  -5.1285   1.3942   2.4408   2.9060   4.7556

     occupation numbers 
     1.0000   1.0000   1.0000   1.0000   0.0000   0.0000   0.0000   0.0000

          k = 0.0000 0.0308 0.0000 (  5299 PWs)   bands (ev):

   -21.2870  -9.6359  -5.1754  -5.1445   1.4041   2.4509   2.9162   4.7656

     occupation numbers 
     1.0000   1.0000   1.0000   1.0000   0.0000   0.0000   0.0000   0.0000

          k = 0.0000 0.0385 0.0000 (  5293 PWs)   bands (ev):

   -21.2776  -9.6246  -5.2130  -5.1649   1.4168   2.4637   2.9292   4.7784

     occupation numbers 
     1.0000   1.0000   1.0000   1.0000   0.0000   0.0000   0.0000   0.0000

          k = 0.0000 0.0462 0.0000 (  5301 PWs)   bands (ev):

   -21.2662  -9.6108  -5.2587  -5.1896   1.4323   2.4795   2.9452   4.7940

     occupation numbers 
     1.0000   1.0000   1.0000   1.0000   0.0000   0.0000   0.0000   0.0000

          k = 0.0000 0.0539 0.0000 (  5305 PWs)   bands (ev):

   -21.2527  -9.5945  -5.3124  -5.2184   1.4507   2.4981   2.9641   4.8125

     occupation numbers 
     1.0000   1.0000   1.0000   1.0000   0.0000   0.0000   0.0000   0.0000

          k = 0.0000 0.0616 0.0000 (  5307 PWs)   bands (ev):

   -21.2371  -9.5756  -5.3736  -5.2513   1.4719   2.5196   2.9858   4.8338

     occupation numbers 
     1.0000   1.0000   1.0000   1.0000   0.0000   0.0000   0.0000   0.0000

          k = 0.0000 0.0693 0.0000 (  5299 PWs)   bands (ev):

   -21.2194  -9.5543  -5.4424  -5.2880   1.4960   2.5439   3.0105   4.8580

     occupation numbers 
     1.0000   1.0000   1.0000   1.0000   0.0000   0.0000   0.0000   0.0000

          k = 0.0000 0.0770 0.0000 (  5299 PWs)   bands (ev):

   -21.1996  -9.5305  -5.5183  -5.3283   1.5228   2.5711   3.0380   4.8850

     occupation numbers 
     1.0000   1.0000   1.0000   1.0000   0.0000   0.0000   0.0000   0.0000

          k = 0.0000 0.0847 0.0000 (  5289 PWs)   bands (ev):

   -21.1778  -9.5042  -5.6013  -5.3721   1.5525   2.6011   3.0685   4.9149

     occupation numbers 
     1.0000   1.0000   1.0000   1.0000   0.0000   0.0000   0.0000   0.0000

          k = 0.0000 0.0924 0.0000 (  5293 PWs)   bands (ev):

   -21.1539  -9.4754  -5.6909  -5.4192   1.5851   2.6340   3.1019   4.9475

     occupation numbers 
     1.0000   1.0000   1.0000   1.0000   0.0000   0.0000   0.0000   0.0000

          k = 0.0000 0.1001 0.0000 (  5281 PWs)   bands (ev):

   -21.1280  -9.4441  -5.7869  -5.4693   1.6204   2.6698   3.1382   4.9831

     occupation numbers 
     1.0000   1.0000   1.0000   1.0000   0.0000   0.0000   0.0000   0.0000

          k = 0.0000 0.1078 0.0000 (  5275 PWs)   bands (ev):

   -21.0999  -9.4104  -5.8890  -5.5222   1.6586   2.7084   3.1774   5.0214

     occupation numbers 
     1.0000   1.0000   1.0000   1.0000   0.0000   0.0000   0.0000   0.0000

          k = 0.0000 0.1155 0.0000 (  5265 PWs)   bands (ev):

   -21.0698  -9.3741  -5.9969  -5.5778   1.6996   2.7498   3.2194   5.0625

     occupation numbers 
     1.0000   1.0000   1.0000   1.0000   0.0000   0.0000   0.0000   0.0000

          k = 0.0000 0.1232 0.0000 (  5263 PWs)   bands (ev):

   -21.0376  -9.3354  -6.1104  -5.6357   1.7435   2.7941   3.2644   5.1065

     occupation numbers 
     1.0000   1.0000   1.0000   1.0000   0.0000   0.0000   0.0000   0.0000

          k = 0.0000 0.1309 0.0000 (  5257 PWs)   bands (ev):

   -21.0034  -9.2943  -6.2291  -5.6959   1.7901   2.8413   3.3123   5.1533

     occupation numbers 
     1.0000   1.0000   1.0000   1.0000   0.0000   0.0000   0.0000   0.0000

          k = 0.0000 0.1386 0.0000 (  5261 PWs)   bands (ev):

   -20.9671  -9.2507  -6.3527  -5.7580   1.8396   2.8912   3.3631   5.2029

     occupation numbers 
     1.0000   1.0000   1.0000   1.0000   0.0000   0.0000   0.0000   0.0000

          k = 0.0000 0.1463 0.0000 (  5265 PWs)   bands (ev):

   -20.9288  -9.2046  -6.4810  -5.8218   1.8920   2.9441   3.4168   5.2553

     occupation numbers 
     1.0000   1.0000   1.0000   1.0000   0.0000   0.0000   0.0000   0.0000

          k = 0.0000 0.1540 0.0000 (  5259 PWs)   bands (ev):

   -20.8884  -9.1561  -6.6137  -5.8872   1.9471   2.9997   3.4734   5.3105

     occupation numbers 
     1.0000   1.0000   1.0000   1.0000   0.0000   0.0000   0.0000   0.0000

          k = 0.0000 0.1617 0.0000 (  5263 PWs)   bands (ev):

   -20.8459  -9.1052  -6.7504  -5.9540   2.0051   3.0582   3.5329   5.3684

     occupation numbers 
     1.0000   1.0000   1.0000   1.0000   0.0000   0.0000   0.0000   0.0000

          k = 0.0000 0.1694 0.0000 (  5261 PWs)   bands (ev):

   -20.8014  -9.0519  -6.8910  -6.0219   2.0659   3.1195   3.5953   5.4291

     occupation numbers 
     1.0000   1.0000   1.0000   1.0000   0.0000   0.0000   0.0000   0.0000

          k = 0.0000 0.1771 0.0000 (  5257 PWs)   bands (ev):

   -20.7548  -8.9961  -7.0352  -6.0909   2.1295   3.1836   3.6606   5.4925

     occupation numbers 
     1.0000   1.0000   1.0000   1.0000   0.0000   0.0000   0.0000   0.0000

          k = 0.0000 0.1848 0.0000 (  5257 PWs)   bands (ev):

   -20.7062  -8.9380  -7.1826  -6.1606   2.1960   3.2505   3.7288   5.5586

     occupation numbers 
     1.0000   1.0000   1.0000   1.0000   0.0000   0.0000   0.0000   0.0000

          k = 0.0000 0.1925 0.0000 (  5253 PWs)   bands (ev):

   -20.6556  -8.8775  -7.3332  -6.2309   2.2652   3.3202   3.7999   5.6272

     occupation numbers 
     1.0000   1.0000   1.0000   1.0000   0.0000   0.0000   0.0000   0.0000

          k = 0.0000 0.2001 0.0000 (  5257 PWs)   bands (ev):

   -20.6029  -8.8146  -7.4865  -6.3017   2.3373   3.3926   3.8739   5.6984

     occupation numbers 
     1.0000   1.0000   1.0000   1.0000   0.0000   0.0000   0.0000   0.0000

          k = 0.0000 0.2078 0.0000 (  5261 PWs)   bands (ev):

   -20.5482  -8.7494  -7.6425  -6.3728   2.4122   3.4678   3.9508   5.7718

     occupation numbers 
     1.0000   1.0000   1.0000   1.0000   0.0000   0.0000   0.0000   0.0000

          k = 0.0000 0.2155 0.0000 (  5251 PWs)   bands (ev):

   -20.4915  -8.6818  -7.8009  -6.4441   2.4899   3.5458   4.0305   5.8471

     occupation numbers 
     1.0000   1.0000   1.0000   1.0000   0.0000   0.0000   0.0000   0.0000

          k = 0.0000 0.2232 0.0000 (  5243 PWs)   bands (ev):

   -20.4328  -8.6120  -7.9615  -6.5153   2.5704   3.6265   4.1132   5.9232

     occupation numbers 
     1.0000   1.0000   1.0000   1.0000   0.0000   0.0000   0.0000   0.0000

          k = 0.0000 0.2309 0.0000 (  5251 PWs)   bands (ev):

   -20.3720  -8.5398  -8.1240  -6.5865   2.6537   3.7098   4.1988   5.9969

     occupation numbers 
     1.0000   1.0000   1.0000   1.0000   0.0000   0.0000   0.0000   0.0000

          k = 0.0000 0.2386 0.0000 (  5255 PWs)   bands (ev):

   -20.3092  -8.4653  -8.2884  -6.6575   2.7398   3.7957   4.2872   6.0541

     occupation numbers 
     1.0000   1.0000   1.0000   1.0000   0.0000   0.0000   0.0000   0.0000

          k = 0.0000 0.2463 0.0000 (  5257 PWs)   bands (ev):

   -20.2444  -8.4544  -8.3886  -6.7280   2.8287   3.8841   4.3785   6.0305

     occupation numbers 
     1.0000   1.0000   1.0000   1.0000   0.0000   0.0000   0.0000   0.0000

          k = 0.0000 0.2540 0.0000 (  5253 PWs)   bands (ev):

   -20.1776  -8.6218  -8.3096  -6.7981   2.9204   3.9749   4.4727   5.9036

     occupation numbers 
     1.0000   1.0000   1.0000   1.0000   0.0000   0.0000   0.0000   0.0000

          k = 0.0000 0.2617 0.0000 (  5251 PWs)   bands (ev):

   -20.1088  -8.7905  -8.2285  -6.8676   3.0149   4.0678   4.5698   5.7468

     occupation numbers 
     1.0000   1.0000   1.0000   1.0000   0.0000   0.0000   0.0000   0.0000

          k = 0.0000 0.2694 0.0000 (  5255 PWs)   bands (ev):

   -20.0381  -8.9604  -8.1451  -6.9365   3.1121   4.1624   4.6697   5.5823

     occupation numbers 
     1.0000   1.0000   1.0000   1.0000   0.0000   0.0000   0.0000   0.0000

          k = 0.0000 0.2771 0.0000 (  5263 PWs)   bands (ev):

   -19.9653  -9.1312  -8.0596  -7.0045   3.2121   4.2580   4.7724   5.4152

     occupation numbers 
     1.0000   1.0000   1.0000   1.0000   0.0000   0.0000   0.0000   0.0000

          k = 0.0000 0.2848 0.0000 (  5273 PWs)   bands (ev):

   -19.8906  -9.3029  -7.9719  -7.0717   3.3149   4.3527   4.8780   5.2490

     occupation numbers 
     1.0000   1.0000   1.0000   1.0000   0.0000   0.0000   0.0000   0.0000

          k = 0.0000 0.2925 0.0000 (  5273 PWs)   bands (ev):

   -19.8139  -9.4753  -7.8822  -7.1380   3.4205   4.4419   4.9863   5.0888

     occupation numbers 
     1.0000   1.0000   1.0000   1.0000   0.0000   0.0000   0.0000   0.0000

          k = 0.0000 0.3002 0.0000 (  5271 PWs)   bands (ev):

   -19.7352  -9.6483  -7.7904  -7.2032   3.5288   4.5106   4.9502   5.0973

     occupation numbers 
     1.0000   1.0000   1.0000   1.0000   0.0000   0.0000   0.0000   0.0000

          k = 0.0000 0.3079 0.0000 (  5275 PWs)   bands (ev):

   -19.6546  -9.8217  -7.6965  -7.2673   3.6398   4.5119   4.8804   5.2109

     occupation numbers 
     1.0000   1.0000   1.0000   1.0000   0.0000   0.0000   0.0000   0.0000

          k = 0.0000 0.3156 0.0000 (  5279 PWs)   bands (ev):

   -19.5720  -9.9955  -7.6007  -7.3302   3.7535   4.4110   4.9143   5.3269

     occupation numbers 
     1.0000   1.0000   1.0000   1.0000   0.0000   0.0000   0.0000   0.0000

          k = 0.0000 0.3233 0.0000 (  5277 PWs)   bands (ev):

   -19.4875 -10.1694  -7.5030  -7.3919   3.8700   4.2585   5.0017   5.4447

     occupation numbers 
     1.0000   1.0000   1.0000   1.0000   0.0000   0.0000   0.0000   0.0000

          k = 0.0000 0.3310 0.0000 (  5271 PWs)   bands (ev):

   -19.4011 -10.3435  -7.4523  -7.4034   3.9891   4.0887   5.1083   5.5630

     occupation numbers 
     1.0000   1.0000   1.0000   1.0000   0.0000   0.0000   0.0000   0.0000

          k = 0.0000 0.3387 0.0000 (  5271 PWs)   bands (ev):

   -19.3128 -10.5177  -7.5113  -7.3020   3.9122   4.1109   5.2240   5.6767

     occupation numbers 
     1.0000   1.0000   1.0000   1.0000   0.0000   0.0000   0.0000   0.0000

          k = 0.0000 0.3464 0.0000 (  5271 PWs)   bands (ev):

   -19.2225 -10.6917  -7.5689  -7.1988   3.7323   4.2352   5.3452   5.7615

     occupation numbers 
     1.0000   1.0000   1.0000   1.0000   0.0000   0.0000   0.0000   0.0000

          k = 0.0000 0.3541 0.0000 (  5271 PWs)   bands (ev):

   -19.1304 -10.8656  -7.6250  -7.0939   3.5508   4.3621   5.4708   5.7819

     occupation numbers 
     1.0000   1.0000   1.0000   1.0000   0.0000   0.0000   0.0000   0.0000

          k = 0.0000 0.3618 0.0000 (  5267 PWs)   bands (ev):

   -19.0363 -11.0392  -7.6796  -6.9874   3.3684   4.4915   5.6001   5.7728

     occupation numbers 
     1.0000   1.0000   1.0000   1.0000   0.0000   0.0000   0.0000   0.0000

          k = 0.0000 0.3695 0.0000 (  5271 PWs)   bands (ev):

   -18.9405 -11.2124  -7.7326  -6.8794   3.1856   4.6232   5.7326   5.7572

     occupation numbers 
     1.0000   1.0000   1.0000   1.0000   0.0000   0.0000   0.0000   0.0000

          k = 0.0000 0.3772 0.0000 (  5279 PWs)   bands (ev):

   -18.8427 -11.3852  -7.7840  -6.7699   3.0028   4.7571   5.7403   5.8683

     occupation numbers 
     1.0000   1.0000   1.0000   1.0000   0.0000   0.0000   0.0000   0.0000

          k = 0.0000 0.3849 0.0000 (  5285 PWs)   bands (ev):

   -18.7432 -11.5575  -7.8338  -6.6591   2.8204   4.8927   5.7237   6.0069

     occupation numbers 
     1.0000   1.0000   1.0000   1.0000   0.0000   0.0000   0.0000   0.0000

          k = 0.0000 0.3926 0.0000 (  5283 PWs)   bands (ev):

   -18.6418 -11.7292  -7.8819  -6.5471   2.6387   5.0294   5.7087   6.1485

     occupation numbers 
     1.0000   1.0000   1.0000   1.0000   0.0000   0.0000   0.0000   0.0000

          k = 0.0000 0.4003 0.0000 (  5285 PWs)   bands (ev):

   -18.5386 -11.9002  -7.9283  -6.4340   2.4579   5.1657   5.6970   6.2928

     occupation numbers 
     1.0000   1.0000   1.0000   1.0000   0.0000   0.0000   0.0000   0.0000

          k = 0.0000 0.4080 0.0000 (  5277 PWs)   bands (ev):

   -18.4336 -12.0705  -7.9729  -6.3199   2.2783   5.2980   5.6925   6.4399

     occupation numbers 
     1.0000   1.0000   1.0000   1.0000   0.0000   0.0000   0.0000   0.0000

          k = 0.0000 0.4157 0.0000 (  5277 PWs)   bands (ev):

   -18.3269 -12.2399  -8.0157  -6.2051   2.1002   5.4160   5.7053   6.5898

     occupation numbers 
     1.0000   1.0000   1.0000   1.0000   0.0000   0.0000   0.0000   0.0000

          k = 0.0000 0.4234 0.0000 (  5285 PWs)   bands (ev):

   -18.2185 -12.4085  -8.0567  -6.0898   1.9238   5.4965   5.7589   6.7423

     occupation numbers 
     1.0000   1.0000   1.0000   1.0000   0.0000   0.0000   0.0000   0.0000

          k = 0.0000 0.4311 0.0000 (  5281 PWs)   bands (ev):

   -18.1084 -12.5760  -8.0958  -5.9740   1.7496   5.5282   5.8646   6.8974

     occupation numbers 
     1.0000   1.0000   1.0000   1.0000   0.0000   0.0000   0.0000   0.0000

          k = 0.0000 0.4388 0.0000 (  5274 PWs)   bands (ev):

   -17.9966 -12.7425  -8.1331  -5.8582   1.5777   5.5329   6.0005   7.0551

     occupation numbers 
     1.0000   1.0000   1.0000   1.0000   0.0000   0.0000   0.0000   0.0000

          k = 0.0000 0.4465 0.0000 (  5282 PWs)   bands (ev):

   -17.8832 -12.9079  -8.1685  -5.7425   1.4087   5.5276   6.1499   7.2154

     occupation numbers 
     1.0000   1.0000   1.0000   1.0000   0.0000   0.0000   0.0000   0.0000

          k = 0.0000 0.4542 0.0000 (  5284 PWs)   bands (ev):

   -17.7682 -13.0720  -8.2020  -5.6273   1.2428   5.5184   6.3065   7.3782

     occupation numbers 
     1.0000   1.0000   1.0000   1.0000   0.0000   0.0000   0.0000   0.0000

          k = 0.0000 0.4619 0.0000 (  5286 PWs)   bands (ev):

   -17.6518 -13.2349  -8.2336  -5.5129   1.0806   5.5077   6.4679   7.5435

     occupation numbers 
     1.0000   1.0000   1.0000   1.0000   0.0000   0.0000   0.0000   0.0000

          k = 0.0000 0.4696 0.0000 (  5290 PWs)   bands (ev):

   -17.5340 -13.3962  -8.2632  -5.3999   0.9224   5.4967   6.6332   7.7112

     occupation numbers 
     1.0000   1.0000   1.0000   1.0000   0.0000   0.0000   0.0000   0.0000

          k = 0.0000 0.4773 0.0000 (  5290 PWs)   bands (ev):

   -17.4148 -13.5560  -8.2908  -5.2886   0.7689   5.4857   6.8017   7.8812

     occupation numbers 
     1.0000   1.0000   1.0000   1.0000   0.0000   0.0000   0.0000   0.0000

          k = 0.0000 0.4850 0.0000 (  5282 PWs)   bands (ev):

   -17.2944 -13.7142  -8.3164  -5.1797   0.6207   5.4751   6.9733   8.0535

     occupation numbers 
     1.0000   1.0000   1.0000   1.0000   0.0000   0.0000   0.0000   0.0000

          k = 0.0000 0.4927 0.0000 (  5282 PWs)   bands (ev):

   -17.1730 -13.8704  -8.3401  -5.0738   0.4785   5.4650   7.1476   8.2281

     occupation numbers 
     1.0000   1.0000   1.0000   1.0000   0.0000   0.0000   0.0000   0.0000

          k = 0.0000 0.5004 0.0000 (  5294 PWs)   bands (ev):

   -17.0507 -14.0245  -8.3617  -4.9717   0.3430   5.4556   7.3247   8.4048

     occupation numbers 
     1.0000   1.0000   1.0000   1.0000   0.0000   0.0000   0.0000   0.0000

          k = 0.0000 0.5081 0.0000 (  5294 PWs)   bands (ev):

   -16.9279 -14.1762  -8.3813  -4.8742   0.2152   5.4469   7.5044   8.5834

     occupation numbers 
     1.0000   1.0000   1.0000   1.0000   0.0000   0.0000   0.0000   0.0000

          k = 0.0000 0.5158 0.0000 (  5294 PWs)   bands (ev):

   -16.8049 -14.3250  -8.3989  -4.7823   0.0961   5.4391   7.6865   8.7639

     occupation numbers 
     1.0000   1.0000   1.0000   1.0000   0.0000   0.0000   0.0000   0.0000

          k = 0.0000 0.5235 0.0000 (  5294 PWs)   bands (ev):

   -16.6825 -14.4704  -8.4144  -4.6970  -0.0132   5.4321   7.8711   8.9461

     occupation numbers 
     1.0000   1.0000   1.0000   1.0000   0.0000   0.0000   0.0000   0.0000

          k = 0.0000 0.5312 0.0000 (  5290 PWs)   bands (ev):

   -16.5614 -14.6113  -8.4278  -4.6195  -0.1116   5.4260   8.0581   9.1296

     occupation numbers 
     1.0000   1.0000   1.0000   1.0000   0.0000   0.0000   0.0000   0.0000

          k = 0.0000 0.5389 0.0000 (  5294 PWs)   bands (ev):

   -16.4431 -14.7464  -8.4392  -4.5510  -0.1979   5.4208   8.2473   9.3140

     occupation numbers 
     1.0000   1.0000   1.0000   1.0000   0.0000   0.0000   0.0000   0.0000

          k = 0.0000 0.5466 0.0000 (  5296 PWs)   bands (ev):

   -16.3300 -14.8733  -8.4486  -4.4927  -0.2706   5.4165   8.4387   9.4986

     occupation numbers 
     1.0000   1.0000   1.0000   1.0000   0.0000   0.0000   0.0000   0.0000

          k = 0.0000 0.5543 0.0000 (  5288 PWs)   bands (ev):

   -16.2260 -14.9880  -8.4559  -4.4459  -0.3288   5.4131   8.6320   9.6817

     occupation numbers 
     1.0000   1.0000   1.0000   1.0000   0.0000   0.0000   0.0000   0.0000

          k = 0.0000 0.5620 0.0000 (  5288 PWs)   bands (ev):

   -16.1380 -15.0837  -8.4611  -4.4116  -0.3712   5.4107   8.8270   9.6349

     occupation numbers 
     1.0000   1.0000   1.0000   1.0000   0.0000   0.0000   0.0000   0.0000

          k = 0.0000 0.5697 0.0000 (  5288 PWs)   bands (ev):

   -16.0765 -15.1498  -8.4642  -4.3907  -0.3970   5.4093   9.0222   9.4345

     occupation numbers 
     1.0000   1.0000   1.0000   1.0000   0.0000   0.0000   0.0000   0.0000

          k = 0.0000-0.5774 0.0000 (  5288 PWs)   bands (ev):

   -16.0539 -15.1739  -8.4652  -4.3836  -0.4056   5.4088   9.1800   9.2748

     occupation numbers 
     1.0000   1.0000   1.0000   1.0000   0.0000   0.0000   0.0000   0.0000

          k = 0.0067 0.0115 0.0000 (  5299 PWs)   bands (ev):

   -21.3005  -9.6522  -5.1206  -5.1148   1.3857   2.4323   2.8973   4.7471

     occupation numbers 
     1.0000   1.0000   1.0000   1.0000   0.0000   0.0000   0.0000   0.0000

          k = 0.0067 0.0192 0.0000 (  5299 PWs)   bands (ev):

   -21.2963  -9.6472  -5.1374  -5.1240   1.3913   2.4380   2.9031   4.7528

     occupation numbers 
     1.0000   1.0000   1.0000   1.0000   0.0000   0.0000   0.0000   0.0000

          k = 0.0067 0.0269 0.0000 (  5299 PWs)   bands (ev):

   -21.2901  -9.6397  -5.1627  -5.1377   1.3998   2.4466   2.9118   4.7613

     occupation numbers 
     1.0000   1.0000   1.0000   1.0000   0.0000   0.0000   0.0000   0.0000

          k = 0.0067 0.0346 0.0000 (  5301 PWs)   bands (ev):

   -21.2818  -9.6296  -5.1962  -5.1560   1.4111   2.4580   2.9234   4.7727

     occupation numbers 
     1.0000   1.0000   1.0000   1.0000   0.0000   0.0000   0.0000   0.0000

          k = 0.0067 0.0423 0.0000 (  5297 PWs)   bands (ev):

   -21.2714  -9.6171  -5.2379  -5.1785   1.4253   2.4723   2.9379   4.7869

     occupation numbers 
     1.0000   1.0000   1.0000   1.0000   0.0000   0.0000   0.0000   0.0000

          k = 0.0067 0.0500 0.0000 (  5303 PWs)   bands (ev):

   -21.2589  -9.6020  -5.2875  -5.2054   1.4422   2.4895   2.9553   4.8040

     occupation numbers 
     1.0000   1.0000   1.0000   1.0000   0.0000   0.0000   0.0000   0.0000

          k = 0.0067 0.0577 0.0000 (  5299 PWs)   bands (ev):

   -21.2443  -9.5844  -5.3449  -5.2363   1.4620   2.5096   2.9757   4.8239

     occupation numbers 
     1.0000   1.0000   1.0000   1.0000   0.0000   0.0000   0.0000   0.0000

          k = 0.0067 0.0654 0.0000 (  5301 PWs)   bands (ev):

   -21.2277  -9.5644  -5.4098  -5.2711   1.4847   2.5324   2.9989   4.8466

     occupation numbers 
     1.0000   1.0000   1.0000   1.0000   0.0000   0.0000   0.0000   0.0000

          k = 0.0067 0.0731 0.0000 (  5295 PWs)   bands (ev):

   -21.2090  -9.5418  -5.4821  -5.3097   1.5101   2.5582   3.0250   4.8722

     occupation numbers 
     1.0000   1.0000   1.0000   1.0000   0.0000   0.0000   0.0000   0.0000

          k = 0.0067 0.0808 0.0000 (  5289 PWs)   bands (ev):

   -21.1882  -9.5167  -5.5614  -5.3518   1.5384   2.5868   3.0540   4.9007

     occupation numbers 
     1.0000   1.0000   1.0000   1.0000   0.0000   0.0000   0.0000   0.0000

          k = 0.0067 0.0885 0.0000 (  5289 PWs)   bands (ev):

   -21.1653  -9.4892  -5.6476  -5.3974   1.5695   2.6183   3.0859   4.9319

     occupation numbers 
     1.0000   1.0000   1.0000   1.0000   0.0000   0.0000   0.0000   0.0000

          k = 0.0067 0.0962 0.0000 (  5285 PWs)   bands (ev):

   -21.1404  -9.4591  -5.7403  -5.4460   1.6034   2.6526   3.1208   4.9660

     occupation numbers 
     1.0000   1.0000   1.0000   1.0000   0.0000   0.0000   0.0000   0.0000

          k = 0.0067 0.1039 0.0000 (  5276 PWs)   bands (ev):

   -21.1134  -9.4266  -5.8393  -5.4976   1.6402   2.6898   3.1585   5.0029

     occupation numbers 
     1.0000   1.0000   1.0000   1.0000   0.0000   0.0000   0.0000   0.0000

          k = 0.0067 0.1116 0.0000 (  5273 PWs)   bands (ev):

   -21.0843  -9.3916  -5.9443  -5.5520   1.6798   2.7298   3.1991   5.0427

     occupation numbers 
     1.0000   1.0000   1.0000   1.0000   0.0000   0.0000   0.0000   0.0000

          k = 0.0067 0.1193 0.0000 (  5271 PWs)   bands (ev):

   -21.0532  -9.3541  -6.0549  -5.6088   1.7222   2.7727   3.2427   5.0852

     occupation numbers 
     1.0000   1.0000   1.0000   1.0000   0.0000   0.0000   0.0000   0.0000

          k = 0.0067 0.1270 0.0000 (  5262 PWs)   bands (ev):

   -21.0200  -9.3142  -6.1709  -5.6679   1.7675   2.8184   3.2891   5.1306

     occupation numbers 
     1.0000   1.0000   1.0000   1.0000   0.0000   0.0000   0.0000   0.0000

          k = 0.0067 0.1347 0.0000 (  5266 PWs)   bands (ev):

   -20.9847  -9.2718  -6.2920  -5.7291   1.8156   2.8670   3.3384   5.1788

     occupation numbers 
     1.0000   1.0000   1.0000   1.0000   0.0000   0.0000   0.0000   0.0000

          k = 0.0067 0.1424 0.0000 (  5263 PWs)   bands (ev):

   -20.9474  -9.2270  -6.4178  -5.7922   1.8665   2.9184   3.3907   5.2298

     occupation numbers 
     1.0000   1.0000   1.0000   1.0000   0.0000   0.0000   0.0000   0.0000

          k = 0.0067 0.1501 0.0000 (  5263 PWs)   bands (ev):

   -20.9080  -9.1797  -6.5482  -5.8569   1.9203   2.9726   3.4458   5.2836

     occupation numbers 
     1.0000   1.0000   1.0000   1.0000   0.0000   0.0000   0.0000   0.0000

          k = 0.0067 0.1578 0.0000 (  5263 PWs)   bands (ev):

   -20.8666  -9.1300  -6.6829  -5.9231   1.9768   3.0297   3.5039   5.3402

     occupation numbers 
     1.0000   1.0000   1.0000   1.0000   0.0000   0.0000   0.0000   0.0000

          k = 0.0067 0.1655 0.0000 (  5261 PWs)   bands (ev):

   -20.8231  -9.0779  -6.8215  -5.9905   2.0362   3.0895   3.5648   5.3995

     occupation numbers 
     1.0000   1.0000   1.0000   1.0000   0.0000   0.0000   0.0000   0.0000

          k = 0.0067 0.1732 0.0000 (  5259 PWs)   bands (ev):

   -20.7776  -9.0234  -6.9638  -6.0590   2.0984   3.1522   3.6287   5.4615

     occupation numbers 
     1.0000   1.0000   1.0000   1.0000   0.0000   0.0000   0.0000   0.0000

          k = 0.0067 0.1809 0.0000 (  5257 PWs)   bands (ev):

   -20.7300  -8.9664  -7.1095  -6.1284   2.1635   3.2177   3.6954   5.5263

     occupation numbers 
     1.0000   1.0000   1.0000   1.0000   0.0000   0.0000   0.0000   0.0000

          k = 0.0067 0.1886 0.0000 (  5253 PWs)   bands (ev):

   -20.6804  -8.9071  -7.2584  -6.1985   2.2313   3.2860   3.7651   5.5937

     occupation numbers 
     1.0000   1.0000   1.0000   1.0000   0.0000   0.0000   0.0000   0.0000

          k = 0.0067 0.1963 0.0000 (  5251 PWs)   bands (ev):

   -20.6287  -8.8454  -7.4103  -6.2691   2.3020   3.3571   3.8376   5.6636

     occupation numbers 
     1.0000   1.0000   1.0000   1.0000   0.0000   0.0000   0.0000   0.0000

          k = 0.0067 0.2040 0.0000 (  5255 PWs)   bands (ev):

   -20.5751  -8.7814  -7.5649  -6.3401   2.3755   3.4310   3.9131   5.7359

     occupation numbers 
     1.0000   1.0000   1.0000   1.0000   0.0000   0.0000   0.0000   0.0000

          k = 0.0067 0.2117 0.0000 (  5255 PWs)   bands (ev):

   -20.5193  -8.7150  -7.7221  -6.4114   2.4517   3.5076   3.9914   5.8104

     occupation numbers 
     1.0000   1.0000   1.0000   1.0000   0.0000   0.0000   0.0000   0.0000

          k = 0.0067 0.2194 0.0000 (  5253 PWs)   bands (ev):

   -20.4616  -8.6463  -7.8815  -6.4827   2.5308   3.5869   4.0726   5.8862

     occupation numbers 
     1.0000   1.0000   1.0000   1.0000   0.0000   0.0000   0.0000   0.0000

          k = 0.0067 0.2271 0.0000 (  5257 PWs)   bands (ev):

   -20.4018  -8.5752  -8.0430  -6.5540   2.6127   3.6689   4.1567   5.9618

     occupation numbers 
     1.0000   1.0000   1.0000   1.0000   0.0000   0.0000   0.0000   0.0000

          k = 0.0067 0.2348 0.0000 (  5259 PWs)   bands (ev):

   -20.3401  -8.5019  -8.2064  -6.6251   2.6975   3.7535   4.2437   6.0306

     occupation numbers 
     1.0000   1.0000   1.0000   1.0000   0.0000   0.0000   0.0000   0.0000

          k = 0.0067 0.2425 0.0000 (  5258 PWs)   bands (ev):

   -20.2763  -8.4263  -8.3715  -6.6959   2.7850   3.8407   4.3336   6.0591

     occupation numbers 
     1.0000   1.0000   1.0000   1.0000   0.0000   0.0000   0.0000   0.0000

          k = 0.0067 0.2502 0.0000 (  5257 PWs)   bands (ev):

   -20.2105  -8.5382  -8.3485  -6.7663   2.8753   3.9303   4.4264   5.9731

     occupation numbers 
     1.0000   1.0000   1.0000   1.0000   0.0000   0.0000   0.0000   0.0000

          k = 0.0067 0.2579 0.0000 (  5247 PWs)   bands (ev):

   -20.1427  -8.7063  -8.2684  -6.8361   2.9683   4.0221   4.5220   5.8256

     occupation numbers 
     1.0000   1.0000   1.0000   1.0000   0.0000   0.0000   0.0000   0.0000

          k = 0.0067 0.2656 0.0000 (  5253 PWs)   bands (ev):

   -20.0729  -8.8755  -8.1861  -6.9053   3.0642   4.1160   4.6205   5.6638

     occupation numbers 
     1.0000   1.0000   1.0000   1.0000   0.0000   0.0000   0.0000   0.0000

          k = 0.0067 0.2733 0.0000 (  5259 PWs)   bands (ev):

   -20.0012  -9.0458  -8.1017  -6.9738   3.1628   4.2112   4.7218   5.4976

     occupation numbers 
     1.0000   1.0000   1.0000   1.0000   0.0000   0.0000   0.0000   0.0000

          k = 0.0067 0.2810 0.0000 (  5267 PWs)   bands (ev):

   -19.9274  -9.2171  -8.0151  -7.0415   3.2643   4.3067   4.8260   5.3305

     occupation numbers 
     1.0000   1.0000   1.0000   1.0000   0.0000   0.0000   0.0000   0.0000

          k = 0.0067 0.2887 0.0000 (  5269 PWs)   bands (ev):

   -19.8517  -9.3891  -7.9264  -7.1082   3.3684   4.3996   4.9329   5.1663

     occupation numbers 
     1.0000   1.0000   1.0000   1.0000   0.0000   0.0000   0.0000   0.0000

          k = 0.0067 0.2964 0.0000 (  5267 PWs)   bands (ev):

   -19.7740  -9.5617  -7.8356  -7.1740   3.4754   4.4817   5.0138   5.0426

     occupation numbers 
     1.0000   1.0000   1.0000   1.0000   0.0000   0.0000   0.0000   0.0000

          k = 0.0067 0.3041 0.0000 (  5273 PWs)   bands (ev):

   -19.6944  -9.7349  -7.7428  -7.2386   3.5850   4.5246   4.9017   5.1549

     occupation numbers 
     1.0000   1.0000   1.0000   1.0000   0.0000   0.0000   0.0000   0.0000

          k = 0.0067 0.3118 0.0000 (  5275 PWs)   bands (ev):

   -19.6128  -9.9084  -7.6480  -7.3022   3.6974   4.4716   4.8870   5.2698

     occupation numbers 
     1.0000   1.0000   1.0000   1.0000   0.0000   0.0000   0.0000   0.0000

          k = 0.0067 0.3195 0.0000 (  5275 PWs)   bands (ev):

   -19.5292 -10.0823  -7.5512  -7.3645   3.8125   4.3376   4.9550   5.3868

     occupation numbers 
     1.0000   1.0000   1.0000   1.0000   0.0000   0.0000   0.0000   0.0000

          k = 0.0067 0.3272 0.0000 (  5275 PWs)   bands (ev):

   -19.4438 -10.2563  -7.4525  -7.4256   3.9303   4.1741   5.0543   5.5052

     occupation numbers 
     1.0000   1.0000   1.0000   1.0000   0.0000   0.0000   0.0000   0.0000

          k = 0.0067 0.3349 0.0000 (  5275 PWs)   bands (ev):

   -19.3564 -10.4304  -7.4853  -7.3520   4.0003   4.0507   5.1662   5.6225

     occupation numbers 
     1.0000   1.0000   1.0000   1.0000   0.0000   0.0000   0.0000   0.0000

          k = 0.0067 0.3426 0.0000 (  5267 PWs)   bands (ev):

   -19.2671 -10.6045  -7.5436  -7.2497   3.8218   4.1738   5.2849   5.7279

     occupation numbers 
     1.0000   1.0000   1.0000   1.0000   0.0000   0.0000   0.0000   0.0000

          k = 0.0067 0.3503 0.0000 (  5265 PWs)   bands (ev):

   -19.1759 -10.7784  -7.6005  -7.1456   3.6410   4.2995   5.4084   5.7821

     occupation numbers 
     1.0000   1.0000   1.0000   1.0000   0.0000   0.0000   0.0000   0.0000

          k = 0.0067 0.3580 0.0000 (  5266 PWs)   bands (ev):

   -19.0828 -10.9521  -7.6559  -7.0399   3.4590   4.4276   5.5359   5.7831

     occupation numbers 
     1.0000   1.0000   1.0000   1.0000   0.0000   0.0000   0.0000   0.0000

          k = 0.0067 0.3657 0.0000 (  5268 PWs)   bands (ev):

   -18.9879 -11.1255  -7.7097  -6.9327   3.2764   4.5582   5.6669   5.7698

     occupation numbers 
     1.0000   1.0000   1.0000   1.0000   0.0000   0.0000   0.0000   0.0000

          k = 0.0067 0.3734 0.0000 (  5275 PWs)   bands (ev):

   -18.8911 -11.2985  -7.7619  -6.8239   3.0936   4.6910   5.7533   5.8010

     occupation numbers 
     1.0000   1.0000   1.0000   1.0000   0.0000   0.0000   0.0000   0.0000

          k = 0.0067 0.3811 0.0000 (  5277 PWs)   bands (ev):

   -18.7924 -11.4711  -7.8125  -6.7138   2.9110   4.8258   5.7364   5.9382

     occupation numbers 
     1.0000   1.0000   1.0000   1.0000   0.0000   0.0000   0.0000   0.0000

          k = 0.0067 0.3887 0.0000 (  5281 PWs)   bands (ev):

   -18.6919 -11.6431  -7.8615  -6.6023   2.7289   4.9621   5.7204   6.0783

     occupation numbers 
     1.0000   1.0000   1.0000   1.0000   0.0000   0.0000   0.0000   0.0000

          k = 0.0067 0.3964 0.0000 (  5279 PWs)   bands (ev):

   -18.5897 -11.8144  -7.9087  -6.4898   2.5477   5.0990   5.7067   6.2212

     occupation numbers 
     1.0000   1.0000   1.0000   1.0000   0.0000   0.0000   0.0000   0.0000

          k = 0.0067 0.4041 0.0000 (  5281 PWs)   bands (ev):

   -18.4856 -11.9850  -7.9542  -6.3762   2.3674   5.2341   5.6977   6.3670

     occupation numbers 
     1.0000   1.0000   1.0000   1.0000   0.0000   0.0000   0.0000   0.0000

          k = 0.0067 0.4118 0.0000 (  5285 PWs)   bands (ev):

   -18.3797 -12.1549  -7.9979  -6.2617   2.1886   5.3616   5.6995   6.5154

     occupation numbers 
     1.0000   1.0000   1.0000   1.0000   0.0000   0.0000   0.0000   0.0000

          k = 0.0067 0.4195 0.0000 (  5280 PWs)   bands (ev):

   -18.2722 -12.3239  -8.0398  -6.1466   2.0113   5.4652   5.7284   6.6666

     occupation numbers 
     1.0000   1.0000   1.0000   1.0000   0.0000   0.0000   0.0000   0.0000

          k = 0.0067 0.4272 0.0000 (  5278 PWs)   bands (ev):

   -18.1629 -12.4919  -8.0799  -6.0310   1.8360   5.5211   5.8083   6.8204

     occupation numbers 
     1.0000   1.0000   1.0000   1.0000   0.0000   0.0000   0.0000   0.0000

          k = 0.0067 0.4349 0.0000 (  5275 PWs)   bands (ev):

   -18.0519 -12.6589  -8.1182  -5.9152   1.6630   5.5368   5.9316   6.9768

     occupation numbers 
     1.0000   1.0000   1.0000   1.0000   0.0000   0.0000   0.0000   0.0000

          k = 0.0067 0.4426 0.0000 (  5281 PWs)   bands (ev):

   -17.9394 -12.8249  -8.1545  -5.7994   1.4925   5.5354   6.0753   7.1358

     occupation numbers 
     1.0000   1.0000   1.0000   1.0000   0.0000   0.0000   0.0000   0.0000

          k = 0.0067 0.4503 0.0000 (  5291 PWs)   bands (ev):

   -17.8252 -12.9896  -8.1890  -5.6839   1.3250   5.5278   6.2286   7.2974

     occupation numbers 
     1.0000   1.0000   1.0000   1.0000   0.0000   0.0000   0.0000   0.0000

          k = 0.0067 0.4580 0.0000 (  5291 PWs)   bands (ev):

   -17.7095 -13.1531  -8.2215  -5.5691   1.1609   5.5178   6.3878   7.4614

     occupation numbers 
     1.0000   1.0000   1.0000   1.0000   0.0000   0.0000   0.0000   0.0000

          k = 0.0067 0.4657 0.0000 (  5290 PWs)   bands (ev):

   -17.5923 -13.3152  -8.2521  -5.4553   1.0007   5.5068   6.5512   7.6279

     occupation numbers 
     1.0000   1.0000   1.0000   1.0000   0.0000   0.0000   0.0000   0.0000

          k = 0.0067 0.4734 0.0000 (  5288 PWs)   bands (ev):

   -17.4738 -13.4758  -8.2807  -5.3431   0.8448   5.4958   6.7181   7.7967

     occupation numbers 
     1.0000   1.0000   1.0000   1.0000   0.0000   0.0000   0.0000   0.0000

          k = 0.0067 0.4811 0.0000 (  5286 PWs)   bands (ev):

   -17.3540 -13.6348  -8.3073  -5.2329   0.6939   5.4849   6.8882   7.9679

     occupation numbers 
     1.0000   1.0000   1.0000   1.0000   0.0000   0.0000   0.0000   0.0000

          k = 0.0067 0.4888 0.0000 (  5288 PWs)   bands (ev):

   -17.2331 -13.7919  -8.3320  -5.1255   0.5486   5.4746   7.0611   8.1413

     occupation numbers 
     1.0000   1.0000   1.0000   1.0000   0.0000   0.0000   0.0000   0.0000

          k = 0.0067 0.4965 0.0000 (  5290 PWs)   bands (ev):

   -17.1112 -13.9471  -8.3546  -5.0214   0.4096   5.4649   7.2369   8.3169

     occupation numbers 
     1.0000   1.0000   1.0000   1.0000   0.0000   0.0000   0.0000   0.0000

          k = 0.0067 0.5042 0.0000 (  5290 PWs)   bands (ev):

   -16.9886 -14.1001  -8.3752  -4.9214   0.2779   5.4558   7.4152   8.4946

     occupation numbers 
     1.0000   1.0000   1.0000   1.0000   0.0000   0.0000   0.0000   0.0000

          k = 0.0067 0.5119 0.0000 (  5296 PWs)   bands (ev):

   -16.8657 -14.2504  -8.3938  -4.8266   0.1543   5.4476   7.5961   8.6741

     occupation numbers 
     1.0000   1.0000   1.0000   1.0000   0.0000   0.0000   0.0000   0.0000

          k = 0.0067 0.5196 0.0000 (  5294 PWs)   bands (ev):

   -16.7429 -14.3975  -8.4103  -4.7378   0.0400   5.4402   7.7795   8.8555

     occupation numbers 
     1.0000   1.0000   1.0000   1.0000   0.0000   0.0000   0.0000   0.0000

          k = 0.0067 0.5273 0.0000 (  5292 PWs)   bands (ev):

   -16.6210 -14.5408  -8.4248  -4.6563  -0.0641   5.4336   7.9653   9.0383

     occupation numbers 
     1.0000   1.0000   1.0000   1.0000   0.0000   0.0000   0.0000   0.0000

          k = 0.0067 0.5350 0.0000 (  5294 PWs)   bands (ev):

   -16.5011 -14.6791  -8.4373  -4.5831  -0.1565   5.4279   8.1534   9.2223

     occupation numbers 
     1.0000   1.0000   1.0000   1.0000   0.0000   0.0000   0.0000   0.0000

          k = 0.0067 0.5427 0.0000 (  5292 PWs)   bands (ev):

   -16.3850 -14.8104  -8.4477  -4.5196  -0.2362   5.4232   8.3437   9.4068

     occupation numbers 
     1.0000   1.0000   1.0000   1.0000   0.0000   0.0000   0.0000   0.0000

          k = 0.0067 0.5504 0.0000 (  5290 PWs)   bands (ev):

   -16.2758 -14.9319  -8.4560  -4.4669  -0.3018   5.4194   8.5361   9.5908

     occupation numbers 
     1.0000   1.0000   1.0000   1.0000   0.0000   0.0000   0.0000   0.0000

          k = 0.0067 0.5581 0.0000 (  5290 PWs)   bands (ev):

   -16.1787 -15.0381  -8.4622  -4.4262  -0.3522   5.4165   8.7303   9.7373

     occupation numbers 
     1.0000   1.0000   1.0000   1.0000   0.0000   0.0000   0.0000   0.0000

          k = 0.0067 0.5658 0.0000 (  5286 PWs)   bands (ev):

   -16.1024 -15.1206  -8.4664  -4.3985  -0.3864   5.4146   8.9257   9.5349

     occupation numbers 
     1.0000   1.0000   1.0000   1.0000   0.0000   0.0000   0.0000   0.0000

          k = 0.0067 0.5735 0.0000 (  5284 PWs)   bands (ev):

   -16.0590 -15.1671  -8.4684  -4.3844  -0.4037   5.4136   9.1176   9.3395

     occupation numbers 
     1.0000   1.0000   1.0000   1.0000   0.0000   0.0000   0.0000   0.0000

          k = 0.0133 0.0231 0.0000 (  5295 PWs)   bands (ev):

   -21.2911  -9.6409  -5.1584  -5.1355   1.3984   2.4451   2.9104   4.7599

     occupation numbers 
     1.0000   1.0000   1.0000   1.0000   0.0000   0.0000   0.0000   0.0000

          k = 0.0133 0.0308 0.0000 (  5299 PWs)   bands (ev):

   -21.2839  -9.6321  -5.1877  -5.1516   1.4083   2.4552   2.9205   4.7698

     occupation numbers 
     1.0000   1.0000   1.0000   1.0000   0.0000   0.0000   0.0000   0.0000

          k = 0.0133 0.0385 0.0000 (  5295 PWs)   bands (ev):

   -21.2745  -9.6208  -5.2251  -5.1721   1.4210   2.4680   2.9336   4.7826

     occupation numbers 
     1.0000   1.0000   1.0000   1.0000   0.0000   0.0000   0.0000   0.0000

          k = 0.0133 0.0462 0.0000 (  5297 PWs)   bands (ev):

   -21.2631  -9.6070  -5.2706  -5.1969   1.4366   2.4838   2.9495   4.7983

     occupation numbers 
     1.0000   1.0000   1.0000   1.0000   0.0000   0.0000   0.0000   0.0000

          k = 0.0133 0.0539 0.0000 (  5299 PWs)   bands (ev):

   -21.2495  -9.5907  -5.3238  -5.2259   1.4550   2.5024   2.9684   4.8168

     occupation numbers 
     1.0000   1.0000   1.0000   1.0000   0.0000   0.0000   0.0000   0.0000

          k = 0.0133 0.0616 0.0000 (  5299 PWs)   bands (ev):

   -21.2339  -9.5719  -5.3847  -5.2589   1.4762   2.5239   2.9902   4.8381

     occupation numbers 
     1.0000   1.0000   1.0000   1.0000   0.0000   0.0000   0.0000   0.0000

          k = 0.0133 0.0693 0.0000 (  5301 PWs)   bands (ev):

   -21.2163  -9.5506  -5.4531  -5.2958   1.5002   2.5482   3.0148   4.8623

     occupation numbers 
     1.0000   1.0000   1.0000   1.0000   0.0000   0.0000   0.0000   0.0000

          k = 0.0133 0.0770 0.0000 (  5291 PWs)   bands (ev):

   -21.1965  -9.5267  -5.5286  -5.3363   1.5271   2.5754   3.0424   4.8893

     occupation numbers 
     1.0000   1.0000   1.0000   1.0000   0.0000   0.0000   0.0000   0.0000

          k = 0.0133 0.0847 0.0000 (  5291 PWs)   bands (ev):

   -21.1747  -9.5004  -5.6111  -5.3804   1.5568   2.6054   3.0729   4.9191

     occupation numbers 
     1.0000   1.0000   1.0000   1.0000   0.0000   0.0000   0.0000   0.0000

          k = 0.0133 0.0924 0.0000 (  5281 PWs)   bands (ev):

   -21.1508  -9.4716  -5.7002  -5.4277   1.5893   2.6383   3.1062   4.9518

     occupation numbers 
     1.0000   1.0000   1.0000   1.0000   0.0000   0.0000   0.0000   0.0000

          k = 0.0133 0.1001 0.0000 (  5274 PWs)   bands (ev):

   -21.1248  -9.4404  -5.7957  -5.4780   1.6247   2.6741   3.1425   4.9873

     occupation numbers 
     1.0000   1.0000   1.0000   1.0000   0.0000   0.0000   0.0000   0.0000

          k = 0.0133 0.1078 0.0000 (  5270 PWs)   bands (ev):

   -21.0968  -9.4066  -5.8974  -5.5312   1.6628   2.7127   3.1817   5.0257

     occupation numbers 
     1.0000   1.0000   1.0000   1.0000   0.0000   0.0000   0.0000   0.0000

          k = 0.0133 0.1155 0.0000 (  5261 PWs)   bands (ev):

   -21.0667  -9.3704  -6.0048  -5.5870   1.7039   2.7541   3.2238   5.0668

     occupation numbers 
     1.0000   1.0000   1.0000   1.0000   0.0000   0.0000   0.0000   0.0000

          k = 0.0133 0.1232 0.0000 (  5266 PWs)   bands (ev):

   -21.0345  -9.3317  -6.1178  -5.6452   1.7477   2.7984   3.2688   5.1108

     occupation numbers 
     1.0000   1.0000   1.0000   1.0000   0.0000   0.0000   0.0000   0.0000

          k = 0.0133 0.1309 0.0000 (  5266 PWs)   bands (ev):

   -21.0003  -9.2905  -6.2360  -5.7055   1.7944   2.8455   3.3167   5.1576

     occupation numbers 
     1.0000   1.0000   1.0000   1.0000   0.0000   0.0000   0.0000   0.0000

          k = 0.0133 0.1386 0.0000 (  5270 PWs)   bands (ev):

   -20.9640  -9.2469  -6.3592  -5.7679   1.8439   2.8955   3.3675   5.2072

     occupation numbers 
     1.0000   1.0000   1.0000   1.0000   0.0000   0.0000   0.0000   0.0000

          k = 0.0133 0.1463 0.0000 (  5265 PWs)   bands (ev):

   -20.9257  -9.2009  -6.4870  -5.8319   1.8962   2.9483   3.4212   5.2596

     occupation numbers 
     1.0000   1.0000   1.0000   1.0000   0.0000   0.0000   0.0000   0.0000

          k = 0.0133 0.1540 0.0000 (  5269 PWs)   bands (ev):

   -20.8853  -9.1524  -6.6192  -5.8976   1.9514   3.0040   3.4778   5.3147

     occupation numbers 
     1.0000   1.0000   1.0000   1.0000   0.0000   0.0000   0.0000   0.0000

          k = 0.0133 0.1617 0.0000 (  5265 PWs)   bands (ev):

   -20.8428  -9.1015  -6.7555  -5.9646   2.0094   3.0625   3.5373   5.3727

     occupation numbers 
     1.0000   1.0000   1.0000   1.0000   0.0000   0.0000   0.0000   0.0000

          k = 0.0133 0.1694 0.0000 (  5261 PWs)   bands (ev):

   -20.7983  -9.0481  -6.8957  -6.0327   2.0702   3.1237   3.5997   5.4334

     occupation numbers 
     1.0000   1.0000   1.0000   1.0000   0.0000   0.0000   0.0000   0.0000

          k = 0.0133 0.1771 0.0000 (  5259 PWs)   bands (ev):

   -20.7517  -8.9924  -7.0394  -6.1018   2.1338   3.1878   3.6650   5.4968

     occupation numbers 
     1.0000   1.0000   1.0000   1.0000   0.0000   0.0000   0.0000   0.0000

          k = 0.0133 0.1848 0.0000 (  5255 PWs)   bands (ev):

   -20.7031  -8.9343  -7.1865  -6.1717   2.2002   3.2547   3.7332   5.5628

     occupation numbers 
     1.0000   1.0000   1.0000   1.0000   0.0000   0.0000   0.0000   0.0000

          k = 0.0133 0.1925 0.0000 (  5259 PWs)   bands (ev):

   -20.6525  -8.8738  -7.3367  -6.2422   2.2695   3.3244   3.8043   5.6315

     occupation numbers 
     1.0000   1.0000   1.0000   1.0000   0.0000   0.0000   0.0000   0.0000

          k = 0.0133 0.2001 0.0000 (  5257 PWs)   bands (ev):

   -20.5998  -8.8109  -7.4897  -6.3132   2.3416   3.3969   3.8782   5.7027

     occupation numbers 
     1.0000   1.0000   1.0000   1.0000   0.0000   0.0000   0.0000   0.0000

          k = 0.0133 0.2078 0.0000 (  5257 PWs)   bands (ev):

   -20.5451  -8.7457  -7.6453  -6.3845   2.4164   3.4721   3.9551   5.7761

     occupation numbers 
     1.0000   1.0000   1.0000   1.0000   0.0000   0.0000   0.0000   0.0000

          k = 0.0133 0.2155 0.0000 (  5253 PWs)   bands (ev):

   -20.4884  -8.6782  -7.8034  -6.4559   2.4941   3.5501   4.0349   5.8514

     occupation numbers 
     1.0000   1.0000   1.0000   1.0000   0.0000   0.0000   0.0000   0.0000

          k = 0.0133 0.2232 0.0000 (  5258 PWs)   bands (ev):

   -20.4297  -8.6083  -7.9636  -6.5273   2.5746   3.6307   4.1176   5.9274

     occupation numbers 
     1.0000   1.0000   1.0000   1.0000   0.0000   0.0000   0.0000   0.0000

          k = 0.0133 0.2309 0.0000 (  5263 PWs)   bands (ev):

   -20.3689  -8.5361  -8.1259  -6.5986   2.6580   3.7141   4.2032   6.0010

     occupation numbers 
     1.0000   1.0000   1.0000   1.0000   0.0000   0.0000   0.0000   0.0000

          k = 0.0133 0.2386 0.0000 (  5260 PWs)   bands (ev):

   -20.3061  -8.4616  -8.2900  -6.6697   2.7441   3.8000   4.2916   6.0570

     occupation numbers 
     1.0000   1.0000   1.0000   1.0000   0.0000   0.0000   0.0000   0.0000

          k = 0.0133 0.2463 0.0000 (  5256 PWs)   bands (ev):

   -20.2413  -8.4557  -8.3849  -6.7404   2.8330   3.8884   4.3829   6.0286

     occupation numbers 
     1.0000   1.0000   1.0000   1.0000   0.0000   0.0000   0.0000   0.0000

          k = 0.0133 0.2540 0.0000 (  5255 PWs)   bands (ev):

   -20.1745  -8.6229  -8.3060  -6.8106   2.9247   3.9792   4.4771   5.8989

     occupation numbers 
     1.0000   1.0000   1.0000   1.0000   0.0000   0.0000   0.0000   0.0000

          k = 0.0133 0.2617 0.0000 (  5253 PWs)   bands (ev):

   -20.1058  -8.7914  -8.2248  -6.8802   3.0191   4.0721   4.5742   5.7417

     occupation numbers 
     1.0000   1.0000   1.0000   1.0000   0.0000   0.0000   0.0000   0.0000

          k = 0.0133 0.2694 0.0000 (  5255 PWs)   bands (ev):

   -20.0350  -8.9610  -8.1414  -6.9492   3.1164   4.1667   4.6741   5.5771

     occupation numbers 
     1.0000   1.0000   1.0000   1.0000   0.0000   0.0000   0.0000   0.0000

          k = 0.0133 0.2771 0.0000 (  5259 PWs)   bands (ev):

   -19.9622  -9.1317  -8.0559  -7.0173   3.2164   4.2623   4.7768   5.4102

     occupation numbers 
     1.0000   1.0000   1.0000   1.0000   0.0000   0.0000   0.0000   0.0000

          k = 0.0133 0.2848 0.0000 (  5267 PWs)   bands (ev):

   -19.8875  -9.3032  -7.9683  -7.0846   3.3192   4.3569   4.8824   5.2440

     occupation numbers 
     1.0000   1.0000   1.0000   1.0000   0.0000   0.0000   0.0000   0.0000

          k = 0.0133 0.2925 0.0000 (  5271 PWs)   bands (ev):

   -19.8108  -9.4754  -7.8785  -7.1509   3.4248   4.4460   4.9907   5.0842

     occupation numbers 
     1.0000   1.0000   1.0000   1.0000   0.0000   0.0000   0.0000   0.0000

          k = 0.0133 0.3002 0.0000 (  5269 PWs)   bands (ev):

   -19.7321  -9.6482  -7.7867  -7.2162   3.5331   4.5139   4.9466   5.1018

     occupation numbers 
     1.0000   1.0000   1.0000   1.0000   0.0000   0.0000   0.0000   0.0000

          k = 0.0133 0.3079 0.0000 (  5271 PWs)   bands (ev):

   -19.6515  -9.8214  -7.6929  -7.2804   3.6441   4.5125   4.8796   5.2154

     occupation numbers 
     1.0000   1.0000   1.0000   1.0000   0.0000   0.0000   0.0000   0.0000

          k = 0.0133 0.3156 0.0000 (  5269 PWs)   bands (ev):

   -19.5690  -9.9950  -7.5971  -7.3434   3.7578   4.4092   4.9161   5.3315

     occupation numbers 
     1.0000   1.0000   1.0000   1.0000   0.0000   0.0000   0.0000   0.0000

          k = 0.0133 0.3233 0.0000 (  5271 PWs)   bands (ev):

   -19.4845 -10.1689  -7.4994  -7.4051   3.8743   4.2558   5.0046   5.4494

     occupation numbers 
     1.0000   1.0000   1.0000   1.0000   0.0000   0.0000   0.0000   0.0000

          k = 0.0133 0.3310 0.0000 (  5271 PWs)   bands (ev):

   -19.3981 -10.3428  -7.4656  -7.3998   3.9934   4.0858   5.1116   5.5681

     occupation numbers 
     1.0000   1.0000   1.0000   1.0000   0.0000   0.0000   0.0000   0.0000

          k = 0.0133 0.3387 0.0000 (  5271 PWs)   bands (ev):

   -19.3097 -10.5168  -7.5246  -7.2984   3.9092   4.1152   5.2274   5.6830

     occupation numbers 
     1.0000   1.0000   1.0000   1.0000   0.0000   0.0000   0.0000   0.0000

          k = 0.0133 0.3464 0.0000 (  5272 PWs)   bands (ev):

   -19.2195 -10.6907  -7.5823  -7.1952   3.7295   4.2396   5.3488   5.7729

     occupation numbers 
     1.0000   1.0000   1.0000   1.0000   0.0000   0.0000   0.0000   0.0000

          k = 0.0133 0.3541 0.0000 (  5266 PWs)   bands (ev):

   -19.1273 -10.8645  -7.6384  -7.0903   3.5481   4.3665   5.4745   5.7982

     occupation numbers 
     1.0000   1.0000   1.0000   1.0000   0.0000   0.0000   0.0000   0.0000

          k = 0.0133 0.3618 0.0000 (  5266 PWs)   bands (ev):

   -19.0333 -11.0380  -7.6931  -6.9838   3.3658   4.4959   5.6037   5.7904

     occupation numbers 
     1.0000   1.0000   1.0000   1.0000   0.0000   0.0000   0.0000   0.0000

          k = 0.0133 0.3695 0.0000 (  5270 PWs)   bands (ev):

   -18.9375 -11.2111  -7.7462  -6.8758   3.1831   4.6277   5.7363   5.7751

     occupation numbers 
     1.0000   1.0000   1.0000   1.0000   0.0000   0.0000   0.0000   0.0000

          k = 0.0133 0.3772 0.0000 (  5276 PWs)   bands (ev):

   -18.8397 -11.3838  -7.7976  -6.7663   3.0005   4.7616   5.7583   5.8720

     occupation numbers 
     1.0000   1.0000   1.0000   1.0000   0.0000   0.0000   0.0000   0.0000

          k = 0.0133 0.3849 0.0000 (  5277 PWs)   bands (ev):

   -18.7402 -11.5560  -7.8474  -6.6555   2.8182   4.8973   5.7417   6.0106

     occupation numbers 
     1.0000   1.0000   1.0000   1.0000   0.0000   0.0000   0.0000   0.0000

          k = 0.0133 0.3926 0.0000 (  5274 PWs)   bands (ev):

   -18.6388 -11.7276  -7.8955  -6.5435   2.6366   5.0342   5.7265   6.1522

     occupation numbers 
     1.0000   1.0000   1.0000   1.0000   0.0000   0.0000   0.0000   0.0000

          k = 0.0133 0.4003 0.0000 (  5270 PWs)   bands (ev):

   -18.5356 -11.8986  -7.9419  -6.4304   2.4559   5.1709   5.7145   6.2965

     occupation numbers 
     1.0000   1.0000   1.0000   1.0000   0.0000   0.0000   0.0000   0.0000

          k = 0.0133 0.4080 0.0000 (  5282 PWs)   bands (ev):

   -18.4306 -12.0687  -7.9865  -6.3164   2.2764   5.3041   5.7091   6.4436

     occupation numbers 
     1.0000   1.0000   1.0000   1.0000   0.0000   0.0000   0.0000   0.0000

          k = 0.0133 0.4157 0.0000 (  5282 PWs)   bands (ev):

   -18.3239 -12.2381  -8.0294  -6.2016   2.0984   5.4243   5.7197   6.5934

     occupation numbers 
     1.0000   1.0000   1.0000   1.0000   0.0000   0.0000   0.0000   0.0000

          k = 0.0133 0.4234 0.0000 (  5280 PWs)   bands (ev):

   -18.2155 -12.4066  -8.0704  -6.0862   1.9222   5.5091   5.7690   6.7459

     occupation numbers 
     1.0000   1.0000   1.0000   1.0000   0.0000   0.0000   0.0000   0.0000

          k = 0.0133 0.4311 0.0000 (  5276 PWs)   bands (ev):

   -18.1054 -12.5741  -8.1096  -5.9705   1.7481   5.5443   5.8712   6.9010

     occupation numbers 
     1.0000   1.0000   1.0000   1.0000   0.0000   0.0000   0.0000   0.0000

          k = 0.0133 0.4388 0.0000 (  5281 PWs)   bands (ev):

   -17.9936 -12.7405  -8.1469  -5.8546   1.5764   5.5505   6.0057   7.0587

     occupation numbers 
     1.0000   1.0000   1.0000   1.0000   0.0000   0.0000   0.0000   0.0000

          k = 0.0133 0.4465 0.0000 (  5287 PWs)   bands (ev):

   -17.8803 -12.9058  -8.1823  -5.7389   1.4074   5.5456   6.1546   7.2189

     occupation numbers 
     1.0000   1.0000   1.0000   1.0000   0.0000   0.0000   0.0000   0.0000

          k = 0.0133 0.4542 0.0000 (  5293 PWs)   bands (ev):

   -17.7653 -13.0699  -8.2158  -5.6237   1.2416   5.5367   6.3109   7.3816

     occupation numbers 
     1.0000   1.0000   1.0000   1.0000   0.0000   0.0000   0.0000   0.0000

          k = 0.0133 0.4619 0.0000 (  5291 PWs)   bands (ev):

   -17.6489 -13.2327  -8.2474  -5.5094   1.0794   5.5262   6.4722   7.5469

     occupation numbers 
     1.0000   1.0000   1.0000   1.0000   0.0000   0.0000   0.0000   0.0000

          k = 0.0133 0.4696 0.0000 (  5289 PWs)   bands (ev):

   -17.5311 -13.3940  -8.2770  -5.3963   0.9213   5.5152   6.6374   7.7145

     occupation numbers 
     1.0000   1.0000   1.0000   1.0000   0.0000   0.0000   0.0000   0.0000

          k = 0.0133 0.4773 0.0000 (  5293 PWs)   bands (ev):

   -17.4119 -13.5538  -8.3046  -5.2850   0.7679   5.5042   6.8059   7.8844

     occupation numbers 
     1.0000   1.0000   1.0000   1.0000   0.0000   0.0000   0.0000   0.0000

          k = 0.0133 0.4850 0.0000 (  5285 PWs)   bands (ev):

   -17.2915 -13.7118  -8.3303  -5.1761   0.6198   5.4936   6.9774   8.0567

     occupation numbers 
     1.0000   1.0000   1.0000   1.0000   0.0000   0.0000   0.0000   0.0000

          k = 0.0133 0.4927 0.0000 (  5286 PWs)   bands (ev):

   -17.1701 -13.8680  -8.3539  -5.0702   0.4776   5.4836   7.1517   8.2311

     occupation numbers 
     1.0000   1.0000   1.0000   1.0000   0.0000   0.0000   0.0000   0.0000

          k = 0.0133 0.5004 0.0000 (  5288 PWs)   bands (ev):

   -17.0479 -14.0221  -8.3755  -4.9681   0.3422   5.4742   7.3288   8.4077

     occupation numbers 
     1.0000   1.0000   1.0000   1.0000   0.0000   0.0000   0.0000   0.0000

          k = 0.0133 0.5081 0.0000 (  5282 PWs)   bands (ev):

   -16.9251 -14.1737  -8.3951  -4.8706   0.2144   5.4656   7.5084   8.5862

     occupation numbers 
     1.0000   1.0000   1.0000   1.0000   0.0000   0.0000   0.0000   0.0000

          k = 0.0133 0.5158 0.0000 (  5286 PWs)   bands (ev):

   -16.8021 -14.3225  -8.4127  -4.7786   0.0953   5.4577   7.6905   8.7666

     occupation numbers 
     1.0000   1.0000   1.0000   1.0000   0.0000   0.0000   0.0000   0.0000

          k = 0.0133 0.5235 0.0000 (  5292 PWs)   bands (ev):

   -16.6797 -14.4678  -8.4282  -4.6933  -0.0140   5.4507   7.8751   8.9486

     occupation numbers 
     1.0000   1.0000   1.0000   1.0000   0.0000   0.0000   0.0000   0.0000

          k = 0.0133 0.5312 0.0000 (  5290 PWs)   bands (ev):

   -16.5586 -14.6087  -8.4417  -4.6158  -0.1124   5.4446   8.0620   9.1319

     occupation numbers 
     1.0000   1.0000   1.0000   1.0000   0.0000   0.0000   0.0000   0.0000

          k = 0.0133 0.5389 0.0000 (  5294 PWs)   bands (ev):

   -16.4403 -14.7438  -8.4531  -4.5472  -0.1986   5.4394   8.2512   9.3160

     occupation numbers 
     1.0000   1.0000   1.0000   1.0000   0.0000   0.0000   0.0000   0.0000

          k = 0.0133 0.5466 0.0000 (  5288 PWs)   bands (ev):

   -16.3272 -14.8707  -8.4625  -4.4890  -0.2714   5.4351   8.4426   9.5002

     occupation numbers 
     1.0000   1.0000   1.0000   1.0000   0.0000   0.0000   0.0000   0.0000

          k = 0.0133 0.5543 0.0000 (  5294 PWs)   bands (ev):

   -16.2233 -14.9853  -8.4697  -4.4421  -0.3295   5.4318   8.6359   9.6829

     occupation numbers 
     1.0000   1.0000   1.0000   1.0000   0.0000   0.0000   0.0000   0.0000

          k = 0.0133 0.5620 0.0000 (  5288 PWs)   bands (ev):

   -16.1353 -15.0810  -8.4749  -4.4078  -0.3719   5.4294   8.8308   9.6384

     occupation numbers 
     1.0000   1.0000   1.0000   1.0000   0.0000   0.0000   0.0000   0.0000

          k = 0.0133 0.5697 0.0000 (  5286 PWs)   bands (ev):

   -16.0738 -15.1471  -8.4781  -4.3869  -0.3977   5.4279   9.0259   9.4381

     occupation numbers 
     1.0000   1.0000   1.0000   1.0000   0.0000   0.0000   0.0000   0.0000

          k = 0.0133 0.5774 0.0000 (  5288 PWs)   bands (ev):

   -16.0513 -15.1712  -8.4791  -4.3798  -0.4064   5.4275   9.1836   9.2786

     occupation numbers 
     1.0000   1.0000   1.0000   1.0000   0.0000   0.0000   0.0000   0.0000

          k = 0.0200 0.0346 0.0000 (  5297 PWs)   bands (ev):

   -21.2755  -9.6221  -5.2208  -5.1699   1.4196   2.4666   2.9321   4.7812

     occupation numbers 
     1.0000   1.0000   1.0000   1.0000   0.0000   0.0000   0.0000   0.0000

          k = 0.0200 0.0423 0.0000 (  5303 PWs)   bands (ev):

   -21.2651  -9.6095  -5.2620  -5.1928   1.4338   2.4809   2.9466   4.7954

     occupation numbers 
     1.0000   1.0000   1.0000   1.0000   0.0000   0.0000   0.0000   0.0000

          k = 0.0200 0.0500 0.0000 (  5299 PWs)   bands (ev):

   -21.2527  -9.5945  -5.3110  -5.2199   1.4507   2.4981   2.9641   4.8125

     occupation numbers 
     1.0000   1.0000   1.0000   1.0000   0.0000   0.0000   0.0000   0.0000

          k = 0.0200 0.0577 0.0000 (  5299 PWs)   bands (ev):

   -21.2381  -9.5769  -5.3676  -5.2511   1.4705   2.5181   2.9844   4.8324

     occupation numbers 
     1.0000   1.0000   1.0000   1.0000   0.0000   0.0000   0.0000   0.0000

          k = 0.0200 0.0654 0.0000 (  5299 PWs)   bands (ev):

   -21.2215  -9.5568  -5.4318  -5.2863   1.4931   2.5410   3.0076   4.8552

     occupation numbers 
     1.0000   1.0000   1.0000   1.0000   0.0000   0.0000   0.0000   0.0000

          k = 0.0200 0.0731 0.0000 (  5293 PWs)   bands (ev):

   -21.2028  -9.5343  -5.5032  -5.3253   1.5186   2.5668   3.0337   4.8808

     occupation numbers 
     1.0000   1.0000   1.0000   1.0000   0.0000   0.0000   0.0000   0.0000

          k = 0.0200 0.0808 0.0000 (  5289 PWs)   bands (ev):

   -21.1820  -9.5092  -5.5817  -5.3679   1.5469   2.5954   3.0627   4.9092

     occupation numbers 
     1.0000   1.0000   1.0000   1.0000   0.0000   0.0000   0.0000   0.0000

          k = 0.0200 0.0885 0.0000 (  5285 PWs)   bands (ev):

   -21.1591  -9.4817  -5.6670  -5.4139   1.5780   2.6269   3.0946   4.9404

     occupation numbers 
     1.0000   1.0000   1.0000   1.0000   0.0000   0.0000   0.0000   0.0000

          k = 0.0200 0.0962 0.0000 (  5283 PWs)   bands (ev):

   -21.1342  -9.4516  -5.7587  -5.4630   1.6119   2.6612   3.1295   4.9745

     occupation numbers 
     1.0000   1.0000   1.0000   1.0000   0.0000   0.0000   0.0000   0.0000

          k = 0.0200 0.1039 0.0000 (  5274 PWs)   bands (ev):

   -21.1072  -9.4191  -5.8567  -5.5151   1.6487   2.6984   3.1672   5.0115

     occupation numbers 
     1.0000   1.0000   1.0000   1.0000   0.0000   0.0000   0.0000   0.0000

          k = 0.0200 0.1116 0.0000 (  5265 PWs)   bands (ev):

   -21.0781  -9.3841  -5.9607  -5.5699   1.6883   2.7384   3.2078   5.0512

     occupation numbers 
     1.0000   1.0000   1.0000   1.0000   0.0000   0.0000   0.0000   0.0000

          k = 0.0200 0.1193 0.0000 (  5264 PWs)   bands (ev):

   -21.0470  -9.3467  -6.0703  -5.6272   1.7307   2.7813   3.2514   5.0938

     occupation numbers 
     1.0000   1.0000   1.0000   1.0000   0.0000   0.0000   0.0000   0.0000

          k = 0.0200 0.1270 0.0000 (  5270 PWs)   bands (ev):

   -21.0138  -9.3067  -6.1853  -5.6868   1.7760   2.8270   3.2978   5.1392

     occupation numbers 
     1.0000   1.0000   1.0000   1.0000   0.0000   0.0000   0.0000   0.0000

          k = 0.0200 0.1347 0.0000 (  5270 PWs)   bands (ev):

   -20.9785  -9.2644  -6.3055  -5.7485   1.8241   2.8755   3.3472   5.1873

     occupation numbers 
     1.0000   1.0000   1.0000   1.0000   0.0000   0.0000   0.0000   0.0000

          k = 0.0200 0.1424 0.0000 (  5268 PWs)   bands (ev):

   -20.9412  -9.2195  -6.4304  -5.8120   1.8750   2.9269   3.3994   5.2383

     occupation numbers 
     1.0000   1.0000   1.0000   1.0000   0.0000   0.0000   0.0000   0.0000

          k = 0.0200 0.1501 0.0000 (  5271 PWs)   bands (ev):

   -20.9018  -9.1723  -6.5599  -5.8772   1.9288   2.9812   3.4545   5.2921

     occupation numbers 
     1.0000   1.0000   1.0000   1.0000   0.0000   0.0000   0.0000   0.0000

          k = 0.0200 0.1578 0.0000 (  5275 PWs)   bands (ev):

   -20.8604  -9.1226  -6.6936  -5.9438   1.9853   3.0382   3.5126   5.3487

     occupation numbers 
     1.0000   1.0000   1.0000   1.0000   0.0000   0.0000   0.0000   0.0000

          k = 0.0200 0.1655 0.0000 (  5265 PWs)   bands (ev):

   -20.8169  -9.0705  -6.8313  -6.0117   2.0447   3.0981   3.5735   5.4080

     occupation numbers 
     1.0000   1.0000   1.0000   1.0000   0.0000   0.0000   0.0000   0.0000

          k = 0.0200 0.1732 0.0000 (  5263 PWs)   bands (ev):

   -20.7714  -9.0159  -6.9728  -6.0806   2.1069   3.1608   3.6374   5.4700

     occupation numbers 
     1.0000   1.0000   1.0000   1.0000   0.0000   0.0000   0.0000   0.0000

          k = 0.0200 0.1809 0.0000 (  5261 PWs)   bands (ev):

   -20.7238  -8.9590  -7.1177  -6.1504   2.1720   3.2263   3.7041   5.5348

     occupation numbers 
     1.0000   1.0000   1.0000   1.0000   0.0000   0.0000   0.0000   0.0000

          k = 0.0200 0.1886 0.0000 (  5257 PWs)   bands (ev):

   -20.6742  -8.8997  -7.2659  -6.2208   2.2398   3.2946   3.7738   5.6022

     occupation numbers 
     1.0000   1.0000   1.0000   1.0000   0.0000   0.0000   0.0000   0.0000

          k = 0.0200 0.1963 0.0000 (  5261 PWs)   bands (ev):

   -20.6226  -8.8380  -7.4171  -6.2918   2.3105   3.3657   3.8463   5.6721

     occupation numbers 
     1.0000   1.0000   1.0000   1.0000   0.0000   0.0000   0.0000   0.0000

          k = 0.0200 0.2040 0.0000 (  5261 PWs)   bands (ev):

   -20.5689  -8.7740  -7.5710  -6.3632   2.3840   3.4395   3.9218   5.7445

     occupation numbers 
     1.0000   1.0000   1.0000   1.0000   0.0000   0.0000   0.0000   0.0000

          k = 0.0200 0.2117 0.0000 (  5263 PWs)   bands (ev):

   -20.5132  -8.7076  -7.7274  -6.4348   2.4603   3.5161   4.0001   5.8189

     occupation numbers 
     1.0000   1.0000   1.0000   1.0000   0.0000   0.0000   0.0000   0.0000

          k = 0.0200 0.2194 0.0000 (  5257 PWs)   bands (ev):

   -20.4554  -8.6389  -7.8862  -6.5064   2.5394   3.5954   4.0814   5.8948

     occupation numbers 
     1.0000   1.0000   1.0000   1.0000   0.0000   0.0000   0.0000   0.0000

          k = 0.0200 0.2271 0.0000 (  5257 PWs)   bands (ev):

   -20.3957  -8.5679  -8.0471  -6.5780   2.6213   3.6774   4.1655   5.9702

     occupation numbers 
     1.0000   1.0000   1.0000   1.0000   0.0000   0.0000   0.0000   0.0000

          k = 0.0200 0.2348 0.0000 (  5260 PWs)   bands (ev):

   -20.3339  -8.4946  -8.2100  -6.6494   2.7060   3.7620   4.2525   6.0382

     occupation numbers 
     1.0000   1.0000   1.0000   1.0000   0.0000   0.0000   0.0000   0.0000

          k = 0.0200 0.2425 0.0000 (  5262 PWs)   bands (ev):

   -20.2701  -8.4190  -8.3745  -6.7204   2.7935   3.8492   4.3424   6.0603

     occupation numbers 
     1.0000   1.0000   1.0000   1.0000   0.0000   0.0000   0.0000   0.0000

          k = 0.0200 0.2502 0.0000 (  5264 PWs)   bands (ev):

   -20.2043  -8.5407  -8.3411  -6.7910   2.8838   3.9389   4.4351   5.9652

     occupation numbers 
     1.0000   1.0000   1.0000   1.0000   0.0000   0.0000   0.0000   0.0000

          k = 0.0200 0.2579 0.0000 (  5261 PWs)   bands (ev):

   -20.1366  -8.7083  -8.2611  -6.8611   2.9769   4.0307   4.5308   5.8155

     occupation numbers 
     1.0000   1.0000   1.0000   1.0000   0.0000   0.0000   0.0000   0.0000

          k = 0.0200 0.2656 0.0000 (  5263 PWs)   bands (ev):

   -20.0668  -8.8771  -8.1788  -6.9305   3.0728   4.1246   4.6293   5.6534

     occupation numbers 
     1.0000   1.0000   1.0000   1.0000   0.0000   0.0000   0.0000   0.0000

          k = 0.0200 0.2733 0.0000 (  5257 PWs)   bands (ev):

   -19.9950  -9.0469  -8.0944  -6.9992   3.1714   4.2198   4.7306   5.4873

     occupation numbers 
     1.0000   1.0000   1.0000   1.0000   0.0000   0.0000   0.0000   0.0000

          k = 0.0200 0.2810 0.0000 (  5261 PWs)   bands (ev):

   -19.9213  -9.2178  -8.0078  -7.0671   3.2728   4.3152   4.8348   5.3205

     occupation numbers 
     1.0000   1.0000   1.0000   1.0000   0.0000   0.0000   0.0000   0.0000

          k = 0.0200 0.2887 0.0000 (  5269 PWs)   bands (ev):

   -19.8456  -9.3894  -7.9191  -7.1340   3.3770   4.4080   4.9418   5.1568

     occupation numbers 
     1.0000   1.0000   1.0000   1.0000   0.0000   0.0000   0.0000   0.0000

          k = 0.0200 0.2964 0.0000 (  5269 PWs)   bands (ev):

   -19.7679  -9.5617  -7.8284  -7.1999   3.4839   4.4893   5.0054   5.0515

     occupation numbers 
     1.0000   1.0000   1.0000   1.0000   0.0000   0.0000   0.0000   0.0000

          k = 0.0200 0.3041 0.0000 (  5263 PWs)   bands (ev):

   -19.6883  -9.7345  -7.7356  -7.2647   3.5936   4.5289   4.8969   5.1639

     occupation numbers 
     1.0000   1.0000   1.0000   1.0000   0.0000   0.0000   0.0000   0.0000

          k = 0.0200 0.3118 0.0000 (  5267 PWs)   bands (ev):

   -19.6067  -9.9077  -7.6408  -7.3284   3.7060   4.4698   4.8886   5.2788

     occupation numbers 
     1.0000   1.0000   1.0000   1.0000   0.0000   0.0000   0.0000   0.0000

          k = 0.0200 0.3195 0.0000 (  5271 PWs)   bands (ev):

   -19.5232 -10.0813  -7.5440  -7.3909   3.8211   4.3328   4.9600   5.3960

     occupation numbers 
     1.0000   1.0000   1.0000   1.0000   0.0000   0.0000   0.0000   0.0000

          k = 0.0200 0.3272 0.0000 (  5267 PWs)   bands (ev):

   -19.4377 -10.2550  -7.4520  -7.4453   3.9389   4.1684   5.0606   5.5148

     occupation numbers 
     1.0000   1.0000   1.0000   1.0000   0.0000   0.0000   0.0000   0.0000

          k = 0.0200 0.3349 0.0000 (  5270 PWs)   bands (ev):

   -19.3503 -10.4288  -7.5119  -7.3448   3.9944   4.0594   5.1730   5.6333

     occupation numbers 
     1.0000   1.0000   1.0000   1.0000   0.0000   0.0000   0.0000   0.0000

          k = 0.0200 0.3426 0.0000 (  5270 PWs)   bands (ev):

   -19.2610 -10.6026  -7.5703  -7.2425   3.8160   4.1825   5.2920   5.7433

     occupation numbers 
     1.0000   1.0000   1.0000   1.0000   0.0000   0.0000   0.0000   0.0000

          k = 0.0200 0.3503 0.0000 (  5270 PWs)   bands (ev):

   -19.1699 -10.7763  -7.6273  -7.1385   3.6354   4.3082   5.4157   5.8103

     occupation numbers 
     1.0000   1.0000   1.0000   1.0000   0.0000   0.0000   0.0000   0.0000

          k = 0.0200 0.3580 0.0000 (  5260 PWs)   bands (ev):

   -19.0768 -10.9498  -7.6827  -7.0328   3.4536   4.4364   5.5433   5.8173

     occupation numbers 
     1.0000   1.0000   1.0000   1.0000   0.0000   0.0000   0.0000   0.0000

          k = 0.0200 0.3657 0.0000 (  5267 PWs)   bands (ev):

   -18.9819 -11.1230  -7.7366  -6.9255   3.2712   4.5670   5.6742   5.8053

     occupation numbers 
     1.0000   1.0000   1.0000   1.0000   0.0000   0.0000   0.0000   0.0000

          k = 0.0200 0.3734 0.0000 (  5271 PWs)   bands (ev):

   -18.8851 -11.2958  -7.7890  -6.8168   3.0887   4.7000   5.7891   5.8084

     occupation numbers 
     1.0000   1.0000   1.0000   1.0000   0.0000   0.0000   0.0000   0.0000

          k = 0.0200 0.3811 0.0000 (  5267 PWs)   bands (ev):

   -18.7864 -11.4682  -7.8396  -6.7067   2.9064   4.8350   5.7723   5.9456

     occupation numbers 
     1.0000   1.0000   1.0000   1.0000   0.0000   0.0000   0.0000   0.0000

          k = 0.0200 0.3887 0.0000 (  5270 PWs)   bands (ev):

   -18.6860 -11.6400  -7.8886  -6.5952   2.7246   4.9715   5.7562   6.0857

     occupation numbers 
     1.0000   1.0000   1.0000   1.0000   0.0000   0.0000   0.0000   0.0000

          k = 0.0200 0.3964 0.0000 (  5270 PWs)   bands (ev):

   -18.5837 -11.8111  -7.9359  -6.4827   2.5436   5.1089   5.7421   6.2286

     occupation numbers 
     1.0000   1.0000   1.0000   1.0000   0.0000   0.0000   0.0000   0.0000

          k = 0.0200 0.4041 0.0000 (  5278 PWs)   bands (ev):

   -18.4796 -11.9816  -7.9815  -6.3691   2.3636   5.2451   5.7320   6.3743

     occupation numbers 
     1.0000   1.0000   1.0000   1.0000   0.0000   0.0000   0.0000   0.0000

          k = 0.0200 0.4118 0.0000 (  5280 PWs)   bands (ev):

   -18.3738 -12.1513  -8.0253  -6.2547   2.1850   5.3752   5.7313   6.5227

     occupation numbers 
     1.0000   1.0000   1.0000   1.0000   0.0000   0.0000   0.0000   0.0000

          k = 0.0200 0.4195 0.0000 (  5278 PWs)   bands (ev):

   -18.2662 -12.3202  -8.0672  -6.1396   2.0080   5.4852   5.7538   6.6738

     occupation numbers 
     1.0000   1.0000   1.0000   1.0000   0.0000   0.0000   0.0000   0.0000

          k = 0.0200 0.4272 0.0000 (  5280 PWs)   bands (ev):

   -18.1570 -12.4881  -8.1073  -6.0240   1.8329   5.5500   5.8248   6.8276

     occupation numbers 
     1.0000   1.0000   1.0000   1.0000   0.0000   0.0000   0.0000   0.0000

          k = 0.0200 0.4349 0.0000 (  5283 PWs)   bands (ev):

   -18.0461 -12.6550  -8.1456  -5.9081   1.6601   5.5706   5.9432   6.9839

     occupation numbers 
     1.0000   1.0000   1.0000   1.0000   0.0000   0.0000   0.0000   0.0000

          k = 0.0200 0.4426 0.0000 (  5279 PWs)   bands (ev):

   -17.9335 -12.8208  -8.1820  -5.7923   1.4898   5.5710   6.0851   7.1428

     occupation numbers 
     1.0000   1.0000   1.0000   1.0000   0.0000   0.0000   0.0000   0.0000

          k = 0.0200 0.4503 0.0000 (  5287 PWs)   bands (ev):

   -17.8193 -12.9854  -8.2165  -5.6768   1.3225   5.5641   6.2377   7.3043

     occupation numbers 
     1.0000   1.0000   1.0000   1.0000   0.0000   0.0000   0.0000   0.0000

          k = 0.0200 0.4580 0.0000 (  5293 PWs)   bands (ev):

   -17.7037 -13.1488  -8.2490  -5.5620   1.1586   5.5544   6.3965   7.4682

     occupation numbers 
     1.0000   1.0000   1.0000   1.0000   0.0000   0.0000   0.0000   0.0000

          k = 0.0200 0.4657 0.0000 (  5293 PWs)   bands (ev):

   -17.5865 -13.3108  -8.2796  -5.4482   0.9985   5.5437   6.5597   7.6345

     occupation numbers 
     1.0000   1.0000   1.0000   1.0000   0.0000   0.0000   0.0000   0.0000

          k = 0.0200 0.4734 0.0000 (  5293 PWs)   bands (ev):

   -17.4680 -13.4713  -8.3083  -5.3360   0.8427   5.5328   6.7265   7.8032

     occupation numbers 
     1.0000   1.0000   1.0000   1.0000   0.0000   0.0000   0.0000   0.0000

          k = 0.0200 0.4811 0.0000 (  5289 PWs)   bands (ev):

   -17.3483 -13.6302  -8.3349  -5.2258   0.6919   5.5220   6.8965   7.9742

     occupation numbers 
     1.0000   1.0000   1.0000   1.0000   0.0000   0.0000   0.0000   0.0000

          k = 0.0200 0.4888 0.0000 (  5289 PWs)   bands (ev):

   -17.2274 -13.7873  -8.3596  -5.1183   0.5467   5.5117   7.0693   8.1475

     occupation numbers 
     1.0000   1.0000   1.0000   1.0000   0.0000   0.0000   0.0000   0.0000

          k = 0.0200 0.4965 0.0000 (  5291 PWs)   bands (ev):

   -17.1055 -13.9424  -8.3822  -5.0141   0.4079   5.5020   7.2450   8.3229

     occupation numbers 
     1.0000   1.0000   1.0000   1.0000   0.0000   0.0000   0.0000   0.0000

          k = 0.0200 0.5042 0.0000 (  5289 PWs)   bands (ev):

   -16.9830 -14.0952  -8.4029  -4.9142   0.2762   5.4930   7.4233   8.5003

     occupation numbers 
     1.0000   1.0000   1.0000   1.0000   0.0000   0.0000   0.0000   0.0000

          k = 0.0200 0.5119 0.0000 (  5285 PWs)   bands (ev):

   -16.8601 -14.2454  -8.4215  -4.8193   0.1527   5.4848   7.6042   8.6796

     occupation numbers 
     1.0000   1.0000   1.0000   1.0000   0.0000   0.0000   0.0000   0.0000

          k = 0.0200 0.5196 0.0000 (  5284 PWs)   bands (ev):

   -16.7373 -14.3925  -8.4380  -4.7305   0.0384   5.4773   7.7875   8.8606

     occupation numbers 
     1.0000   1.0000   1.0000   1.0000   0.0000   0.0000   0.0000   0.0000

          k = 0.0200 0.5273 0.0000 (  5288 PWs)   bands (ev):

   -16.6154 -14.5357  -8.4525  -4.6488  -0.0656   5.4708   7.9732   9.0430

     occupation numbers 
     1.0000   1.0000   1.0000   1.0000   0.0000   0.0000   0.0000   0.0000

          k = 0.0200 0.5350 0.0000 (  5286 PWs)   bands (ev):

   -16.4956 -14.6739  -8.4650  -4.5756  -0.1581   5.4651   8.1613   9.2265

     occupation numbers 
     1.0000   1.0000   1.0000   1.0000   0.0000   0.0000   0.0000   0.0000

          k = 0.0200 0.5427 0.0000 (  5286 PWs)   bands (ev):

   -16.3795 -14.8052  -8.4754  -4.5121  -0.2377   5.4604   8.3515   9.4105

     occupation numbers 
     1.0000   1.0000   1.0000   1.0000   0.0000   0.0000   0.0000   0.0000

          k = 0.0200 0.5504 0.0000 (  5288 PWs)   bands (ev):

   -16.2704 -14.9266  -8.4837  -4.4593  -0.3033   5.4566   8.5438   9.5937

     occupation numbers 
     1.0000   1.0000   1.0000   1.0000   0.0000   0.0000   0.0000   0.0000

          k = 0.0200 0.5581 0.0000 (  5290 PWs)   bands (ev):

   -16.1734 -15.0328  -8.4899  -4.4186  -0.3537   5.4537   8.7379   9.7444

     occupation numbers 
     1.0000   1.0000   1.0000   1.0000   0.0000   0.0000   0.0000   0.0000

          k = 0.0200 0.5658 0.0000 (  5288 PWs)   bands (ev):

   -16.0971 -15.1151  -8.4941  -4.3909  -0.3879   5.4518   8.9332   9.5421

     occupation numbers 
     1.0000   1.0000   1.0000   1.0000   0.0000   0.0000   0.0000   0.0000

          k = 0.0200 0.5735 0.0000 (  5284 PWs)   bands (ev):

   -16.0537 -15.1616  -8.4961  -4.3768  -0.4052   5.4508   9.1249   9.3470

     occupation numbers 
     1.0000   1.0000   1.0000   1.0000   0.0000   0.0000   0.0000   0.0000

          k = 0.0267 0.0462 0.0000 (  5305 PWs)   bands (ev):

   -21.2537  -9.5957  -5.3066  -5.2179   1.4493   2.4967   2.9626   4.8111

     occupation numbers 
     1.0000   1.0000   1.0000   1.0000   0.0000   0.0000   0.0000   0.0000

          k = 0.0267 0.0539 0.0000 (  5303 PWs)   bands (ev):

   -21.2402  -9.5794  -5.3589  -5.2473   1.4677   2.5153   2.9815   4.8296

     occupation numbers 
     1.0000   1.0000   1.0000   1.0000   0.0000   0.0000   0.0000   0.0000

          k = 0.0267 0.0616 0.0000 (  5299 PWs)   bands (ev):

   -21.2246  -9.5606  -5.4188  -5.2808   1.4889   2.5367   3.0032   4.8509

     occupation numbers 
     1.0000   1.0000   1.0000   1.0000   0.0000   0.0000   0.0000   0.0000

          k = 0.0267 0.0693 0.0000 (  5293 PWs)   bands (ev):

   -21.2069  -9.5393  -5.4859  -5.3183   1.5129   2.5611   3.0279   4.8751

     occupation numbers 
     1.0000   1.0000   1.0000   1.0000   0.0000   0.0000   0.0000   0.0000

          k = 0.0267 0.0770 0.0000 (  5291 PWs)   bands (ev):

   -21.1872  -9.5155  -5.5601  -5.3595   1.5398   2.5882   3.0555   4.9021

     occupation numbers 
     1.0000   1.0000   1.0000   1.0000   0.0000   0.0000   0.0000   0.0000

          k = 0.0267 0.0847 0.0000 (  5287 PWs)   bands (ev):

   -21.1653  -9.4892  -5.6412  -5.4042   1.5695   2.6183   3.0859   4.9319

     occupation numbers 
     1.0000   1.0000   1.0000   1.0000   0.0000   0.0000   0.0000   0.0000

          k = 0.0267 0.0924 0.0000 (  5283 PWs)   bands (ev):

   -21.1415  -9.4604  -5.7289  -5.4522   1.6020   2.6512   3.1193   4.9646

     occupation numbers 
     1.0000   1.0000   1.0000   1.0000   0.0000   0.0000   0.0000   0.0000

          k = 0.0267 0.1001 0.0000 (  5278 PWs)   bands (ev):

   -21.1155  -9.4291  -5.8230  -5.5032   1.6374   2.6869   3.1556   5.0001

     occupation numbers 
     1.0000   1.0000   1.0000   1.0000   0.0000   0.0000   0.0000   0.0000

          k = 0.0267 0.1078 0.0000 (  5269 PWs)   bands (ev):

   -21.0875  -9.3954  -5.9231  -5.5572   1.6756   2.7255   3.1948   5.0384

     occupation numbers 
     1.0000   1.0000   1.0000   1.0000   0.0000   0.0000   0.0000   0.0000

          k = 0.0267 0.1155 0.0000 (  5264 PWs)   bands (ev):

   -21.0574  -9.3591  -6.0291  -5.6137   1.7166   2.7670   3.2369   5.0796

     occupation numbers 
     1.0000   1.0000   1.0000   1.0000   0.0000   0.0000   0.0000   0.0000

          k = 0.0267 0.1232 0.0000 (  5272 PWs)   bands (ev):

   -21.0252  -9.3205  -6.1405  -5.6726   1.7605   2.8113   3.2818   5.1236

     occupation numbers 
     1.0000   1.0000   1.0000   1.0000   0.0000   0.0000   0.0000   0.0000

          k = 0.0267 0.1309 0.0000 (  5270 PWs)   bands (ev):

   -20.9910  -9.2793  -6.2573  -5.7338   1.8071   2.8584   3.3297   5.1703

     occupation numbers 
     1.0000   1.0000   1.0000   1.0000   0.0000   0.0000   0.0000   0.0000

          k = 0.0267 0.1386 0.0000 (  5268 PWs)   bands (ev):

   -20.9547  -9.2357  -6.3790  -5.7968   1.8566   2.9084   3.3805   5.2199

     occupation numbers 
     1.0000   1.0000   1.0000   1.0000   0.0000   0.0000   0.0000   0.0000

          k = 0.0267 0.1463 0.0000 (  5270 PWs)   bands (ev):

   -20.9163  -9.1897  -6.5054  -5.8616   1.9090   2.9612   3.4342   5.2723

     occupation numbers 
     1.0000   1.0000   1.0000   1.0000   0.0000   0.0000   0.0000   0.0000

          k = 0.0267 0.1540 0.0000 (  5269 PWs)   bands (ev):

   -20.8759  -9.1412  -6.6362  -5.9280   1.9641   3.0168   3.4908   5.3275

     occupation numbers 
     1.0000   1.0000   1.0000   1.0000   0.0000   0.0000   0.0000   0.0000

          k = 0.0267 0.1617 0.0000 (  5271 PWs)   bands (ev):

   -20.8335  -9.0903  -6.7712  -5.9956   2.0221   3.0753   3.5503   5.3854

     occupation numbers 
     1.0000   1.0000   1.0000   1.0000   0.0000   0.0000   0.0000   0.0000

          k = 0.0267 0.1694 0.0000 (  5265 PWs)   bands (ev):

   -20.7890  -9.0370  -6.9101  -6.0644   2.0829   3.1366   3.6127   5.4461

     occupation numbers 
     1.0000   1.0000   1.0000   1.0000   0.0000   0.0000   0.0000   0.0000

          k = 0.0267 0.1771 0.0000 (  5259 PWs)   bands (ev):

   -20.7424  -8.9813  -7.0526  -6.1341   2.1465   3.2007   3.6780   5.5095

     occupation numbers 
     1.0000   1.0000   1.0000   1.0000   0.0000   0.0000   0.0000   0.0000

          k = 0.0267 0.1848 0.0000 (  5255 PWs)   bands (ev):

   -20.6938  -8.9232  -7.1985  -6.2046   2.2130   3.2676   3.7462   5.5756

     occupation numbers 
     1.0000   1.0000   1.0000   1.0000   0.0000   0.0000   0.0000   0.0000

          k = 0.0267 0.1925 0.0000 (  5257 PWs)   bands (ev):

   -20.6432  -8.8627  -7.3475  -6.2757   2.2823   3.3373   3.8173   5.6443

     occupation numbers 
     1.0000   1.0000   1.0000   1.0000   0.0000   0.0000   0.0000   0.0000

          k = 0.0267 0.2001 0.0000 (  5257 PWs)   bands (ev):

   -20.5905  -8.7998  -7.4994  -6.3472   2.3543   3.4097   3.8913   5.7155

     occupation numbers 
     1.0000   1.0000   1.0000   1.0000   0.0000   0.0000   0.0000   0.0000

          k = 0.0267 0.2078 0.0000 (  5261 PWs)   bands (ev):

   -20.5359  -8.7346  -7.6540  -6.4190   2.4292   3.4850   3.9682   5.7890

     occupation numbers 
     1.0000   1.0000   1.0000   1.0000   0.0000   0.0000   0.0000   0.0000

          k = 0.0267 0.2155 0.0000 (  5257 PWs)   bands (ev):

   -20.4791  -8.6671  -7.8110  -6.4909   2.5069   3.5629   4.0480   5.8642

     occupation numbers 
     1.0000   1.0000   1.0000   1.0000   0.0000   0.0000   0.0000   0.0000

          k = 0.0267 0.2232 0.0000 (  5252 PWs)   bands (ev):

   -20.4204  -8.5972  -7.9704  -6.5628   2.5874   3.6436   4.1307   5.9402

     occupation numbers 
     1.0000   1.0000   1.0000   1.0000   0.0000   0.0000   0.0000   0.0000

          k = 0.0267 0.2309 0.0000 (  5260 PWs)   bands (ev):

   -20.3596  -8.5251  -8.1317  -6.6346   2.6708   3.7269   4.2163   6.0132

     occupation numbers 
     1.0000   1.0000   1.0000   1.0000   0.0000   0.0000   0.0000   0.0000

          k = 0.0267 0.2386 0.0000 (  5260 PWs)   bands (ev):

   -20.2969  -8.4506  -8.2950  -6.7061   2.7569   3.8128   4.3047   6.0652

     occupation numbers 
     1.0000   1.0000   1.0000   1.0000   0.0000   0.0000   0.0000   0.0000

          k = 0.0267 0.2463 0.0000 (  5260 PWs)   bands (ev):

   -20.2321  -8.4599  -8.3739  -6.7771   2.8458   3.9013   4.3961   6.0209

     occupation numbers 
     1.0000   1.0000   1.0000   1.0000   0.0000   0.0000   0.0000   0.0000

          k = 0.0267 0.2540 0.0000 (  5263 PWs)   bands (ev):

   -20.1653  -8.6263  -8.2950  -6.8477   2.9375   3.9920   4.4903   5.8846

     occupation numbers 
     1.0000   1.0000   1.0000   1.0000   0.0000   0.0000   0.0000   0.0000

          k = 0.0267 0.2617 0.0000 (  5265 PWs)   bands (ev):

   -20.0965  -8.7941  -8.2138  -6.9177   3.0320   4.0850   4.5873   5.7261

     occupation numbers 
     1.0000   1.0000   1.0000   1.0000   0.0000   0.0000   0.0000   0.0000

          k = 0.0267 0.2694 0.0000 (  5261 PWs)   bands (ev):

   -20.0258  -8.9631  -8.1305  -6.9869   3.1292   4.1796   4.6873   5.5614

     occupation numbers 
     1.0000   1.0000   1.0000   1.0000   0.0000   0.0000   0.0000   0.0000

          k = 0.0267 0.2771 0.0000 (  5261 PWs)   bands (ev):

   -19.9530  -9.1331  -8.0450  -7.0554   3.2293   4.2751   4.7901   5.3948

     occupation numbers 
     1.0000   1.0000   1.0000   1.0000   0.0000   0.0000   0.0000   0.0000

          k = 0.0267 0.2848 0.0000 (  5265 PWs)   bands (ev):

   -19.8783  -9.3040  -7.9574  -7.1229   3.3321   4.3697   4.8956   5.2292

     occupation numbers 
     1.0000   1.0000   1.0000   1.0000   0.0000   0.0000   0.0000   0.0000

          k = 0.0267 0.2925 0.0000 (  5267 PWs)   bands (ev):

   -19.8016  -9.4756  -7.8677  -7.1895   3.4376   4.4582   5.0040   5.0704

     occupation numbers 
     1.0000   1.0000   1.0000   1.0000   0.0000   0.0000   0.0000   0.0000

          k = 0.0267 0.3002 0.0000 (  5267 PWs)   bands (ev):

   -19.7230  -9.6479  -7.7759  -7.2551   3.5459   4.5235   4.9359   5.1151

     occupation numbers 
     1.0000   1.0000   1.0000   1.0000   0.0000   0.0000   0.0000   0.0000

          k = 0.0267 0.3079 0.0000 (  5261 PWs)   bands (ev):

   -19.6424  -9.8206  -7.6821  -7.3195   3.6570   4.5139   4.8777   5.2289

     occupation numbers 
     1.0000   1.0000   1.0000   1.0000   0.0000   0.0000   0.0000   0.0000

          k = 0.0267 0.3156 0.0000 (  5267 PWs)   bands (ev):

   -19.5598  -9.9938  -7.5863  -7.3826   3.7708   4.4034   4.9220   5.3451

     occupation numbers 
     1.0000   1.0000   1.0000   1.0000   0.0000   0.0000   0.0000   0.0000

          k = 0.0267 0.3233 0.0000 (  5271 PWs)   bands (ev):

   -19.4753 -10.1671  -7.4886  -7.4446   3.8872   4.2476   5.0134   5.4635

     occupation numbers 
     1.0000   1.0000   1.0000   1.0000   0.0000   0.0000   0.0000   0.0000

          k = 0.0267 0.3310 0.0000 (  5272 PWs)   bands (ev):

   -19.3889 -10.3407  -7.5052  -7.3890   4.0064   4.0770   5.1216   5.5830

     occupation numbers 
     1.0000   1.0000   1.0000   1.0000   0.0000   0.0000   0.0000   0.0000

          k = 0.0267 0.3387 0.0000 (  5275 PWs)   bands (ev):

   -19.3006 -10.5143  -7.5644  -7.2876   3.9004   4.1282   5.2379   5.7006

     occupation numbers 
     1.0000   1.0000   1.0000   1.0000   0.0000   0.0000   0.0000   0.0000

          k = 0.0267 0.3464 0.0000 (  5271 PWs)   bands (ev):

   -19.2104 -10.6878  -7.6222  -7.1844   3.7208   4.2526   5.3596   5.8023

     occupation numbers 
     1.0000   1.0000   1.0000   1.0000   0.0000   0.0000   0.0000   0.0000

          k = 0.0267 0.3541 0.0000 (  5265 PWs)   bands (ev):

   -19.1183 -10.8612  -7.6785  -7.0796   3.5397   4.3796   5.4854   5.8455

     occupation numbers 
     1.0000   1.0000   1.0000   1.0000   0.0000   0.0000   0.0000   0.0000

          k = 0.0267 0.3618 0.0000 (  5271 PWs)   bands (ev):

   -19.0243 -11.0344  -7.7333  -6.9731   3.3578   4.5091   5.6148   5.8425

     occupation numbers 
     1.0000   1.0000   1.0000   1.0000   0.0000   0.0000   0.0000   0.0000

          k = 0.0267 0.3695 0.0000 (  5271 PWs)   bands (ev):

   -18.9284 -11.2072  -7.7865  -6.8651   3.1755   4.6410   5.7474   5.8285

     occupation numbers 
     1.0000   1.0000   1.0000   1.0000   0.0000   0.0000   0.0000   0.0000

          k = 0.0267 0.3772 0.0000 (  5277 PWs)   bands (ev):

   -18.8307 -11.3796  -7.8380  -6.7557   2.9933   4.7751   5.8120   5.8831

     occupation numbers 
     1.0000   1.0000   1.0000   1.0000   0.0000   0.0000   0.0000   0.0000

          k = 0.0267 0.3849 0.0000 (  5277 PWs)   bands (ev):

   -18.7312 -11.5515  -7.8879  -6.6449   2.8115   4.9111   5.7953   6.0217

     occupation numbers 
     1.0000   1.0000   1.0000   1.0000   0.0000   0.0000   0.0000   0.0000

          k = 0.0267 0.3926 0.0000 (  5271 PWs)   bands (ev):

   -18.6298 -11.7229  -7.9362  -6.5329   2.6303   5.0486   5.7798   6.1632

     occupation numbers 
     1.0000   1.0000   1.0000   1.0000   0.0000   0.0000   0.0000   0.0000

          k = 0.0267 0.4003 0.0000 (  5268 PWs)   bands (ev):

   -18.5267 -11.8936  -7.9826  -6.4198   2.4500   5.1863   5.7669   6.3075

     occupation numbers 
     1.0000   1.0000   1.0000   1.0000   0.0000   0.0000   0.0000   0.0000

          k = 0.0267 0.4080 0.0000 (  5272 PWs)   bands (ev):

   -18.4217 -12.0635  -8.0273  -6.3058   2.2709   5.3216   5.7593   6.4545

     occupation numbers 
     1.0000   1.0000   1.0000   1.0000   0.0000   0.0000   0.0000   0.0000

          k = 0.0267 0.4157 0.0000 (  5276 PWs)   bands (ev):

   -18.3151 -12.2327  -8.0702  -6.1910   2.0932   5.4475   5.7644   6.6043

     occupation numbers 
     1.0000   1.0000   1.0000   1.0000   0.0000   0.0000   0.0000   0.0000

          k = 0.0267 0.4234 0.0000 (  5278 PWs)   bands (ev):

   -18.2067 -12.4009  -8.1113  -6.0756   1.9174   5.5445   5.8015   6.7566

     occupation numbers 
     1.0000   1.0000   1.0000   1.0000   0.0000   0.0000   0.0000   0.0000

          k = 0.0267 0.4311 0.0000 (  5278 PWs)   bands (ev):

   -18.0966 -12.5682  -8.1506  -5.9599   1.7435   5.5913   5.8921   6.9116

     occupation numbers 
     1.0000   1.0000   1.0000   1.0000   0.0000   0.0000   0.0000   0.0000

          k = 0.0267 0.4388 0.0000 (  5281 PWs)   bands (ev):

   -17.9848 -12.7345  -8.1879  -5.8440   1.5721   5.6024   6.0217   7.0692

     occupation numbers 
     1.0000   1.0000   1.0000   1.0000   0.0000   0.0000   0.0000   0.0000

          k = 0.0267 0.4465 0.0000 (  5283 PWs)   bands (ev):

   -17.8715 -12.8996  -8.2234  -5.7283   1.4034   5.5994   6.1687   7.2293

     occupation numbers 
     1.0000   1.0000   1.0000   1.0000   0.0000   0.0000   0.0000   0.0000

          k = 0.0267 0.4542 0.0000 (  5289 PWs)   bands (ev):

   -17.7566 -13.0635  -8.2569  -5.6131   1.2379   5.5913   6.3243   7.3919

     occupation numbers 
     1.0000   1.0000   1.0000   1.0000   0.0000   0.0000   0.0000   0.0000

          k = 0.0267 0.4619 0.0000 (  5293 PWs)   bands (ev):

   -17.6402 -13.2261  -8.2885  -5.4987   1.0760   5.5812   6.4852   7.5569

     occupation numbers 
     1.0000   1.0000   1.0000   1.0000   0.0000   0.0000   0.0000   0.0000

          k = 0.0267 0.4696 0.0000 (  5291 PWs)   bands (ev):

   -17.5224 -13.3873  -8.3182  -5.3856   0.9181   5.5704   6.6501   7.7243

     occupation numbers 
     1.0000   1.0000   1.0000   1.0000   0.0000   0.0000   0.0000   0.0000

          k = 0.0267 0.4773 0.0000 (  5291 PWs)   bands (ev):

   -17.4033 -13.5469  -8.3458  -5.2743   0.7649   5.5596   6.8184   7.8940

     occupation numbers 
     1.0000   1.0000   1.0000   1.0000   0.0000   0.0000   0.0000   0.0000

          k = 0.0267 0.4850 0.0000 (  5291 PWs)   bands (ev):

   -17.2829 -13.7049  -8.3715  -5.1654   0.6169   5.5491   6.9898   8.0660

     occupation numbers 
     1.0000   1.0000   1.0000   1.0000   0.0000   0.0000   0.0000   0.0000

          k = 0.0267 0.4927 0.0000 (  5293 PWs)   bands (ev):

   -17.1616 -13.8609  -8.3952  -5.0594   0.4749   5.5391   7.1640   8.2402

     occupation numbers 
     1.0000   1.0000   1.0000   1.0000   0.0000   0.0000   0.0000   0.0000

          k = 0.0267 0.5004 0.0000 (  5289 PWs)   bands (ev):

   -17.0394 -14.0149  -8.4169  -4.9572   0.3396   5.5297   7.3410   8.4164

     occupation numbers 
     1.0000   1.0000   1.0000   1.0000   0.0000   0.0000   0.0000   0.0000

          k = 0.0267 0.5081 0.0000 (  5287 PWs)   bands (ev):

   -16.9166 -14.1664  -8.4365  -4.8596   0.2119   5.5211   7.5205   8.5945

     occupation numbers 
     1.0000   1.0000   1.0000   1.0000   0.0000   0.0000   0.0000   0.0000

          k = 0.0267 0.5158 0.0000 (  5287 PWs)   bands (ev):

   -16.7937 -14.3151  -8.4541  -4.7676   0.0929   5.5133   7.7026   8.7744

     occupation numbers 
     1.0000   1.0000   1.0000   1.0000   0.0000   0.0000   0.0000   0.0000

          k = 0.0267 0.5235 0.0000 (  5285 PWs)   bands (ev):

   -16.6713 -14.4603  -8.4696  -4.6822  -0.0164   5.5063   7.8871   8.9559

     occupation numbers 
     1.0000   1.0000   1.0000   1.0000   0.0000   0.0000   0.0000   0.0000

          k = 0.0267 0.5312 0.0000 (  5285 PWs)   bands (ev):

   -16.5503 -14.6011  -8.4831  -4.6046  -0.1147   5.5002   8.0739   9.1385

     occupation numbers 
     1.0000   1.0000   1.0000   1.0000   0.0000   0.0000   0.0000   0.0000

          k = 0.0267 0.5389 0.0000 (  5288 PWs)   bands (ev):

   -16.4321 -14.7361  -8.4945  -4.5360  -0.2009   5.4950   8.2630   9.3219

     occupation numbers 
     1.0000   1.0000   1.0000   1.0000   0.0000   0.0000   0.0000   0.0000

          k = 0.0267 0.5466 0.0000 (  5284 PWs)   bands (ev):

   -16.3191 -14.8628  -8.5039  -4.4777  -0.2737   5.4907   8.4542   9.5051

     occupation numbers 
     1.0000   1.0000   1.0000   1.0000   0.0000   0.0000   0.0000   0.0000

          k = 0.0267 0.5543 0.0000 (  5286 PWs)   bands (ev):

   -16.2152 -14.9774  -8.5112  -4.4308  -0.3318   5.4874   8.6473   9.6864

     occupation numbers 
     1.0000   1.0000   1.0000   1.0000   0.0000   0.0000   0.0000   0.0000

          k = 0.0267 0.5620 0.0000 (  5288 PWs)   bands (ev):

   -16.1273 -15.0729  -8.5164  -4.3964  -0.3742   5.4850   8.8421   9.6491

     occupation numbers 
     1.0000   1.0000   1.0000   1.0000   0.0000   0.0000   0.0000   0.0000

          k = 0.0267 0.5697 0.0000 (  5290 PWs)   bands (ev):

   -16.0659 -15.1389  -8.5195  -4.3754  -0.4001   5.4836   9.0370   9.4490

     occupation numbers 
     1.0000   1.0000   1.0000   1.0000   0.0000   0.0000   0.0000   0.0000

          k = 0.0267 0.5774 0.0000 (  5294 PWs)   bands (ev):

   -16.0434 -15.1630  -8.5205  -4.3684  -0.4087   5.4831   9.1942   9.2901

     occupation numbers 
     1.0000   1.0000   1.0000   1.0000   0.0000   0.0000   0.0000   0.0000

          k = 0.0333 0.0577 0.0000 (  5295 PWs)   bands (ev):

   -21.2256  -9.5618  -5.4144  -5.2791   1.4875   2.5353   3.0018   4.8495

     occupation numbers 
     1.0000   1.0000   1.0000   1.0000   0.0000   0.0000   0.0000   0.0000

          k = 0.0333 0.0654 0.0000 (  5293 PWs)   bands (ev):

   -21.2090  -9.5418  -5.4771  -5.3149   1.5101   2.5582   3.0250   4.8722

     occupation numbers 
     1.0000   1.0000   1.0000   1.0000   0.0000   0.0000   0.0000   0.0000

          k = 0.0333 0.0731 0.0000 (  5285 PWs)   bands (ev):

   -21.1903  -9.5192  -5.5469  -5.3547   1.5356   2.5840   3.0511   4.8978

     occupation numbers 
     1.0000   1.0000   1.0000   1.0000   0.0000   0.0000   0.0000   0.0000

          k = 0.0333 0.0808 0.0000 (  5289 PWs)   bands (ev):

   -21.1695  -9.4942  -5.6236  -5.3981   1.5639   2.6126   3.0801   4.9262

     occupation numbers 
     1.0000   1.0000   1.0000   1.0000   0.0000   0.0000   0.0000   0.0000

          k = 0.0333 0.0885 0.0000 (  5285 PWs)   bands (ev):

   -21.1466  -9.4666  -5.7069  -5.4450   1.5950   2.6440   3.1121   4.9575

     occupation numbers 
     1.0000   1.0000   1.0000   1.0000   0.0000   0.0000   0.0000   0.0000

          k = 0.0333 0.0962 0.0000 (  5282 PWs)   bands (ev):

   -21.1217  -9.4366  -5.7968  -5.4951   1.6289   2.6784   3.1469   4.9916

     occupation numbers 
     1.0000   1.0000   1.0000   1.0000   0.0000   0.0000   0.0000   0.0000

          k = 0.0333 0.1039 0.0000 (  5275 PWs)   bands (ev):

   -21.0947  -9.4041  -5.8928  -5.5482   1.6657   2.7155   3.1846   5.0285

     occupation numbers 
     1.0000   1.0000   1.0000   1.0000   0.0000   0.0000   0.0000   0.0000

          k = 0.0333 0.1116 0.0000 (  5271 PWs)   bands (ev):

   -21.0657  -9.3691  -5.9947  -5.6041   1.7053   2.7555   3.2253   5.0682

     occupation numbers 
     1.0000   1.0000   1.0000   1.0000   0.0000   0.0000   0.0000   0.0000

          k = 0.0333 0.1193 0.0000 (  5272 PWs)   bands (ev):

   -21.0345  -9.3317  -6.1023  -5.6624   1.7477   2.7984   3.2688   5.1108

     occupation numbers 
     1.0000   1.0000   1.0000   1.0000   0.0000   0.0000   0.0000   0.0000

          k = 0.0333 0.1270 0.0000 (  5268 PWs)   bands (ev):

   -21.0013  -9.2918  -6.2153  -5.7231   1.7930   2.8441   3.3152   5.1562

     occupation numbers 
     1.0000   1.0000   1.0000   1.0000   0.0000   0.0000   0.0000   0.0000

          k = 0.0333 0.1347 0.0000 (  5262 PWs)   bands (ev):

   -20.9661  -9.2494  -6.3334  -5.7858   1.8411   2.8927   3.3646   5.2044

     occupation numbers 
     1.0000   1.0000   1.0000   1.0000   0.0000   0.0000   0.0000   0.0000

          k = 0.0333 0.1424 0.0000 (  5272 PWs)   bands (ev):

   -20.9288  -9.2046  -6.4564  -5.8503   1.8920   2.9441   3.4168   5.2554

     occupation numbers 
     1.0000   1.0000   1.0000   1.0000   0.0000   0.0000   0.0000   0.0000

          k = 0.0333 0.1501 0.0000 (  5270 PWs)   bands (ev):

   -20.8894  -9.1573  -6.5840  -5.9165   1.9458   2.9983   3.4720   5.3091

     occupation numbers 
     1.0000   1.0000   1.0000   1.0000   0.0000   0.0000   0.0000   0.0000

          k = 0.0333 0.1578 0.0000 (  5267 PWs)   bands (ev):

   -20.8480  -9.1077  -6.7159  -5.9840   2.0023   3.0554   3.5300   5.3657

     occupation numbers 
     1.0000   1.0000   1.0000   1.0000   0.0000   0.0000   0.0000   0.0000

          k = 0.0333 0.1655 0.0000 (  5259 PWs)   bands (ev):

   -20.8045  -9.0556  -6.8518  -6.0528   2.0617   3.1152   3.5910   5.4250

     occupation numbers 
     1.0000   1.0000   1.0000   1.0000   0.0000   0.0000   0.0000   0.0000

          k = 0.0333 0.1732 0.0000 (  5257 PWs)   bands (ev):

   -20.7590  -9.0011  -6.9915  -6.1226   2.1240   3.1779   3.6548   5.4871

     occupation numbers 
     1.0000   1.0000   1.0000   1.0000   0.0000   0.0000   0.0000   0.0000

          k = 0.0333 0.1809 0.0000 (  5253 PWs)   bands (ev):

   -20.7114  -8.9442  -7.1348  -6.1932   2.1890   3.2434   3.7216   5.5519

     occupation numbers 
     1.0000   1.0000   1.0000   1.0000   0.0000   0.0000   0.0000   0.0000

          k = 0.0333 0.1886 0.0000 (  5257 PWs)   bands (ev):

   -20.6618  -8.8849  -7.2814  -6.2645   2.2569   3.3117   3.7912   5.6193

     occupation numbers 
     1.0000   1.0000   1.0000   1.0000   0.0000   0.0000   0.0000   0.0000

          k = 0.0333 0.1963 0.0000 (  5259 PWs)   bands (ev):

   -20.6102  -8.8232  -7.4310  -6.3363   2.3275   3.3828   3.8638   5.6892

     occupation numbers 
     1.0000   1.0000   1.0000   1.0000   0.0000   0.0000   0.0000   0.0000

          k = 0.0333 0.2040 0.0000 (  5257 PWs)   bands (ev):

   -20.5565  -8.7592  -7.5835  -6.4084   2.4010   3.4566   3.9393   5.7616

     occupation numbers 
     1.0000   1.0000   1.0000   1.0000   0.0000   0.0000   0.0000   0.0000

          k = 0.0333 0.2117 0.0000 (  5253 PWs)   bands (ev):

   -20.5008  -8.6928  -7.7385  -6.4806   2.4773   3.5332   4.0176   5.8360

     occupation numbers 
     1.0000   1.0000   1.0000   1.0000   0.0000   0.0000   0.0000   0.0000

          k = 0.0333 0.2194 0.0000 (  5250 PWs)   bands (ev):

   -20.4431  -8.6241  -7.8960  -6.5529   2.5564   3.6126   4.0988   5.9118

     occupation numbers 
     1.0000   1.0000   1.0000   1.0000   0.0000   0.0000   0.0000   0.0000

          k = 0.0333 0.2271 0.0000 (  5253 PWs)   bands (ev):

   -20.3833  -8.5531  -8.0557  -6.6251   2.6383   3.6946   4.1830   5.9870

     occupation numbers 
     1.0000   1.0000   1.0000   1.0000   0.0000   0.0000   0.0000   0.0000

          k = 0.0333 0.2348 0.0000 (  5258 PWs)   bands (ev):

   -20.3216  -8.4799  -8.2174  -6.6971   2.7231   3.7792   4.2700   6.0527

     occupation numbers 
     1.0000   1.0000   1.0000   1.0000   0.0000   0.0000   0.0000   0.0000

          k = 0.0333 0.2425 0.0000 (  5256 PWs)   bands (ev):

   -20.2578  -8.4043  -8.3808  -6.7687   2.8106   3.8664   4.3599   6.0596

     occupation numbers 
     1.0000   1.0000   1.0000   1.0000   0.0000   0.0000   0.0000   0.0000

          k = 0.0333 0.2502 0.0000 (  5262 PWs)   bands (ev):

   -20.1920  -8.5459  -8.3265  -6.8398   2.9009   3.9560   4.4527   5.9480

     occupation numbers 
     1.0000   1.0000   1.0000   1.0000   0.0000   0.0000   0.0000   0.0000

          k = 0.0333 0.2579 0.0000 (  5267 PWs)   bands (ev):

   -20.1243  -8.7125  -8.2465  -6.9104   2.9940   4.0479   4.5483   5.7949

     occupation numbers 
     1.0000   1.0000   1.0000   1.0000   0.0000   0.0000   0.0000   0.0000

          k = 0.0333 0.2656 0.0000 (  5263 PWs)   bands (ev):

   -20.0545  -8.8804  -8.1642  -6.9803   3.0899   4.1418   4.6468   5.6323

     occupation numbers 
     1.0000   1.0000   1.0000   1.0000   0.0000   0.0000   0.0000   0.0000

          k = 0.0333 0.2733 0.0000 (  5261 PWs)   bands (ev):

   -19.9827  -9.0494  -8.0798  -7.0494   3.1885   4.2370   4.7482   5.4664

     occupation numbers 
     1.0000   1.0000   1.0000   1.0000   0.0000   0.0000   0.0000   0.0000

          k = 0.0333 0.2810 0.0000 (  5263 PWs)   bands (ev):

   -19.9090  -9.2193  -7.9933  -7.1176   3.2899   4.3324   4.8524   5.3002

     occupation numbers 
     1.0000   1.0000   1.0000   1.0000   0.0000   0.0000   0.0000   0.0000

          k = 0.0333 0.2887 0.0000 (  5267 PWs)   bands (ev):

   -19.8333  -9.3902  -7.9046  -7.1849   3.3941   4.4247   4.9594   5.1375

     occupation numbers 
     1.0000   1.0000   1.0000   1.0000   0.0000   0.0000   0.0000   0.0000

          k = 0.0333 0.2964 0.0000 (  5267 PWs)   bands (ev):

   -19.7557  -9.5617  -7.8139  -7.2511   3.5011   4.5044   4.9885   5.0692

     occupation numbers 
     1.0000   1.0000   1.0000   1.0000   0.0000   0.0000   0.0000   0.0000

          k = 0.0333 0.3041 0.0000 (  5265 PWs)   bands (ev):

   -19.6761  -9.7339  -7.7211  -7.3163   3.6108   4.5366   4.8881   5.1817

     occupation numbers 
     1.0000   1.0000   1.0000   1.0000   0.0000   0.0000   0.0000   0.0000

          k = 0.0333 0.3118 0.0000 (  5264 PWs)   bands (ev):

   -19.5945  -9.9064  -7.6263  -7.3803   3.7232   4.4651   4.8929   5.2968

     occupation numbers 
     1.0000   1.0000   1.0000   1.0000   0.0000   0.0000   0.0000   0.0000

          k = 0.0333 0.3195 0.0000 (  5269 PWs)   bands (ev):

   -19.5110 -10.0794  -7.5296  -7.4430   3.8383   4.3226   4.9705   5.4143

     occupation numbers 
     1.0000   1.0000   1.0000   1.0000   0.0000   0.0000   0.0000   0.0000

          k = 0.0333 0.3272 0.0000 (  5271 PWs)   bands (ev):

   -19.4255 -10.2525  -7.5044  -7.4309   3.9562   4.1568   5.0733   5.5338

     occupation numbers 
     1.0000   1.0000   1.0000   1.0000   0.0000   0.0000   0.0000   0.0000

          k = 0.0333 0.3349 0.0000 (  5277 PWs)   bands (ev):

   -19.3382 -10.4258  -7.5645  -7.3305   3.9824   4.0767   5.1867   5.6538

     occupation numbers 
     1.0000   1.0000   1.0000   1.0000   0.0000   0.0000   0.0000   0.0000

          k = 0.0333 0.3426 0.0000 (  5277 PWs)   bands (ev):

   -19.2489 -10.5991  -7.6231  -7.2282   3.8042   4.1998   5.3062   5.7699

     occupation numbers 
     1.0000   1.0000   1.0000   1.0000   0.0000   0.0000   0.0000   0.0000

          k = 0.0333 0.3503 0.0000 (  5277 PWs)   bands (ev):

   -19.1578 -10.7723  -7.6803  -7.1242   3.6240   4.3256   5.4302   5.8595

     occupation numbers 
     1.0000   1.0000   1.0000   1.0000   0.0000   0.0000   0.0000   0.0000

          k = 0.0333 0.3580 0.0000 (  5271 PWs)   bands (ev):

   -19.0647 -10.9453  -7.7359  -7.0185   3.4426   4.4539   5.5579   5.8835

     occupation numbers 
     1.0000   1.0000   1.0000   1.0000   0.0000   0.0000   0.0000   0.0000

          k = 0.0333 0.3657 0.0000 (  5273 PWs)   bands (ev):

   -18.9698 -11.1181  -7.7900  -6.9113   3.2608   4.5847   5.6890   5.8753

     occupation numbers 
     1.0000   1.0000   1.0000   1.0000   0.0000   0.0000   0.0000   0.0000

          k = 0.0333 0.3734 0.0000 (  5273 PWs)   bands (ev):

   -18.8730 -11.2905  -7.8425  -6.8026   3.0788   4.7178   5.8232   5.8602

     occupation numbers 
     1.0000   1.0000   1.0000   1.0000   0.0000   0.0000   0.0000   0.0000

          k = 0.0333 0.3811 0.0000 (  5275 PWs)   bands (ev):

   -18.7744 -11.4624  -7.8933  -6.6924   2.8971   4.8531   5.8436   5.9604

     occupation numbers 
     1.0000   1.0000   1.0000   1.0000   0.0000   0.0000   0.0000   0.0000

          k = 0.0333 0.3887 0.0000 (  5271 PWs)   bands (ev):

   -18.6740 -11.6339  -7.9424  -6.5810   2.7158   4.9901   5.8273   6.1004

     occupation numbers 
     1.0000   1.0000   1.0000   1.0000   0.0000   0.0000   0.0000   0.0000

          k = 0.0333 0.3964 0.0000 (  5271 PWs)   bands (ev):

   -18.5717 -11.8047  -7.9898  -6.4685   2.5353   5.1284   5.8125   6.2433

     occupation numbers 
     1.0000   1.0000   1.0000   1.0000   0.0000   0.0000   0.0000   0.0000

          k = 0.0333 0.4041 0.0000 (  5275 PWs)   bands (ev):

   -18.4677 -11.9749  -8.0355  -6.3549   2.3559   5.2663   5.8009   6.3889

     occupation numbers 
     1.0000   1.0000   1.0000   1.0000   0.0000   0.0000   0.0000   0.0000

          k = 0.0333 0.4118 0.0000 (  5282 PWs)   bands (ev):

   -18.3619 -12.1442  -8.0794  -6.2405   2.1777   5.4005   5.7962   6.5372

     occupation numbers 
     1.0000   1.0000   1.0000   1.0000   0.0000   0.0000   0.0000   0.0000

          k = 0.0333 0.4195 0.0000 (  5282 PWs)   bands (ev):

   -18.2544 -12.3128  -8.1214  -6.1254   2.0012   5.5208   5.8084   6.6882

     occupation numbers 
     1.0000   1.0000   1.0000   1.0000   0.0000   0.0000   0.0000   0.0000

          k = 0.0333 0.4272 0.0000 (  5284 PWs)   bands (ev):

   -18.1452 -12.4804  -8.1616  -6.0098   1.8266   5.6035   5.8615   6.8418

     occupation numbers 
     1.0000   1.0000   1.0000   1.0000   0.0000   0.0000   0.0000   0.0000

          k = 0.0333 0.4349 0.0000 (  5279 PWs)   bands (ev):

   -18.0343 -12.6471  -8.2000  -5.8940   1.6542   5.6362   5.9679   6.9980

     occupation numbers 
     1.0000   1.0000   1.0000   1.0000   0.0000   0.0000   0.0000   0.0000

          k = 0.0333 0.4426 0.0000 (  5281 PWs)   bands (ev):

   -17.9218 -12.8126  -8.2364  -5.7782   1.4843   5.6412   6.1053   7.1568

     occupation numbers 
     1.0000   1.0000   1.0000   1.0000   0.0000   0.0000   0.0000   0.0000

          k = 0.0333 0.4503 0.0000 (  5283 PWs)   bands (ev):

   -17.8077 -12.9770  -8.2710  -5.6626   1.3174   5.6361   6.2561   7.3180

     occupation numbers 
     1.0000   1.0000   1.0000   1.0000   0.0000   0.0000   0.0000   0.0000

          k = 0.0333 0.4580 0.0000 (  5289 PWs)   bands (ev):

   -17.6920 -13.1402  -8.3036  -5.5478   1.1538   5.6272   6.4140   7.4817

     occupation numbers 
     1.0000   1.0000   1.0000   1.0000   0.0000   0.0000   0.0000   0.0000

          k = 0.0333 0.4657 0.0000 (  5295 PWs)   bands (ev):

   -17.5749 -13.3020  -8.3342  -5.4340   0.9940   5.6169   6.5768   7.6477

     occupation numbers 
     1.0000   1.0000   1.0000   1.0000   0.0000   0.0000   0.0000   0.0000

          k = 0.0333 0.4734 0.0000 (  5295 PWs)   bands (ev):

   -17.4565 -13.4623  -8.3629  -5.3217   0.8385   5.6062   6.7433   7.8162

     occupation numbers 
     1.0000   1.0000   1.0000   1.0000   0.0000   0.0000   0.0000   0.0000

          k = 0.0333 0.4811 0.0000 (  5293 PWs)   bands (ev):

   -17.3368 -13.6210  -8.3896  -5.2115   0.6880   5.5956   6.9131   7.9868

     occupation numbers 
     1.0000   1.0000   1.0000   1.0000   0.0000   0.0000   0.0000   0.0000

          k = 0.0333 0.4888 0.0000 (  5287 PWs)   bands (ev):

   -17.2159 -13.7779  -8.4143  -5.1039   0.5430   5.5853   7.0858   8.1597

     occupation numbers 
     1.0000   1.0000   1.0000   1.0000   0.0000   0.0000   0.0000   0.0000

          k = 0.0333 0.4965 0.0000 (  5285 PWs)   bands (ev):

   -17.0941 -13.9328  -8.4370  -4.9997   0.4043   5.5757   7.2613   8.3346

     occupation numbers 
     1.0000   1.0000   1.0000   1.0000   0.0000   0.0000   0.0000   0.0000

          k = 0.0333 0.5042 0.0000 (  5287 PWs)   bands (ev):

   -16.9717 -14.0855  -8.4577  -4.8996   0.2728   5.5667   7.4395   8.5115

     occupation numbers 
     1.0000   1.0000   1.0000   1.0000   0.0000   0.0000   0.0000   0.0000

          k = 0.0333 0.5119 0.0000 (  5287 PWs)   bands (ev):

   -16.8488 -14.2356  -8.4763  -4.8046   0.1494   5.5585   7.6203   8.6903

     occupation numbers 
     1.0000   1.0000   1.0000   1.0000   0.0000   0.0000   0.0000   0.0000

          k = 0.0333 0.5196 0.0000 (  5295 PWs)   bands (ev):

   -16.7262 -14.3825  -8.4929  -4.7157   0.0352   5.5511   7.8035   8.8706

     occupation numbers 
     1.0000   1.0000   1.0000   1.0000   0.0000   0.0000   0.0000   0.0000

          k = 0.0333 0.5273 0.0000 (  5291 PWs)   bands (ev):

   -16.6043 -14.5256  -8.5074  -4.6340  -0.0688   5.5446   7.9891   9.0522

     occupation numbers 
     1.0000   1.0000   1.0000   1.0000   0.0000   0.0000   0.0000   0.0000

          k = 0.0333 0.5350 0.0000 (  5289 PWs)   bands (ev):

   -16.4846 -14.6636  -8.5199  -4.5607  -0.1612   5.5390   8.1770   9.2348

     occupation numbers 
     1.0000   1.0000   1.0000   1.0000   0.0000   0.0000   0.0000   0.0000

          k = 0.0333 0.5427 0.0000 (  5283 PWs)   bands (ev):

   -16.3686 -14.7948  -8.5303  -4.4970  -0.2409   5.5342   8.3671   9.4175

     occupation numbers 
     1.0000   1.0000   1.0000   1.0000   0.0000   0.0000   0.0000   0.0000

          k = 0.0333 0.5504 0.0000 (  5289 PWs)   bands (ev):

   -16.2596 -14.9160  -8.5386  -4.4442  -0.3065   5.5304   8.5592   9.5991

     occupation numbers 
     1.0000   1.0000   1.0000   1.0000   0.0000   0.0000   0.0000   0.0000

          k = 0.0333 0.5581 0.0000 (  5289 PWs)   bands (ev):

   -16.1627 -15.0221  -8.5448  -4.4034  -0.3569   5.5275   8.7531   9.7596

     occupation numbers 
     1.0000   1.0000   1.0000   1.0000   0.0000   0.0000   0.0000   0.0000

          k = 0.0333 0.5658 0.0000 (  5288 PWs)   bands (ev):

   -16.0865 -15.1043  -8.5490  -4.3756  -0.3911   5.5256   8.9482   9.5565

     occupation numbers 
     1.0000   1.0000   1.0000   1.0000   0.0000   0.0000   0.0000   0.0000

          k = 0.0333 0.5735 0.0000 (  5290 PWs)   bands (ev):

   -16.0432 -15.1507  -8.5511  -4.3615  -0.4084   5.5247   9.1395   9.3618

     occupation numbers 
     1.0000   1.0000   1.0000   1.0000   0.0000   0.0000   0.0000   0.0000

          k = 0.0400 0.0693 0.0000 (  5289 PWs)   bands (ev):

   -21.1913  -9.5205  -5.5424  -5.3531   1.5342   2.5825   3.0497   4.8964

     occupation numbers 
     1.0000   1.0000   1.0000   1.0000   0.0000   0.0000   0.0000   0.0000

          k = 0.0400 0.0770 0.0000 (  5287 PWs)   bands (ev):

   -21.1716  -9.4967  -5.6146  -5.3953   1.5610   2.6097   3.0772   4.9234

     occupation numbers 
     1.0000   1.0000   1.0000   1.0000   0.0000   0.0000   0.0000   0.0000

          k = 0.0400 0.0847 0.0000 (  5279 PWs)   bands (ev):

   -21.1498  -9.4704  -5.6935  -5.4410   1.5907   2.6397   3.1077   4.9532

     occupation numbers 
     1.0000   1.0000   1.0000   1.0000   0.0000   0.0000   0.0000   0.0000

          k = 0.0400 0.0924 0.0000 (  5280 PWs)   bands (ev):

   -21.1259  -9.4416  -5.7788  -5.4902   1.6233   2.6726   3.1411   4.9859

     occupation numbers 
     1.0000   1.0000   1.0000   1.0000   0.0000   0.0000   0.0000   0.0000

          k = 0.0400 0.1001 0.0000 (  5275 PWs)   bands (ev):

   -21.0999  -9.4104  -5.8704  -5.5425   1.6586   2.7084   3.1774   5.0214

     occupation numbers 
     1.0000   1.0000   1.0000   1.0000   0.0000   0.0000   0.0000   0.0000

          k = 0.0400 0.1078 0.0000 (  5273 PWs)   bands (ev):

   -21.0719  -9.3766  -5.9680  -5.5977   1.6968   2.7470   3.2165   5.0597

     occupation numbers 
     1.0000   1.0000   1.0000   1.0000   0.0000   0.0000   0.0000   0.0000

          k = 0.0400 0.1155 0.0000 (  5273 PWs)   bands (ev):

   -21.0418  -9.3404  -6.0714  -5.6556   1.7378   2.7884   3.2586   5.1009

     occupation numbers 
     1.0000   1.0000   1.0000   1.0000   0.0000   0.0000   0.0000   0.0000

          k = 0.0400 0.1232 0.0000 (  5270 PWs)   bands (ev):

   -21.0096  -9.3017  -6.1803  -5.7159   1.7817   2.8327   3.3036   5.1449

     occupation numbers 
     1.0000   1.0000   1.0000   1.0000   0.0000   0.0000   0.0000   0.0000

          k = 0.0400 0.1309 0.0000 (  5266 PWs)   bands (ev):

   -20.9754  -9.2606  -6.2944  -5.7783   1.8284   2.8798   3.3515   5.1916

     occupation numbers 
     1.0000   1.0000   1.0000   1.0000   0.0000   0.0000   0.0000   0.0000

          k = 0.0400 0.1386 0.0000 (  5264 PWs)   bands (ev):

   -20.9391  -9.2170  -6.4136  -5.8427   1.8779   2.9298   3.4023   5.2412

     occupation numbers 
     1.0000   1.0000   1.0000   1.0000   0.0000   0.0000   0.0000   0.0000

          k = 0.0400 0.1463 0.0000 (  5272 PWs)   bands (ev):

   -20.9008  -9.1710  -6.5375  -5.9088   1.9302   2.9826   3.4560   5.2936

     occupation numbers 
     1.0000   1.0000   1.0000   1.0000   0.0000   0.0000   0.0000   0.0000

          k = 0.0400 0.1540 0.0000 (  5270 PWs)   bands (ev):

   -20.8604  -9.1226  -6.6660  -5.9764   1.9854   3.0383   3.5126   5.3488

     occupation numbers 
     1.0000   1.0000   1.0000   1.0000   0.0000   0.0000   0.0000   0.0000

          k = 0.0400 0.1617 0.0000 (  5264 PWs)   bands (ev):

   -20.8180  -9.0717  -6.7986  -6.0453   2.0434   3.0967   3.5721   5.4067

     occupation numbers 
     1.0000   1.0000   1.0000   1.0000   0.0000   0.0000   0.0000   0.0000

          k = 0.0400 0.1694 0.0000 (  5261 PWs)   bands (ev):

   -20.7735  -9.0184  -6.9352  -6.1153   2.1042   3.1580   3.6345   5.4674

     occupation numbers 
     1.0000   1.0000   1.0000   1.0000   0.0000   0.0000   0.0000   0.0000

          k = 0.0400 0.1771 0.0000 (  5257 PWs)   bands (ev):

   -20.7269  -8.9627  -7.0755  -6.1861   2.1678   3.2221   3.6998   5.5309

     occupation numbers 
     1.0000   1.0000   1.0000   1.0000   0.0000   0.0000   0.0000   0.0000

          k = 0.0400 0.1848 0.0000 (  5257 PWs)   bands (ev):

   -20.6783  -8.9046  -7.2193  -6.2577   2.2343   3.2890   3.7681   5.5970

     occupation numbers 
     1.0000   1.0000   1.0000   1.0000   0.0000   0.0000   0.0000   0.0000

          k = 0.0400 0.1925 0.0000 (  5255 PWs)   bands (ev):

   -20.6277  -8.8441  -7.3663  -6.3299   2.3035   3.3587   3.8392   5.6657

     occupation numbers 
     1.0000   1.0000   1.0000   1.0000   0.0000   0.0000   0.0000   0.0000

          k = 0.0400 0.2001 0.0000 (  5253 PWs)   bands (ev):

   -20.5751  -8.7813  -7.5164  -6.4024   2.3756   3.4311   3.9132   5.7369

     occupation numbers 
     1.0000   1.0000   1.0000   1.0000   0.0000   0.0000   0.0000   0.0000

          k = 0.0400 0.2078 0.0000 (  5253 PWs)   bands (ev):

   -20.5204  -8.7161  -7.6692  -6.4751   2.4505   3.5064   3.9901   5.8103

     occupation numbers 
     1.0000   1.0000   1.0000   1.0000   0.0000   0.0000   0.0000   0.0000

          k = 0.0400 0.2155 0.0000 (  5245 PWs)   bands (ev):

   -20.4637  -8.6486  -7.8245  -6.5479   2.5282   3.5843   4.0699   5.8856

     occupation numbers 
     1.0000   1.0000   1.0000   1.0000   0.0000   0.0000   0.0000   0.0000

          k = 0.0400 0.2232 0.0000 (  5249 PWs)   bands (ev):

   -20.4050  -8.5788  -7.9822  -6.6206   2.6088   3.6650   4.1526   5.9614

     occupation numbers 
     1.0000   1.0000   1.0000   1.0000   0.0000   0.0000   0.0000   0.0000

          k = 0.0400 0.2309 0.0000 (  5256 PWs)   bands (ev):

   -20.3442  -8.5067  -8.1420  -6.6931   2.6921   3.7483   4.2381   6.0333

     occupation numbers 
     1.0000   1.0000   1.0000   1.0000   0.0000   0.0000   0.0000   0.0000

          k = 0.0400 0.2386 0.0000 (  5260 PWs)   bands (ev):

   -20.2815  -8.4323  -8.3038  -6.7653   2.7782   3.8343   4.3266   6.0758

     occupation numbers 
     1.0000   1.0000   1.0000   1.0000   0.0000   0.0000   0.0000   0.0000

          k = 0.0400 0.2463 0.0000 (  5264 PWs)   bands (ev):

   -20.2167  -8.4674  -8.3556  -6.8371   2.8671   3.9227   4.4179   6.0042

     occupation numbers 
     1.0000   1.0000   1.0000   1.0000   0.0000   0.0000   0.0000   0.0000

          k = 0.0400 0.2540 0.0000 (  5270 PWs)   bands (ev):

   -20.1499  -8.6325  -8.2767  -6.9083   2.9588   4.0135   4.5122   5.8595

     occupation numbers 
     1.0000   1.0000   1.0000   1.0000   0.0000   0.0000   0.0000   0.0000

          k = 0.0400 0.2617 0.0000 (  5265 PWs)   bands (ev):

   -20.0812  -8.7990  -8.1956  -6.9789   3.0533   4.1065   4.6093   5.6996

     occupation numbers 
     1.0000   1.0000   1.0000   1.0000   0.0000   0.0000   0.0000   0.0000

          k = 0.0400 0.2694 0.0000 (  5263 PWs)   bands (ev):

   -20.0104  -8.9668  -8.1123  -7.0487   3.1506   4.2011   4.7092   5.5349

     occupation numbers 
     1.0000   1.0000   1.0000   1.0000   0.0000   0.0000   0.0000   0.0000

          k = 0.0400 0.2771 0.0000 (  5261 PWs)   bands (ev):

   -19.9377  -9.1357  -8.0268  -7.1177   3.2506   4.2966   4.8120   5.3689

     occupation numbers 
     1.0000   1.0000   1.0000   1.0000   0.0000   0.0000   0.0000   0.0000

          k = 0.0400 0.2848 0.0000 (  5264 PWs)   bands (ev):

   -19.8630  -9.3056  -7.9392  -7.1857   3.3535   4.3909   4.9177   5.2043

     occupation numbers 
     1.0000   1.0000   1.0000   1.0000   0.0000   0.0000   0.0000   0.0000

          k = 0.0400 0.2925 0.0000 (  5264 PWs)   bands (ev):

   -19.7863  -9.4763  -7.8495  -7.2528   3.4590   4.4784   5.0261   5.0474

     occupation numbers 
     1.0000   1.0000   1.0000   1.0000   0.0000   0.0000   0.0000   0.0000

          k = 0.0400 0.3002 0.0000 (  5270 PWs)   bands (ev):

   -19.7077  -9.6476  -7.7578  -7.3187   3.5674   4.5386   4.9189   5.1373

     occupation numbers 
     1.0000   1.0000   1.0000   1.0000   0.0000   0.0000   0.0000   0.0000

          k = 0.0400 0.3079 0.0000 (  5267 PWs)   bands (ev):

   -19.6271  -9.8195  -7.6640  -7.3835   3.6784   4.5139   4.8767   5.2512

     occupation numbers 
     1.0000   1.0000   1.0000   1.0000   0.0000   0.0000   0.0000   0.0000

          k = 0.0400 0.3156 0.0000 (  5271 PWs)   bands (ev):

   -19.5446  -9.9918  -7.5683  -7.4471   3.7922   4.3925   4.9328   5.3677

     occupation numbers 
     1.0000   1.0000   1.0000   1.0000   0.0000   0.0000   0.0000   0.0000

          k = 0.0400 0.3233 0.0000 (  5275 PWs)   bands (ev):

   -19.4601 -10.1645  -7.5093  -7.4706   3.9087   4.2333   5.0284   5.4865

     occupation numbers 
     1.0000   1.0000   1.0000   1.0000   0.0000   0.0000   0.0000   0.0000

          k = 0.0400 0.3310 0.0000 (  5279 PWs)   bands (ev):

   -19.3738 -10.3373  -7.5703  -7.3711   4.0279   4.0618   5.1383   5.6070

     occupation numbers 
     1.0000   1.0000   1.0000   1.0000   0.0000   0.0000   0.0000   0.0000

          k = 0.0400 0.3387 0.0000 (  5277 PWs)   bands (ev):

   -19.2855 -10.5102  -7.6298  -7.2697   3.8853   4.1498   5.2555   5.7275

     occupation numbers 
     1.0000   1.0000   1.0000   1.0000   0.0000   0.0000   0.0000   0.0000

          k = 0.0400 0.3464 0.0000 (  5275 PWs)   bands (ev):

   -19.1953 -10.6831  -7.6878  -7.1665   3.7061   4.2743   5.3777   5.8412

     occupation numbers 
     1.0000   1.0000   1.0000   1.0000   0.0000   0.0000   0.0000   0.0000

          k = 0.0400 0.3541 0.0000 (  5275 PWs)   bands (ev):

   -19.1032 -10.8559  -7.7444  -7.0617   3.5256   4.4014   5.5037   5.9179

     occupation numbers 
     1.0000   1.0000   1.0000   1.0000   0.0000   0.0000   0.0000   0.0000

          k = 0.0400 0.3618 0.0000 (  5273 PWs)   bands (ev):

   -19.0092 -11.0285  -7.7994  -6.9553   3.3443   4.5310   5.6332   5.9271

     occupation numbers 
     1.0000   1.0000   1.0000   1.0000   0.0000   0.0000   0.0000   0.0000

          k = 0.0400 0.3695 0.0000 (  5277 PWs)   bands (ev):

   -18.9134 -11.2008  -7.8528  -6.8473   3.1627   4.6631   5.7659   5.9162

     occupation numbers 
     1.0000   1.0000   1.0000   1.0000   0.0000   0.0000   0.0000   0.0000

          k = 0.0400 0.3772 0.0000 (  5275 PWs)   bands (ev):

   -18.8157 -11.3727  -7.9045  -6.7379   2.9812   4.7975   5.9005   5.9016

     occupation numbers 
     1.0000   1.0000   1.0000   1.0000   0.0000   0.0000   0.0000   0.0000

          k = 0.0400 0.3849 0.0000 (  5273 PWs)   bands (ev):

   -18.7162 -11.5442  -7.9546  -6.6271   2.8000   4.9339   5.8840   6.0402

     occupation numbers 
     1.0000   1.0000   1.0000   1.0000   0.0000   0.0000   0.0000   0.0000

          k = 0.0400 0.3926 0.0000 (  5269 PWs)   bands (ev):

   -18.6149 -11.7151  -8.0030  -6.5152   2.6195   5.0720   5.8681   6.1816

     occupation numbers 
     1.0000   1.0000   1.0000   1.0000   0.0000   0.0000   0.0000   0.0000

          k = 0.0400 0.4003 0.0000 (  5277 PWs)   bands (ev):

   -18.5118 -11.8854  -8.0496  -6.4021   2.4398   5.2110   5.8541   6.3258

     occupation numbers 
     1.0000   1.0000   1.0000   1.0000   0.0000   0.0000   0.0000   0.0000

          k = 0.0400 0.4080 0.0000 (  5275 PWs)   bands (ev):

   -18.4069 -12.0549  -8.0944  -6.2881   2.2614   5.3492   5.8439   6.4728

     occupation numbers 
     1.0000   1.0000   1.0000   1.0000   0.0000   0.0000   0.0000   0.0000

          k = 0.0400 0.4157 0.0000 (  5279 PWs)   bands (ev):

   -18.3002 -12.2237  -8.1375  -6.1733   2.0844   5.4817   5.8424   6.6223

     occupation numbers 
     1.0000   1.0000   1.0000   1.0000   0.0000   0.0000   0.0000   0.0000

          k = 0.0400 0.4234 0.0000 (  5282 PWs)   bands (ev):

   -18.1919 -12.3916  -8.1787  -6.0579   1.9091   5.5954   5.8629   6.7746

     occupation numbers 
     1.0000   1.0000   1.0000   1.0000   0.0000   0.0000   0.0000   0.0000

          k = 0.0400 0.4311 0.0000 (  5280 PWs)   bands (ev):

   -18.0818 -12.5586  -8.2180  -5.9422   1.7358   5.6641   5.9317   6.9294

     occupation numbers 
     1.0000   1.0000   1.0000   1.0000   0.0000   0.0000   0.0000   0.0000

          k = 0.0400 0.4388 0.0000 (  5277 PWs)   bands (ev):

   -17.9702 -12.7245  -8.2555  -5.8263   1.5649   5.6865   6.0500   7.0867

     occupation numbers 
     1.0000   1.0000   1.0000   1.0000   0.0000   0.0000   0.0000   0.0000

          k = 0.0400 0.4465 0.0000 (  5283 PWs)   bands (ev):

   -17.8569 -12.8893  -8.2910  -5.7106   1.3967   5.6876   6.1929   7.2466

     occupation numbers 
     1.0000   1.0000   1.0000   1.0000   0.0000   0.0000   0.0000   0.0000

          k = 0.0400 0.4542 0.0000 (  5289 PWs)   bands (ev):

   -17.7420 -13.0530  -8.3246  -5.5954   1.2316   5.6811   6.3468   7.4089

     occupation numbers 
     1.0000   1.0000   1.0000   1.0000   0.0000   0.0000   0.0000   0.0000

          k = 0.0400 0.4619 0.0000 (  5293 PWs)   bands (ev):

   -17.6257 -13.2153  -8.3563  -5.4810   1.0701   5.6718   6.5068   7.5736

     occupation numbers 
     1.0000   1.0000   1.0000   1.0000   0.0000   0.0000   0.0000   0.0000

          k = 0.0400 0.4696 0.0000 (  5295 PWs)   bands (ev):

   -17.5079 -13.3762  -8.3860  -5.3678   0.9126   5.6615   6.6713   7.7406

     occupation numbers 
     1.0000   1.0000   1.0000   1.0000   0.0000   0.0000   0.0000   0.0000

          k = 0.0400 0.4773 0.0000 (  5293 PWs)   bands (ev):

   -17.3889 -13.5356  -8.4137  -5.2565   0.7597   5.6509   6.8393   7.9100

     occupation numbers 
     1.0000   1.0000   1.0000   1.0000   0.0000   0.0000   0.0000   0.0000

          k = 0.0400 0.4850 0.0000 (  5293 PWs)   bands (ev):

   -17.2686 -13.6933  -8.4395  -5.1475   0.6120   5.6406   7.0104   8.0815

     occupation numbers 
     1.0000   1.0000   1.0000   1.0000   0.0000   0.0000   0.0000   0.0000

          k = 0.0400 0.4927 0.0000 (  5289 PWs)   bands (ev):

   -17.1473 -13.8491  -8.4632  -5.0414   0.4702   5.6307   7.1845   8.2551

     occupation numbers 
     1.0000   1.0000   1.0000   1.0000   0.0000   0.0000   0.0000   0.0000

          k = 0.0400 0.5004 0.0000 (  5285 PWs)   bands (ev):

   -17.0252 -14.0029  -8.4849  -4.9391   0.3351   5.6214   7.3613   8.4307

     occupation numbers 
     1.0000   1.0000   1.0000   1.0000   0.0000   0.0000   0.0000   0.0000

          k = 0.0400 0.5081 0.0000 (  5289 PWs)   bands (ev):

   -16.9025 -14.1542  -8.5045  -4.8414   0.2076   5.6128   7.5407   8.6082

     occupation numbers 
     1.0000   1.0000   1.0000   1.0000   0.0000   0.0000   0.0000   0.0000

          k = 0.0400 0.5158 0.0000 (  5291 PWs)   bands (ev):

   -16.7797 -14.3027  -8.5222  -4.7493   0.0888   5.6051   7.7226   8.7873

     occupation numbers 
     1.0000   1.0000   1.0000   1.0000   0.0000   0.0000   0.0000   0.0000

          k = 0.0400 0.5235 0.0000 (  5293 PWs)   bands (ev):

   -16.6574 -14.4477  -8.5377  -4.6638  -0.0204   5.5981   7.9069   8.9677

     occupation numbers 
     1.0000   1.0000   1.0000   1.0000   0.0000   0.0000   0.0000   0.0000

          k = 0.0400 0.5312 0.0000 (  5291 PWs)   bands (ev):

   -16.5365 -14.5883  -8.5512  -4.5860  -0.1188   5.5920   8.0936   9.1493

     occupation numbers 
     1.0000   1.0000   1.0000   1.0000   0.0000   0.0000   0.0000   0.0000

          k = 0.0400 0.5389 0.0000 (  5293 PWs)   bands (ev):

   -16.4184 -14.7231  -8.5627  -4.5173  -0.2049   5.5868   8.2825   9.3312

     occupation numbers 
     1.0000   1.0000   1.0000   1.0000   0.0000   0.0000   0.0000   0.0000

          k = 0.0400 0.5466 0.0000 (  5287 PWs)   bands (ev):

   -16.3055 -14.8497  -8.5720  -4.4588  -0.2777   5.5825   8.4735   9.5126

     occupation numbers 
     1.0000   1.0000   1.0000   1.0000   0.0000   0.0000   0.0000   0.0000

          k = 0.0400 0.5543 0.0000 (  5283 PWs)   bands (ev):

   -16.2018 -14.9641  -8.5793  -4.4118  -0.3358   5.5792   8.6665   9.6915

     occupation numbers 
     1.0000   1.0000   1.0000   1.0000   0.0000   0.0000   0.0000   0.0000

          k = 0.0400 0.5620 0.0000 (  5289 PWs)   bands (ev):

   -16.1140 -15.0595  -8.5845  -4.3774  -0.3783   5.5768   8.8609   9.6667

     occupation numbers 
     1.0000   1.0000   1.0000   1.0000   0.0000   0.0000   0.0000   0.0000

          k = 0.0400 0.5697 0.0000 (  5289 PWs)   bands (ev):

   -16.0527 -15.1254  -8.5877  -4.3564  -0.4041   5.5754   9.0555   9.4672

     occupation numbers 
     1.0000   1.0000   1.0000   1.0000   0.0000   0.0000   0.0000   0.0000

          k = 0.0400 0.5774 0.0000 (  5284 PWs)   bands (ev):

   -16.0302 -15.1494  -8.5887  -4.3493  -0.4128   5.5749   9.2119   9.3091

     occupation numbers 
     1.0000   1.0000   1.0000   1.0000   0.0000   0.0000   0.0000   0.0000

          k = 0.0467 0.0808 0.0000 (  5281 PWs)   bands (ev):

   -21.1508  -9.4716  -5.6889  -5.4397   1.5893   2.6383   3.1063   4.9518

     occupation numbers 
     1.0000   1.0000   1.0000   1.0000   0.0000   0.0000   0.0000   0.0000

          k = 0.0467 0.0885 0.0000 (  5270 PWs)   bands (ev):

   -21.1280  -9.4441  -5.7696  -5.4879   1.6204   2.6698   3.1382   4.9831

     occupation numbers 
     1.0000   1.0000   1.0000   1.0000   0.0000   0.0000   0.0000   0.0000

          k = 0.0467 0.0962 0.0000 (  5267 PWs)   bands (ev):

   -21.1030  -9.4141  -5.8566  -5.5393   1.6544   2.7041   3.1730   5.0171

     occupation numbers 
     1.0000   1.0000   1.0000   1.0000   0.0000   0.0000   0.0000   0.0000

          k = 0.0467 0.1039 0.0000 (  5275 PWs)   bands (ev):

   -21.0760  -9.3816  -5.9496  -5.5939   1.6912   2.7413   3.2107   5.0541

     occupation numbers 
     1.0000   1.0000   1.0000   1.0000   0.0000   0.0000   0.0000   0.0000

          k = 0.0467 0.1116 0.0000 (  5273 PWs)   bands (ev):

   -21.0470  -9.3467  -6.0485  -5.6514   1.7308   2.7813   3.2514   5.0938

     occupation numbers 
     1.0000   1.0000   1.0000   1.0000   0.0000   0.0000   0.0000   0.0000

          k = 0.0467 0.1193 0.0000 (  5271 PWs)   bands (ev):

   -21.0159  -9.3092  -6.1530  -5.7114   1.7732   2.8241   3.2949   5.1364

     occupation numbers 
     1.0000   1.0000   1.0000   1.0000   0.0000   0.0000   0.0000   0.0000

          k = 0.0467 0.1270 0.0000 (  5268 PWs)   bands (ev):

   -20.9827  -9.2693  -6.2628  -5.7737   1.8185   2.8698   3.3414   5.1817

     occupation numbers 
     1.0000   1.0000   1.0000   1.0000   0.0000   0.0000   0.0000   0.0000

          k = 0.0467 0.1347 0.0000 (  5270 PWs)   bands (ev):

   -20.9474  -9.2270  -6.3778  -5.8381   1.8666   2.9184   3.3907   5.2299

     occupation numbers 
     1.0000   1.0000   1.0000   1.0000   0.0000   0.0000   0.0000   0.0000

          k = 0.0467 0.1424 0.0000 (  5268 PWs)   bands (ev):

   -20.9101  -9.1822  -6.4977  -5.9042   1.9175   2.9698   3.4430   5.2809

     occupation numbers 
     1.0000   1.0000   1.0000   1.0000   0.0000   0.0000   0.0000   0.0000

          k = 0.0467 0.1501 0.0000 (  5272 PWs)   bands (ev):

   -20.8708  -9.1350  -6.6223  -5.9720   1.9713   3.0240   3.4981   5.3347

     occupation numbers 
     1.0000   1.0000   1.0000   1.0000   0.0000   0.0000   0.0000   0.0000

          k = 0.0467 0.1578 0.0000 (  5268 PWs)   bands (ev):

   -20.8293  -9.0853  -6.7512  -6.0412   2.0278   3.0811   3.5562   5.3912

     occupation numbers 
     1.0000   1.0000   1.0000   1.0000   0.0000   0.0000   0.0000   0.0000

          k = 0.0467 0.1655 0.0000 (  5262 PWs)   bands (ev):

   -20.7859  -9.0332  -6.8843  -6.1115   2.0872   3.1409   3.6171   5.4506

     occupation numbers 
     1.0000   1.0000   1.0000   1.0000   0.0000   0.0000   0.0000   0.0000

          k = 0.0467 0.1732 0.0000 (  5259 PWs)   bands (ev):

   -20.7404  -8.9788  -7.0213  -6.1827   2.1495   3.2036   3.6810   5.5126

     occupation numbers 
     1.0000   1.0000   1.0000   1.0000   0.0000   0.0000   0.0000   0.0000

          k = 0.0467 0.1809 0.0000 (  5257 PWs)   bands (ev):

   -20.6928  -8.9219  -7.1620  -6.2548   2.2145   3.2691   3.7478   5.5774

     occupation numbers 
     1.0000   1.0000   1.0000   1.0000   0.0000   0.0000   0.0000   0.0000

          k = 0.0467 0.1886 0.0000 (  5259 PWs)   bands (ev):

   -20.6432  -8.8626  -7.3060  -6.3274   2.2824   3.3374   3.8174   5.6448

     occupation numbers 
     1.0000   1.0000   1.0000   1.0000   0.0000   0.0000   0.0000   0.0000

          k = 0.0467 0.1963 0.0000 (  5253 PWs)   bands (ev):

   -20.5916  -8.8010  -7.4532  -6.4005   2.3531   3.4085   3.8900   5.7148

     occupation numbers 
     1.0000   1.0000   1.0000   1.0000   0.0000   0.0000   0.0000   0.0000

          k = 0.0467 0.2040 0.0000 (  5249 PWs)   bands (ev):

   -20.5379  -8.7370  -7.6034  -6.4738   2.4266   3.4823   3.9654   5.7872

     occupation numbers 
     1.0000   1.0000   1.0000   1.0000   0.0000   0.0000   0.0000   0.0000

          k = 0.0467 0.2117 0.0000 (  5251 PWs)   bands (ev):

   -20.4822  -8.6707  -7.7563  -6.5472   2.5029   3.5589   4.0438   5.8617

     occupation numbers 
     1.0000   1.0000   1.0000   1.0000   0.0000   0.0000   0.0000   0.0000

          k = 0.0467 0.2194 0.0000 (  5247 PWs)   bands (ev):

   -20.4245  -8.6020  -7.9117  -6.6206   2.5820   3.6382   4.1250   5.9375

     occupation numbers 
     1.0000   1.0000   1.0000   1.0000   0.0000   0.0000   0.0000   0.0000

          k = 0.0467 0.2271 0.0000 (  5249 PWs)   bands (ev):

   -20.3648  -8.5311  -8.0694  -6.6938   2.6639   3.7202   4.2092   6.0120

     occupation numbers 
     1.0000   1.0000   1.0000   1.0000   0.0000   0.0000   0.0000   0.0000

          k = 0.0467 0.2348 0.0000 (  5258 PWs)   bands (ev):

   -20.3031  -8.4578  -8.2293  -6.7667   2.7486   3.8049   4.2962   6.0730

     occupation numbers 
     1.0000   1.0000   1.0000   1.0000   0.0000   0.0000   0.0000   0.0000

          k = 0.0467 0.2425 0.0000 (  5262 PWs)   bands (ev):

   -20.2393  -8.3910  -8.3823  -6.8392   2.8362   3.8921   4.3861   6.0500

     occupation numbers 
     1.0000   1.0000   1.0000   1.0000   0.0000   0.0000   0.0000   0.0000

          k = 0.0467 0.2502 0.0000 (  5262 PWs)   bands (ev):

   -20.1736  -8.5544  -8.3045  -6.9112   2.9265   3.9818   4.4789   5.9193

     occupation numbers 
     1.0000   1.0000   1.0000   1.0000   0.0000   0.0000   0.0000   0.0000

          k = 0.0467 0.2579 0.0000 (  5261 PWs)   bands (ev):

   -20.1058  -8.7195  -8.2245  -6.9825   3.0196   4.0737   4.5746   5.7629

     occupation numbers 
     1.0000   1.0000   1.0000   1.0000   0.0000   0.0000   0.0000   0.0000

          k = 0.0467 0.2656 0.0000 (  5258 PWs)   bands (ev):

   -20.0361  -8.8859  -8.1423  -7.0531   3.1155   4.1676   4.6731   5.6000

     occupation numbers 
     1.0000   1.0000   1.0000   1.0000   0.0000   0.0000   0.0000   0.0000

          k = 0.0467 0.2733 0.0000 (  5262 PWs)   bands (ev):

   -19.9643  -9.0535  -8.0580  -7.1229   3.2142   4.2628   4.7746   5.4346

     occupation numbers 
     1.0000   1.0000   1.0000   1.0000   0.0000   0.0000   0.0000   0.0000

          k = 0.0467 0.2810 0.0000 (  5266 PWs)   bands (ev):

   -19.8906  -9.2222  -7.9714  -7.1918   3.3156   4.3580   4.8788   5.2694

     occupation numbers 
     1.0000   1.0000   1.0000   1.0000   0.0000   0.0000   0.0000   0.0000

          k = 0.0467 0.2887 0.0000 (  5272 PWs)   bands (ev):

   -19.8150  -9.3918  -7.8828  -7.2596   3.4198   4.4497   4.9859   5.1084

     occupation numbers 
     1.0000   1.0000   1.0000   1.0000   0.0000   0.0000   0.0000   0.0000

          k = 0.0467 0.2964 0.0000 (  5270 PWs)   bands (ev):

   -19.7373  -9.5622  -7.7921  -7.3264   3.5268   4.5263   4.9635   5.0958

     occupation numbers 
     1.0000   1.0000   1.0000   1.0000   0.0000   0.0000   0.0000   0.0000

          k = 0.0467 0.3041 0.0000 (  5271 PWs)   bands (ev):

   -19.6577  -9.7332  -7.6994  -7.3921   3.6365   4.5452   4.8775   5.2084

     occupation numbers 
     1.0000   1.0000   1.0000   1.0000   0.0000   0.0000   0.0000   0.0000

          k = 0.0467 0.3118 0.0000 (  5271 PWs)   bands (ev):

   -19.5762  -9.9048  -7.6047  -7.4565   3.7489   4.4555   4.9016   5.3237

     occupation numbers 
     1.0000   1.0000   1.0000   1.0000   0.0000   0.0000   0.0000   0.0000

          k = 0.0467 0.3195 0.0000 (  5275 PWs)   bands (ev):

   -19.4927 -10.0768  -7.5197  -7.5080   3.8641   4.3062   4.9871   5.4415

     occupation numbers 
     1.0000   1.0000   1.0000   1.0000   0.0000   0.0000   0.0000   0.0000

          k = 0.0467 0.3272 0.0000 (  5275 PWs)   bands (ev):

   -19.4073 -10.2490  -7.5815  -7.4094   3.9820   4.1385   5.0929   5.5616

     occupation numbers 
     1.0000   1.0000   1.0000   1.0000   0.0000   0.0000   0.0000   0.0000

          k = 0.0467 0.3349 0.0000 (  5273 PWs)   bands (ev):

   -19.3200 -10.4214  -7.6419  -7.3089   3.9639   4.1025   5.2076   5.6832

     occupation numbers 
     1.0000   1.0000   1.0000   1.0000   0.0000   0.0000   0.0000   0.0000

          k = 0.0467 0.3426 0.0000 (  5275 PWs)   bands (ev):

   -19.2308 -10.5939  -7.7009  -7.2067   3.7860   4.2258   5.3278   5.8041

     occupation numbers 
     1.0000   1.0000   1.0000   1.0000   0.0000   0.0000   0.0000   0.0000

          k = 0.0467 0.3503 0.0000 (  5277 PWs)   bands (ev):

   -19.1396 -10.7664  -7.7584  -7.1027   3.6064   4.3516   5.4521   5.9144

     occupation numbers 
     1.0000   1.0000   1.0000   1.0000   0.0000   0.0000   0.0000   0.0000

          k = 0.0467 0.3580 0.0000 (  5275 PWs)   bands (ev):

   -19.0466 -10.9387  -7.8143  -6.9971   3.4258   4.4800   5.5801   5.9747

     occupation numbers 
     1.0000   1.0000   1.0000   1.0000   0.0000   0.0000   0.0000   0.0000

          k = 0.0467 0.3657 0.0000 (  5277 PWs)   bands (ev):

   -18.9517 -11.1108  -7.8687  -6.8899   3.2448   4.6110   5.7112   5.9777

     occupation numbers 
     1.0000   1.0000   1.0000   1.0000   0.0000   0.0000   0.0000   0.0000

          k = 0.0467 0.3734 0.0000 (  5279 PWs)   bands (ev):

   -18.8550 -11.2826  -7.9214  -6.7812   3.0636   4.7443   5.8454   5.9652

     occupation numbers 
     1.0000   1.0000   1.0000   1.0000   0.0000   0.0000   0.0000   0.0000

          k = 0.0467 0.3811 0.0000 (  5273 PWs)   bands (ev):

   -18.7564 -11.4539  -7.9725  -6.6711   2.8827   4.8800   5.9493   5.9826

     occupation numbers 
     1.0000   1.0000   1.0000   1.0000   0.0000   0.0000   0.0000   0.0000

          k = 0.0467 0.3887 0.0000 (  5275 PWs)   bands (ev):

   -18.6560 -11.6248  -8.0218  -6.5598   2.7023   5.0176   5.9330   6.1226

     occupation numbers 
     1.0000   1.0000   1.0000   1.0000   0.0000   0.0000   0.0000   0.0000

          k = 0.0467 0.3964 0.0000 (  5277 PWs)   bands (ev):

   -18.5538 -11.7951  -8.0694  -6.4473   2.5226   5.1568   5.9176   6.2654

     occupation numbers 
     1.0000   1.0000   1.0000   1.0000   0.0000   0.0000   0.0000   0.0000

          k = 0.0467 0.4041 0.0000 (  5275 PWs)   bands (ev):

   -18.4499 -11.9648  -8.1152  -6.3337   2.3439   5.2966   5.9044   6.4108

     occupation numbers 
     1.0000   1.0000   1.0000   1.0000   0.0000   0.0000   0.0000   0.0000

          k = 0.0467 0.4118 0.0000 (  5277 PWs)   bands (ev):

   -18.3441 -12.1337  -8.1593  -6.2193   2.1666   5.4348   5.8957   6.5590

     occupation numbers 
     1.0000   1.0000   1.0000   1.0000   0.0000   0.0000   0.0000   0.0000

          k = 0.0467 0.4195 0.0000 (  5275 PWs)   bands (ev):

   -18.2367 -12.3018  -8.2015  -6.1042   1.9908   5.5656   5.8976   6.7098

     occupation numbers 
     1.0000   1.0000   1.0000   1.0000   0.0000   0.0000   0.0000   0.0000

          k = 0.0467 0.4272 0.0000 (  5274 PWs)   bands (ev):

   -18.1275 -12.4690  -8.2418  -5.9886   1.8168   5.6718   5.9272   6.8632

     occupation numbers 
     1.0000   1.0000   1.0000   1.0000   0.0000   0.0000   0.0000   0.0000

          k = 0.0467 0.4349 0.0000 (  5275 PWs)   bands (ev):

   -18.0167 -12.6353  -8.2803  -5.8728   1.6451   5.7281   6.0100   7.0191

     occupation numbers 
     1.0000   1.0000   1.0000   1.0000   0.0000   0.0000   0.0000   0.0000

          k = 0.0467 0.4426 0.0000 (  5275 PWs)   bands (ev):

   -17.9042 -12.8005  -8.3168  -5.7569   1.4758   5.7433   6.1372   7.1776

     occupation numbers 
     1.0000   1.0000   1.0000   1.0000   0.0000   0.0000   0.0000   0.0000

          k = 0.0467 0.4503 0.0000 (  5279 PWs)   bands (ev):

   -17.7901 -12.9645  -8.3515  -5.6414   1.3094   5.7420   6.2843   7.3385

     occupation numbers 
     1.0000   1.0000   1.0000   1.0000   0.0000   0.0000   0.0000   0.0000

          k = 0.0467 0.4580 0.0000 (  5291 PWs)   bands (ev):

   -17.6746 -13.1274  -8.3842  -5.5265   1.1463   5.7346   6.4406   7.5018

     occupation numbers 
     1.0000   1.0000   1.0000   1.0000   0.0000   0.0000   0.0000   0.0000

          k = 0.0467 0.4657 0.0000 (  5293 PWs)   bands (ev):

   -17.5576 -13.2888  -8.4149  -5.4127   0.9870   5.7251   6.6025   7.6675

     occupation numbers 
     1.0000   1.0000   1.0000   1.0000   0.0000   0.0000   0.0000   0.0000

          k = 0.0467 0.4734 0.0000 (  5295 PWs)   bands (ev):

   -17.4392 -13.4488  -8.4437  -5.3003   0.8320   5.7148   6.7686   7.8354

     occupation numbers 
     1.0000   1.0000   1.0000   1.0000   0.0000   0.0000   0.0000   0.0000

          k = 0.0467 0.4811 0.0000 (  5289 PWs)   bands (ev):

   -17.3196 -13.6072  -8.4704  -5.1900   0.6818   5.7045   6.9380   8.0056

     occupation numbers 
     1.0000   1.0000   1.0000   1.0000   0.0000   0.0000   0.0000   0.0000

          k = 0.0467 0.4888 0.0000 (  5287 PWs)   bands (ev):

   -17.1988 -13.7639  -8.4952  -5.0824   0.5371   5.6945   7.1105   8.1778

     occupation numbers 
     1.0000   1.0000   1.0000   1.0000   0.0000   0.0000   0.0000   0.0000

          k = 0.0467 0.4965 0.0000 (  5281 PWs)   bands (ev):

   -17.0771 -13.9186  -8.5179  -4.9780   0.3987   5.6849   7.2858   8.3521

     occupation numbers 
     1.0000   1.0000   1.0000   1.0000   0.0000   0.0000   0.0000   0.0000

          k = 0.0467 0.5042 0.0000 (  5281 PWs)   bands (ev):

   -16.9547 -14.0710  -8.5386  -4.8779   0.2674   5.6760   7.4638   8.5282

     occupation numbers 
     1.0000   1.0000   1.0000   1.0000   0.0000   0.0000   0.0000   0.0000

          k = 0.0467 0.5119 0.0000 (  5283 PWs)   bands (ev):

   -16.8320 -14.2208  -8.5573  -4.7828   0.1442   5.6679   7.6444   8.7060

     occupation numbers 
     1.0000   1.0000   1.0000   1.0000   0.0000   0.0000   0.0000   0.0000

          k = 0.0467 0.5196 0.0000 (  5287 PWs)   bands (ev):

   -16.7094 -14.3676  -8.5739  -4.6937   0.0301   5.6605   7.8274   8.8852

     occupation numbers 
     1.0000   1.0000   1.0000   1.0000   0.0000   0.0000   0.0000   0.0000

          k = 0.0467 0.5273 0.0000 (  5295 PWs)   bands (ev):

   -16.5877 -14.5104  -8.5885  -4.6118  -0.0738   5.6540   8.0128   9.0656

     occupation numbers 
     1.0000   1.0000   1.0000   1.0000   0.0000   0.0000   0.0000   0.0000

          k = 0.0467 0.5350 0.0000 (  5293 PWs)   bands (ev):

   -16.4681 -14.6482  -8.6010  -4.5384  -0.1661   5.6484   8.2005   9.2465

     occupation numbers 
     1.0000   1.0000   1.0000   1.0000   0.0000   0.0000   0.0000   0.0000

          k = 0.0467 0.5427 0.0000 (  5291 PWs)   bands (ev):

   -16.3523 -14.7792  -8.6114  -4.4745  -0.2458   5.6436   8.3904   9.4273

     occupation numbers 
     1.0000   1.0000   1.0000   1.0000   0.0000   0.0000   0.0000   0.0000

          k = 0.0467 0.5504 0.0000 (  5288 PWs)   bands (ev):

   -16.2434 -14.9002  -8.6197  -4.4216  -0.3114   5.6398   8.5822   9.6063

     occupation numbers 
     1.0000   1.0000   1.0000   1.0000   0.0000   0.0000   0.0000   0.0000

          k = 0.0467 0.5581 0.0000 (  5286 PWs)   bands (ev):

   -16.1466 -15.0061  -8.6260  -4.3807  -0.3618   5.6370   8.7759   9.7793

     occupation numbers 
     1.0000   1.0000   1.0000   1.0000   0.0000   0.0000   0.0000   0.0000

          k = 0.0467 0.5658 0.0000 (  5292 PWs)   bands (ev):

   -16.0706 -15.0881  -8.6302  -4.3528  -0.3960   5.6351   8.9706   9.5780

     occupation numbers 
     1.0000   1.0000   1.0000   1.0000   0.0000   0.0000   0.0000   0.0000

          k = 0.0467 0.5735 0.0000 (  5292 PWs)   bands (ev):

   -16.0274 -15.1344  -8.6322  -4.3386  -0.4133   5.6341   9.1613   9.3840

     occupation numbers 
     1.0000   1.0000   1.0000   1.0000   0.0000   0.0000   0.0000   0.0000

          k = 0.0533 0.0924 0.0000 (  5265 PWs)   bands (ev):

   -21.1041  -9.4154  -5.8520  -5.5384   1.6530   2.7027   3.1716   5.0157

     occupation numbers 
     1.0000   1.0000   1.0000   1.0000   0.0000   0.0000   0.0000   0.0000

          k = 0.0533 0.1001 0.0000 (  5269 PWs)   bands (ev):

   -21.0781  -9.3841  -5.9403  -5.5922   1.6883   2.7384   3.2078   5.0512

     occupation numbers 
     1.0000   1.0000   1.0000   1.0000   0.0000   0.0000   0.0000   0.0000

          k = 0.0533 0.1078 0.0000 (  5275 PWs)   bands (ev):

   -21.0501  -9.3504  -6.0344  -5.6492   1.7265   2.7770   3.2470   5.0895

     occupation numbers 
     1.0000   1.0000   1.0000   1.0000   0.0000   0.0000   0.0000   0.0000

          k = 0.0533 0.1155 0.0000 (  5271 PWs)   bands (ev):

   -21.0200  -9.3142  -6.1342  -5.7089   1.7676   2.8184   3.2891   5.1307

     occupation numbers 
     1.0000   1.0000   1.0000   1.0000   0.0000   0.0000   0.0000   0.0000

          k = 0.0533 0.1232 0.0000 (  5268 PWs)   bands (ev):

   -20.9879  -9.2756  -6.2394  -5.7711   1.8114   2.8627   3.3341   5.1747

     occupation numbers 
     1.0000   1.0000   1.0000   1.0000   0.0000   0.0000   0.0000   0.0000

          k = 0.0533 0.1309 0.0000 (  5270 PWs)   bands (ev):

   -20.9536  -9.2345  -6.3499  -5.8356   1.8581   2.9098   3.3820   5.2214

     occupation numbers 
     1.0000   1.0000   1.0000   1.0000   0.0000   0.0000   0.0000   0.0000

          k = 0.0533 0.1386 0.0000 (  5266 PWs)   bands (ev):

   -20.9174  -9.1909  -6.4654  -5.9020   1.9076   2.9598   3.4328   5.2710

     occupation numbers 
     1.0000   1.0000   1.0000   1.0000   0.0000   0.0000   0.0000   0.0000

          k = 0.0533 0.1463 0.0000 (  5270 PWs)   bands (ev):

   -20.8790  -9.1449  -6.5857  -5.9701   1.9600   3.0126   3.4865   5.3234

     occupation numbers 
     1.0000   1.0000   1.0000   1.0000   0.0000   0.0000   0.0000   0.0000

          k = 0.0533 0.1540 0.0000 (  5270 PWs)   bands (ev):

   -20.8387  -9.0965  -6.7105  -6.0397   2.0151   3.0682   3.5431   5.3786

     occupation numbers 
     1.0000   1.0000   1.0000   1.0000   0.0000   0.0000   0.0000   0.0000

          k = 0.0533 0.1617 0.0000 (  5268 PWs)   bands (ev):

   -20.7962  -9.0456  -6.8397  -6.1105   2.0731   3.1267   3.6026   5.4365

     occupation numbers 
     1.0000   1.0000   1.0000   1.0000   0.0000   0.0000   0.0000   0.0000

          k = 0.0533 0.1694 0.0000 (  5264 PWs)   bands (ev):

   -20.7517  -8.9924  -6.9729  -6.1823   2.1340   3.1880   3.6651   5.4972

     occupation numbers 
     1.0000   1.0000   1.0000   1.0000   0.0000   0.0000   0.0000   0.0000

          k = 0.0533 0.1771 0.0000 (  5259 PWs)   bands (ev):

   -20.7052  -8.9367  -7.1100  -6.2550   2.1976   3.2521   3.7304   5.5607

     occupation numbers 
     1.0000   1.0000   1.0000   1.0000   0.0000   0.0000   0.0000   0.0000

          k = 0.0533 0.1848 0.0000 (  5259 PWs)   bands (ev):

   -20.6567  -8.8787  -7.2507  -6.3283   2.2641   3.3190   3.7986   5.6268

     occupation numbers 
     1.0000   1.0000   1.0000   1.0000   0.0000   0.0000   0.0000   0.0000

          k = 0.0533 0.1925 0.0000 (  5257 PWs)   bands (ev):

   -20.6060  -8.8182  -7.3948  -6.4020   2.3333   3.3886   3.8697   5.6955

     occupation numbers 
     1.0000   1.0000   1.0000   1.0000   0.0000   0.0000   0.0000   0.0000

          k = 0.0533 0.2001 0.0000 (  5249 PWs)   bands (ev):

   -20.5534  -8.7554  -7.5419  -6.4761   2.4054   3.4611   3.9437   5.7668

     occupation numbers 
     1.0000   1.0000   1.0000   1.0000   0.0000   0.0000   0.0000   0.0000

          k = 0.0533 0.2078 0.0000 (  5245 PWs)   bands (ev):

   -20.4987  -8.6903  -7.6920  -6.5503   2.4803   3.5363   4.0206   5.8403

     occupation numbers 
     1.0000   1.0000   1.0000   1.0000   0.0000   0.0000   0.0000   0.0000

          k = 0.0533 0.2155 0.0000 (  5247 PWs)   bands (ev):

   -20.4421  -8.6228  -7.8448  -6.6244   2.5581   3.6143   4.1004   5.9156

     occupation numbers 
     1.0000   1.0000   1.0000   1.0000   0.0000   0.0000   0.0000   0.0000

          k = 0.0533 0.2232 0.0000 (  5251 PWs)   bands (ev):

   -20.3833  -8.5530  -8.0001  -6.6985   2.6386   3.6950   4.1831   5.9911

     occupation numbers 
     1.0000   1.0000   1.0000   1.0000   0.0000   0.0000   0.0000   0.0000

          k = 0.0533 0.2309 0.0000 (  5250 PWs)   bands (ev):

   -20.3226  -8.4809  -8.1577  -6.7722   2.7219   3.7783   4.2687   6.0606

     occupation numbers 
     1.0000   1.0000   1.0000   1.0000   0.0000   0.0000   0.0000   0.0000

          k = 0.0533 0.2386 0.0000 (  5253 PWs)   bands (ev):

   -20.2599  -8.4066  -8.3173  -6.8456   2.8080   3.8642   4.3572   6.0810

     occupation numbers 
     1.0000   1.0000   1.0000   1.0000   0.0000   0.0000   0.0000   0.0000

          k = 0.0533 0.2463 0.0000 (  5255 PWs)   bands (ev):

   -20.1951  -8.4788  -8.3299  -6.9184   2.8970   3.9527   4.4486   5.9740

     occupation numbers 
     1.0000   1.0000   1.0000   1.0000   0.0000   0.0000   0.0000   0.0000

          k = 0.0533 0.2540 0.0000 (  5261 PWs)   bands (ev):

   -20.1284  -8.6420  -8.2511  -6.9906   2.9887   4.0436   4.5428   5.8222

     occupation numbers 
     1.0000   1.0000   1.0000   1.0000   0.0000   0.0000   0.0000   0.0000

          k = 0.0533 0.2617 0.0000 (  5261 PWs)   bands (ev):

   -20.0597  -8.8067  -8.1700  -7.0621   3.0832   4.1365   4.6399   5.6612

     occupation numbers 
     1.0000   1.0000   1.0000   1.0000   0.0000   0.0000   0.0000   0.0000

          k = 0.0533 0.2694 0.0000 (  5262 PWs)   bands (ev):

   -19.9889  -8.9729  -8.0867  -7.1328   3.1805   4.2312   4.7399   5.4970

     occupation numbers 
     1.0000   1.0000   1.0000   1.0000   0.0000   0.0000   0.0000   0.0000

          k = 0.0533 0.2771 0.0000 (  5264 PWs)   bands (ev):

   -19.9162  -9.1402  -8.0013  -7.2026   3.2806   4.3266   4.8428   5.3320

     occupation numbers 
     1.0000   1.0000   1.0000   1.0000   0.0000   0.0000   0.0000   0.0000

          k = 0.0533 0.2848 0.0000 (  5270 PWs)   bands (ev):

   -19.8416  -9.3085  -7.9138  -7.2714   3.3834   4.4206   4.9485   5.1689

     occupation numbers 
     1.0000   1.0000   1.0000   1.0000   0.0000   0.0000   0.0000   0.0000

          k = 0.0533 0.2925 0.0000 (  5275 PWs)   bands (ev):

   -19.7649  -9.4778  -7.8242  -7.3391   3.4890   4.5062   5.0151   5.0570

     occupation numbers 
     1.0000   1.0000   1.0000   1.0000   0.0000   0.0000   0.0000   0.0000

          k = 0.0533 0.3002 0.0000 (  5275 PWs)   bands (ev):

   -19.6863  -9.6478  -7.7325  -7.4057   3.5973   4.5573   4.8970   5.1683

     occupation numbers 
     1.0000   1.0000   1.0000   1.0000   0.0000   0.0000   0.0000   0.0000

          k = 0.0533 0.3079 0.0000 (  5273 PWs)   bands (ev):

   -19.6058  -9.8184  -7.6387  -7.4711   3.7084   4.5093   4.8794   5.2824

     occupation numbers 
     1.0000   1.0000   1.0000   1.0000   0.0000   0.0000   0.0000   0.0000

          k = 0.0533 0.3156 0.0000 (  5275 PWs)   bands (ev):

   -19.5233  -9.9896  -7.5430  -7.5352   3.8223   4.3748   4.9498   5.3991

     occupation numbers 
     1.0000   1.0000   1.0000   1.0000   0.0000   0.0000   0.0000   0.0000

          k = 0.0533 0.3233 0.0000 (  5279 PWs)   bands (ev):

   -19.4389 -10.1611  -7.5979  -7.4454   3.9388   4.2120   5.0504   5.5183

     occupation numbers 
     1.0000   1.0000   1.0000   1.0000   0.0000   0.0000   0.0000   0.0000

          k = 0.0533 0.3310 0.0000 (  5277 PWs)   bands (ev):

   -19.3525 -10.3329  -7.6593  -7.3459   4.0398   4.0581   5.1623   5.6397

     occupation numbers 
     1.0000   1.0000   1.0000   1.0000   0.0000   0.0000   0.0000   0.0000

          k = 0.0533 0.3387 0.0000 (  5271 PWs)   bands (ev):

   -19.2643 -10.5048  -7.7193  -7.2446   3.8634   4.1800   5.2805   5.7623

     occupation numbers 
     1.0000   1.0000   1.0000   1.0000   0.0000   0.0000   0.0000   0.0000

          k = 0.0533 0.3464 0.0000 (  5269 PWs)   bands (ev):

   -19.1741 -10.6768  -7.7777  -7.1415   3.6849   4.3046   5.4031   5.8835

     occupation numbers 
     1.0000   1.0000   1.0000   1.0000   0.0000   0.0000   0.0000   0.0000

          k = 0.0533 0.3541 0.0000 (  5277 PWs)   bands (ev):

   -19.0820 -10.8488  -7.8347  -7.0367   3.5052   4.4318   5.5295   5.9900

     occupation numbers 
     1.0000   1.0000   1.0000   1.0000   0.0000   0.0000   0.0000   0.0000

          k = 0.0533 0.3618 0.0000 (  5273 PWs)   bands (ev):

   -18.9881 -11.0205  -7.8900  -6.9303   3.3248   4.5615   5.6591   6.0376

     occupation numbers 
     1.0000   1.0000   1.0000   1.0000   0.0000   0.0000   0.0000   0.0000

          k = 0.0533 0.3695 0.0000 (  5275 PWs)   bands (ev):

   -18.8923 -11.1921  -7.9437  -6.8224   3.1442   4.6938   5.7919   6.0358

     occupation numbers 
     1.0000   1.0000   1.0000   1.0000   0.0000   0.0000   0.0000   0.0000

          k = 0.0533 0.3772 0.0000 (  5277 PWs)   bands (ev):

   -18.7947 -11.3633  -7.9957  -6.7130   2.9637   4.8284   5.9276   6.0224

     occupation numbers 
     1.0000   1.0000   1.0000   1.0000   0.0000   0.0000   0.0000   0.0000

          k = 0.0533 0.3849 0.0000 (  5275 PWs)   bands (ev):

   -18.6952 -11.5340  -8.0461  -6.6023   2.7835   4.9653   6.0065   6.0661

     occupation numbers 
     1.0000   1.0000   1.0000   1.0000   0.0000   0.0000   0.0000   0.0000

          k = 0.0533 0.3926 0.0000 (  5277 PWs)   bands (ev):

   -18.5940 -11.7043  -8.0947  -6.4904   2.6039   5.1042   5.9905   6.2074

     occupation numbers 
     1.0000   1.0000   1.0000   1.0000   0.0000   0.0000   0.0000   0.0000

          k = 0.0533 0.4003 0.0000 (  5281 PWs)   bands (ev):

   -18.4909 -11.8740  -8.1415  -6.3774   2.4252   5.2444   5.9755   6.3515

     occupation numbers 
     1.0000   1.0000   1.0000   1.0000   0.0000   0.0000   0.0000   0.0000

          k = 0.0533 0.4080 0.0000 (  5281 PWs)   bands (ev):

   -18.3861 -12.0430  -8.1866  -6.2634   2.2477   5.3851   5.9631   6.4982

     occupation numbers 
     1.0000   1.0000   1.0000   1.0000   0.0000   0.0000   0.0000   0.0000

          k = 0.0533 0.4157 0.0000 (  5275 PWs)   bands (ev):

   -18.2795 -12.2112  -8.2298  -6.1486   2.0715   5.5235   5.9559   6.6476

     occupation numbers 
     1.0000   1.0000   1.0000   1.0000   0.0000   0.0000   0.0000   0.0000

          k = 0.0533 0.4234 0.0000 (  5279 PWs)   bands (ev):

   -18.1712 -12.3786  -8.2712  -6.0332   1.8971   5.6522   5.9614   6.7996

     occupation numbers 
     1.0000   1.0000   1.0000   1.0000   0.0000   0.0000   0.0000   0.0000

          k = 0.0533 0.4311 0.0000 (  5275 PWs)   bands (ev):

   -18.0612 -12.5451  -8.3107  -5.9175   1.7246   5.7510   6.0002   6.9541

     occupation numbers 
     1.0000   1.0000   1.0000   1.0000   0.0000   0.0000   0.0000   0.0000

          k = 0.0533 0.4388 0.0000 (  5271 PWs)   bands (ev):

   -17.9496 -12.7106  -8.3483  -5.8016   1.5544   5.7971   6.0949   7.1111

     occupation numbers 
     1.0000   1.0000   1.0000   1.0000   0.0000   0.0000   0.0000   0.0000

          k = 0.0533 0.4465 0.0000 (  5279 PWs)   bands (ev):

   -17.8364 -12.8750  -8.3839  -5.6859   1.3869   5.8074   6.2286   7.2706

     occupation numbers 
     1.0000   1.0000   1.0000   1.0000   0.0000   0.0000   0.0000   0.0000

          k = 0.0533 0.4542 0.0000 (  5283 PWs)   bands (ev):

   -17.7216 -13.0382  -8.4177  -5.5706   1.2225   5.8044   6.3790   7.4325

     occupation numbers 
     1.0000   1.0000   1.0000   1.0000   0.0000   0.0000   0.0000   0.0000

          k = 0.0533 0.4619 0.0000 (  5289 PWs)   bands (ev):

   -17.6054 -13.2002  -8.4494  -5.4562   1.0615   5.7965   6.5375   7.5967

     occupation numbers 
     1.0000   1.0000   1.0000   1.0000   0.0000   0.0000   0.0000   0.0000

          k = 0.0533 0.4696 0.0000 (  5291 PWs)   bands (ev):

   -17.4877 -13.3607  -8.4792  -5.3430   0.9046   5.7870   6.7011   7.7633

     occupation numbers 
     1.0000   1.0000   1.0000   1.0000   0.0000   0.0000   0.0000   0.0000

          k = 0.0533 0.4773 0.0000 (  5289 PWs)   bands (ev):

   -17.3687 -13.5198  -8.5071  -5.2315   0.7521   5.7768   6.8686   7.9320

     occupation numbers 
     1.0000   1.0000   1.0000   1.0000   0.0000   0.0000   0.0000   0.0000

          k = 0.0533 0.4850 0.0000 (  5283 PWs)   bands (ev):

   -17.2486 -13.6772  -8.5329  -5.1224   0.6048   5.7667   7.0394   8.1028

     occupation numbers 
     1.0000   1.0000   1.0000   1.0000   0.0000   0.0000   0.0000   0.0000

          k = 0.0533 0.4927 0.0000 (  5279 PWs)   bands (ev):

   -17.1274 -13.8327  -8.5566  -5.0163   0.4634   5.7570   7.2132   8.2757

     occupation numbers 
     1.0000   1.0000   1.0000   1.0000   0.0000   0.0000   0.0000   0.0000

          k = 0.0533 0.5004 0.0000 (  5285 PWs)   bands (ev):

   -17.0053 -13.9861  -8.5784  -4.9138   0.3286   5.7479   7.3898   8.4504

     occupation numbers 
     1.0000   1.0000   1.0000   1.0000   0.0000   0.0000   0.0000   0.0000

          k = 0.0533 0.5081 0.0000 (  5291 PWs)   bands (ev):

   -16.8828 -14.1372  -8.5981  -4.8160   0.2013   5.7394   7.5689   8.6268

     occupation numbers 
     1.0000   1.0000   1.0000   1.0000   0.0000   0.0000   0.0000   0.0000

          k = 0.0533 0.5158 0.0000 (  5289 PWs)   bands (ev):

   -16.7601 -14.2854  -8.6158  -4.7237   0.0826   5.7316   7.7506   8.8047

     occupation numbers 
     1.0000   1.0000   1.0000   1.0000   0.0000   0.0000   0.0000   0.0000

          k = 0.0533 0.5235 0.0000 (  5295 PWs)   bands (ev):

   -16.6380 -14.4301  -8.6314  -4.6380  -0.0265   5.7247   7.9348   8.9837

     occupation numbers 
     1.0000   1.0000   1.0000   1.0000   0.0000   0.0000   0.0000   0.0000

          k = 0.0533 0.5312 0.0000 (  5296 PWs)   bands (ev):

   -16.5172 -14.5705  -8.6449  -4.5601  -0.1247   5.7187   8.1212   9.1635

     occupation numbers 
     1.0000   1.0000   1.0000   1.0000   0.0000   0.0000   0.0000   0.0000

          k = 0.0533 0.5389 0.0000 (  5298 PWs)   bands (ev):

   -16.3993 -14.7051  -8.6564  -4.4911  -0.2108   5.7135   8.3098   9.3433

     occupation numbers 
     1.0000   1.0000   1.0000   1.0000   0.0000   0.0000   0.0000   0.0000

          k = 0.0533 0.5466 0.0000 (  5292 PWs)   bands (ev):

   -16.2865 -14.8314  -8.6658  -4.4325  -0.2836   5.7092   8.5006   9.5220

     occupation numbers 
     1.0000   1.0000   1.0000   1.0000   0.0000   0.0000   0.0000   0.0000

          k = 0.0533 0.5543 0.0000 (  5290 PWs)   bands (ev):

   -16.1829 -14.9455  -8.6731  -4.3854  -0.3418   5.7059   8.6932   9.6971

     occupation numbers 
     1.0000   1.0000   1.0000   1.0000   0.0000   0.0000   0.0000   0.0000

          k = 0.0533 0.5620 0.0000 (  5290 PWs)   bands (ev):

   -16.0953 -15.0407  -8.6783  -4.3508  -0.3842   5.7035   8.8873   9.6914

     occupation numbers 
     1.0000   1.0000   1.0000   1.0000   0.0000   0.0000   0.0000   0.0000

          k = 0.0533 0.5697 0.0000 (  5292 PWs)   bands (ev):

   -16.0342 -15.1064  -8.6815  -4.3297  -0.4100   5.7021   9.0813   9.4926

     occupation numbers 
     1.0000   1.0000   1.0000   1.0000   0.0000   0.0000   0.0000   0.0000

          k = 0.0533 0.5774 0.0000 (  5290 PWs)   bands (ev):

   -16.0118 -15.1304  -8.6825  -4.3226  -0.4187   5.7016   9.2365   9.3358

     occupation numbers 
     1.0000   1.0000   1.0000   1.0000   0.0000   0.0000   0.0000   0.0000

          k = 0.0600 0.1039 0.0000 (  5267 PWs)   bands (ev):

   -21.0511  -9.3516  -6.0297  -5.6485   1.7251   2.7756   3.2456   5.0881

     occupation numbers 
     1.0000   1.0000   1.0000   1.0000   0.0000   0.0000   0.0000   0.0000

          k = 0.0600 0.1116 0.0000 (  5273 PWs)   bands (ev):

   -21.0221  -9.3167  -6.1246  -5.7079   1.7647   2.8156   3.2862   5.1279

     occupation numbers 
     1.0000   1.0000   1.0000   1.0000   0.0000   0.0000   0.0000   0.0000

          k = 0.0600 0.1193 0.0000 (  5269 PWs)   bands (ev):

   -20.9910  -9.2793  -6.2250  -5.7700   1.8072   2.8584   3.3298   5.1704

     occupation numbers 
     1.0000   1.0000   1.0000   1.0000   0.0000   0.0000   0.0000   0.0000

          k = 0.0600 0.1270 0.0000 (  5270 PWs)   bands (ev):

   -20.9578  -9.2394  -6.3307  -5.8345   1.8525   2.9041   3.3762   5.2158

     occupation numbers 
     1.0000   1.0000   1.0000   1.0000   0.0000   0.0000   0.0000   0.0000

          k = 0.0600 0.1347 0.0000 (  5272 PWs)   bands (ev):

   -20.9226  -9.1971  -6.4415  -5.9012   1.9006   2.9527   3.4256   5.2640

     occupation numbers 
     1.0000   1.0000   1.0000   1.0000   0.0000   0.0000   0.0000   0.0000

          k = 0.0600 0.1424 0.0000 (  5272 PWs)   bands (ev):

   -20.8853  -9.1524  -6.5571  -5.9697   1.9515   3.0040   3.4778   5.3149

     occupation numbers 
     1.0000   1.0000   1.0000   1.0000   0.0000   0.0000   0.0000   0.0000

          k = 0.0600 0.1501 0.0000 (  5272 PWs)   bands (ev):

   -20.8459  -9.1052  -6.6775  -6.0399   2.0053   3.0583   3.5330   5.3687

     occupation numbers 
     1.0000   1.0000   1.0000   1.0000   0.0000   0.0000   0.0000   0.0000

          k = 0.0600 0.1578 0.0000 (  5268 PWs)   bands (ev):

   -20.8045  -9.0555  -6.8023  -6.1114   2.0618   3.1153   3.5910   5.4253

     occupation numbers 
     1.0000   1.0000   1.0000   1.0000   0.0000   0.0000   0.0000   0.0000

          k = 0.0600 0.1655 0.0000 (  5266 PWs)   bands (ev):

   -20.7611  -9.0035  -6.9313  -6.1840   2.1213   3.1752   3.6520   5.4846

     occupation numbers 
     1.0000   1.0000   1.0000   1.0000   0.0000   0.0000   0.0000   0.0000

          k = 0.0600 0.1732 0.0000 (  5264 PWs)   bands (ev):

   -20.7156  -8.9491  -7.0644  -6.2574   2.1835   3.2378   3.7159   5.5467

     occupation numbers 
     1.0000   1.0000   1.0000   1.0000   0.0000   0.0000   0.0000   0.0000

          k = 0.0600 0.1809 0.0000 (  5261 PWs)   bands (ev):

   -20.6680  -8.8922  -7.2013  -6.3316   2.2485   3.3033   3.7826   5.6115

     occupation numbers 
     1.0000   1.0000   1.0000   1.0000   0.0000   0.0000   0.0000   0.0000

          k = 0.0600 0.1886 0.0000 (  5255 PWs)   bands (ev):

   -20.6184  -8.8330  -7.3417  -6.4063   2.3164   3.3716   3.8523   5.6789

     occupation numbers 
     1.0000   1.0000   1.0000   1.0000   0.0000   0.0000   0.0000   0.0000

          k = 0.0600 0.1963 0.0000 (  5246 PWs)   bands (ev):

   -20.5668  -8.7714  -7.4855  -6.4813   2.3871   3.4427   3.9249   5.7490

     occupation numbers 
     1.0000   1.0000   1.0000   1.0000   0.0000   0.0000   0.0000   0.0000

          k = 0.0600 0.2040 0.0000 (  5248 PWs)   bands (ev):

   -20.5132  -8.7075  -7.6324  -6.5564   2.4606   3.5165   4.0004   5.8214

     occupation numbers 
     1.0000   1.0000   1.0000   1.0000   0.0000   0.0000   0.0000   0.0000

          k = 0.0600 0.2117 0.0000 (  5245 PWs)   bands (ev):

   -20.4575  -8.6412  -7.7822  -6.6316   2.5369   3.5931   4.0787   5.8959

     occupation numbers 
     1.0000   1.0000   1.0000   1.0000   0.0000   0.0000   0.0000   0.0000

          k = 0.0600 0.2194 0.0000 (  5250 PWs)   bands (ev):

   -20.3998  -8.5726  -7.9346  -6.7066   2.6161   3.6725   4.1600   5.9716

     occupation numbers 
     1.0000   1.0000   1.0000   1.0000   0.0000   0.0000   0.0000   0.0000

          k = 0.0600 0.2271 0.0000 (  5246 PWs)   bands (ev):

   -20.3401  -8.5016  -8.0896  -6.7813   2.6980   3.7545   4.2441   6.0450

     occupation numbers 
     1.0000   1.0000   1.0000   1.0000   0.0000   0.0000   0.0000   0.0000

          k = 0.0600 0.2348 0.0000 (  5253 PWs)   bands (ev):

   -20.2784  -8.4284  -8.2468  -6.8557   2.7827   3.8392   4.3312   6.0939

     occupation numbers 
     1.0000   1.0000   1.0000   1.0000   0.0000   0.0000   0.0000   0.0000

          k = 0.0600 0.2425 0.0000 (  5261 PWs)   bands (ev):

   -20.2147  -8.4060  -8.3530  -6.9295   2.8703   3.9264   4.4211   6.0226

     occupation numbers 
     1.0000   1.0000   1.0000   1.0000   0.0000   0.0000   0.0000   0.0000

          k = 0.0600 0.2502 0.0000 (  5261 PWs)   bands (ev):

   -20.1489  -8.5671  -8.2752  -7.0028   2.9606   4.0161   4.5139   5.8771

     occupation numbers 
     1.0000   1.0000   1.0000   1.0000   0.0000   0.0000   0.0000   0.0000

          k = 0.0600 0.2579 0.0000 (  5263 PWs)   bands (ev):

   -20.0812  -8.7299  -8.1953  -7.0753   3.0537   4.1080   4.6096   5.7185

     occupation numbers 
     1.0000   1.0000   1.0000   1.0000   0.0000   0.0000   0.0000   0.0000

          k = 0.0600 0.2656 0.0000 (  5263 PWs)   bands (ev):

   -20.0115  -8.8943  -8.1132  -7.1470   3.1496   4.2020   4.7082   5.5557

     occupation numbers 
     1.0000   1.0000   1.0000   1.0000   0.0000   0.0000   0.0000   0.0000

          k = 0.0600 0.2733 0.0000 (  5262 PWs)   bands (ev):

   -19.9398  -9.0600  -8.0288  -7.2177   3.2483   4.2972   4.8096   5.3914

     occupation numbers 
     1.0000   1.0000   1.0000   1.0000   0.0000   0.0000   0.0000   0.0000

          k = 0.0600 0.2810 0.0000 (  5266 PWs)   bands (ev):

   -19.8661  -9.2268  -7.9424  -7.2876   3.3498   4.3922   4.9139   5.2276

     occupation numbers 
     1.0000   1.0000   1.0000   1.0000   0.0000   0.0000   0.0000   0.0000

          k = 0.0600 0.2887 0.0000 (  5273 PWs)   bands (ev):

   -19.7905  -9.3947  -7.8538  -7.3563   3.4540   4.4828   5.0211   5.0690

     occupation numbers 
     1.0000   1.0000   1.0000   1.0000   0.0000   0.0000   0.0000   0.0000

          k = 0.0600 0.2964 0.0000 (  5279 PWs)   bands (ev):

   -19.7129  -9.5635  -7.7632  -7.4239   3.5610   4.5538   4.9312   5.1310

     occupation numbers 
     1.0000   1.0000   1.0000   1.0000   0.0000   0.0000   0.0000   0.0000

          k = 0.0600 0.3041 0.0000 (  5271 PWs)   bands (ev):

   -19.6333  -9.7330  -7.6705  -7.4903   3.6707   4.5502   4.8693   5.2438

     occupation numbers 
     1.0000   1.0000   1.0000   1.0000   0.0000   0.0000   0.0000   0.0000

          k = 0.0600 0.3118 0.0000 (  5269 PWs)   bands (ev):

   -19.5518  -9.9032  -7.5758  -7.5554   3.7832   4.4384   4.9170   5.3593

     occupation numbers 
     1.0000   1.0000   1.0000   1.0000   0.0000   0.0000   0.0000   0.0000

          k = 0.0600 0.3195 0.0000 (  5275 PWs)   bands (ev):

   -19.4684 -10.0738  -7.6192  -7.4792   3.8984   4.2821   5.0108   5.4774

     occupation numbers 
     1.0000   1.0000   1.0000   1.0000   0.0000   0.0000   0.0000   0.0000

          k = 0.0600 0.3272 0.0000 (  5275 PWs)   bands (ev):

   -19.3830 -10.2448  -7.6816  -7.3807   4.0163   4.1127   5.1197   5.5980

     occupation numbers 
     1.0000   1.0000   1.0000   1.0000   0.0000   0.0000   0.0000   0.0000

          k = 0.0600 0.3349 0.0000 (  5271 PWs)   bands (ev):

   -19.2957 -10.4161  -7.7426  -7.2803   3.9381   4.1369   5.2358   5.7207

     occupation numbers 
     1.0000   1.0000   1.0000   1.0000   0.0000   0.0000   0.0000   0.0000

          k = 0.0600 0.3426 0.0000 (  5271 PWs)   bands (ev):

   -19.2065 -10.5875  -7.8021  -7.1781   3.7609   4.2602   5.3567   5.8445

     occupation numbers 
     1.0000   1.0000   1.0000   1.0000   0.0000   0.0000   0.0000   0.0000

          k = 0.0600 0.3503 0.0000 (  5273 PWs)   bands (ev):

   -19.1155 -10.7589  -7.8600  -7.0742   3.5822   4.3862   5.4815   5.9661

     occupation numbers 
     1.0000   1.0000   1.0000   1.0000   0.0000   0.0000   0.0000   0.0000

          k = 0.0600 0.3580 0.0000 (  5273 PWs)   bands (ev):

   -19.0225 -10.9302  -7.9164  -6.9686   3.4027   4.5147   5.6097   6.0686

     occupation numbers 
     1.0000   1.0000   1.0000   1.0000   0.0000   0.0000   0.0000   0.0000

          k = 0.0600 0.3657 0.0000 (  5271 PWs)   bands (ev):

   -18.9277 -11.1014  -7.9711  -6.8615   3.2227   4.6458   5.7409   6.1063

     occupation numbers 
     1.0000   1.0000   1.0000   1.0000   0.0000   0.0000   0.0000   0.0000

          k = 0.0600 0.3734 0.0000 (  5277 PWs)   bands (ev):

   -18.8310 -11.2723  -8.0242  -6.7528   3.0427   4.7794   5.8752   6.1015

     occupation numbers 
     1.0000   1.0000   1.0000   1.0000   0.0000   0.0000   0.0000   0.0000

          k = 0.0600 0.3811 0.0000 (  5275 PWs)   bands (ev):

   -18.7325 -11.4429  -8.0756  -6.6428   2.8630   4.9154   6.0123   6.0877

     occupation numbers 
     1.0000   1.0000   1.0000   1.0000   0.0000   0.0000   0.0000   0.0000

          k = 0.0600 0.3887 0.0000 (  5273 PWs)   bands (ev):

   -18.6321 -11.6130  -8.1252  -6.5315   2.6836   5.0535   6.0719   6.1521

     occupation numbers 
     1.0000   1.0000   1.0000   1.0000   0.0000   0.0000   0.0000   0.0000

          k = 0.0600 0.3964 0.0000 (  5279 PWs)   bands (ev):

   -18.5300 -11.7826  -8.1731  -6.4190   2.5051   5.1936   6.0561   6.2948

     occupation numbers 
     1.0000   1.0000   1.0000   1.0000   0.0000   0.0000   0.0000   0.0000

          k = 0.0600 0.4041 0.0000 (  5277 PWs)   bands (ev):

   -18.4261 -11.9516  -8.2192  -6.3055   2.3275   5.3350   6.0417   6.4401

     occupation numbers 
     1.0000   1.0000   1.0000   1.0000   0.0000   0.0000   0.0000   0.0000

          k = 0.0600 0.4118 0.0000 (  5283 PWs)   bands (ev):

   -18.3204 -12.1199  -8.2634  -6.1911   2.1511   5.4765   6.0300   6.5880

     occupation numbers 
     1.0000   1.0000   1.0000   1.0000   0.0000   0.0000   0.0000   0.0000

          k = 0.0600 0.4195 0.0000 (  5281 PWs)   bands (ev):

   -18.2130 -12.2874  -8.3059  -6.0760   1.9763   5.6151   6.0242   6.7385

     occupation numbers 
     1.0000   1.0000   1.0000   1.0000   0.0000   0.0000   0.0000   0.0000

          k = 0.0600 0.4272 0.0000 (  5275 PWs)   bands (ev):

   -18.1039 -12.4540  -8.3464  -5.9604   1.8033   5.7420   6.0333   6.8916

     occupation numbers 
     1.0000   1.0000   1.0000   1.0000   0.0000   0.0000   0.0000   0.0000

          k = 0.0600 0.4349 0.0000 (  5268 PWs)   bands (ev):

   -17.9931 -12.6197  -8.3850  -5.8446   1.6324   5.8337   6.0807   7.0472

     occupation numbers 
     1.0000   1.0000   1.0000   1.0000   0.0000   0.0000   0.0000   0.0000

          k = 0.0600 0.4426 0.0000 (  5276 PWs)   bands (ev):

   -17.8808 -12.7844  -8.4218  -5.7287   1.4640   5.8719   6.1850   7.2052

     occupation numbers 
     1.0000   1.0000   1.0000   1.0000   0.0000   0.0000   0.0000   0.0000

          k = 0.0600 0.4503 0.0000 (  5279 PWs)   bands (ev):

   -17.7668 -12.9480  -8.4565  -5.6132   1.2983   5.8789   6.3237   7.3657

     occupation numbers 
     1.0000   1.0000   1.0000   1.0000   0.0000   0.0000   0.0000   0.0000

          k = 0.0600 0.4580 0.0000 (  5283 PWs)   bands (ev):

   -17.6513 -13.1104  -8.4894  -5.4982   1.1360   5.8748   6.4768   7.5285

     occupation numbers 
     1.0000   1.0000   1.0000   1.0000   0.0000   0.0000   0.0000   0.0000

          k = 0.0600 0.4657 0.0000 (  5289 PWs)   bands (ev):

   -17.5344 -13.2714  -8.5202  -5.3843   0.9773   5.8667   6.6372   7.6935

     occupation numbers 
     1.0000   1.0000   1.0000   1.0000   0.0000   0.0000   0.0000   0.0000

          k = 0.0600 0.4734 0.0000 (  5287 PWs)   bands (ev):

   -17.4161 -13.4310  -8.5491  -5.2719   0.8228   5.8571   6.8025   7.8608

     occupation numbers 
     1.0000   1.0000   1.0000   1.0000   0.0000   0.0000   0.0000   0.0000

          k = 0.0600 0.4811 0.0000 (  5287 PWs)   bands (ev):

   -17.2966 -13.5890  -8.5760  -5.1615   0.6731   5.8472   6.9714   8.0302

     occupation numbers 
     1.0000   1.0000   1.0000   1.0000   0.0000   0.0000   0.0000   0.0000

          k = 0.0600 0.4888 0.0000 (  5285 PWs)   bands (ev):

   -17.1760 -13.7453  -8.6008  -5.0537   0.5289   5.8375   7.1435   8.2016

     occupation numbers 
     1.0000   1.0000   1.0000   1.0000   0.0000   0.0000   0.0000   0.0000

          k = 0.0600 0.4965 0.0000 (  5283 PWs)   bands (ev):

   -17.0544 -13.8996  -8.6236  -4.9492   0.3909   5.8281   7.3185   8.3748

     occupation numbers 
     1.0000   1.0000   1.0000   1.0000   0.0000   0.0000   0.0000   0.0000

          k = 0.0600 0.5042 0.0000 (  5292 PWs)   bands (ev):

   -16.9321 -14.0517  -8.6444  -4.8489   0.2599   5.8193   7.4963   8.5498

     occupation numbers 
     1.0000   1.0000   1.0000   1.0000   0.0000   0.0000   0.0000   0.0000

          k = 0.0600 0.5119 0.0000 (  5298 PWs)   bands (ev):

   -16.8095 -14.2013  -8.6631  -4.7536   0.1369   5.8112   7.6766   8.7262

     occupation numbers 
     1.0000   1.0000   1.0000   1.0000   0.0000   0.0000   0.0000   0.0000

          k = 0.0600 0.5196 0.0000 (  5300 PWs)   bands (ev):

   -16.6871 -14.3477  -8.6798  -4.6643   0.0229   5.8039   7.8594   8.9039

     occupation numbers 
     1.0000   1.0000   1.0000   1.0000   0.0000   0.0000   0.0000   0.0000

          k = 0.0600 0.5273 0.0000 (  5296 PWs)   bands (ev):

   -16.5656 -14.4902  -8.6944  -4.5823  -0.0808   5.7975   8.0445   9.0823

     occupation numbers 
     1.0000   1.0000   1.0000   1.0000   0.0000   0.0000   0.0000   0.0000

          k = 0.0600 0.5350 0.0000 (  5294 PWs)   bands (ev):

   -16.4461 -14.6278  -8.7069  -4.5086  -0.1731   5.7918   8.2319   9.2610

     occupation numbers 
     1.0000   1.0000   1.0000   1.0000   0.0000   0.0000   0.0000   0.0000

          k = 0.0600 0.5427 0.0000 (  5296 PWs)   bands (ev):

   -16.3304 -14.7584  -8.7174  -4.4445  -0.2527   5.7871   8.4214   9.4388

     occupation numbers 
     1.0000   1.0000   1.0000   1.0000   0.0000   0.0000   0.0000   0.0000

          k = 0.0600 0.5504 0.0000 (  5294 PWs)   bands (ev):

   -16.2218 -14.8792  -8.7257  -4.3914  -0.3183   5.7833   8.6130   9.6140

     occupation numbers 
     1.0000   1.0000   1.0000   1.0000   0.0000   0.0000   0.0000   0.0000

          k = 0.0600 0.5581 0.0000 (  5292 PWs)   bands (ev):

   -16.1252 -14.9848  -8.7320  -4.3503  -0.3688   5.7805   8.8062   9.7832

     occupation numbers 
     1.0000   1.0000   1.0000   1.0000   0.0000   0.0000   0.0000   0.0000

          k = 0.0600 0.5658 0.0000 (  5294 PWs)   bands (ev):

   -16.0494 -15.0666  -8.7362  -4.3223  -0.4030   5.7786   9.0004   9.6065

     occupation numbers 
     1.0000   1.0000   1.0000   1.0000   0.0000   0.0000   0.0000   0.0000

          k = 0.0600 0.5735 0.0000 (  5294 PWs)   bands (ev):

   -16.0063 -15.1128  -8.7383  -4.3081  -0.4203   5.7776   9.1903   9.4135

     occupation numbers 
     1.0000   1.0000   1.0000   1.0000   0.0000   0.0000   0.0000   0.0000

          k = 0.0667 0.1155 0.0000 (  5261 PWs)   bands (ev):

   -20.9920  -9.2805  -6.2202  -5.7696   1.8058   2.8570   3.3283   5.1690

     occupation numbers 
     1.0000   1.0000   1.0000   1.0000   0.0000   0.0000   0.0000   0.0000

          k = 0.0667 0.1232 0.0000 (  5271 PWs)   bands (ev):

   -20.9599  -9.2419  -6.3209  -5.8341   1.8496   2.9013   3.3733   5.2129

     occupation numbers 
     1.0000   1.0000   1.0000   1.0000   0.0000   0.0000   0.0000   0.0000

          k = 0.0667 0.1309 0.0000 (  5272 PWs)   bands (ev):

   -20.9257  -9.2008  -6.4267  -5.9011   1.8963   2.9484   3.4212   5.2597

     occupation numbers 
     1.0000   1.0000   1.0000   1.0000   0.0000   0.0000   0.0000   0.0000

          k = 0.0667 0.1386 0.0000 (  5272 PWs)   bands (ev):

   -20.8894  -9.1573  -6.5374  -5.9701   1.9458   2.9983   3.4720   5.3093

     occupation numbers 
     1.0000   1.0000   1.0000   1.0000   0.0000   0.0000   0.0000   0.0000

          k = 0.0667 0.1463 0.0000 (  5268 PWs)   bands (ev):

   -20.8511  -9.1114  -6.6529  -6.0409   1.9982   3.0511   3.5257   5.3617

     occupation numbers 
     1.0000   1.0000   1.0000   1.0000   0.0000   0.0000   0.0000   0.0000

          k = 0.0667 0.1540 0.0000 (  5270 PWs)   bands (ev):

   -20.8107  -9.0630  -6.7730  -6.1132   2.0534   3.1068   3.5823   5.4168

     occupation numbers 
     1.0000   1.0000   1.0000   1.0000   0.0000   0.0000   0.0000   0.0000

          k = 0.0667 0.1617 0.0000 (  5270 PWs)   bands (ev):

   -20.7683  -9.0122  -6.8974  -6.1867   2.1114   3.1652   3.6419   5.4748

     occupation numbers 
     1.0000   1.0000   1.0000   1.0000   0.0000   0.0000   0.0000   0.0000

          k = 0.0667 0.1694 0.0000 (  5265 PWs)   bands (ev):

   -20.7238  -8.9589  -7.0261  -6.2612   2.1722   3.2265   3.7043   5.5355

     occupation numbers 
     1.0000   1.0000   1.0000   1.0000   0.0000   0.0000   0.0000   0.0000

          k = 0.0667 0.1771 0.0000 (  5261 PWs)   bands (ev):

   -20.6773  -8.9033  -7.1587  -6.3365   2.2359   3.2906   3.7696   5.5990

     occupation numbers 
     1.0000   1.0000   1.0000   1.0000   0.0000   0.0000   0.0000   0.0000

          k = 0.0667 0.1848 0.0000 (  5252 PWs)   bands (ev):

   -20.6288  -8.8453  -7.2950  -6.4123   2.3023   3.3574   3.8378   5.6651

     occupation numbers 
     1.0000   1.0000   1.0000   1.0000   0.0000   0.0000   0.0000   0.0000

          k = 0.0667 0.1925 0.0000 (  5252 PWs)   bands (ev):

   -20.5782  -8.7849  -7.4350  -6.4885   2.3716   3.4271   3.9090   5.7339

     occupation numbers 
     1.0000   1.0000   1.0000   1.0000   0.0000   0.0000   0.0000   0.0000

          k = 0.0667 0.2001 0.0000 (  5248 PWs)   bands (ev):

   -20.5256  -8.7222  -7.5782  -6.5648   2.4437   3.4996   3.9830   5.8052

     occupation numbers 
     1.0000   1.0000   1.0000   1.0000   0.0000   0.0000   0.0000   0.0000

          k = 0.0667 0.2078 0.0000 (  5251 PWs)   bands (ev):

   -20.4709  -8.6571  -7.7246  -6.6412   2.5186   3.5748   4.0599   5.8788

     occupation numbers 
     1.0000   1.0000   1.0000   1.0000   0.0000   0.0000   0.0000   0.0000

          k = 0.0667 0.2155 0.0000 (  5250 PWs)   bands (ev):

   -20.4143  -8.5897  -7.8738  -6.7174   2.5964   3.6528   4.1397   5.9541

     occupation numbers 
     1.0000   1.0000   1.0000   1.0000   0.0000   0.0000   0.0000   0.0000

          k = 0.0667 0.2232 0.0000 (  5246 PWs)   bands (ev):

   -20.3556  -8.5199  -8.0257  -6.7933   2.6769   3.7335   4.2224   6.0291

     occupation numbers 
     1.0000   1.0000   1.0000   1.0000   0.0000   0.0000   0.0000   0.0000

          k = 0.0667 0.2309 0.0000 (  5248 PWs)   bands (ev):

   -20.2949  -8.4479  -8.1801  -6.8689   2.7602   3.8168   4.3080   6.0929

     occupation numbers 
     1.0000   1.0000   1.0000   1.0000   0.0000   0.0000   0.0000   0.0000

          k = 0.0667 0.2386 0.0000 (  5257 PWs)   bands (ev):

   -20.2321  -8.3736  -8.3367  -6.9439   2.8464   3.9028   4.3965   6.0641

     occupation numbers 
     1.0000   1.0000   1.0000   1.0000   0.0000   0.0000   0.0000   0.0000

          k = 0.0667 0.2463 0.0000 (  5261 PWs)   bands (ev):

   -20.1674  -8.4954  -8.2970  -7.0183   2.9353   3.9913   4.4879   5.9274

     occupation numbers 
     1.0000   1.0000   1.0000   1.0000   0.0000   0.0000   0.0000   0.0000

          k = 0.0667 0.2540 0.0000 (  5259 PWs)   bands (ev):

   -20.1007  -8.6560  -8.2182  -7.0920   3.0271   4.0822   4.5822   5.7714

     occupation numbers 
     1.0000   1.0000   1.0000   1.0000   0.0000   0.0000   0.0000   0.0000

          k = 0.0667 0.2617 0.0000 (  5257 PWs)   bands (ev):

   -20.0320  -8.8182  -8.1372  -7.1648   3.1216   4.1752   4.6793   5.6104

     occupation numbers 
     1.0000   1.0000   1.0000   1.0000   0.0000   0.0000   0.0000   0.0000

          k = 0.0667 0.2694 0.0000 (  5259 PWs)   bands (ev):

   -19.9613  -8.9820  -8.0540  -7.2368   3.2189   4.2699   4.7794   5.4471

     occupation numbers 
     1.0000   1.0000   1.0000   1.0000   0.0000   0.0000   0.0000   0.0000

          k = 0.0667 0.2771 0.0000 (  5261 PWs)   bands (ev):

   -19.8887  -9.1471  -7.9686  -7.3077   3.3190   4.3652   4.8823   5.2836

     occupation numbers 
     1.0000   1.0000   1.0000   1.0000   0.0000   0.0000   0.0000   0.0000

          k = 0.0667 0.2848 0.0000 (  5265 PWs)   bands (ev):

   -19.8140  -9.3134  -7.8811  -7.3776   3.4218   4.4586   4.9880   5.1226

     occupation numbers 
     1.0000   1.0000   1.0000   1.0000   0.0000   0.0000   0.0000   0.0000

          k = 0.0667 0.2925 0.0000 (  5273 PWs)   bands (ev):

   -19.7374  -9.4807  -7.7916  -7.4463   3.5274   4.5410   4.9736   5.0966

     occupation numbers 
     1.0000   1.0000   1.0000   1.0000   0.0000   0.0000   0.0000   0.0000

          k = 0.0667 0.3002 0.0000 (  5275 PWs)   bands (ev):

   -19.6588  -9.6489  -7.6999  -7.5138   3.6358   4.5750   4.8743   5.2080

     occupation numbers 
     1.0000   1.0000   1.0000   1.0000   0.0000   0.0000   0.0000   0.0000

          k = 0.0667 0.3079 0.0000 (  5271 PWs)   bands (ev):

   -19.5783  -9.8179  -7.6063  -7.5801   3.7469   4.4956   4.8898   5.3222

     occupation numbers 
     1.0000   1.0000   1.0000   1.0000   0.0000   0.0000   0.0000   0.0000

          k = 0.0667 0.3156 0.0000 (  5277 PWs)   bands (ev):

   -19.4959  -9.9874  -7.6450  -7.5107   3.8608   4.3486   4.9744   5.4391

     occupation numbers 
     1.0000   1.0000   1.0000   1.0000   0.0000   0.0000   0.0000   0.0000

          k = 0.0667 0.3233 0.0000 (  5281 PWs)   bands (ev):

   -19.4115 -10.1575  -7.7085  -7.4131   3.9774   4.1826   5.0798   5.5587

     occupation numbers 
     1.0000   1.0000   1.0000   1.0000   0.0000   0.0000   0.0000   0.0000

          k = 0.0667 0.3310 0.0000 (  5275 PWs)   bands (ev):

   -19.3252 -10.3279  -7.7705  -7.3137   4.0099   4.0967   5.1938   5.6807

     occupation numbers 
     1.0000   1.0000   1.0000   1.0000   0.0000   0.0000   0.0000   0.0000

          k = 0.0667 0.3387 0.0000 (  5271 PWs)   bands (ev):

   -19.2370 -10.4985  -7.8311  -7.2124   3.8341   4.2186   5.3130   5.8048

     occupation numbers 
     1.0000   1.0000   1.0000   1.0000   0.0000   0.0000   0.0000   0.0000

          k = 0.0667 0.3464 0.0000 (  5275 PWs)   bands (ev):

   -19.1469 -10.6692  -7.8901  -7.1094   3.6566   4.3433   5.4362   5.9298

     occupation numbers 
     1.0000   1.0000   1.0000   1.0000   0.0000   0.0000   0.0000   0.0000

          k = 0.0667 0.3541 0.0000 (  5271 PWs)   bands (ev):

   -19.0549 -10.8400  -7.9475  -7.0047   3.4780   4.4706   5.5628   6.0519

     occupation numbers 
     1.0000   1.0000   1.0000   1.0000   0.0000   0.0000   0.0000   0.0000

          k = 0.0667 0.3618 0.0000 (  5273 PWs)   bands (ev):

   -18.9610 -11.0107  -8.0034  -6.8983   3.2989   4.6005   5.6926   6.1508

     occupation numbers 
     1.0000   1.0000   1.0000   1.0000   0.0000   0.0000   0.0000   0.0000

          k = 0.0667 0.3695 0.0000 (  5279 PWs)   bands (ev):

   -18.8653 -11.1812  -8.0575  -6.7905   3.1196   4.7329   5.8254   6.1814

     occupation numbers 
     1.0000   1.0000   1.0000   1.0000   0.0000   0.0000   0.0000   0.0000

          k = 0.0667 0.3772 0.0000 (  5277 PWs)   bands (ev):

   -18.7677 -11.3515  -8.1100  -6.6811   2.9404   4.8679   5.9610   6.1750

     occupation numbers 
     1.0000   1.0000   1.0000   1.0000   0.0000   0.0000   0.0000   0.0000

          k = 0.0667 0.3849 0.0000 (  5275 PWs)   bands (ev):

   -18.6683 -11.5213  -8.1607  -6.5705   2.7615   5.0052   6.0995   6.1609

     occupation numbers 
     1.0000   1.0000   1.0000   1.0000   0.0000   0.0000   0.0000   0.0000

          k = 0.0667 0.3926 0.0000 (  5279 PWs)   bands (ev):

   -18.5671 -11.6908  -8.2096  -6.4586   2.5832   5.1446   6.1453   6.2406

     occupation numbers 
     1.0000   1.0000   1.0000   1.0000   0.0000   0.0000   0.0000   0.0000

          k = 0.0667 0.4003 0.0000 (  5277 PWs)   bands (ev):

   -18.4641 -11.8596  -8.2568  -6.3456   2.4058   5.2859   6.1298   6.3845

     occupation numbers 
     1.0000   1.0000   1.0000   1.0000   0.0000   0.0000   0.0000   0.0000

          k = 0.0667 0.4080 0.0000 (  5279 PWs)   bands (ev):

   -18.3594 -12.0279  -8.3021  -6.2316   2.2294   5.4285   6.1158   6.5310

     occupation numbers 
     1.0000   1.0000   1.0000   1.0000   0.0000   0.0000   0.0000   0.0000

          k = 0.0667 0.4157 0.0000 (  5283 PWs)   bands (ev):

   -18.2529 -12.1954  -8.3456  -6.1169   2.0544   5.5710   6.1048   6.6800

     occupation numbers 
     1.0000   1.0000   1.0000   1.0000   0.0000   0.0000   0.0000   0.0000

          k = 0.0667 0.4234 0.0000 (  5279 PWs)   bands (ev):

   -18.1446 -12.3621  -8.3872  -6.0015   1.8810   5.7100   6.1003   6.8317

     occupation numbers 
     1.0000   1.0000   1.0000   1.0000   0.0000   0.0000   0.0000   0.0000

          k = 0.0667 0.4311 0.0000 (  5275 PWs)   bands (ev):

   -18.0348 -12.5280  -8.4269  -5.8858   1.7095   5.8352   6.1126   6.9858

     occupation numbers 
     1.0000   1.0000   1.0000   1.0000   0.0000   0.0000   0.0000   0.0000

          k = 0.0667 0.4388 0.0000 (  5274 PWs)   bands (ev):

   -17.9232 -12.6929  -8.4647  -5.7699   1.5403   5.9208   6.1678   7.1424

     occupation numbers 
     1.0000   1.0000   1.0000   1.0000   0.0000   0.0000   0.0000   0.0000

          k = 0.0667 0.4465 0.0000 (  5276 PWs)   bands (ev):

   -17.8101 -12.8567  -8.5005  -5.6541   1.3737   5.9532   6.2796   7.3014

     occupation numbers 
     1.0000   1.0000   1.0000   1.0000   0.0000   0.0000   0.0000   0.0000

          k = 0.0667 0.4542 0.0000 (  5281 PWs)   bands (ev):

   -17.6954 -13.0194  -8.5344  -5.5388   1.2101   5.9579   6.4222   7.4627

     occupation numbers 
     1.0000   1.0000   1.0000   1.0000   0.0000   0.0000   0.0000   0.0000

          k = 0.0667 0.4619 0.0000 (  5285 PWs)   bands (ev):

   -17.5793 -13.1809  -8.5664  -5.4243   1.0499   5.9531   6.5777   7.6263

     occupation numbers 
     1.0000   1.0000   1.0000   1.0000   0.0000   0.0000   0.0000   0.0000

          k = 0.0667 0.4696 0.0000 (  5287 PWs)   bands (ev):

   -17.4617 -13.3410  -8.5963  -5.3111   0.8936   5.9449   6.7398   7.7920

     occupation numbers 
     1.0000   1.0000   1.0000   1.0000   0.0000   0.0000   0.0000   0.0000

          k = 0.0667 0.4773 0.0000 (  5281 PWs)   bands (ev):

   -17.3429 -13.4996  -8.6242  -5.1995   0.7418   5.9355   6.9065   7.9599

     occupation numbers 
     1.0000   1.0000   1.0000   1.0000   0.0000   0.0000   0.0000   0.0000

          k = 0.0667 0.4850 0.0000 (  5284 PWs)   bands (ev):

   -17.2228 -13.6565  -8.6501  -5.0903   0.5950   5.9258   7.0768   8.1298

     occupation numbers 
     1.0000   1.0000   1.0000   1.0000   0.0000   0.0000   0.0000   0.0000

          k = 0.0667 0.4927 0.0000 (  5286 PWs)   bands (ev):

   -17.1017 -13.8116  -8.6740  -4.9840   0.4541   5.9164   7.2502   8.3016

     occupation numbers 
     1.0000   1.0000   1.0000   1.0000   0.0000   0.0000   0.0000   0.0000

          k = 0.0667 0.5004 0.0000 (  5294 PWs)   bands (ev):

   -16.9799 -13.9647  -8.6959  -4.8814   0.3197   5.9074   7.4264   8.4750

     occupation numbers 
     1.0000   1.0000   1.0000   1.0000   0.0000   0.0000   0.0000   0.0000

          k = 0.0667 0.5081 0.0000 (  5294 PWs)   bands (ev):

   -16.8575 -14.1154  -8.7157  -4.7833   0.1927   5.8990   7.6053   8.6499

     occupation numbers 
     1.0000   1.0000   1.0000   1.0000   0.0000   0.0000   0.0000   0.0000

          k = 0.0667 0.5158 0.0000 (  5300 PWs)   bands (ev):

   -16.7350 -14.2632  -8.7334  -4.6908   0.0742   5.8914   7.7867   8.8261

     occupation numbers 
     1.0000   1.0000   1.0000   1.0000   0.0000   0.0000   0.0000   0.0000

          k = 0.0667 0.5235 0.0000 (  5300 PWs)   bands (ev):

   -16.6130 -14.4076  -8.7491  -4.6049  -0.0347   5.8845   7.9705   9.0031

     occupation numbers 
     1.0000   1.0000   1.0000   1.0000   0.0000   0.0000   0.0000   0.0000

          k = 0.0667 0.5312 0.0000 (  5294 PWs)   bands (ev):

   -16.4924 -14.5477  -8.7627  -4.5267  -0.1329   5.8785   8.1566   9.1803

     occupation numbers 
     1.0000   1.0000   1.0000   1.0000   0.0000   0.0000   0.0000   0.0000

          k = 0.0667 0.5389 0.0000 (  5294 PWs)   bands (ev):

   -16.3746 -14.6819  -8.7742  -4.4575  -0.2190   5.8733   8.3449   9.3571

     occupation numbers 
     1.0000   1.0000   1.0000   1.0000   0.0000   0.0000   0.0000   0.0000

          k = 0.0667 0.5466 0.0000 (  5298 PWs)   bands (ev):

   -16.2621 -14.8079  -8.7836  -4.3987  -0.2917   5.8691   8.5353   9.5317

     occupation numbers 
     1.0000   1.0000   1.0000   1.0000   0.0000   0.0000   0.0000   0.0000

          k = 0.0667 0.5543 0.0000 (  5300 PWs)   bands (ev):

   -16.1588 -14.9218  -8.7909  -4.3513  -0.3499   5.8657   8.7275   9.7015

     occupation numbers 
     1.0000   1.0000   1.0000   1.0000   0.0000   0.0000   0.0000   0.0000

          k = 0.0667 0.5620 0.0000 (  5298 PWs)   bands (ev):

   -16.0714 -15.0167  -8.7962  -4.3166  -0.3924   5.8634   8.9211   9.7230

     occupation numbers 
     1.0000   1.0000   1.0000   1.0000   0.0000   0.0000   0.0000   0.0000

          k = 0.0667 0.5697 0.0000 (  5294 PWs)   bands (ev):

   -16.0104 -15.0822  -8.7993  -4.2954  -0.4182   5.8619   9.1144   9.5251

     occupation numbers 
     1.0000   1.0000   1.0000   1.0000   0.0000   0.0000   0.0000   0.0000

          k = 0.0667 0.5774 0.0000 (  5290 PWs)   bands (ev):

   -15.9881 -15.1060  -8.8004  -4.2882  -0.4269   5.8615   9.2681   9.3699

     occupation numbers 
     1.0000   1.0000   1.0000   1.0000   0.0000   0.0000   0.0000   0.0000

          k = 0.0733 0.1270 0.0000 (  5271 PWs)   bands (ev):

   -20.9267  -9.2021  -6.4217  -5.9011   1.8949   2.9470   3.4198   5.2583

     occupation numbers 
     1.0000   1.0000   1.0000   1.0000   0.0000   0.0000   0.0000   0.0000

          k = 0.0733 0.1347 0.0000 (  5271 PWs)   bands (ev):

   -20.8915  -9.1598  -6.5274  -5.9705   1.9430   2.9955   3.4691   5.3065

     occupation numbers 
     1.0000   1.0000   1.0000   1.0000   0.0000   0.0000   0.0000   0.0000

          k = 0.0733 0.1424 0.0000 (  5267 PWs)   bands (ev):

   -20.8542  -9.1151  -6.6378  -6.0419   1.9940   3.0469   3.5214   5.3574

     occupation numbers 
     1.0000   1.0000   1.0000   1.0000   0.0000   0.0000   0.0000   0.0000

          k = 0.0733 0.1501 0.0000 (  5261 PWs)   bands (ev):

   -20.8149  -9.0679  -6.7528  -6.1151   2.0477   3.1011   3.5765   5.4112

     occupation numbers 
     1.0000   1.0000   1.0000   1.0000   0.0000   0.0000   0.0000   0.0000

          k = 0.0733 0.1578 0.0000 (  5269 PWs)   bands (ev):

   -20.7735  -9.0183  -6.8723  -6.1897   2.1043   3.1581   3.6346   5.4678

     occupation numbers 
     1.0000   1.0000   1.0000   1.0000   0.0000   0.0000   0.0000   0.0000

          k = 0.0733 0.1655 0.0000 (  5265 PWs)   bands (ev):

   -20.7300  -8.9664  -6.9960  -6.2654   2.1637   3.2180   3.6956   5.5271

     occupation numbers 
     1.0000   1.0000   1.0000   1.0000   0.0000   0.0000   0.0000   0.0000

          k = 0.0733 0.1732 0.0000 (  5261 PWs)   bands (ev):

   -20.6846  -8.9120  -7.1239  -6.3419   2.2260   3.2806   3.7595   5.5892

     occupation numbers 
     1.0000   1.0000   1.0000   1.0000   0.0000   0.0000   0.0000   0.0000

          k = 0.0733 0.1809 0.0000 (  5263 PWs)   bands (ev):

   -20.6370  -8.8552  -7.2558  -6.4191   2.2911   3.3461   3.8262   5.6540

     occupation numbers 
     1.0000   1.0000   1.0000   1.0000   0.0000   0.0000   0.0000   0.0000

          k = 0.0733 0.1886 0.0000 (  5255 PWs)   bands (ev):

   -20.5875  -8.7960  -7.3913  -6.4967   2.3589   3.4144   3.8959   5.7215

     occupation numbers 
     1.0000   1.0000   1.0000   1.0000   0.0000   0.0000   0.0000   0.0000

          k = 0.0733 0.1963 0.0000 (  5250 PWs)   bands (ev):

   -20.5359  -8.7344  -7.5304  -6.5744   2.4296   3.4855   3.9685   5.7916

     occupation numbers 
     1.0000   1.0000   1.0000   1.0000   0.0000   0.0000   0.0000   0.0000

          k = 0.0733 0.2040 0.0000 (  5249 PWs)   bands (ev):

   -20.4823  -8.6706  -7.6729  -6.6523   2.5032   3.5593   4.0440   5.8641

     occupation numbers 
     1.0000   1.0000   1.0000   1.0000   0.0000   0.0000   0.0000   0.0000

          k = 0.0733 0.2117 0.0000 (  5253 PWs)   bands (ev):

   -20.4266  -8.6043  -7.8184  -6.7299   2.5795   3.6359   4.1223   5.9387

     occupation numbers 
     1.0000   1.0000   1.0000   1.0000   0.0000   0.0000   0.0000   0.0000

          k = 0.0733 0.2194 0.0000 (  5252 PWs)   bands (ev):

   -20.3690  -8.5358  -7.9669  -6.8073   2.6586   3.7152   4.2036   6.0142

     occupation numbers 
     1.0000   1.0000   1.0000   1.0000   0.0000   0.0000   0.0000   0.0000

          k = 0.0733 0.2271 0.0000 (  5252 PWs)   bands (ev):

   -20.3093  -8.4649  -8.1180  -6.8843   2.7406   3.7973   4.2878   6.0850

     occupation numbers 
     1.0000   1.0000   1.0000   1.0000   0.0000   0.0000   0.0000   0.0000

          k = 0.0733 0.2348 0.0000 (  5256 PWs)   bands (ev):

   -20.2476  -8.3918  -8.2716  -6.9607   2.8253   3.8820   4.3748   6.0964

     occupation numbers 
     1.0000   1.0000   1.0000   1.0000   0.0000   0.0000   0.0000   0.0000

          k = 0.0733 0.2425 0.0000 (  5257 PWs)   bands (ev):

   -20.1839  -8.4275  -8.3164  -7.0365   2.9129   3.9692   4.4648   5.9731

     occupation numbers 
     1.0000   1.0000   1.0000   1.0000   0.0000   0.0000   0.0000   0.0000

          k = 0.0733 0.2502 0.0000 (  5263 PWs)   bands (ev):

   -20.1182  -8.5854  -8.2387  -7.1116   3.0032   4.0590   4.5576   5.8199

     occupation numbers 
     1.0000   1.0000   1.0000   1.0000   0.0000   0.0000   0.0000   0.0000

          k = 0.0733 0.2579 0.0000 (  5261 PWs)   bands (ev):

   -20.0505  -8.7452  -8.1588  -7.1858   3.0963   4.1510   4.6534   5.6607

     occupation numbers 
     1.0000   1.0000   1.0000   1.0000   0.0000   0.0000   0.0000   0.0000

          k = 0.0733 0.2656 0.0000 (  5262 PWs)   bands (ev):

   -19.9808  -8.9068  -8.0767  -7.2590   3.1922   4.2449   4.7520   5.4989

     occupation numbers 
     1.0000   1.0000   1.0000   1.0000   0.0000   0.0000   0.0000   0.0000

          k = 0.0733 0.2733 0.0000 (  5266 PWs)   bands (ev):

   -19.9091  -9.0698  -7.9925  -7.3313   3.2909   4.3401   4.8534   5.3361

     occupation numbers 
     1.0000   1.0000   1.0000   1.0000   0.0000   0.0000   0.0000   0.0000

          k = 0.0733 0.2810 0.0000 (  5263 PWs)   bands (ev):

   -19.8355  -9.2342  -7.9061  -7.4024   3.3924   4.4348   4.9578   5.1743

     occupation numbers 
     1.0000   1.0000   1.0000   1.0000   0.0000   0.0000   0.0000   0.0000

          k = 0.0733 0.2887 0.0000 (  5263 PWs)   bands (ev):

   -19.7599  -9.3998  -7.8176  -7.4724   3.4967   4.5237   5.0194   5.0650

     occupation numbers 
     1.0000   1.0000   1.0000   1.0000   0.0000   0.0000   0.0000   0.0000

          k = 0.0733 0.2964 0.0000 (  5265 PWs)   bands (ev):

   -19.6823  -9.5665  -7.7271  -7.5411   3.6037   4.5840   4.8941   5.1750

     occupation numbers 
     1.0000   1.0000   1.0000   1.0000   0.0000   0.0000   0.0000   0.0000

          k = 0.0733 0.3041 0.0000 (  5269 PWs)   bands (ev):

   -19.6028  -9.7340  -7.6344  -7.6086   3.7134   4.5446   4.8697   5.2879

     occupation numbers 
     1.0000   1.0000   1.0000   1.0000   0.0000   0.0000   0.0000   0.0000

          k = 0.0733 0.3118 0.0000 (  5275 PWs)   bands (ev):

   -19.5214  -9.9023  -7.6747  -7.5398   3.8259   4.4109   4.9412   5.4035

     occupation numbers 
     1.0000   1.0000   1.0000   1.0000   0.0000   0.0000   0.0000   0.0000

          k = 0.0733 0.3195 0.0000 (  5281 PWs)   bands (ev):

   -19.4380 -10.0711  -7.7394  -7.4433   3.9412   4.2491   5.0425   5.5219

     occupation numbers 
     1.0000   1.0000   1.0000   1.0000   0.0000   0.0000   0.0000   0.0000

          k = 0.0733 0.3272 0.0000 (  5285 PWs)   bands (ev):

   -19.3526 -10.2405  -7.8026  -7.3448   4.0591   4.0786   5.1543   5.6429

     occupation numbers 
     1.0000   1.0000   1.0000   1.0000   0.0000   0.0000   0.0000   0.0000

          k = 0.0733 0.3349 0.0000 (  5277 PWs)   bands (ev):

   -19.2654 -10.4102  -7.8643  -7.2445   3.9044   4.1798   5.2718   5.7664

     occupation numbers 
     1.0000   1.0000   1.0000   1.0000   0.0000   0.0000   0.0000   0.0000

          k = 0.0733 0.3426 0.0000 (  5275 PWs)   bands (ev):

   -19.1763 -10.5801  -7.9245  -7.1424   3.7282   4.3032   5.3934   5.8918

     occupation numbers 
     1.0000   1.0000   1.0000   1.0000   0.0000   0.0000   0.0000   0.0000

          k = 0.0733 0.3503 0.0000 (  5275 PWs)   bands (ev):

   -19.0853 -10.7502  -7.9831  -7.0385   3.5507   4.4292   5.5186   6.0181

     occupation numbers 
     1.0000   1.0000   1.0000   1.0000   0.0000   0.0000   0.0000   0.0000

          k = 0.0733 0.3580 0.0000 (  5275 PWs)   bands (ev):

   -18.9923 -10.9202  -8.0401  -6.9330   3.3726   4.5578   5.6469   6.1409

     occupation numbers 
     1.0000   1.0000   1.0000   1.0000   0.0000   0.0000   0.0000   0.0000

          k = 0.0733 0.3657 0.0000 (  5275 PWs)   bands (ev):

   -18.8976 -11.0902  -8.0953  -6.8260   3.1941   4.6891   5.7782   6.2373

     occupation numbers 
     1.0000   1.0000   1.0000   1.0000   0.0000   0.0000   0.0000   0.0000

          k = 0.0733 0.3734 0.0000 (  5277 PWs)   bands (ev):

   -18.8010 -11.2600  -8.1489  -6.7174   3.0156   4.8229   5.9124   6.2633

     occupation numbers 
     1.0000   1.0000   1.0000   1.0000   0.0000   0.0000   0.0000   0.0000

          k = 0.0733 0.3811 0.0000 (  5277 PWs)   bands (ev):

   -18.7025 -11.4295  -8.2007  -6.6074   2.8373   4.9591   6.0494   6.2559

     occupation numbers 
     1.0000   1.0000   1.0000   1.0000   0.0000   0.0000   0.0000   0.0000

          k = 0.0733 0.3887 0.0000 (  5273 PWs)   bands (ev):

   -18.6022 -11.5986  -8.2508  -6.4961   2.6595   5.0978   6.1891   6.2418

     occupation numbers 
     1.0000   1.0000   1.0000   1.0000   0.0000   0.0000   0.0000   0.0000

          k = 0.0733 0.3964 0.0000 (  5285 PWs)   bands (ev):

   -18.5002 -11.7673  -8.2991  -6.3837   2.4823   5.2385   6.2264   6.3315

     occupation numbers 
     1.0000   1.0000   1.0000   1.0000   0.0000   0.0000   0.0000   0.0000

          k = 0.0733 0.4041 0.0000 (  5281 PWs)   bands (ev):

   -18.3963 -11.9354  -8.3455  -6.2702   2.3061   5.3811   6.2113   6.4766

     occupation numbers 
     1.0000   1.0000   1.0000   1.0000   0.0000   0.0000   0.0000   0.0000

          k = 0.0733 0.4118 0.0000 (  5281 PWs)   bands (ev):

   -18.2908 -12.1028  -8.3901  -6.1559   2.1310   5.5249   6.1977   6.6242

     occupation numbers 
     1.0000   1.0000   1.0000   1.0000   0.0000   0.0000   0.0000   0.0000

          k = 0.0733 0.4195 0.0000 (  5283 PWs)   bands (ev):

   -18.1834 -12.2696  -8.4328  -6.0408   1.9574   5.6685   6.1872   6.7743

     occupation numbers 
     1.0000   1.0000   1.0000   1.0000   0.0000   0.0000   0.0000   0.0000

          k = 0.0733 0.4272 0.0000 (  5279 PWs)   bands (ev):

   -18.0744 -12.4355  -8.4736  -5.9252   1.7856   5.8080   6.1838   6.9270

     occupation numbers 
     1.0000   1.0000   1.0000   1.0000   0.0000   0.0000   0.0000   0.0000

          k = 0.0733 0.4349 0.0000 (  5274 PWs)   bands (ev):

   -17.9638 -12.6005  -8.5125  -5.8094   1.6158   5.9321   6.1990   7.0821

     occupation numbers 
     1.0000   1.0000   1.0000   1.0000   0.0000   0.0000   0.0000   0.0000

          k = 0.0733 0.4426 0.0000 (  5272 PWs)   bands (ev):

   -17.8515 -12.7645  -8.5494  -5.6935   1.4484   6.0129   6.2606   7.2396

     occupation numbers 
     1.0000   1.0000   1.0000   1.0000   0.0000   0.0000   0.0000   0.0000

          k = 0.0733 0.4503 0.0000 (  5274 PWs)   bands (ev):

   -17.7376 -12.9275  -8.5844  -5.5779   1.2838   6.0411   6.3782   7.3994

     occupation numbers 
     1.0000   1.0000   1.0000   1.0000   0.0000   0.0000   0.0000   0.0000

          k = 0.0733 0.4580 0.0000 (  5276 PWs)   bands (ev):

   -17.6223 -13.0893  -8.6174  -5.4629   1.1223   6.0443   6.5239   7.5615

     occupation numbers 
     1.0000   1.0000   1.0000   1.0000   0.0000   0.0000   0.0000   0.0000

          k = 0.0733 0.4657 0.0000 (  5284 PWs)   bands (ev):

   -17.5055 -13.2498  -8.6484  -5.3489   0.9644   6.0391   6.6814   7.7257

     occupation numbers 
     1.0000   1.0000   1.0000   1.0000   0.0000   0.0000   0.0000   0.0000

          k = 0.0733 0.4734 0.0000 (  5286 PWs)   bands (ev):

   -17.3873 -13.4089  -8.6774  -5.2364   0.8106   6.0309   6.8452   7.8921

     occupation numbers 
     1.0000   1.0000   1.0000   1.0000   0.0000   0.0000   0.0000   0.0000

          k = 0.0733 0.4811 0.0000 (  5288 PWs)   bands (ev):

   -17.2679 -13.5664  -8.7044  -5.1259   0.6616   6.0217   7.0133   8.0604

     occupation numbers 
     1.0000   1.0000   1.0000   1.0000   0.0000   0.0000   0.0000   0.0000

          k = 0.0733 0.4888 0.0000 (  5290 PWs)   bands (ev):

   -17.1474 -13.7222  -8.7294  -5.0180   0.5179   6.0124   7.1848   8.2306

     occupation numbers 
     1.0000   1.0000   1.0000   1.0000   0.0000   0.0000   0.0000   0.0000

          k = 0.0733 0.4965 0.0000 (  5300 PWs)   bands (ev):

   -17.0260 -13.8761  -8.7523  -4.9133   0.3804   6.0033   7.3594   8.4025

     occupation numbers 
     1.0000   1.0000   1.0000   1.0000   0.0000   0.0000   0.0000   0.0000

          k = 0.0733 0.5042 0.0000 (  5298 PWs)   bands (ev):

   -16.9039 -14.0278  -8.7732  -4.8128   0.2498   5.9947   7.5368   8.5758

     occupation numbers 
     1.0000   1.0000   1.0000   1.0000   0.0000   0.0000   0.0000   0.0000

          k = 0.0733 0.5119 0.0000 (  5298 PWs)   bands (ev):

   -16.7815 -14.1769  -8.7920  -4.7172   0.1271   5.9867   7.7168   8.7504

     occupation numbers 
     1.0000   1.0000   1.0000   1.0000   0.0000   0.0000   0.0000   0.0000

          k = 0.0733 0.5196 0.0000 (  5294 PWs)   bands (ev):

   -16.6592 -14.3229  -8.8087  -4.6277   0.0133   5.9795   7.8992   8.9258

     occupation numbers 
     1.0000   1.0000   1.0000   1.0000   0.0000   0.0000   0.0000   0.0000

          k = 0.0733 0.5273 0.0000 (  5296 PWs)   bands (ev):

   -16.5379 -14.4651  -8.8234  -4.5454  -0.0903   5.9731   8.0840   9.1016

     occupation numbers 
     1.0000   1.0000   1.0000   1.0000   0.0000   0.0000   0.0000   0.0000

          k = 0.0733 0.5350 0.0000 (  5290 PWs)   bands (ev):

   -16.4186 -14.6023  -8.8360  -4.4714  -0.1825   5.9675   8.2711   9.2769

     occupation numbers 
     1.0000   1.0000   1.0000   1.0000   0.0000   0.0000   0.0000   0.0000

          k = 0.0733 0.5427 0.0000 (  5294 PWs)   bands (ev):

   -16.3032 -14.7326  -8.8465  -4.4071  -0.2621   5.9628   8.4602   9.4506

     occupation numbers 
     1.0000   1.0000   1.0000   1.0000   0.0000   0.0000   0.0000   0.0000

          k = 0.0733 0.5504 0.0000 (  5300 PWs)   bands (ev):

   -16.1948 -14.8530  -8.8549  -4.3537  -0.3277   5.9590   8.6513   9.6203

     occupation numbers 
     1.0000   1.0000   1.0000   1.0000   0.0000   0.0000   0.0000   0.0000

          k = 0.0733 0.5581 0.0000 (  5302 PWs)   bands (ev):

   -16.0985 -14.9583  -8.8612  -4.3124  -0.3782   5.9562   8.8440   9.7815

     occupation numbers 
     1.0000   1.0000   1.0000   1.0000   0.0000   0.0000   0.0000   0.0000

          k = 0.0733 0.5658 0.0000 (  5300 PWs)   bands (ev):

   -16.0229 -15.0398  -8.8654  -4.2843  -0.4125   5.9543   9.0375   9.6420

     occupation numbers 
     1.0000   1.0000   1.0000   1.0000   0.0000   0.0000   0.0000   0.0000

          k = 0.0733 0.5735 0.0000 (  5294 PWs)   bands (ev):

   -15.9799 -15.0858  -8.8675  -4.2700  -0.4298   5.9533   9.2264   9.4503

     occupation numbers 
     1.0000   1.0000   1.0000   1.0000   0.0000   0.0000   0.0000   0.0000

          k = 0.0800 0.1386 0.0000 (  5271 PWs)   bands (ev):

   -20.8552  -9.1163  -6.6327  -6.0423   1.9926   3.0454   3.5199   5.3560

     occupation numbers 
     1.0000   1.0000   1.0000   1.0000   0.0000   0.0000   0.0000   0.0000

          k = 0.0800 0.1463 0.0000 (  5267 PWs)   bands (ev):

   -20.8169  -9.0704  -6.7425  -6.1162   2.0449   3.0982   3.5737   5.4084

     occupation numbers 
     1.0000   1.0000   1.0000   1.0000   0.0000   0.0000   0.0000   0.0000

          k = 0.0800 0.1540 0.0000 (  5271 PWs)   bands (ev):

   -20.7766  -9.0221  -6.8567  -6.1918   2.1001   3.1538   3.6303   5.4636

     occupation numbers 
     1.0000   1.0000   1.0000   1.0000   0.0000   0.0000   0.0000   0.0000

          k = 0.0800 0.1617 0.0000 (  5269 PWs)   bands (ev):

   -20.7342  -8.9713  -6.9753  -6.2688   2.1581   3.2123   3.6898   5.5215

     occupation numbers 
     1.0000   1.0000   1.0000   1.0000   0.0000   0.0000   0.0000   0.0000

          k = 0.0800 0.1694 0.0000 (  5265 PWs)   bands (ev):

   -20.6897  -8.9181  -7.0981  -6.3468   2.2189   3.2735   3.7522   5.5822

     occupation numbers 
     1.0000   1.0000   1.0000   1.0000   0.0000   0.0000   0.0000   0.0000

          k = 0.0800 0.1771 0.0000 (  5259 PWs)   bands (ev):

   -20.6432  -8.8626  -7.2250  -6.4255   2.2826   3.3376   3.8175   5.6457

     occupation numbers 
     1.0000   1.0000   1.0000   1.0000   0.0000   0.0000   0.0000   0.0000

          k = 0.0800 0.1848 0.0000 (  5259 PWs)   bands (ev):

   -20.5947  -8.8046  -7.3557  -6.5047   2.3491   3.4045   3.8858   5.7119

     occupation numbers 
     1.0000   1.0000   1.0000   1.0000   0.0000   0.0000   0.0000   0.0000

          k = 0.0800 0.1925 0.0000 (  5257 PWs)   bands (ev):

   -20.5441  -8.7443  -7.4902  -6.5842   2.4184   3.4741   3.9569   5.7807

     occupation numbers 
     1.0000   1.0000   1.0000   1.0000   0.0000   0.0000   0.0000   0.0000

          k = 0.0800 0.2001 0.0000 (  5245 PWs)   bands (ev):

   -20.4915  -8.6816  -7.6282  -6.6638   2.4905   3.5466   4.0309   5.8521

     occupation numbers 
     1.0000   1.0000   1.0000   1.0000   0.0000   0.0000   0.0000   0.0000

          k = 0.0800 0.2078 0.0000 (  5247 PWs)   bands (ev):

   -20.4369  -8.6165  -7.7695  -6.7432   2.5654   3.6218   4.1079   5.9258

     occupation numbers 
     1.0000   1.0000   1.0000   1.0000   0.0000   0.0000   0.0000   0.0000

          k = 0.0800 0.2155 0.0000 (  5254 PWs)   bands (ev):

   -20.3803  -8.5492  -7.9140  -6.8223   2.6432   3.6998   4.1877   6.0011

     occupation numbers 
     1.0000   1.0000   1.0000   1.0000   0.0000   0.0000   0.0000   0.0000

          k = 0.0800 0.2232 0.0000 (  5256 PWs)   bands (ev):

   -20.3216  -8.4795  -8.0614  -6.9010   2.7237   3.7805   4.2704   6.0750

     occupation numbers 
     1.0000   1.0000   1.0000   1.0000   0.0000   0.0000   0.0000   0.0000

          k = 0.0800 0.2309 0.0000 (  5258 PWs)   bands (ev):

   -20.2609  -8.4075  -8.2115  -6.9792   2.8070   3.8639   4.3561   6.1169

     occupation numbers 
     1.0000   1.0000   1.0000   1.0000   0.0000   0.0000   0.0000   0.0000

          k = 0.0800 0.2386 0.0000 (  5261 PWs)   bands (ev):

   -20.1983  -8.3641  -8.3333  -7.0566   2.8932   3.9499   4.4446   6.0139

     occupation numbers 
     1.0000   1.0000   1.0000   1.0000   0.0000   0.0000   0.0000   0.0000

          k = 0.0800 0.2463 0.0000 (  5261 PWs)   bands (ev):

   -20.1336  -8.5190  -8.2568  -7.1333   2.9822   4.0384   4.5360   5.8637

     occupation numbers 
     1.0000   1.0000   1.0000   1.0000   0.0000   0.0000   0.0000   0.0000

          k = 0.0800 0.2540 0.0000 (  5263 PWs)   bands (ev):

   -20.0669  -8.6760  -8.1781  -7.2090   3.0739   4.1293   4.6303   5.7065

     occupation numbers 
     1.0000   1.0000   1.0000   1.0000   0.0000   0.0000   0.0000   0.0000

          k = 0.0800 0.2617 0.0000 (  5262 PWs)   bands (ev):

   -19.9982  -8.8349  -8.0971  -7.2838   3.1684   4.2224   4.7274   5.5463

     occupation numbers 
     1.0000   1.0000   1.0000   1.0000   0.0000   0.0000   0.0000   0.0000

          k = 0.0800 0.2694 0.0000 (  5272 PWs)   bands (ev):

   -19.9276  -8.9956  -8.0140  -7.3575   3.2657   4.3172   4.8275   5.3846

     occupation numbers 
     1.0000   1.0000   1.0000   1.0000   0.0000   0.0000   0.0000   0.0000

          k = 0.0800 0.2771 0.0000 (  5268 PWs)   bands (ev):

   -19.8549  -9.1578  -7.9287  -7.4301   3.3658   4.4124   4.9304   5.2230

     occupation numbers 
     1.0000   1.0000   1.0000   1.0000   0.0000   0.0000   0.0000   0.0000

          k = 0.0800 0.2848 0.0000 (  5263 PWs)   bands (ev):

   -19.7803  -9.3213  -7.8413  -7.5016   3.4687   4.5047   5.0362   5.0651

     occupation numbers 
     1.0000   1.0000   1.0000   1.0000   0.0000   0.0000   0.0000   0.0000

          k = 0.0800 0.2925 0.0000 (  5267 PWs)   bands (ev):

   -19.7038  -9.4861  -7.7518  -7.5717   3.5743   4.5810   4.9243   5.1449

     occupation numbers 
     1.0000   1.0000   1.0000   1.0000   0.0000   0.0000   0.0000   0.0000

          k = 0.0800 0.3002 0.0000 (  5267 PWs)   bands (ev):

   -19.6253  -9.6519  -7.6603  -7.6405   3.6827   4.5831   4.8590   5.2564

     occupation numbers 
     1.0000   1.0000   1.0000   1.0000   0.0000   0.0000   0.0000   0.0000

          k = 0.0800 0.3079 0.0000 (  5275 PWs)   bands (ev):

   -19.5448  -9.8187  -7.7079  -7.5667   3.7939   4.4687   4.9115   5.3707

     occupation numbers 
     1.0000   1.0000   1.0000   1.0000   0.0000   0.0000   0.0000   0.0000

          k = 0.0800 0.3156 0.0000 (  5277 PWs)   bands (ev):

   -19.4624  -9.9861  -7.7739  -7.4712   3.9078   4.3120   5.0079   5.4878

     occupation numbers 
     1.0000   1.0000   1.0000   1.0000   0.0000   0.0000   0.0000   0.0000

          k = 0.0800 0.3233 0.0000 (  5277 PWs)   bands (ev):

   -19.3781 -10.1542  -7.8384  -7.3737   4.0244   4.1439   5.1174   5.6076

     occupation numbers 
     1.0000   1.0000   1.0000   1.0000   0.0000   0.0000   0.0000   0.0000

          k = 0.0800 0.3310 0.0000 (  5273 PWs)   bands (ev):

   -19.2918 -10.3228  -7.9014  -7.2743   3.9714   4.1437   5.2331   5.7301

     occupation numbers 
     1.0000   1.0000   1.0000   1.0000   0.0000   0.0000   0.0000   0.0000

          k = 0.0800 0.3387 0.0000 (  5275 PWs)   bands (ev):

   -19.2037 -10.4917  -7.9629  -7.1732   3.7966   4.2657   5.3532   5.8550

     occupation numbers 
     1.0000   1.0000   1.0000   1.0000   0.0000   0.0000   0.0000   0.0000

          k = 0.0800 0.3464 0.0000 (  5271 PWs)   bands (ev):

   -19.1136 -10.6609  -8.0227  -7.0702   3.6205   4.3905   5.4769   5.9819

     occupation numbers 
     1.0000   1.0000   1.0000   1.0000   0.0000   0.0000   0.0000   0.0000

          k = 0.0800 0.3541 0.0000 (  5275 PWs)   bands (ev):

   -19.0217 -10.8301  -8.0808  -6.9656   3.4435   4.5179   5.6038   6.1095

     occupation numbers 
     1.0000   1.0000   1.0000   1.0000   0.0000   0.0000   0.0000   0.0000

          k = 0.0800 0.3618 0.0000 (  5273 PWs)   bands (ev):

   -18.9279 -10.9994  -8.1373  -6.8593   3.2660   4.6479   5.7337   6.2334

     occupation numbers 
     1.0000   1.0000   1.0000   1.0000   0.0000   0.0000   0.0000   0.0000

          k = 0.0800 0.3695 0.0000 (  5269 PWs)   bands (ev):

   -18.8322 -11.1686  -8.1921  -6.7515   3.0884   4.7805   5.8664   6.3286

     occupation numbers 
     1.0000   1.0000   1.0000   1.0000   0.0000   0.0000   0.0000   0.0000

          k = 0.0800 0.3772 0.0000 (  5275 PWs)   bands (ev):

   -18.7347 -11.3376  -8.2451  -6.6422   2.9108   4.9156   6.0020   6.3520

     occupation numbers 
     1.0000   1.0000   1.0000   1.0000   0.0000   0.0000   0.0000   0.0000

          k = 0.0800 0.3849 0.0000 (  5279 PWs)   bands (ev):

   -18.6354 -11.5063  -8.2963  -6.5316   2.7335   5.0532   6.1403   6.3442

     occupation numbers 
     1.0000   1.0000   1.0000   1.0000   0.0000   0.0000   0.0000   0.0000

          k = 0.0800 0.3926 0.0000 (  5285 PWs)   bands (ev):

   -18.5343 -11.6747  -8.3457  -6.4198   2.5568   5.1932   6.2812   6.3302

     occupation numbers 
     1.0000   1.0000   1.0000   1.0000   0.0000   0.0000   0.0000   0.0000

          k = 0.0800 0.4003 0.0000 (  5283 PWs)   bands (ev):

   -18.4314 -11.8425  -8.3933  -6.3068   2.3809   5.3353   6.3150   6.4248

     occupation numbers 
     1.0000   1.0000   1.0000   1.0000   0.0000   0.0000   0.0000   0.0000

          k = 0.0800 0.4080 0.0000 (  5279 PWs)   bands (ev):

   -18.3267 -12.0098  -8.4390  -6.1929   2.2060   5.4792   6.3003   6.5709

     occupation numbers 
     1.0000   1.0000   1.0000   1.0000   0.0000   0.0000   0.0000   0.0000

          k = 0.0800 0.4157 0.0000 (  5283 PWs)   bands (ev):

   -18.2203 -12.1764  -8.4828  -6.0782   2.0324   5.6242   6.2870   6.7196

     occupation numbers 
     1.0000   1.0000   1.0000   1.0000   0.0000   0.0000   0.0000   0.0000

          k = 0.0800 0.4234 0.0000 (  5293 PWs)   bands (ev):

   -18.1122 -12.3423  -8.5248  -5.9629   1.8604   5.7689   6.2770   6.8707

     occupation numbers 
     1.0000   1.0000   1.0000   1.0000   0.0000   0.0000   0.0000   0.0000

          k = 0.0800 0.4311 0.0000 (  5281 PWs)   bands (ev):

   -18.0024 -12.5074  -8.5648  -5.8472   1.6902   5.9093   6.2744   7.0243

     occupation numbers 
     1.0000   1.0000   1.0000   1.0000   0.0000   0.0000   0.0000   0.0000

          k = 0.0800 0.4388 0.0000 (  5280 PWs)   bands (ev):

   -17.8910 -12.6715  -8.6028  -5.7312   1.5222   6.0329   6.2918   7.1803

     occupation numbers 
     1.0000   1.0000   1.0000   1.0000   0.0000   0.0000   0.0000   0.0000

          k = 0.0800 0.4465 0.0000 (  5279 PWs)   bands (ev):

   -17.7780 -12.8347  -8.6389  -5.6155   1.3567   6.1104   6.3584   7.3386

     occupation numbers 
     1.0000   1.0000   1.0000   1.0000   0.0000   0.0000   0.0000   0.0000

          k = 0.0800 0.4542 0.0000 (  5283 PWs)   bands (ev):

   -17.6634 -12.9967  -8.6730  -5.5001   1.1941   6.1358   6.4804   7.4992

     occupation numbers 
     1.0000   1.0000   1.0000   1.0000   0.0000   0.0000   0.0000   0.0000

          k = 0.0800 0.4619 0.0000 (  5285 PWs)   bands (ev):

   -17.5474 -13.1575  -8.7052  -5.3855   1.0349   6.1380   6.6287   7.6619

     occupation numbers 
     1.0000   1.0000   1.0000   1.0000   0.0000   0.0000   0.0000   0.0000

          k = 0.0800 0.4696 0.0000 (  5285 PWs)   bands (ev):

   -17.4300 -13.3170  -8.7353  -5.2721   0.8794   6.1326   6.7880   7.8267

     occupation numbers 
     1.0000   1.0000   1.0000   1.0000   0.0000   0.0000   0.0000   0.0000

          k = 0.0800 0.4773 0.0000 (  5290 PWs)   bands (ev):

   -17.3112 -13.4750  -8.7634  -5.1605   0.7284   6.1246   6.9532   7.9934

     occupation numbers 
     1.0000   1.0000   1.0000   1.0000   0.0000   0.0000   0.0000   0.0000

          k = 0.0800 0.4850 0.0000 (  5294 PWs)   bands (ev):

   -17.1914 -13.6315  -8.7894  -5.0511   0.5823   6.1156   7.1227   8.1620

     occupation numbers 
     1.0000   1.0000   1.0000   1.0000   0.0000   0.0000   0.0000   0.0000

          k = 0.0800 0.4927 0.0000 (  5298 PWs)   bands (ev):

   -17.0704 -13.7861  -8.8134  -4.9446   0.4419   6.1066   7.2955   8.3322

     occupation numbers 
     1.0000   1.0000   1.0000   1.0000   0.0000   0.0000   0.0000   0.0000

          k = 0.0800 0.5004 0.0000 (  5300 PWs)   bands (ev):

   -16.9487 -13.9386  -8.8354  -4.8418   0.3079   6.0979   7.4712   8.5040

     occupation numbers 
     1.0000   1.0000   1.0000   1.0000   0.0000   0.0000   0.0000   0.0000

          k = 0.0800 0.5081 0.0000 (  5306 PWs)   bands (ev):

   -16.8265 -14.0889  -8.8553  -4.7435   0.1813   6.0897   7.6497   8.6769

     occupation numbers 
     1.0000   1.0000   1.0000   1.0000   0.0000   0.0000   0.0000   0.0000

          k = 0.0800 0.5158 0.0000 (  5306 PWs)   bands (ev):

   -16.7042 -14.2363  -8.8731  -4.6507   0.0631   6.0821   7.8307   8.8506

     occupation numbers 
     1.0000   1.0000   1.0000   1.0000   0.0000   0.0000   0.0000   0.0000

          k = 0.0800 0.5235 0.0000 (  5302 PWs)   bands (ev):

   -16.5824 -14.3803  -8.8889  -4.5644  -0.0456   6.0753   8.0142   9.0247

     occupation numbers 
     1.0000   1.0000   1.0000   1.0000   0.0000   0.0000   0.0000   0.0000

          k = 0.0800 0.5312 0.0000 (  5300 PWs)   bands (ev):

   -16.4620 -14.5199  -8.9025  -4.4860  -0.1436   6.0694   8.1999   9.1985

     occupation numbers 
     1.0000   1.0000   1.0000   1.0000   0.0000   0.0000   0.0000   0.0000

          k = 0.0800 0.5389 0.0000 (  5296 PWs)   bands (ev):

   -16.3445 -14.6537  -8.9141  -4.4165  -0.2297   6.0642   8.3878   9.3708

     occupation numbers 
     1.0000   1.0000   1.0000   1.0000   0.0000   0.0000   0.0000   0.0000

          k = 0.0800 0.5466 0.0000 (  5294 PWs)   bands (ev):

   -16.2323 -14.7794  -8.9236  -4.3573  -0.3024   6.0600   8.5776   9.5399

     occupation numbers 
     1.0000   1.0000   1.0000   1.0000   0.0000   0.0000   0.0000   0.0000

          k = 0.0800 0.5543 0.0000 (  5298 PWs)   bands (ev):

   -16.1292 -14.8929  -8.9309  -4.3097  -0.3606   6.0567   8.7693   9.7022

     occupation numbers 
     1.0000   1.0000   1.0000   1.0000   0.0000   0.0000   0.0000   0.0000

          k = 0.0800 0.5620 0.0000 (  5298 PWs)   bands (ev):

   -16.0421 -14.9874  -8.9362  -4.2748  -0.4031   6.0543   8.9623   9.7614

     occupation numbers 
     1.0000   1.0000   1.0000   1.0000   0.0000   0.0000   0.0000   0.0000

          k = 0.0800 0.5697 0.0000 (  5298 PWs)   bands (ev):

   -15.9813 -15.0526  -8.9393  -4.2535  -0.4290   6.0529   9.1548   9.5647

     occupation numbers 
     1.0000   1.0000   1.0000   1.0000   0.0000   0.0000   0.0000   0.0000

          k = 0.0800 0.5774 0.0000 (  5300 PWs)   bands (ev):

   -15.9591 -15.0764  -8.9404  -4.2463  -0.4377   6.0524   9.3066   9.4115

     occupation numbers 
     1.0000   1.0000   1.0000   1.0000   0.0000   0.0000   0.0000   0.0000

          k = 0.0867 0.1501 0.0000 (  5271 PWs)   bands (ev):

   -20.7776  -9.0233  -6.8515  -6.1926   2.0987   3.1524   3.6288   5.4622

     occupation numbers 
     1.0000   1.0000   1.0000   1.0000   0.0000   0.0000   0.0000   0.0000

          k = 0.0867 0.1578 0.0000 (  5273 PWs)   bands (ev):

   -20.7362  -8.9738  -6.9647  -6.2707   2.1553   3.2094   3.6869   5.5187

     occupation numbers 
     1.0000   1.0000   1.0000   1.0000   0.0000   0.0000   0.0000   0.0000

          k = 0.0867 0.1655 0.0000 (  5267 PWs)   bands (ev):

   -20.6928  -8.9218  -7.0822  -6.3501   2.2147   3.2693   3.7479   5.5781

     occupation numbers 
     1.0000   1.0000   1.0000   1.0000   0.0000   0.0000   0.0000   0.0000

          k = 0.0867 0.1732 0.0000 (  5265 PWs)   bands (ev):

   -20.6474  -8.8675  -7.2037  -6.4305   2.2770   3.3319   3.8118   5.6402

     occupation numbers 
     1.0000   1.0000   1.0000   1.0000   0.0000   0.0000   0.0000   0.0000

          k = 0.0867 0.1809 0.0000 (  5261 PWs)   bands (ev):

   -20.5999  -8.8107  -7.3292  -6.5116   2.3420   3.3974   3.8785   5.7050

     occupation numbers 
     1.0000   1.0000   1.0000   1.0000   0.0000   0.0000   0.0000   0.0000

          k = 0.0867 0.1886 0.0000 (  5263 PWs)   bands (ev):

   -20.5503  -8.7516  -7.4586  -6.5930   2.4099   3.4657   3.9482   5.7726

     occupation numbers 
     1.0000   1.0000   1.0000   1.0000   0.0000   0.0000   0.0000   0.0000

          k = 0.0867 0.1963 0.0000 (  5256 PWs)   bands (ev):

   -20.4988  -8.6902  -7.5916  -6.6746   2.4806   3.5367   4.0208   5.8427

     occupation numbers 
     1.0000   1.0000   1.0000   1.0000   0.0000   0.0000   0.0000   0.0000

          k = 0.0867 0.2040 0.0000 (  5249 PWs)   bands (ev):

   -20.4452  -8.6263  -7.7282  -6.7560   2.5542   3.6106   4.0963   5.9154

     occupation numbers 
     1.0000   1.0000   1.0000   1.0000   0.0000   0.0000   0.0000   0.0000

          k = 0.0867 0.2117 0.0000 (  5250 PWs)   bands (ev):

   -20.3896  -8.5602  -7.8682  -6.8372   2.6305   3.6872   4.1747   5.9900

     occupation numbers 
     1.0000   1.0000   1.0000   1.0000   0.0000   0.0000   0.0000   0.0000

          k = 0.0867 0.2194 0.0000 (  5256 PWs)   bands (ev):

   -20.3319  -8.4917  -8.0113  -6.9180   2.7096   3.7665   4.2560   6.0651

     occupation numbers 
     1.0000   1.0000   1.0000   1.0000   0.0000   0.0000   0.0000   0.0000

          k = 0.0867 0.2271 0.0000 (  5258 PWs)   bands (ev):

   -20.2723  -8.4209  -8.1574  -6.9981   2.7916   3.8486   4.3402   6.1256

     occupation numbers 
     1.0000   1.0000   1.0000   1.0000   0.0000   0.0000   0.0000   0.0000

          k = 0.0867 0.2348 0.0000 (  5262 PWs)   bands (ev):

   -20.2106  -8.3478  -8.3062  -7.0775   2.8764   3.9333   4.4272   6.0499

     occupation numbers 
     1.0000   1.0000   1.0000   1.0000   0.0000   0.0000   0.0000   0.0000

          k = 0.0867 0.2425 0.0000 (  5263 PWs)   bands (ev):

   -20.1469  -8.4576  -8.2725  -7.1561   2.9639   4.0206   4.5172   5.9026

     occupation numbers 
     1.0000   1.0000   1.0000   1.0000   0.0000   0.0000   0.0000   0.0000

          k = 0.0867 0.2502 0.0000 (  5266 PWs)   bands (ev):

   -20.0813  -8.6113  -8.1949  -7.2337   3.0543   4.1104   4.6101   5.7474

     occupation numbers 
     1.0000   1.0000   1.0000   1.0000   0.0000   0.0000   0.0000   0.0000

          k = 0.0867 0.2579 0.0000 (  5266 PWs)   bands (ev):

   -20.0136  -8.7672  -8.1151  -7.3103   3.1474   4.2025   4.7058   5.5890

     occupation numbers 
     1.0000   1.0000   1.0000   1.0000   0.0000   0.0000   0.0000   0.0000

          k = 0.0867 0.2656 0.0000 (  5270 PWs)   bands (ev):

   -19.9440  -8.9250  -8.0331  -7.3858   3.2433   4.2965   4.8044   5.4289

     occupation numbers 
     1.0000   1.0000   1.0000   1.0000   0.0000   0.0000   0.0000   0.0000

          k = 0.0867 0.2733 0.0000 (  5270 PWs)   bands (ev):

   -19.8724  -9.0846  -7.9490  -7.4601   3.3420   4.3917   4.9059   5.2681

     occupation numbers 
     1.0000   1.0000   1.0000   1.0000   0.0000   0.0000   0.0000   0.0000

          k = 0.0867 0.2810 0.0000 (  5272 PWs)   bands (ev):

   -19.7988  -9.2458  -7.8627  -7.5331   3.4435   4.4859   5.0103   5.1090

     occupation numbers 
     1.0000   1.0000   1.0000   1.0000   0.0000   0.0000   0.0000   0.0000

          k = 0.0867 0.2887 0.0000 (  5265 PWs)   bands (ev):

   -19.7232  -9.4084  -7.7743  -7.6048   3.5478   4.5713   4.9597   5.1176

     occupation numbers 
     1.0000   1.0000   1.0000   1.0000   0.0000   0.0000   0.0000   0.0000

          k = 0.0867 0.2964 0.0000 (  5267 PWs)   bands (ev):

   -19.6457  -9.5722  -7.6838  -7.6752   3.6548   4.6085   4.8599   5.2277

     occupation numbers 
     1.0000   1.0000   1.0000   1.0000   0.0000   0.0000   0.0000   0.0000

          k = 0.0867 0.3041 0.0000 (  5267 PWs)   bands (ev):

   -19.5662  -9.7371  -7.7441  -7.5913   3.7646   4.5214   4.8855   5.3406

     occupation numbers 
     1.0000   1.0000   1.0000   1.0000   0.0000   0.0000   0.0000   0.0000

          k = 0.0867 0.3118 0.0000 (  5271 PWs)   bands (ev):

   -19.4848  -9.9029  -7.8115  -7.4967   3.8771   4.3711   4.9759   5.4564

     occupation numbers 
     1.0000   1.0000   1.0000   1.0000   0.0000   0.0000   0.0000   0.0000

          k = 0.0867 0.3195 0.0000 (  5279 PWs)   bands (ev):

   -19.4015 -10.0695  -7.8775  -7.4003   3.9924   4.2057   5.0830   5.5750

     occupation numbers 
     1.0000   1.0000   1.0000   1.0000   0.0000   0.0000   0.0000   0.0000

          k = 0.0867 0.3272 0.0000 (  5277 PWs)   bands (ev):

   -19.3162 -10.2367  -7.9419  -7.3019   4.0350   4.1104   5.1971   5.6963

     occupation numbers 
     1.0000   1.0000   1.0000   1.0000   0.0000   0.0000   0.0000   0.0000

          k = 0.0867 0.3349 0.0000 (  5279 PWs)   bands (ev):

   -19.2290 -10.4044  -8.0046  -7.2017   3.8618   4.2311   5.3157   5.8202

     occupation numbers 
     1.0000   1.0000   1.0000   1.0000   0.0000   0.0000   0.0000   0.0000

          k = 0.0867 0.3426 0.0000 (  5277 PWs)   bands (ev):

   -19.1400 -10.5724  -8.0658  -7.0996   3.6870   4.3545   5.4379   5.9465

     occupation numbers 
     1.0000   1.0000   1.0000   1.0000   0.0000   0.0000   0.0000   0.0000

          k = 0.0867 0.3503 0.0000 (  5275 PWs)   bands (ev):

   -19.0490 -10.7407  -8.1252  -6.9959   3.5113   4.4806   5.5634   6.0749

     occupation numbers 
     1.0000   1.0000   1.0000   1.0000   0.0000   0.0000   0.0000   0.0000

          k = 0.0867 0.3580 0.0000 (  5269 PWs)   bands (ev):

   -18.9562 -10.9092  -8.1830  -6.8905   3.3350   4.6093   5.6918   6.2041

     occupation numbers 
     1.0000   1.0000   1.0000   1.0000   0.0000   0.0000   0.0000   0.0000

          k = 0.0867 0.3657 0.0000 (  5271 PWs)   bands (ev):

   -18.8615 -11.0776  -8.2390  -6.7835   3.1584   4.7407   5.8231   6.3294

     occupation numbers 
     1.0000   1.0000   1.0000   1.0000   0.0000   0.0000   0.0000   0.0000

          k = 0.0867 0.3734 0.0000 (  5271 PWs)   bands (ev):

   -18.7650 -11.2460  -8.2933  -6.6750   2.9817   4.8746   5.9572   6.4249

     occupation numbers 
     1.0000   1.0000   1.0000   1.0000   0.0000   0.0000   0.0000   0.0000

          k = 0.0867 0.3811 0.0000 (  5275 PWs)   bands (ev):

   -18.6666 -11.4141  -8.3457  -6.5651   2.8052   5.0111   6.0941   6.4475

     occupation numbers 
     1.0000   1.0000   1.0000   1.0000   0.0000   0.0000   0.0000   0.0000

          k = 0.0867 0.3887 0.0000 (  5283 PWs)   bands (ev):

   -18.5664 -11.5820  -8.3963  -6.4539   2.6291   5.1501   6.2335   6.4396

     occupation numbers 
     1.0000   1.0000   1.0000   1.0000   0.0000   0.0000   0.0000   0.0000

          k = 0.0867 0.3964 0.0000 (  5283 PWs)   bands (ev):

   -18.4644 -11.7495  -8.4451  -6.3415   2.4536   5.2914   6.3756   6.4258

     occupation numbers 
     1.0000   1.0000   1.0000   1.0000   0.0000   0.0000   0.0000   0.0000

          k = 0.0867 0.4041 0.0000 (  5281 PWs)   bands (ev):

   -18.3607 -11.9165  -8.4920  -6.2281   2.2791   5.4348   6.4109   6.5203

     occupation numbers 
     1.0000   1.0000   1.0000   1.0000   0.0000   0.0000   0.0000   0.0000

          k = 0.0867 0.4118 0.0000 (  5287 PWs)   bands (ev):

   -18.2552 -12.0829  -8.5370  -6.1137   2.1056   5.5801   6.3965   6.6675

     occupation numbers 
     1.0000   1.0000   1.0000   1.0000   0.0000   0.0000   0.0000   0.0000

          k = 0.0867 0.4195 0.0000 (  5288 PWs)   bands (ev):

   -18.1480 -12.2486  -8.5801  -5.9987   1.9336   5.7264   6.3835   6.8171

     occupation numbers 
     1.0000   1.0000   1.0000   1.0000   0.0000   0.0000   0.0000   0.0000

          k = 0.0867 0.4272 0.0000 (  5286 PWs)   bands (ev):

   -18.0391 -12.4137  -8.6213  -5.8832   1.7632   5.8724   6.3739   6.9692

     occupation numbers 
     1.0000   1.0000   1.0000   1.0000   0.0000   0.0000   0.0000   0.0000

          k = 0.0867 0.4349 0.0000 (  5283 PWs)   bands (ev):

   -17.9285 -12.5778  -8.6605  -5.7673   1.5948   6.0139   6.3718   7.1236

     occupation numbers 
     1.0000   1.0000   1.0000   1.0000   0.0000   0.0000   0.0000   0.0000

          k = 0.0867 0.4426 0.0000 (  5283 PWs)   bands (ev):

   -17.8164 -12.7410  -8.6977  -5.6514   1.4286   6.1377   6.3906   7.2804

     occupation numbers 
     1.0000   1.0000   1.0000   1.0000   0.0000   0.0000   0.0000   0.0000

          k = 0.0867 0.4503 0.0000 (  5285 PWs)   bands (ev):

   -17.7027 -12.9032  -8.7330  -5.5358   1.2652   6.2134   6.4606   7.4394

     occupation numbers 
     1.0000   1.0000   1.0000   1.0000   0.0000   0.0000   0.0000   0.0000

          k = 0.0867 0.4580 0.0000 (  5287 PWs)   bands (ev):

   -17.5874 -13.0643  -8.7662  -5.4207   1.1048   6.2371   6.5860   7.6005

     occupation numbers 
     1.0000   1.0000   1.0000   1.0000   0.0000   0.0000   0.0000   0.0000

          k = 0.0867 0.4657 0.0000 (  5287 PWs)   bands (ev):

   -17.4708 -13.2241  -8.7975  -5.3066   0.9479   6.2388   6.7365   7.7637

     occupation numbers 
     1.0000   1.0000   1.0000   1.0000   0.0000   0.0000   0.0000   0.0000

          k = 0.0867 0.4734 0.0000 (  5285 PWs)   bands (ev):

   -17.3528 -13.3825  -8.8267  -5.1940   0.7950   6.2334   6.8973   7.9288

     occupation numbers 
     1.0000   1.0000   1.0000   1.0000   0.0000   0.0000   0.0000   0.0000

          k = 0.0867 0.4811 0.0000 (  5291 PWs)   bands (ev):

   -17.2335 -13.5395  -8.8539  -5.0833   0.6468   6.2255   7.0640   8.0958

     occupation numbers 
     1.0000   1.0000   1.0000   1.0000   0.0000   0.0000   0.0000   0.0000

          k = 0.0867 0.4888 0.0000 (  5298 PWs)   bands (ev):

   -17.1132 -13.6947  -8.8790  -4.9752   0.5038   6.2169   7.2346   8.2644

     occupation numbers 
     1.0000   1.0000   1.0000   1.0000   0.0000   0.0000   0.0000   0.0000

          k = 0.0867 0.4965 0.0000 (  5302 PWs)   bands (ev):

   -16.9920 -13.8480  -8.9021  -4.8703   0.3668   6.2082   7.4086   8.4344

     occupation numbers 
     1.0000   1.0000   1.0000   1.0000   0.0000   0.0000   0.0000   0.0000

          k = 0.0867 0.5042 0.0000 (  5304 PWs)   bands (ev):

   -16.8700 -13.9992  -8.9231  -4.7695   0.2367   6.1999   7.5855   8.6055

     occupation numbers 
     1.0000   1.0000   1.0000   1.0000   0.0000   0.0000   0.0000   0.0000

          k = 0.0867 0.5119 0.0000 (  5304 PWs)   bands (ev):

   -16.7478 -14.1478  -8.9420  -4.6737   0.1143   6.1921   7.7650   8.7775

     occupation numbers 
     1.0000   1.0000   1.0000   1.0000   0.0000   0.0000   0.0000   0.0000

          k = 0.0867 0.5196 0.0000 (  5306 PWs)   bands (ev):

   -16.6258 -14.2934  -8.9588  -4.5838   0.0009   6.1850   7.9471   8.9499

     occupation numbers 
     1.0000   1.0000   1.0000   1.0000   0.0000   0.0000   0.0000   0.0000

          k = 0.0867 0.5273 0.0000 (  5304 PWs)   bands (ev):

   -16.5047 -14.4351  -8.9735  -4.5011  -0.1026   6.1786   8.1314   9.1219

     occupation numbers 
     1.0000   1.0000   1.0000   1.0000   0.0000   0.0000   0.0000   0.0000

          k = 0.0867 0.5350 0.0000 (  5300 PWs)   bands (ev):

   -16.3857 -14.5718  -8.9862  -4.4268  -0.1947   6.1731   8.3180   9.2927

     occupation numbers 
     1.0000   1.0000   1.0000   1.0000   0.0000   0.0000   0.0000   0.0000

          k = 0.0867 0.5427 0.0000 (  5300 PWs)   bands (ev):

   -16.2705 -14.7017  -8.9967  -4.3622  -0.2743   6.1684   8.5066   9.4606

     occupation numbers 
     1.0000   1.0000   1.0000   1.0000   0.0000   0.0000   0.0000   0.0000

          k = 0.0867 0.5504 0.0000 (  5302 PWs)   bands (ev):

   -16.1624 -14.8217  -9.0052  -4.3085  -0.3399   6.1647   8.6972   9.6227

     occupation numbers 
     1.0000   1.0000   1.0000   1.0000   0.0000   0.0000   0.0000   0.0000

          k = 0.0867 0.5581 0.0000 (  5300 PWs)   bands (ev):

   -16.0664 -14.9266  -9.0115  -4.2670  -0.3904   6.1618   8.8892   9.7738

     occupation numbers 
     1.0000   1.0000   1.0000   1.0000   0.0000   0.0000   0.0000   0.0000

          k = 0.0867 0.5658 0.0000 (  5300 PWs)   bands (ev):

   -15.9911 -15.0078  -9.0157  -4.2386  -0.4248   6.1599   9.0820   9.6845

     occupation numbers 
     1.0000   1.0000   1.0000   1.0000   0.0000   0.0000   0.0000   0.0000

          k = 0.0867 0.5735 0.0000 (  5296 PWs)   bands (ev):

   -15.9483 -15.0536  -9.0179  -4.2243  -0.4421   6.1590   9.2695   9.4942

     occupation numbers 
     1.0000   1.0000   1.0000   1.0000   0.0000   0.0000   0.0000   0.0000

          k = 0.0933 0.1617 0.0000 (  5269 PWs)   bands (ev):

   -20.6939  -8.9231  -7.0768  -6.3513   2.2133   3.2678   3.7464   5.5767

     occupation numbers 
     1.0000   1.0000   1.0000   1.0000   0.0000   0.0000   0.0000   0.0000

          k = 0.0933 0.1694 0.0000 (  5267 PWs)   bands (ev):

   -20.6494  -8.8699  -7.1928  -6.4333   2.2741   3.3291   3.8089   5.6374

     occupation numbers 
     1.0000   1.0000   1.0000   1.0000   0.0000   0.0000   0.0000   0.0000

          k = 0.0933 0.1771 0.0000 (  5265 PWs)   bands (ev):

   -20.6030  -8.8144  -7.3128  -6.5162   2.3378   3.3931   3.8742   5.7009

     occupation numbers 
     1.0000   1.0000   1.0000   1.0000   0.0000   0.0000   0.0000   0.0000

          k = 0.0933 0.1848 0.0000 (  5261 PWs)   bands (ev):

   -20.5545  -8.7565  -7.4367  -6.5996   2.4043   3.4600   3.9424   5.7671

     occupation numbers 
     1.0000   1.0000   1.0000   1.0000   0.0000   0.0000   0.0000   0.0000

          k = 0.0933 0.1925 0.0000 (  5266 PWs)   bands (ev):

   -20.5039  -8.6963  -7.5644  -6.6834   2.4736   3.5297   4.0136   5.8360

     occupation numbers 
     1.0000   1.0000   1.0000   1.0000   0.0000   0.0000   0.0000   0.0000

          k = 0.0933 0.2001 0.0000 (  5264 PWs)   bands (ev):

   -20.4514  -8.6337  -7.6958  -6.7672   2.5457   3.6021   4.0876   5.9075

     occupation numbers 
     1.0000   1.0000   1.0000   1.0000   0.0000   0.0000   0.0000   0.0000

          k = 0.0933 0.2078 0.0000 (  5259 PWs)   bands (ev):

   -20.3968  -8.5687  -7.8307  -6.8507   2.6207   3.6773   4.1646   5.9813

     occupation numbers 
     1.0000   1.0000   1.0000   1.0000   0.0000   0.0000   0.0000   0.0000

          k = 0.0933 0.2155 0.0000 (  5258 PWs)   bands (ev):

   -20.3402  -8.5014  -7.9690  -6.9338   2.6984   3.7553   4.2444   6.0566

     occupation numbers 
     1.0000   1.0000   1.0000   1.0000   0.0000   0.0000   0.0000   0.0000

          k = 0.0933 0.2232 0.0000 (  5264 PWs)   bands (ev):

   -20.2815  -8.4318  -8.1105  -7.0163   2.7790   3.8360   4.3271   6.1263

     occupation numbers 
     1.0000   1.0000   1.0000   1.0000   0.0000   0.0000   0.0000   0.0000

          k = 0.0933 0.2309 0.0000 (  5262 PWs)   bands (ev):

   -20.2209  -8.3599  -8.2550  -7.0981   2.8623   3.9194   4.4128   6.0810

     occupation numbers 
     1.0000   1.0000   1.0000   1.0000   0.0000   0.0000   0.0000   0.0000

          k = 0.0933 0.2386 0.0000 (  5261 PWs)   bands (ev):

   -20.1582  -8.4023  -8.2858  -7.1789   2.9485   4.0055   4.5013   5.9364

     occupation numbers 
     1.0000   1.0000   1.0000   1.0000   0.0000   0.0000   0.0000   0.0000

          k = 0.0933 0.2463 0.0000 (  5266 PWs)   bands (ev):

   -20.0936  -8.5522  -8.2094  -7.2587   3.0374   4.0941   4.5927   5.7832

     occupation numbers 
     1.0000   1.0000   1.0000   1.0000   0.0000   0.0000   0.0000   0.0000

          k = 0.0933 0.2540 0.0000 (  5268 PWs)   bands (ev):

   -20.0270  -8.7045  -8.1307  -7.3374   3.1292   4.1851   4.6870   5.6268

     occupation numbers 
     1.0000   1.0000   1.0000   1.0000   0.0000   0.0000   0.0000   0.0000

          k = 0.0933 0.2617 0.0000 (  5266 PWs)   bands (ev):

   -19.9583  -8.8590  -8.0499  -7.4150   3.2237   4.2782   4.7842   5.4684

     occupation numbers 
     1.0000   1.0000   1.0000   1.0000   0.0000   0.0000   0.0000   0.0000

          k = 0.0933 0.2694 0.0000 (  5268 PWs)   bands (ev):

   -19.8877  -9.0156  -7.9668  -7.4912   3.3211   4.3730   4.8843   5.3089

     occupation numbers 
     1.0000   1.0000   1.0000   1.0000   0.0000   0.0000   0.0000   0.0000

          k = 0.0933 0.2771 0.0000 (  5274 PWs)   bands (ev):

   -19.8151  -9.1739  -7.8816  -7.5662   3.4212   4.4680   4.9873   5.1499

     occupation numbers 
     1.0000   1.0000   1.0000   1.0000   0.0000   0.0000   0.0000   0.0000

          k = 0.0933 0.2848 0.0000 (  5268 PWs)   bands (ev):

   -19.7406  -9.3339  -7.7943  -7.6397   3.5240   4.5586   4.9963   5.0931

     occupation numbers 
     1.0000   1.0000   1.0000   1.0000   0.0000   0.0000   0.0000   0.0000

          k = 0.0933 0.2925 0.0000 (  5263 PWs)   bands (ev):

   -19.6641  -9.4954  -7.7119  -7.7049   3.6297   4.6207   4.8721   5.2019

     occupation numbers 
     1.0000   1.0000   1.0000   1.0000   0.0000   0.0000   0.0000   0.0000

          k = 0.0933 0.3002 0.0000 (  5269 PWs)   bands (ev):

   -19.5856  -9.6581  -7.7825  -7.6135   3.7381   4.5683   4.8637   5.3134

     occupation numbers 
     1.0000   1.0000   1.0000   1.0000   0.0000   0.0000   0.0000   0.0000

          k = 0.0933 0.3079 0.0000 (  5265 PWs)   bands (ev):

   -19.5052  -9.8219  -7.8516  -7.5200   3.8493   4.4262   4.9464   5.4278

     occupation numbers 
     1.0000   1.0000   1.0000   1.0000   0.0000   0.0000   0.0000   0.0000

          k = 0.0933 0.3156 0.0000 (  5269 PWs)   bands (ev):

   -19.4229  -9.9867  -7.9191  -7.4246   3.9632   4.2636   5.0511   5.5450

     occupation numbers 
     1.0000   1.0000   1.0000   1.0000   0.0000   0.0000   0.0000   0.0000

          k = 0.0933 0.3233 0.0000 (  5271 PWs)   bands (ev):

   -19.3386 -10.1522  -7.9851  -7.3272   4.0798   4.0949   5.1636   5.6651

     occupation numbers 
     1.0000   1.0000   1.0000   1.0000   0.0000   0.0000   0.0000   0.0000

          k = 0.0933 0.3310 0.0000 (  5273 PWs)   bands (ev):

   -19.2524 -10.3184  -8.0493  -7.2279   3.9234   4.1992   5.2808   5.7878

     occupation numbers 
     1.0000   1.0000   1.0000   1.0000   0.0000   0.0000   0.0000   0.0000

          k = 0.0933 0.3387 0.0000 (  5277 PWs)   bands (ev):

   -19.1643 -10.4852  -8.1119  -7.1268   3.7501   4.3212   5.4016   5.9132

     occupation numbers 
     1.0000   1.0000   1.0000   1.0000   0.0000   0.0000   0.0000   0.0000

          k = 0.0933 0.3464 0.0000 (  5271 PWs)   bands (ev):

   -19.0743 -10.6523  -8.1728  -7.0240   3.5758   4.4460   5.5256   6.0410

     occupation numbers 
     1.0000   1.0000   1.0000   1.0000   0.0000   0.0000   0.0000   0.0000

          k = 0.0933 0.3541 0.0000 (  5273 PWs)   bands (ev):

   -18.9825 -10.8197  -8.2320  -6.9195   3.4008   4.5735   5.6526   6.1709

     occupation numbers 
     1.0000   1.0000   1.0000   1.0000   0.0000   0.0000   0.0000   0.0000

          k = 0.0933 0.3618 0.0000 (  5273 PWs)   bands (ev):

   -18.8888 -10.9872  -8.2893  -6.8133   3.2253   4.7036   5.7825   6.3017

     occupation numbers 
     1.0000   1.0000   1.0000   1.0000   0.0000   0.0000   0.0000   0.0000

          k = 0.0933 0.3695 0.0000 (  5271 PWs)   bands (ev):

   -18.7932 -11.1547  -8.3449  -6.7056   3.0497   4.8363   5.9152   6.4287

     occupation numbers 
     1.0000   1.0000   1.0000   1.0000   0.0000   0.0000   0.0000   0.0000

          k = 0.0933 0.3772 0.0000 (  5269 PWs)   bands (ev):

   -18.6958 -11.3222  -8.3987  -6.5964   2.8741   4.9716   6.0505   6.5263

     occupation numbers 
     1.0000   1.0000   1.0000   1.0000   0.0000   0.0000   0.0000   0.0000

          k = 0.0933 0.3849 0.0000 (  5275 PWs)   bands (ev):

   -18.5965 -11.4894  -8.4506  -6.4859   2.6989   5.1094   6.1885   6.5495

     occupation numbers 
     1.0000   1.0000   1.0000   1.0000   0.0000   0.0000   0.0000   0.0000

          k = 0.0933 0.3926 0.0000 (  5277 PWs)   bands (ev):

   -18.4955 -11.6564  -8.5006  -6.3741   2.5241   5.2497   6.3292   6.5419

     occupation numbers 
     1.0000   1.0000   1.0000   1.0000   0.0000   0.0000   0.0000   0.0000

          k = 0.0933 0.4003 0.0000 (  5278 PWs)   bands (ev):

   -18.3927 -11.8230  -8.5488  -6.2612   2.3500   5.3924   6.4723   6.5284

     occupation numbers 
     1.0000   1.0000   1.0000   1.0000   0.0000   0.0000   0.0000   0.0000

          k = 0.0933 0.4080 0.0000 (  5286 PWs)   bands (ev):

   -18.2881 -11.9891  -8.5950  -6.1473   2.1769   5.5371   6.5138   6.6180

     occupation numbers 
     1.0000   1.0000   1.0000   1.0000   0.0000   0.0000   0.0000   0.0000

          k = 0.0933 0.4157 0.0000 (  5286 PWs)   bands (ev):

   -18.1818 -12.1546  -8.6393  -6.0327   2.0050   5.6837   6.4996   6.7661

     occupation numbers 
     1.0000   1.0000   1.0000   1.0000   0.0000   0.0000   0.0000   0.0000

          k = 0.0933 0.4234 0.0000 (  5290 PWs)   bands (ev):

   -18.0738 -12.3194  -8.6817  -5.9174   1.8346   5.8315   6.4870   6.9167

     occupation numbers 
     1.0000   1.0000   1.0000   1.0000   0.0000   0.0000   0.0000   0.0000

          k = 0.0933 0.4311 0.0000 (  5286 PWs)   bands (ev):

   -17.9642 -12.4835  -8.7221  -5.8016   1.6660   5.9789   6.4776   7.0696

     occupation numbers 
     1.0000   1.0000   1.0000   1.0000   0.0000   0.0000   0.0000   0.0000

          k = 0.0933 0.4388 0.0000 (  5285 PWs)   bands (ev):

   -17.8529 -12.6467  -8.7605  -5.6857   1.4994   6.1218   6.4758   7.2248

     occupation numbers 
     1.0000   1.0000   1.0000   1.0000   0.0000   0.0000   0.0000   0.0000

          k = 0.0933 0.4465 0.0000 (  5287 PWs)   bands (ev):

   -17.7400 -12.8090  -8.7969  -5.5699   1.3353   6.2467   6.4951   7.3822

     occupation numbers 
     1.0000   1.0000   1.0000   1.0000   0.0000   0.0000   0.0000   0.0000

          k = 0.0933 0.4542 0.0000 (  5287 PWs)   bands (ev):

   -17.6256 -12.9702  -8.8313  -5.4545   1.1739   6.3220   6.5671   7.5417

     occupation numbers 
     1.0000   1.0000   1.0000   1.0000   0.0000   0.0000   0.0000   0.0000

          k = 0.0933 0.4619 0.0000 (  5285 PWs)   bands (ev):

   -17.5097 -13.1302  -8.8637  -5.3398   1.0158   6.3449   6.6947   7.7033

     occupation numbers 
     1.0000   1.0000   1.0000   1.0000   0.0000   0.0000   0.0000   0.0000

          k = 0.0933 0.4696 0.0000 (  5287 PWs)   bands (ev):

   -17.3925 -13.2890  -8.8941  -5.2263   0.8614   6.3465   6.8470   7.8667

     occupation numbers 
     1.0000   1.0000   1.0000   1.0000   0.0000   0.0000   0.0000   0.0000

          k = 0.0933 0.4773 0.0000 (  5293 PWs)   bands (ev):

   -17.2739 -13.4463  -8.9224  -5.1145   0.7113   6.3412   7.0094   8.0320

     occupation numbers 
     1.0000   1.0000   1.0000   1.0000   0.0000   0.0000   0.0000   0.0000

          k = 0.0933 0.4850 0.0000 (  5293 PWs)   bands (ev):

   -17.1542 -13.6021  -8.9486  -5.0049   0.5660   6.3336   7.1773   8.1988

     occupation numbers 
     1.0000   1.0000   1.0000   1.0000   0.0000   0.0000   0.0000   0.0000

          k = 0.0933 0.4927 0.0000 (  5300 PWs)   bands (ev):

   -17.0335 -13.7561  -8.9728  -4.8982   0.4263   6.3252   7.3492   8.3671

     occupation numbers 
     1.0000   1.0000   1.0000   1.0000   0.0000   0.0000   0.0000   0.0000

          k = 0.0933 0.5004 0.0000 (  5298 PWs)   bands (ev):

   -16.9120 -13.9081  -8.9950  -4.7951   0.2929   6.3169   7.5243   8.5364

     occupation numbers 
     1.0000   1.0000   1.0000   1.0000   0.0000   0.0000   0.0000   0.0000

          k = 0.0933 0.5081 0.0000 (  5304 PWs)   bands (ev):

   -16.7900 -14.0577  -9.0150  -4.6965   0.1667   6.3090   7.7022   8.7066

     occupation numbers 
     1.0000   1.0000   1.0000   1.0000   0.0000   0.0000   0.0000   0.0000

          k = 0.0933 0.5158 0.0000 (  5308 PWs)   bands (ev):

   -16.6679 -14.2046  -9.0329  -4.6034   0.0489   6.3016   7.8828   8.8771

     occupation numbers 
     1.0000   1.0000   1.0000   1.0000   0.0000   0.0000   0.0000   0.0000

          k = 0.0933 0.5235 0.0000 (  5302 PWs)   bands (ev):

   -16.5463 -14.3481  -9.0488  -4.5168  -0.0596   6.2949   8.0657   9.0472

     occupation numbers 
     1.0000   1.0000   1.0000   1.0000   0.0000   0.0000   0.0000   0.0000

          k = 0.0933 0.5312 0.0000 (  5304 PWs)   bands (ev):

   -16.4262 -14.4873  -9.0625  -4.4379  -0.1575   6.2890   8.2510   9.2162

     occupation numbers 
     1.0000   1.0000   1.0000   1.0000   0.0000   0.0000   0.0000   0.0000

          k = 0.0933 0.5389 0.0000 (  5308 PWs)   bands (ev):

   -16.3090 -14.6206  -9.0741  -4.3681  -0.2435   6.2840   8.4383   9.3825

     occupation numbers 
     1.0000   1.0000   1.0000   1.0000   0.0000   0.0000   0.0000   0.0000

          k = 0.0933 0.5466 0.0000 (  5304 PWs)   bands (ev):

   -16.1970 -14.7458  -9.0837  -4.3086  -0.3163   6.2798   8.6276   9.5439

     occupation numbers 
     1.0000   1.0000   1.0000   1.0000   0.0000   0.0000   0.0000   0.0000

          k = 0.0933 0.5543 0.0000 (  5300 PWs)   bands (ev):

   -16.0943 -14.8588  -9.0911  -4.2607  -0.3745   6.2765   8.8186   9.6961

     occupation numbers 
     1.0000   1.0000   1.0000   1.0000   0.0000   0.0000   0.0000   0.0000

          k = 0.0933 0.5620 0.0000 (  5302 PWs)   bands (ev):

   -16.0075 -14.9530  -9.0964  -4.2255  -0.4171   6.2741   9.0108   9.8074

     occupation numbers 
     1.0000   1.0000   1.0000   1.0000   0.0000   0.0000   0.0000   0.0000

          k = 0.0933 0.5697 0.0000 (  5306 PWs)   bands (ev):

   -15.9470 -15.0179  -9.0996  -4.2040  -0.4430   6.2727   9.2022   9.6113

     occupation numbers 
     1.0000   1.0000   1.0000   1.0000   0.0000   0.0000   0.0000   0.0000

          k = 0.0933 0.5774 0.0000 (  5304 PWs)   bands (ev):

   -15.9249 -15.0415  -9.1006  -4.1967  -0.4517   6.2722   9.3517   9.4605

     occupation numbers 
     1.0000   1.0000   1.0000   1.0000   0.0000   0.0000   0.0000   0.0000

          k = 0.1000 0.1732 0.0000 (  5269 PWs)   bands (ev):

   -20.6040  -8.8157  -7.3073  -6.5178   2.3364   3.3917   3.8727   5.6995

     occupation numbers 
     1.0000   1.0000   1.0000   1.0000   0.0000   0.0000   0.0000   0.0000

          k = 0.1000 0.1809 0.0000 (  5265 PWs)   bands (ev):

   -20.5565  -8.7590  -7.4256  -6.6032   2.4015   3.4572   3.9395   5.7644

     occupation numbers 
     1.0000   1.0000   1.0000   1.0000   0.0000   0.0000   0.0000   0.0000

          k = 0.1000 0.1886 0.0000 (  5258 PWs)   bands (ev):

   -20.5070  -8.7000  -7.5476  -6.6892   2.4694   3.5254   4.0092   5.8320

     occupation numbers 
     1.0000   1.0000   1.0000   1.0000   0.0000   0.0000   0.0000   0.0000

          k = 0.1000 0.1963 0.0000 (  5258 PWs)   bands (ev):

   -20.4555  -8.6386  -7.6734  -6.7754   2.5401   3.5965   4.0818   5.9022

     occupation numbers 
     1.0000   1.0000   1.0000   1.0000   0.0000   0.0000   0.0000   0.0000

          k = 0.1000 0.2040 0.0000 (  5256 PWs)   bands (ev):

   -20.4019  -8.5748  -7.8028  -6.8616   2.6136   3.6703   4.1573   5.9750

     occupation numbers 
     1.0000   1.0000   1.0000   1.0000   0.0000   0.0000   0.0000   0.0000

          k = 0.1000 0.2117 0.0000 (  5259 PWs)   bands (ev):

   -20.3463  -8.5087  -7.9357  -6.9473   2.6900   3.7469   4.2357   6.0499

     occupation numbers 
     1.0000   1.0000   1.0000   1.0000   0.0000   0.0000   0.0000   0.0000

          k = 0.1000 0.2194 0.0000 (  5258 PWs)   bands (ev):

   -20.2887  -8.4403  -8.0720  -7.0325   2.7691   3.8263   4.3170   6.1236

     occupation numbers 
     1.0000   1.0000   1.0000   1.0000   0.0000   0.0000   0.0000   0.0000

          k = 0.1000 0.2271 0.0000 (  5260 PWs)   bands (ev):

   -20.2291  -8.3696  -8.2116  -7.1170   2.8511   3.9083   4.4012   6.1072

     occupation numbers 
     1.0000   1.0000   1.0000   1.0000   0.0000   0.0000   0.0000   0.0000

          k = 0.1000 0.2348 0.0000 (  5267 PWs)   bands (ev):

   -20.1675  -8.3542  -8.2966  -7.2005   2.9359   3.9931   4.4883   5.9648

     occupation numbers 
     1.0000   1.0000   1.0000   1.0000   0.0000   0.0000   0.0000   0.0000

          k = 0.1000 0.2425 0.0000 (  5262 PWs)   bands (ev):

   -20.1039  -8.4997  -8.2214  -7.2829   3.0234   4.0804   4.5783   5.8136

     occupation numbers 
     1.0000   1.0000   1.0000   1.0000   0.0000   0.0000   0.0000   0.0000

          k = 0.1000 0.2502 0.0000 (  5268 PWs)   bands (ev):

   -20.0382  -8.6479  -8.1439  -7.3641   3.1138   4.1703   4.6712   5.6594

     occupation numbers 
     1.0000   1.0000   1.0000   1.0000   0.0000   0.0000   0.0000   0.0000

          k = 0.1000 0.2579 0.0000 (  5264 PWs)   bands (ev):

   -19.9706  -8.7986  -8.0642  -7.4441   3.2069   4.2625   4.7669   5.5030

     occupation numbers 
     1.0000   1.0000   1.0000   1.0000   0.0000   0.0000   0.0000   0.0000

          k = 0.1000 0.2656 0.0000 (  5272 PWs)   bands (ev):

   -19.9010  -8.9515  -7.9823  -7.5227   3.3029   4.3566   4.8656   5.3451

     occupation numbers 
     1.0000   1.0000   1.0000   1.0000   0.0000   0.0000   0.0000   0.0000

          k = 0.1000 0.2733 0.0000 (  5268 PWs)   bands (ev):

   -19.8295  -9.1066  -7.8983  -7.5999   3.4016   4.4518   4.9671   5.1869

     occupation numbers 
     1.0000   1.0000   1.0000   1.0000   0.0000   0.0000   0.0000   0.0000

          k = 0.1000 0.2810 0.0000 (  5268 PWs)   bands (ev):

   -19.7559  -9.2635  -7.8121  -7.6756   3.5031   4.5451   5.0314   5.0716

     occupation numbers 
     1.0000   1.0000   1.0000   1.0000   0.0000   0.0000   0.0000   0.0000

          k = 0.1000 0.2887 0.0000 (  5274 PWs)   bands (ev):

   -19.6804  -9.4221  -7.7497  -7.7238   3.6073   4.6227   4.8927   5.1789

     occupation numbers 
     1.0000   1.0000   1.0000   1.0000   0.0000   0.0000   0.0000   0.0000

          k = 0.1000 0.2964 0.0000 (  5273 PWs)   bands (ev):

   -19.6030  -9.5823  -7.8224  -7.6334   3.7144   4.6083   4.8470   5.2890

     occupation numbers 
     1.0000   1.0000   1.0000   1.0000   0.0000   0.0000   0.0000   0.0000

          k = 0.1000 0.3041 0.0000 (  5265 PWs)   bands (ev):

   -19.5235  -9.7437  -7.8933  -7.5410   3.8242   4.4771   4.9194   5.4020

     occupation numbers 
     1.0000   1.0000   1.0000   1.0000   0.0000   0.0000   0.0000   0.0000

          k = 0.1000 0.3118 0.0000 (  5267 PWs)   bands (ev):

   -19.4422  -9.9064  -7.9627  -7.4466   3.9367   4.3176   5.0217   5.5179

     occupation numbers 
     1.0000   1.0000   1.0000   1.0000   0.0000   0.0000   0.0000   0.0000

          k = 0.1000 0.3195 0.0000 (  5267 PWs)   bands (ev):

   -19.3589 -10.0700  -8.0304  -7.3502   4.0520   4.1509   5.1327   5.6366

     occupation numbers 
     1.0000   1.0000   1.0000   1.0000   0.0000   0.0000   0.0000   0.0000

          k = 0.1000 0.3272 0.0000 (  5267 PWs)   bands (ev):

   -19.2737 -10.2344  -8.0963  -7.2519   3.9811   4.1700   5.2484   5.7581

     occupation numbers 
     1.0000   1.0000   1.0000   1.0000   0.0000   0.0000   0.0000   0.0000

          k = 0.1000 0.3349 0.0000 (  5267 PWs)   bands (ev):

   -19.1866 -10.3996  -8.1605  -7.1518   3.8095   4.2907   5.3679   5.8823

     occupation numbers 
     1.0000   1.0000   1.0000   1.0000   0.0000   0.0000   0.0000   0.0000

          k = 0.1000 0.3426 0.0000 (  5269 PWs)   bands (ev):

   -19.0976 -10.5652  -8.2230  -7.0499   3.6367   4.4142   5.4905   6.0092

     occupation numbers 
     1.0000   1.0000   1.0000   1.0000   0.0000   0.0000   0.0000   0.0000

          k = 0.1000 0.3503 0.0000 (  5277 PWs)   bands (ev):

   -19.0068 -10.7313  -8.2837  -6.9462   3.4631   4.5403   5.6162   6.1385

     occupation numbers 
     1.0000   1.0000   1.0000   1.0000   0.0000   0.0000   0.0000   0.0000

          k = 0.1000 0.3580 0.0000 (  5273 PWs)   bands (ev):

   -18.9140 -10.8977  -8.3425  -6.8409   3.2890   4.6691   5.7446   6.2699

     occupation numbers 
     1.0000   1.0000   1.0000   1.0000   0.0000   0.0000   0.0000   0.0000

          k = 0.1000 0.3657 0.0000 (  5275 PWs)   bands (ev):

   -18.8194 -11.0642  -8.3995  -6.7340   3.1146   4.8006   5.8758   6.4023

     occupation numbers 
     1.0000   1.0000   1.0000   1.0000   0.0000   0.0000   0.0000   0.0000

          k = 0.1000 0.3734 0.0000 (  5277 PWs)   bands (ev):

   -18.7230 -11.2308  -8.4547  -6.6256   2.9402   4.9346   6.0097   6.5315

     occupation numbers 
     1.0000   1.0000   1.0000   1.0000   0.0000   0.0000   0.0000   0.0000

          k = 0.1000 0.3811 0.0000 (  5272 PWs)   bands (ev):

   -18.6247 -11.3973  -8.5080  -6.5158   2.7658   5.0713   6.1463   6.6324

     occupation numbers 
     1.0000   1.0000   1.0000   1.0000   0.0000   0.0000   0.0000   0.0000

          k = 0.1000 0.3887 0.0000 (  5276 PWs)   bands (ev):

   -18.5246 -11.5636  -8.5594  -6.4047   2.5919   5.2105   6.2854   6.6579

     occupation numbers 
     1.0000   1.0000   1.0000   1.0000   0.0000   0.0000   0.0000   0.0000

          k = 0.1000 0.3964 0.0000 (  5280 PWs)   bands (ev):

   -18.4227 -11.7296  -8.6088  -6.2924   2.4185   5.3521   6.4271   6.6508

     occupation numbers 
     1.0000   1.0000   1.0000   1.0000   0.0000   0.0000   0.0000   0.0000

          k = 0.1000 0.4041 0.0000 (  5282 PWs)   bands (ev):

   -18.3191 -11.8952  -8.6564  -6.1790   2.2459   5.4961   6.5712   6.6377

     occupation numbers 
     1.0000   1.0000   1.0000   1.0000   0.0000   0.0000   0.0000   0.0000

          k = 0.1000 0.4118 0.0000 (  5288 PWs)   bands (ev):

   -18.2137 -12.0603  -8.7020  -6.0647   2.0744   5.6422   6.6234   6.7178

     occupation numbers 
     1.0000   1.0000   1.0000   1.0000   0.0000   0.0000   0.0000   0.0000

          k = 0.1000 0.4195 0.0000 (  5284 PWs)   bands (ev):

   -18.1067 -12.2249  -8.7456  -5.9497   1.9042   5.7902   6.6095   6.8668

     occupation numbers 
     1.0000   1.0000   1.0000   1.0000   0.0000   0.0000   0.0000   0.0000

          k = 0.1000 0.4272 0.0000 (  5286 PWs)   bands (ev):

   -17.9979 -12.3888  -8.7872  -5.8342   1.7355   5.9394   6.5971   7.0182

     occupation numbers 
     1.0000   1.0000   1.0000   1.0000   0.0000   0.0000   0.0000   0.0000

          k = 0.1000 0.4349 0.0000 (  5285 PWs)   bands (ev):

   -17.8875 -12.5519  -8.8269  -5.7183   1.5687   6.0883   6.5878   7.1718

     occupation numbers 
     1.0000   1.0000   1.0000   1.0000   0.0000   0.0000   0.0000   0.0000

          k = 0.1000 0.4426 0.0000 (  5285 PWs)   bands (ev):

   -17.7755 -12.7141  -8.8645  -5.6024   1.4041   6.2328   6.5860   7.3276

     occupation numbers 
     1.0000   1.0000   1.0000   1.0000   0.0000   0.0000   0.0000   0.0000

          k = 0.1000 0.4503 0.0000 (  5285 PWs)   bands (ev):

   -17.6619 -12.8754  -8.9001  -5.4867   1.2420   6.3596   6.6050   7.4855

     occupation numbers 
     1.0000   1.0000   1.0000   1.0000   0.0000   0.0000   0.0000   0.0000

          k = 0.1000 0.4580 0.0000 (  5289 PWs)   bands (ev):

   -17.5468 -13.0355  -8.9337  -5.3716   1.0829   6.4361   6.6775   7.6454

     occupation numbers 
     1.0000   1.0000   1.0000   1.0000   0.0000   0.0000   0.0000   0.0000

          k = 0.1000 0.4657 0.0000 (  5289 PWs)   bands (ev):

   -17.4303 -13.1945  -8.9652  -5.2574   0.9272   6.4591   6.8066   7.8071

     occupation numbers 
     1.0000   1.0000   1.0000   1.0000   0.0000   0.0000   0.0000   0.0000

          k = 0.1000 0.4734 0.0000 (  5293 PWs)   bands (ev):

   -17.3125 -13.3522  -8.9947  -5.1446   0.7754   6.4607   6.9604   7.9707

     occupation numbers 
     1.0000   1.0000   1.0000   1.0000   0.0000   0.0000   0.0000   0.0000

          k = 0.1000 0.4811 0.0000 (  5295 PWs)   bands (ev):

   -17.1935 -13.5084  -9.0221  -5.0338   0.6281   6.4556   7.1241   8.1357

     occupation numbers 
     1.0000   1.0000   1.0000   1.0000   0.0000   0.0000   0.0000   0.0000

          k = 0.1000 0.4888 0.0000 (  5301 PWs)   bands (ev):

   -17.0733 -13.6629  -9.0475  -4.9254   0.4860   6.4483   7.2932   8.3022

     occupation numbers 
     1.0000   1.0000   1.0000   1.0000   0.0000   0.0000   0.0000   0.0000

          k = 0.1000 0.4965 0.0000 (  5303 PWs)   bands (ev):

   -16.9523 -13.8156  -9.0707  -4.8203   0.3497   6.4404   7.4662   8.4696

     occupation numbers 
     1.0000   1.0000   1.0000   1.0000   0.0000   0.0000   0.0000   0.0000

          k = 0.1000 0.5042 0.0000 (  5300 PWs)   bands (ev):

   -16.8306 -13.9661  -9.0919  -4.7192   0.2201   6.4324   7.6424   8.6379

     occupation numbers 
     1.0000   1.0000   1.0000   1.0000   0.0000   0.0000   0.0000   0.0000

          k = 0.1000 0.5119 0.0000 (  5300 PWs)   bands (ev):

   -16.7086 -14.1142  -9.1109  -4.6230   0.0982   6.4249   7.8214   8.8064

     occupation numbers 
     1.0000   1.0000   1.0000   1.0000   0.0000   0.0000   0.0000   0.0000

          k = 0.1000 0.5196 0.0000 (  5302 PWs)   bands (ev):

   -16.5868 -14.2591  -9.1279  -4.5328  -0.0150   6.4179   8.0028   8.9745

     occupation numbers 
     1.0000   1.0000   1.0000   1.0000   0.0000   0.0000   0.0000   0.0000

          k = 0.1000 0.5273 0.0000 (  5302 PWs)   bands (ev):

   -16.4660 -14.4003  -9.1427  -4.4497  -0.1183   6.4117   8.1867   9.1415

     occupation numbers 
     1.0000   1.0000   1.0000   1.0000   0.0000   0.0000   0.0000   0.0000

          k = 0.1000 0.5350 0.0000 (  5306 PWs)   bands (ev):

   -16.3473 -14.5365  -9.1555  -4.3749  -0.2103   6.4062   8.3727   9.3060

     occupation numbers 
     1.0000   1.0000   1.0000   1.0000   0.0000   0.0000   0.0000   0.0000

          k = 0.1000 0.5427 0.0000 (  5304 PWs)   bands (ev):

   -16.2324 -14.6659  -9.1661  -4.3099  -0.2899   6.4016   8.5607   9.4659

     occupation numbers 
     1.0000   1.0000   1.0000   1.0000   0.0000   0.0000   0.0000   0.0000

          k = 0.1000 0.5504 0.0000 (  5302 PWs)   bands (ev):

   -16.1246 -14.7854  -9.1746  -4.2558  -0.3555   6.3979   8.7505   9.6180

     occupation numbers 
     1.0000   1.0000   1.0000   1.0000   0.0000   0.0000   0.0000   0.0000

          k = 0.1000 0.5581 0.0000 (  5298 PWs)   bands (ev):

   -16.0290 -14.8899  -9.1810  -4.2140  -0.4061   6.3951   8.9418   9.7560

     occupation numbers 
     1.0000   1.0000   1.0000   1.0000   0.0000   0.0000   0.0000   0.0000

          k = 0.1000 0.5658 0.0000 (  5302 PWs)   bands (ev):

   -15.9540 -14.9707  -9.1852  -4.1854  -0.4405   6.3932   9.1336   9.7336

     occupation numbers 
     1.0000   1.0000   1.0000   1.0000   0.0000   0.0000   0.0000   0.0000

          k = 0.1000 0.5735 0.0000 (  5308 PWs)   bands (ev):

   -15.9114 -15.0162  -9.1874  -4.1709  -0.4579   6.3923   9.3195   9.5453

     occupation numbers 
     1.0000   1.0000   1.0000   1.0000   0.0000   0.0000   0.0000   0.0000

          k = 0.1067 0.1848 0.0000 (  5262 PWs)   bands (ev):

   -20.5081  -8.7012  -7.5419  -6.6912   2.4680   3.5240   4.0078   5.8306

     occupation numbers 
     1.0000   1.0000   1.0000   1.0000   0.0000   0.0000   0.0000   0.0000

          k = 0.1067 0.1925 0.0000 (  5256 PWs)   bands (ev):

   -20.4575  -8.6410  -7.6619  -6.7798   2.5373   3.5937   4.0789   5.8996

     occupation numbers 
     1.0000   1.0000   1.0000   1.0000   0.0000   0.0000   0.0000   0.0000

          k = 0.1067 0.2001 0.0000 (  5258 PWs)   bands (ev):

   -20.4050  -8.5785  -7.7855  -6.8686   2.6094   3.6661   4.1530   5.9712

     occupation numbers 
     1.0000   1.0000   1.0000   1.0000   0.0000   0.0000   0.0000   0.0000

          k = 0.1067 0.2078 0.0000 (  5257 PWs)   bands (ev):

   -20.3505  -8.5136  -7.9126  -6.9572   2.6844   3.7413   4.2299   6.0453

     occupation numbers 
     1.0000   1.0000   1.0000   1.0000   0.0000   0.0000   0.0000   0.0000

          k = 0.1067 0.2155 0.0000 (  5253 PWs)   bands (ev):

   -20.2939  -8.4464  -8.0433  -7.0454   2.7621   3.8193   4.3098   6.1205

     occupation numbers 
     1.0000   1.0000   1.0000   1.0000   0.0000   0.0000   0.0000   0.0000

          k = 0.1067 0.2232 0.0000 (  5261 PWs)   bands (ev):

   -20.2353  -8.3769  -8.1774  -7.1329   2.8427   3.9000   4.3925   6.1289

     occupation numbers 
     1.0000   1.0000   1.0000   1.0000   0.0000   0.0000   0.0000   0.0000

          k = 0.1067 0.2309 0.0000 (  5265 PWs)   bands (ev):

   -20.1747  -8.3147  -8.3051  -7.2194   2.9260   3.9834   4.4782   5.9875

     occupation numbers 
     1.0000   1.0000   1.0000   1.0000   0.0000   0.0000   0.0000   0.0000

          k = 0.1067 0.2386 0.0000 (  5263 PWs)   bands (ev):

   -20.1121  -8.4552  -8.2310  -7.3048   3.0122   4.0695   4.5667   5.8384

     occupation numbers 
     1.0000   1.0000   1.0000   1.0000   0.0000   0.0000   0.0000   0.0000

          k = 0.1067 0.2463 0.0000 (  5264 PWs)   bands (ev):

   -20.0475  -8.5987  -8.1547  -7.3890   3.1012   4.1582   4.6582   5.6864

     occupation numbers 
     1.0000   1.0000   1.0000   1.0000   0.0000   0.0000   0.0000   0.0000

          k = 0.1067 0.2540 0.0000 (  5270 PWs)   bands (ev):

   -19.9809  -8.7449  -8.0762  -7.4718   3.1929   4.2493   4.7525   5.5323

     occupation numbers 
     1.0000   1.0000   1.0000   1.0000   0.0000   0.0000   0.0000   0.0000

          k = 0.1067 0.2617 0.0000 (  5268 PWs)   bands (ev):

   -19.9123  -8.8937  -7.9954  -7.5532   3.2875   4.3426   4.8497   5.3764

     occupation numbers 
     1.0000   1.0000   1.0000   1.0000   0.0000   0.0000   0.0000   0.0000

          k = 0.1067 0.2694 0.0000 (  5272 PWs)   bands (ev):

   -19.8417  -9.0448  -7.9125  -7.6330   3.3848   4.4375   4.9498   5.2195

     occupation numbers 
     1.0000   1.0000   1.0000   1.0000   0.0000   0.0000   0.0000   0.0000

          k = 0.1067 0.2771 0.0000 (  5272 PWs)   bands (ev):

   -19.7692  -9.1981  -7.8274  -7.7112   3.4849   4.5321   5.0528   5.0637

     occupation numbers 
     1.0000   1.0000   1.0000   1.0000   0.0000   0.0000   0.0000   0.0000

          k = 0.1067 0.2848 0.0000 (  5278 PWs)   bands (ev):

   -19.6947  -9.3535  -7.7878  -7.7402   3.5878   4.6186   4.9170   5.1587

     occupation numbers 
     1.0000   1.0000   1.0000   1.0000   0.0000   0.0000   0.0000   0.0000

          k = 0.1067 0.2925 0.0000 (  5278 PWs)   bands (ev):

   -19.6183  -9.5105  -7.8627  -7.6510   3.6935   4.6402   4.8362   5.2675

     occupation numbers 
     1.0000   1.0000   1.0000   1.0000   0.0000   0.0000   0.0000   0.0000

          k = 0.1067 0.3002 0.0000 (  5273 PWs)   bands (ev):

   -19.5399  -9.6692  -7.9359  -7.5596   3.8019   4.5238   4.8948   5.3791

     occupation numbers 
     1.0000   1.0000   1.0000   1.0000   0.0000   0.0000   0.0000   0.0000

          k = 0.1067 0.3079 0.0000 (  5269 PWs)   bands (ev):

   -19.4595  -9.8293  -8.0074  -7.4663   3.9130   4.3672   4.9947   5.4936

     occupation numbers 
     1.0000   1.0000   1.0000   1.0000   0.0000   0.0000   0.0000   0.0000

          k = 0.1067 0.3156 0.0000 (  5267 PWs)   bands (ev):

   -19.3772  -9.9905  -8.0770  -7.3709   4.0270   4.2026   5.1043   5.6109

     occupation numbers 
     1.0000   1.0000   1.0000   1.0000   0.0000   0.0000   0.0000   0.0000

          k = 0.1067 0.3233 0.0000 (  5265 PWs)   bands (ev):

   -19.2930 -10.1529  -8.1449  -7.2737   4.0346   4.1436   5.2188   5.7310

     occupation numbers 
     1.0000   1.0000   1.0000   1.0000   0.0000   0.0000   0.0000   0.0000

          k = 0.1067 0.3310 0.0000 (  5265 PWs)   bands (ev):

   -19.2069 -10.3161  -8.2109  -7.1745   3.8648   4.2630   5.3369   5.8540

     occupation numbers 
     1.0000   1.0000   1.0000   1.0000   0.0000   0.0000   0.0000   0.0000

          k = 0.1067 0.3387 0.0000 (  5263 PWs)   bands (ev):

   -19.1189 -10.4800  -8.2752  -7.0736   3.6937   4.3851   5.4582   5.9797

     occupation numbers 
     1.0000   1.0000   1.0000   1.0000   0.0000   0.0000   0.0000   0.0000

          k = 0.1067 0.3464 0.0000 (  5271 PWs)   bands (ev):

   -19.0290 -10.6445  -8.3375  -6.9708   3.5217   4.5099   5.5824   6.1080

     occupation numbers 
     1.0000   1.0000   1.0000   1.0000   0.0000   0.0000   0.0000   0.0000

          k = 0.1067 0.3541 0.0000 (  5277 PWs)   bands (ev):

   -18.9373 -10.8095  -8.3980  -6.8664   3.3491   4.6374   5.7095   6.2389

     occupation numbers 
     1.0000   1.0000   1.0000   1.0000   0.0000   0.0000   0.0000   0.0000

          k = 0.1067 0.3618 0.0000 (  5276 PWs)   bands (ev):

   -18.8436 -10.9748  -8.4566  -6.7603   3.1761   4.7675   5.8392   6.3718

     occupation numbers 
     1.0000   1.0000   1.0000   1.0000   0.0000   0.0000   0.0000   0.0000

          k = 0.1067 0.3695 0.0000 (  5280 PWs)   bands (ev):

   -18.7482 -11.1402  -8.5133  -6.6527   3.0029   4.9003   5.9717   6.5059

     occupation numbers 
     1.0000   1.0000   1.0000   1.0000   0.0000   0.0000   0.0000   0.0000

          k = 0.1067 0.3772 0.0000 (  5278 PWs)   bands (ev):

   -18.6508 -11.3057  -8.5681  -6.5437   2.8298   5.0357   6.1067   6.6372

     occupation numbers 
     1.0000   1.0000   1.0000   1.0000   0.0000   0.0000   0.0000   0.0000

          k = 0.1067 0.3849 0.0000 (  5274 PWs)   bands (ev):

   -18.5517 -11.4712  -8.6209  -6.4332   2.6568   5.1737   6.2443   6.7430

     occupation numbers 
     1.0000   1.0000   1.0000   1.0000   0.0000   0.0000   0.0000   0.0000

          k = 0.1067 0.3926 0.0000 (  5276 PWs)   bands (ev):

   -18.4508 -11.6365  -8.6718  -6.3215   2.4843   5.3143   6.3845   6.7722

     occupation numbers 
     1.0000   1.0000   1.0000   1.0000   0.0000   0.0000   0.0000   0.0000

          k = 0.1067 0.4003 0.0000 (  5286 PWs)   bands (ev):

   -18.3481 -11.8015  -8.7207  -6.2087   2.3124   5.4572   6.5271   6.7660

     occupation numbers 
     1.0000   1.0000   1.0000   1.0000   0.0000   0.0000   0.0000   0.0000

          k = 0.1067 0.4080 0.0000 (  5286 PWs)   bands (ev):

   -18.2437 -11.9661  -8.7677  -6.0949   2.1414   5.6026   6.6722   6.7533

     occupation numbers 
     1.0000   1.0000   1.0000   1.0000   0.0000   0.0000   0.0000   0.0000

          k = 0.1067 0.4157 0.0000 (  5284 PWs)   bands (ev):

   -18.1375 -12.1302  -8.8126  -5.9803   1.9716   5.7501   6.7393   6.8196

     occupation numbers 
     1.0000   1.0000   1.0000   1.0000   0.0000   0.0000   0.0000   0.0000

          k = 0.1067 0.4234 0.0000 (  5288 PWs)   bands (ev):

   -18.0296 -12.2938  -8.8556  -5.8650   1.8031   5.8994   6.7257   6.9694

     occupation numbers 
     1.0000   1.0000   1.0000   1.0000   0.0000   0.0000   0.0000   0.0000

          k = 0.1067 0.4311 0.0000 (  5284 PWs)   bands (ev):

   -17.9201 -12.4566  -8.8965  -5.7493   1.6362   6.0500   6.7135   7.1214

     occupation numbers 
     1.0000   1.0000   1.0000   1.0000   0.0000   0.0000   0.0000   0.0000

          k = 0.1067 0.4388 0.0000 (  5283 PWs)   bands (ev):

   -17.8090 -12.6187  -8.9354  -5.6334   1.4714   6.2005   6.7044   7.2756

     occupation numbers 
     1.0000   1.0000   1.0000   1.0000   0.0000   0.0000   0.0000   0.0000

          k = 0.1067 0.4465 0.0000 (  5281 PWs)   bands (ev):

   -17.6963 -12.7799  -8.9723  -5.5175   1.3088   6.3469   6.7022   7.4318

     occupation numbers 
     1.0000   1.0000   1.0000   1.0000   0.0000   0.0000   0.0000   0.0000

          k = 0.1067 0.4542 0.0000 (  5287 PWs)   bands (ev):

   -17.5820 -12.9401  -9.0071  -5.4020   1.1490   6.4763   6.7202   7.5900

     occupation numbers 
     1.0000   1.0000   1.0000   1.0000   0.0000   0.0000   0.0000   0.0000

          k = 0.1067 0.4619 0.0000 (  5293 PWs)   bands (ev):

   -17.4663 -13.0993  -9.0398  -5.2872   0.9922   6.5554   6.7916   7.7501

     occupation numbers 
     1.0000   1.0000   1.0000   1.0000   0.0000   0.0000   0.0000   0.0000

          k = 0.1067 0.4696 0.0000 (  5295 PWs)   bands (ev):

   -17.3493 -13.2571  -9.0705  -5.1736   0.8390   6.5793   6.9215   7.9118

     occupation numbers 
     1.0000   1.0000   1.0000   1.0000   0.0000   0.0000   0.0000   0.0000

          k = 0.1067 0.4773 0.0000 (  5303 PWs)   bands (ev):

   -17.2309 -13.4136  -9.0991  -5.0616   0.6900   6.5812   7.0765   8.0751

     occupation numbers 
     1.0000   1.0000   1.0000   1.0000   0.0000   0.0000   0.0000   0.0000

          k = 0.1067 0.4850 0.0000 (  5301 PWs)   bands (ev):

   -17.1114 -13.5686  -9.1256  -4.9518   0.5456   6.5765   7.2414   8.2396

     occupation numbers 
     1.0000   1.0000   1.0000   1.0000   0.0000   0.0000   0.0000   0.0000

          k = 0.1067 0.4927 0.0000 (  5303 PWs)   bands (ev):

   -16.9909 -13.7219  -9.1500  -4.8449   0.4067   6.5695   7.4117   8.4052

     occupation numbers 
     1.0000   1.0000   1.0000   1.0000   0.0000   0.0000   0.0000   0.0000

          k = 0.1067 0.5004 0.0000 (  5299 PWs)   bands (ev):

   -16.8696 -13.8732  -9.1723  -4.7415   0.2740   6.5619   7.5858   8.5714

     occupation numbers 
     1.0000   1.0000   1.0000   1.0000   0.0000   0.0000   0.0000   0.0000

          k = 0.1067 0.5081 0.0000 (  5299 PWs)   bands (ev):

   -16.7479 -14.0222  -9.1925  -4.6425   0.1484   6.5544   7.7629   8.7378

     occupation numbers 
     1.0000   1.0000   1.0000   1.0000   0.0000   0.0000   0.0000   0.0000

          k = 0.1067 0.5158 0.0000 (  5298 PWs)   bands (ev):

   -16.6260 -14.1684  -9.2106  -4.5490   0.0309   6.5473   7.9428   8.9039

     occupation numbers 
     1.0000   1.0000   1.0000   1.0000   0.0000   0.0000   0.0000   0.0000

          k = 0.1067 0.5235 0.0000 (  5300 PWs)   bands (ev):

   -16.5048 -14.3113  -9.2266  -4.4619  -0.0773   6.5408   8.1252   9.0687

     occupation numbers 
     1.0000   1.0000   1.0000   1.0000   0.0000   0.0000   0.0000   0.0000

          k = 0.1067 0.5312 0.0000 (  5294 PWs)   bands (ev):

   -16.3850 -14.4499  -9.2405  -4.3826  -0.1750   6.5350   8.3098   9.2311

     occupation numbers 
     1.0000   1.0000   1.0000   1.0000   0.0000   0.0000   0.0000   0.0000

          k = 0.1067 0.5389 0.0000 (  5304 PWs)   bands (ev):

   -16.2681 -14.5827  -9.2522  -4.3123  -0.2610   6.5300   8.4965   9.3892

     occupation numbers 
     1.0000   1.0000   1.0000   1.0000   0.0000   0.0000   0.0000   0.0000

          k = 0.1067 0.5466 0.0000 (  5302 PWs)   bands (ev):

   -16.1564 -14.7073  -9.2618  -4.2524  -0.3337   6.5258   8.6851   9.5402

     occupation numbers 
     1.0000   1.0000   1.0000   1.0000   0.0000   0.0000   0.0000   0.0000

          k = 0.1067 0.5543 0.0000 (  5298 PWs)   bands (ev):

   -16.0540 -14.8199  -9.2693  -4.2041  -0.3920   6.5226   8.8753   9.6794

     occupation numbers 
     1.0000   1.0000   1.0000   1.0000   0.0000   0.0000   0.0000   0.0000

          k = 0.1067 0.5620 0.0000 (  5300 PWs)   bands (ev):

   -15.9676 -14.9136  -9.2746  -4.1686  -0.4346   6.5202   9.0665   9.7981

     occupation numbers 
     1.0000   1.0000   1.0000   1.0000   0.0000   0.0000   0.0000   0.0000

          k = 0.1067 0.5697 0.0000 (  5302 PWs)   bands (ev):

   -15.9074 -14.9781  -9.2778  -4.1469  -0.4606   6.5188   9.2566   9.6647

     occupation numbers 
     1.0000   1.0000   1.0000   1.0000   0.0000   0.0000   0.0000   0.0000

          k = 0.1067 0.5774 0.0000 (  5304 PWs)   bands (ev):

   -15.8854 -15.0016  -9.2789  -4.1396  -0.4694   6.5183   9.4034   9.5168

     occupation numbers 
     1.0000   1.0000   1.0000   1.0000   0.0000   0.0000   0.0000   0.0000

          k = 0.1133 0.1963 0.0000 (  5258 PWs)   bands (ev):

   -20.4060  -8.5797  -7.7796  -6.8711   2.6080   3.6647   4.1515   5.9700

     occupation numbers 
     1.0000   1.0000   1.0000   1.0000   0.0000   0.0000   0.0000   0.0000

          k = 0.1133 0.2040 0.0000 (  5260 PWs)   bands (ev):

   -20.3525  -8.5160  -7.9008  -6.9625   2.6815   3.7385   4.2270   6.0430

     occupation numbers 
     1.0000   1.0000   1.0000   1.0000   0.0000   0.0000   0.0000   0.0000

          k = 0.1133 0.2117 0.0000 (  5259 PWs)   bands (ev):

   -20.2970  -8.4500  -8.0255  -7.0537   2.7579   3.8151   4.3055   6.1183

     occupation numbers 
     1.0000   1.0000   1.0000   1.0000   0.0000   0.0000   0.0000   0.0000

          k = 0.1133 0.2194 0.0000 (  5262 PWs)   bands (ev):

   -20.2394  -8.3817  -8.1537  -7.1444   2.8371   3.8945   4.3868   6.1454

     occupation numbers 
     1.0000   1.0000   1.0000   1.0000   0.0000   0.0000   0.0000   0.0000

          k = 0.1133 0.2271 0.0000 (  5265 PWs)   bands (ev):

   -20.1798  -8.3111  -8.2852  -7.2342   2.9190   3.9765   4.4710   6.0041

     occupation numbers 
     1.0000   1.0000   1.0000   1.0000   0.0000   0.0000   0.0000   0.0000

          k = 0.1133 0.2348 0.0000 (  5265 PWs)   bands (ev):

   -20.1182  -8.4201  -8.2383  -7.3231   3.0038   4.0613   4.5581   5.8573

     occupation numbers 
     1.0000   1.0000   1.0000   1.0000   0.0000   0.0000   0.0000   0.0000

          k = 0.1133 0.2425 0.0000 (  5265 PWs)   bands (ev):

   -20.0547  -8.5582  -8.1631  -7.4106   3.0914   4.1487   4.6481   5.7078

     occupation numbers 
     1.0000   1.0000   1.0000   1.0000   0.0000   0.0000   0.0000   0.0000

          k = 0.1133 0.2502 0.0000 (  5268 PWs)   bands (ev):

   -19.9891  -8.6993  -8.0858  -7.4967   3.1817   4.2387   4.7410   5.5560

     occupation numbers 
     1.0000   1.0000   1.0000   1.0000   0.0000   0.0000   0.0000   0.0000

          k = 0.1133 0.2579 0.0000 (  5266 PWs)   bands (ev):

   -19.9215  -8.8432  -8.0062  -7.5813   3.2749   4.3310   4.8368   5.4023

     occupation numbers 
     1.0000   1.0000   1.0000   1.0000   0.0000   0.0000   0.0000   0.0000

          k = 0.1133 0.2656 0.0000 (  5270 PWs)   bands (ev):

   -19.8520  -8.9898  -7.9244  -7.6643   3.3708   4.4253   4.9354   5.2473

     occupation numbers 
     1.0000   1.0000   1.0000   1.0000   0.0000   0.0000   0.0000   0.0000

          k = 0.1133 0.2733 0.0000 (  5276 PWs)   bands (ev):

   -19.7805  -9.1389  -7.8404  -7.7455   3.4695   4.5204   5.0370   5.0922

     occupation numbers 
     1.0000   1.0000   1.0000   1.0000   0.0000   0.0000   0.0000   0.0000

          k = 0.1133 0.2810 0.0000 (  5280 PWs)   bands (ev):

   -19.7070  -9.2903  -7.8249  -7.7544   3.5710   4.6118   4.9417   5.1414

     occupation numbers 
     1.0000   1.0000   1.0000   1.0000   0.0000   0.0000   0.0000   0.0000

          k = 0.1133 0.2887 0.0000 (  5282 PWs)   bands (ev):

   -19.6315  -9.4438  -7.9025  -7.6662   3.6753   4.6628   4.8325   5.2488

     occupation numbers 
     1.0000   1.0000   1.0000   1.0000   0.0000   0.0000   0.0000   0.0000

          k = 0.1133 0.2964 0.0000 (  5278 PWs)   bands (ev):

   -19.5541  -9.5991  -7.9783  -7.5759   3.7823   4.5660   4.8724   5.3590

     occupation numbers 
     1.0000   1.0000   1.0000   1.0000   0.0000   0.0000   0.0000   0.0000

          k = 0.1133 0.3041 0.0000 (  5273 PWs)   bands (ev):

   -19.4748  -9.7561  -8.0522  -7.4837   3.8921   4.4125   4.9702   5.4721

     occupation numbers 
     1.0000   1.0000   1.0000   1.0000   0.0000   0.0000   0.0000   0.0000

          k = 0.1133 0.3118 0.0000 (  5269 PWs)   bands (ev):

   -19.3935  -9.9146  -8.1242  -7.3894   4.0047   4.2498   5.0786   5.5880

     occupation numbers 
     1.0000   1.0000   1.0000   1.0000   0.0000   0.0000   0.0000   0.0000

          k = 0.1133 0.3195 0.0000 (  5267 PWs)   bands (ev):

   -19.3103 -10.0744  -8.1942  -7.2931   4.0837   4.1200   5.1919   5.7068

     occupation numbers 
     1.0000   1.0000   1.0000   1.0000   0.0000   0.0000   0.0000   0.0000

          k = 0.1133 0.3272 0.0000 (  5265 PWs)   bands (ev):

   -19.2252 -10.2353  -8.2624  -7.1950   3.9158   4.2380   5.3087   5.8284

     occupation numbers 
     1.0000   1.0000   1.0000   1.0000   0.0000   0.0000   0.0000   0.0000

          k = 0.1133 0.3349 0.0000 (  5265 PWs)   bands (ev):

   -19.1382 -10.3972  -8.3286  -7.0950   3.7465   4.3587   5.4286   5.9528

     occupation numbers 
     1.0000   1.0000   1.0000   1.0000   0.0000   0.0000   0.0000   0.0000

          k = 0.1133 0.3426 0.0000 (  5272 PWs)   bands (ev):

   -19.0493 -10.5598  -8.3929  -6.9932   3.5763   4.4822   5.5515   6.0800

     occupation numbers 
     1.0000   1.0000   1.0000   1.0000   0.0000   0.0000   0.0000   0.0000

          k = 0.1133 0.3503 0.0000 (  5280 PWs)   bands (ev):

   -18.9585 -10.7231  -8.4552  -6.8897   3.4054   4.6083   5.6771   6.2098

     occupation numbers 
     1.0000   1.0000   1.0000   1.0000   0.0000   0.0000   0.0000   0.0000

          k = 0.1133 0.3580 0.0000 (  5280 PWs)   bands (ev):

   -18.8659 -10.8868  -8.5156  -6.7845   3.2339   4.7372   5.8054   6.3421

     occupation numbers 
     1.0000   1.0000   1.0000   1.0000   0.0000   0.0000   0.0000   0.0000

          k = 0.1133 0.3657 0.0000 (  5280 PWs)   bands (ev):

   -18.7714 -11.0509  -8.5740  -6.6777   3.0622   4.8687   5.9364   6.4767

     occupation numbers 
     1.0000   1.0000   1.0000   1.0000   0.0000   0.0000   0.0000   0.0000

          k = 0.1133 0.3734 0.0000 (  5280 PWs)   bands (ev):

   -18.6750 -11.2152  -8.6304  -6.5694   2.8903   5.0028   6.0699   6.6125

     occupation numbers 
     1.0000   1.0000   1.0000   1.0000   0.0000   0.0000   0.0000   0.0000

          k = 0.1133 0.3811 0.0000 (  5280 PWs)   bands (ev):

   -18.5768 -11.3796  -8.6848  -6.4597   2.7186   5.1396   6.2061   6.7461

     occupation numbers 
     1.0000   1.0000   1.0000   1.0000   0.0000   0.0000   0.0000   0.0000

          k = 0.1133 0.3887 0.0000 (  5286 PWs)   bands (ev):

   -18.4769 -11.5440  -8.7372  -6.3487   2.5471   5.2789   6.3447   6.8575

     occupation numbers 
     1.0000   1.0000   1.0000   1.0000   0.0000   0.0000   0.0000   0.0000

          k = 0.1133 0.3964 0.0000 (  5280 PWs)   bands (ev):

   -18.3751 -11.7081  -8.7876  -6.2364   2.3761   5.4208   6.4858   6.8923

     occupation numbers 
     1.0000   1.0000   1.0000   1.0000   0.0000   0.0000   0.0000   0.0000

          k = 0.1133 0.4041 0.0000 (  5284 PWs)   bands (ev):

   -18.2716 -11.8721  -8.8360  -6.1232   2.2059   5.5651   6.6293   6.8872

     occupation numbers 
     1.0000   1.0000   1.0000   1.0000   0.0000   0.0000   0.0000   0.0000

          k = 0.1133 0.4118 0.0000 (  5288 PWs)   bands (ev):

   -18.1664 -12.0356  -8.8824  -6.0090   2.0366   5.7117   6.7752   6.8750

     occupation numbers 
     1.0000   1.0000   1.0000   1.0000   0.0000   0.0000   0.0000   0.0000

          k = 0.1133 0.4195 0.0000 (  5284 PWs)   bands (ev):

   -18.0594 -12.1987  -8.9267  -5.8940   1.8684   5.8606   6.8614   6.9233

     occupation numbers 
     1.0000   1.0000   1.0000   1.0000   0.0000   0.0000   0.0000   0.0000

          k = 0.1133 0.4272 0.0000 (  5284 PWs)   bands (ev):

   -17.9508 -12.3612  -8.9690  -5.7785   1.7018   6.0113   6.8481   7.0737

     occupation numbers 
     1.0000   1.0000   1.0000   1.0000   0.0000   0.0000   0.0000   0.0000

          k = 0.1133 0.4349 0.0000 (  5283 PWs)   bands (ev):

   -17.8406 -12.5230  -9.0092  -5.6626   1.5369   6.1634   6.8361   7.2262

     occupation numbers 
     1.0000   1.0000   1.0000   1.0000   0.0000   0.0000   0.0000   0.0000

          k = 0.1133 0.4426 0.0000 (  5279 PWs)   bands (ev):

   -17.7287 -12.6841  -9.0474  -5.5467   1.3741   6.3154   6.8269   7.3808

     occupation numbers 
     1.0000   1.0000   1.0000   1.0000   0.0000   0.0000   0.0000   0.0000

          k = 0.1133 0.4503 0.0000 (  5283 PWs)   bands (ev):

   -17.6153 -12.8442  -9.0835  -5.4309   1.2137   6.4639   6.8243   7.5373

     occupation numbers 
     1.0000   1.0000   1.0000   1.0000   0.0000   0.0000   0.0000   0.0000

          k = 0.1133 0.4580 0.0000 (  5293 PWs)   bands (ev):

   -17.5004 -13.0033  -9.1175  -5.3157   1.0561   6.5965   6.8407   7.6956

     occupation numbers 
     1.0000   1.0000   1.0000   1.0000   0.0000   0.0000   0.0000   0.0000

          k = 0.1133 0.4657 0.0000 (  5295 PWs)   bands (ev):

   -17.3841 -13.1613  -9.1494  -5.2014   0.9018   6.6797   6.9096   7.8555

     occupation numbers 
     1.0000   1.0000   1.0000   1.0000   0.0000   0.0000   0.0000   0.0000

          k = 0.1133 0.4734 0.0000 (  5299 PWs)   bands (ev):

   -17.2665 -13.3180  -9.1792  -5.0885   0.7513   6.7053   7.0393   8.0169

     occupation numbers 
     1.0000   1.0000   1.0000   1.0000   0.0000   0.0000   0.0000   0.0000

          k = 0.1133 0.4811 0.0000 (  5299 PWs)   bands (ev):

   -17.1477 -13.4733  -9.2069  -4.9774   0.6050   6.7078   7.1952   8.1795

     occupation numbers 
     1.0000   1.0000   1.0000   1.0000   0.0000   0.0000   0.0000   0.0000

          k = 0.1133 0.4888 0.0000 (  5301 PWs)   bands (ev):

   -17.0278 -13.6270  -9.2325  -4.8688   0.4638   6.7034   7.3612   8.3431

     occupation numbers 
     1.0000   1.0000   1.0000   1.0000   0.0000   0.0000   0.0000   0.0000

          k = 0.1133 0.4965 0.0000 (  5297 PWs)   bands (ev):

   -16.9070 -13.7789  -9.2560  -4.7633   0.3283   6.6968   7.5326   8.5072

     occupation numbers 
     1.0000   1.0000   1.0000   1.0000   0.0000   0.0000   0.0000   0.0000

          k = 0.1133 0.5042 0.0000 (  5293 PWs)   bands (ev):

   -16.7856 -13.9287  -9.2774  -4.6618   0.1994   6.6896   7.7077   8.6715

     occupation numbers 
     1.0000   1.0000   1.0000   1.0000   0.0000   0.0000   0.0000   0.0000

          k = 0.1133 0.5119 0.0000 (  5293 PWs)   bands (ev):

   -16.6639 -14.0761  -9.2967  -4.5653   0.0779   6.6825   7.8858   8.8353

     occupation numbers 
     1.0000   1.0000   1.0000   1.0000   0.0000   0.0000   0.0000   0.0000

          k = 0.1133 0.5196 0.0000 (  5297 PWs)   bands (ev):

   -16.5424 -14.2204  -9.3138  -4.4746  -0.0349   6.6758   8.0666   8.9978

     occupation numbers 
     1.0000   1.0000   1.0000   1.0000   0.0000   0.0000   0.0000   0.0000

          k = 0.1133 0.5273 0.0000 (  5296 PWs)   bands (ev):

   -16.4218 -14.3609  -9.3288  -4.3910  -0.1379   6.6697   8.2497   9.1579

     occupation numbers 
     1.0000   1.0000   1.0000   1.0000   0.0000   0.0000   0.0000   0.0000

          k = 0.1133 0.5350 0.0000 (  5298 PWs)   bands (ev):

   -16.3034 -14.4965  -9.3416  -4.3158  -0.2299   6.6644   8.4351   9.3138

     occupation numbers 
     1.0000   1.0000   1.0000   1.0000   0.0000   0.0000   0.0000   0.0000

          k = 0.1133 0.5427 0.0000 (  5296 PWs)   bands (ev):

   -16.1890 -14.6253  -9.3524  -4.2502  -0.3094   6.6598   8.6223   9.4632

     occupation numbers 
     1.0000   1.0000   1.0000   1.0000   0.0000   0.0000   0.0000   0.0000

          k = 0.1133 0.5504 0.0000 (  5298 PWs)   bands (ev):

   -16.0815 -14.7443  -9.3609  -4.1957  -0.3751   6.6562   8.8113   9.6021

     occupation numbers 
     1.0000   1.0000   1.0000   1.0000   0.0000   0.0000   0.0000   0.0000

          k = 0.1133 0.5581 0.0000 (  5300 PWs)   bands (ev):

   -15.9862 -14.8482  -9.3674  -4.1535  -0.4257   6.6534   9.0016   9.7241

     occupation numbers 
     1.0000   1.0000   1.0000   1.0000   0.0000   0.0000   0.0000   0.0000

          k = 0.1133 0.5658 0.0000 (  5304 PWs)   bands (ev):

   -15.9116 -14.9286  -9.3717  -4.1247  -0.4602   6.6515   9.1922   9.7893

     occupation numbers 
     1.0000   1.0000   1.0000   1.0000   0.0000   0.0000   0.0000   0.0000

          k = 0.1133 0.5735 0.0000 (  5298 PWs)   bands (ev):

   -15.8692 -14.9738  -9.3738  -4.1100  -0.4776   6.6506   9.3762   9.6034

     occupation numbers 
     1.0000   1.0000   1.0000   1.0000   0.0000   0.0000   0.0000   0.0000

          k = 0.1200 0.2078 0.0000 (  5264 PWs)   bands (ev):

   -20.2980  -8.4513  -8.0195  -7.0565   2.7565   3.8137   4.3040   6.1175

     occupation numbers 
     1.0000   1.0000   1.0000   1.0000   0.0000   0.0000   0.0000   0.0000

          k = 0.1200 0.2155 0.0000 (  5260 PWs)   bands (ev):

   -20.2415  -8.3842  -8.1415  -7.1504   2.8343   3.8917   4.3839   6.1585

     occupation numbers 
     1.0000   1.0000   1.0000   1.0000   0.0000   0.0000   0.0000   0.0000

          k = 0.1200 0.2232 0.0000 (  5260 PWs)   bands (ev):

   -20.1829  -8.3148  -8.2670  -7.2438   2.9148   3.9724   4.4666   6.0144

     occupation numbers 
     1.0000   1.0000   1.0000   1.0000   0.0000   0.0000   0.0000   0.0000

          k = 0.1200 0.2309 0.0000 (  5265 PWs)   bands (ev):

   -20.1224  -8.3957  -8.2431  -7.3362   2.9982   4.0558   4.5523   5.8700

     occupation numbers 
     1.0000   1.0000   1.0000   1.0000   0.0000   0.0000   0.0000   0.0000

          k = 0.1200 0.2386 0.0000 (  5271 PWs)   bands (ev):

   -20.0598  -8.5279  -8.1691  -7.4275   3.0844   4.1420   4.6409   5.7232

     occupation numbers 
     1.0000   1.0000   1.0000   1.0000   0.0000   0.0000   0.0000   0.0000

          k = 0.1200 0.2463 0.0000 (  5270 PWs)   bands (ev):

   -19.9952  -8.6632  -8.0929  -7.5173   3.1733   4.2307   4.7323   5.5740

     occupation numbers 
     1.0000   1.0000   1.0000   1.0000   0.0000   0.0000   0.0000   0.0000

          k = 0.1200 0.2540 0.0000 (  5272 PWs)   bands (ev):

   -19.9287  -8.8017  -8.0145  -7.6056   3.2651   4.3220   4.8267   5.4228

     occupation numbers 
     1.0000   1.0000   1.0000   1.0000   0.0000   0.0000   0.0000   0.0000

          k = 0.1200 0.2617 0.0000 (  5276 PWs)   bands (ev):

   -19.8602  -8.9431  -7.9339  -7.6921   3.3596   4.4154   4.9239   5.2699

     occupation numbers 
     1.0000   1.0000   1.0000   1.0000   0.0000   0.0000   0.0000   0.0000

          k = 0.1200 0.2694 0.0000 (  5278 PWs)   bands (ev):

   -19.7897  -9.0873  -7.8511  -7.7768   3.4570   4.5105   5.0240   5.1161

     occupation numbers 
     1.0000   1.0000   1.0000   1.0000   0.0000   0.0000   0.0000   0.0000

          k = 0.1200 0.2771 0.0000 (  5278 PWs)   bands (ev):

   -19.7172  -9.2341  -7.8596  -7.7662   3.5571   4.6044   4.9643   5.1271

     occupation numbers 
     1.0000   1.0000   1.0000   1.0000   0.0000   0.0000   0.0000   0.0000

          k = 0.1200 0.2848 0.0000 (  5284 PWs)   bands (ev):

   -19.6428  -9.3833  -7.9404  -7.6791   3.6600   4.6761   4.8357   5.2330

     occupation numbers 
     1.0000   1.0000   1.0000   1.0000   0.0000   0.0000   0.0000   0.0000

          k = 0.1200 0.2925 0.0000 (  5284 PWs)   bands (ev):

   -19.5664  -9.5347  -8.0192  -7.5899   3.7656   4.6037   4.8522   5.3417

     occupation numbers 
     1.0000   1.0000   1.0000   1.0000   0.0000   0.0000   0.0000   0.0000

          k = 0.1200 0.3002 0.0000 (  5282 PWs)   bands (ev):

   -19.4881  -9.6880  -8.0960  -7.4987   3.8740   4.4529   4.9482   5.4534

     occupation numbers 
     1.0000   1.0000   1.0000   1.0000   0.0000   0.0000   0.0000   0.0000

          k = 0.1200 0.3079 0.0000 (  5271 PWs)   bands (ev):

   -19.4078  -9.8432  -8.1707  -7.4055   3.9852   4.2922   5.0556   5.5679

     occupation numbers 
     1.0000   1.0000   1.0000   1.0000   0.0000   0.0000   0.0000   0.0000

          k = 0.1200 0.3156 0.0000 (  5267 PWs)   bands (ev):

   -19.3256  -9.9999  -8.2434  -7.3103   4.0991   4.1281   5.1677   5.6853

     occupation numbers 
     1.0000   1.0000   1.0000   1.0000   0.0000   0.0000   0.0000   0.0000

          k = 0.1200 0.3233 0.0000 (  5270 PWs)   bands (ev):

   -19.2415 -10.1581  -8.3140  -7.2132   3.9622   4.2158   5.2833   5.8056

     occupation numbers 
     1.0000   1.0000   1.0000   1.0000   0.0000   0.0000   0.0000   0.0000

          k = 0.1200 0.3310 0.0000 (  5270 PWs)   bands (ev):

   -19.1555 -10.3174  -8.3825  -7.1142   3.7949   4.3351   5.4019   5.9286

     occupation numbers 
     1.0000   1.0000   1.0000   1.0000   0.0000   0.0000   0.0000   0.0000

          k = 0.1200 0.3387 0.0000 (  5274 PWs)   bands (ev):

   -19.0675 -10.4778  -8.4490  -7.0134   3.6265   4.4573   5.5233   6.0545

     occupation numbers 
     1.0000   1.0000   1.0000   1.0000   0.0000   0.0000   0.0000   0.0000

          k = 0.1200 0.3464 0.0000 (  5278 PWs)   bands (ev):

   -18.9777 -10.6390  -8.5134  -6.9108   3.4574   4.5821   5.6475   6.1831

     occupation numbers 
     1.0000   1.0000   1.0000   1.0000   0.0000   0.0000   0.0000   0.0000

          k = 0.1200 0.3541 0.0000 (  5288 PWs)   bands (ev):

   -18.8861 -10.8009  -8.5758  -6.8065   3.2877   4.7096   5.7744   6.3145

     occupation numbers 
     1.0000   1.0000   1.0000   1.0000   0.0000   0.0000   0.0000   0.0000

          k = 0.1200 0.3618 0.0000 (  5282 PWs)   bands (ev):

   -18.7925 -10.9633  -8.6361  -6.7006   3.1176   4.8397   5.9039   6.4483

     occupation numbers 
     1.0000   1.0000   1.0000   1.0000   0.0000   0.0000   0.0000   0.0000

          k = 0.1200 0.3695 0.0000 (  5282 PWs)   bands (ev):

   -18.6972 -11.1261  -8.6943  -6.5931   2.9472   4.9726   6.0360   6.5844

     occupation numbers 
     1.0000   1.0000   1.0000   1.0000   0.0000   0.0000   0.0000   0.0000

          k = 0.1200 0.3772 0.0000 (  5280 PWs)   bands (ev):

   -18.6000 -11.2892  -8.7505  -6.4841   2.7768   5.1081   6.1706   6.7220

     occupation numbers 
     1.0000   1.0000   1.0000   1.0000   0.0000   0.0000   0.0000   0.0000

          k = 0.1200 0.3849 0.0000 (  5278 PWs)   bands (ev):

   -18.5010 -11.4524  -8.8046  -6.3738   2.6066   5.2461   6.3077   6.8580

     occupation numbers 
     1.0000   1.0000   1.0000   1.0000   0.0000   0.0000   0.0000   0.0000

          k = 0.1200 0.3926 0.0000 (  5282 PWs)   bands (ev):

   -18.4002 -11.6155  -8.8566  -6.2622   2.4367   5.3868   6.4473   6.9755

     occupation numbers 
     1.0000   1.0000   1.0000   1.0000   0.0000   0.0000   0.0000   0.0000

          k = 0.1200 0.4003 0.0000 (  5280 PWs)   bands (ev):

   -18.2976 -11.7786  -8.9065  -6.1495   2.2674   5.5300   6.5892   7.0176

     occupation numbers 
     1.0000   1.0000   1.0000   1.0000   0.0000   0.0000   0.0000   0.0000

          k = 0.1200 0.4080 0.0000 (  5280 PWs)   bands (ev):

   -18.1933 -11.9414  -8.9544  -6.0357   2.0989   5.6756   6.7335   7.0141

     occupation numbers 
     1.0000   1.0000   1.0000   1.0000   0.0000   0.0000   0.0000   0.0000

          k = 0.1200 0.4157 0.0000 (  5282 PWs)   bands (ev):

   -18.0873 -12.1038  -9.0002  -5.9212   1.9313   5.8236   6.8800   7.0024

     occupation numbers 
     1.0000   1.0000   1.0000   1.0000   0.0000   0.0000   0.0000   0.0000

          k = 0.1200 0.4234 0.0000 (  5280 PWs)   bands (ev):

   -17.9796 -12.2658  -9.0439  -5.8059   1.7651   5.9738   6.9892   7.0288

     occupation numbers 
     1.0000   1.0000   1.0000   1.0000   0.0000   0.0000   0.0000   0.0000

          k = 0.1200 0.4311 0.0000 (  5284 PWs)   bands (ev):

   -17.8702 -12.4272  -9.0856  -5.6902   1.6003   6.1259   6.9762   7.1796

     occupation numbers 
     1.0000   1.0000   1.0000   1.0000   0.0000   0.0000   0.0000   0.0000

          k = 0.1200 0.4388 0.0000 (  5283 PWs)   bands (ev):

   -17.7593 -12.5879  -9.1251  -5.5743   1.4375   6.2794   6.9644   7.3325

     occupation numbers 
     1.0000   1.0000   1.0000   1.0000   0.0000   0.0000   0.0000   0.0000

          k = 0.1200 0.4465 0.0000 (  5285 PWs)   bands (ev):

   -17.6467 -12.7478  -9.1625  -5.4584   1.2768   6.4331   6.9552   7.4872

     occupation numbers 
     1.0000   1.0000   1.0000   1.0000   0.0000   0.0000   0.0000   0.0000

          k = 0.1200 0.4542 0.0000 (  5293 PWs)   bands (ev):

   -17.5327 -12.9069  -9.1978  -5.3428   1.1186   6.5837   6.9520   7.6437

     occupation numbers 
     1.0000   1.0000   1.0000   1.0000   0.0000   0.0000   0.0000   0.0000

          k = 0.1200 0.4619 0.0000 (  5297 PWs)   bands (ev):

   -17.4172 -13.0648  -9.2311  -5.2280   0.9634   6.7200   6.9663   7.8018

     occupation numbers 
     1.0000   1.0000   1.0000   1.0000   0.0000   0.0000   0.0000   0.0000

          k = 0.1200 0.4696 0.0000 (  5299 PWs)   bands (ev):

   -17.3003 -13.2217  -9.2621  -5.1142   0.8117   6.8085   7.0314   7.9613

     occupation numbers 
     1.0000   1.0000   1.0000   1.0000   0.0000   0.0000   0.0000   0.0000

          k = 0.1200 0.4773 0.0000 (  5293 PWs)   bands (ev):

   -17.1822 -13.3772  -9.2911  -5.0020   0.6638   6.8366   7.1600   8.1219

     occupation numbers 
     1.0000   1.0000   1.0000   1.0000   0.0000   0.0000   0.0000   0.0000

          k = 0.1200 0.4850 0.0000 (  5293 PWs)   bands (ev):

   -17.0629 -13.5312  -9.3180  -4.8919   0.5206   6.8399   7.3166   8.2834

     occupation numbers 
     1.0000   1.0000   1.0000   1.0000   0.0000   0.0000   0.0000   0.0000

          k = 0.1200 0.4927 0.0000 (  5297 PWs)   bands (ev):

   -16.9427 -13.6836  -9.3427  -4.7846   0.3826   6.8360   7.4836   8.4454

     occupation numbers 
     1.0000   1.0000   1.0000   1.0000   0.0000   0.0000   0.0000   0.0000

          k = 0.1200 0.5004 0.0000 (  5297 PWs)   bands (ev):

   -16.8217 -13.8341  -9.3653  -4.6809   0.2507   6.8299   7.6559   8.6074

     occupation numbers 
     1.0000   1.0000   1.0000   1.0000   0.0000   0.0000   0.0000   0.0000

          k = 0.1200 0.5081 0.0000 (  5289 PWs)   bands (ev):

   -16.7002 -13.9823  -9.3857  -4.5815   0.1257   6.8231   7.8320   8.7689

     occupation numbers 
     1.0000   1.0000   1.0000   1.0000   0.0000   0.0000   0.0000   0.0000

          k = 0.1200 0.5158 0.0000 (  5291 PWs)   bands (ev):

   -16.5787 -14.1278  -9.4040  -4.4875   0.0087   6.8164   8.0110   8.9289

     occupation numbers 
     1.0000   1.0000   1.0000   1.0000   0.0000   0.0000   0.0000   0.0000

          k = 0.1200 0.5235 0.0000 (  5295 PWs)   bands (ev):

   -16.4577 -14.2700  -9.4202  -4.4000  -0.0993   6.8101   8.1926   9.0865

     occupation numbers 
     1.0000   1.0000   1.0000   1.0000   0.0000   0.0000   0.0000   0.0000

          k = 0.1200 0.5312 0.0000 (  5292 PWs)   bands (ev):

   -16.3382 -14.4079  -9.4342  -4.3201  -0.1968   6.8045   8.3764   9.2400

     occupation numbers 
     1.0000   1.0000   1.0000   1.0000   0.0000   0.0000   0.0000   0.0000

          k = 0.1200 0.5389 0.0000 (  5294 PWs)   bands (ev):

   -16.2217 -14.5400  -9.4460  -4.2493  -0.2827   6.7996   8.5623   9.3873

     occupation numbers 
     1.0000   1.0000   1.0000   1.0000   0.0000   0.0000   0.0000   0.0000

          k = 0.1200 0.5466 0.0000 (  5292 PWs)   bands (ev):

   -16.1105 -14.6641  -9.4557  -4.1888  -0.3555   6.7955   8.7500   9.5250

     occupation numbers 
     1.0000   1.0000   1.0000   1.0000   0.0000   0.0000   0.0000   0.0000

          k = 0.1200 0.5543 0.0000 (  5296 PWs)   bands (ev):

   -16.0085 -14.7760  -9.4633  -4.1401  -0.4139   6.7923   8.9392   9.6481

     occupation numbers 
     1.0000   1.0000   1.0000   1.0000   0.0000   0.0000   0.0000   0.0000

          k = 0.1200 0.5620 0.0000 (  5302 PWs)   bands (ev):

   -15.9224 -14.8692  -9.4687  -4.1042  -0.4566   6.7900   9.1293   9.7489

     occupation numbers 
     1.0000   1.0000   1.0000   1.0000   0.0000   0.0000   0.0000   0.0000

          k = 0.1200 0.5697 0.0000 (  5300 PWs)   bands (ev):

   -15.8625 -14.9334  -9.4719  -4.0823  -0.4826   6.7886   9.3179   9.7250

     occupation numbers 
     1.0000   1.0000   1.0000   1.0000   0.0000   0.0000   0.0000   0.0000

          k = 0.1200 0.5774 0.0000 (  5300 PWs)   bands (ev):

   -15.8406 -14.9567  -9.4730  -4.0749  -0.4914   6.7881   9.4615   9.5802

     occupation numbers 
     1.0000   1.0000   1.0000   1.0000   0.0000   0.0000   0.0000   0.0000

          k = 0.1267 0.2194 0.0000 (  5260 PWs)   bands (ev):

   -20.1839  -8.3160  -8.2607  -7.2471   2.9134   3.9710   4.4652   6.0178

     occupation numbers 
     1.0000   1.0000   1.0000   1.0000   0.0000   0.0000   0.0000   0.0000

          k = 0.1267 0.2271 0.0000 (  5262 PWs)   bands (ev):

   -20.1244  -8.3833  -8.2455  -7.3431   2.9954   4.0531   4.5494   5.8765

     occupation numbers 
     1.0000   1.0000   1.0000   1.0000   0.0000   0.0000   0.0000   0.0000

          k = 0.1267 0.2348 0.0000 (  5267 PWs)   bands (ev):

   -20.0629  -8.5091  -8.1727  -7.4382   3.0802   4.1379   4.6365   5.7325

     occupation numbers 
     1.0000   1.0000   1.0000   1.0000   0.0000   0.0000   0.0000   0.0000

          k = 0.1267 0.2425 0.0000 (  5269 PWs)   bands (ev):

   -19.9993  -8.6382  -8.0977  -7.5321   3.1677   4.2254   4.7265   5.5861

     occupation numbers 
     1.0000   1.0000   1.0000   1.0000   0.0000   0.0000   0.0000   0.0000

          k = 0.1267 0.2502 0.0000 (  5272 PWs)   bands (ev):

   -19.9338  -8.7705  -8.0205  -7.6244   3.2581   4.3155   4.8194   5.4375

     occupation numbers 
     1.0000   1.0000   1.0000   1.0000   0.0000   0.0000   0.0000   0.0000

          k = 0.1267 0.2579 0.0000 (  5274 PWs)   bands (ev):

   -19.8663  -8.9061  -7.9410  -7.7150   3.3512   4.4080   4.9152   5.2870

     occupation numbers 
     1.0000   1.0000   1.0000   1.0000   0.0000   0.0000   0.0000   0.0000

          k = 0.1267 0.2656 0.0000 (  5278 PWs)   bands (ev):

   -19.7968  -9.0447  -7.8594  -7.8037   3.4472   4.5025   5.0139   5.1352

     occupation numbers 
     1.0000   1.0000   1.0000   1.0000   0.0000   0.0000   0.0000   0.0000

          k = 0.1267 0.2733 0.0000 (  5276 PWs)   bands (ev):

   -19.7254  -9.1862  -7.8904  -7.7756   3.5459   4.5976   4.9835   5.1155

     occupation numbers 
     1.0000   1.0000   1.0000   1.0000   0.0000   0.0000   0.0000   0.0000

          k = 0.1267 0.2810 0.0000 (  5284 PWs)   bands (ev):

   -19.6520  -9.3304  -7.9750  -7.6897   3.6474   4.6819   4.8435   5.2200

     occupation numbers 
     1.0000   1.0000   1.0000   1.0000   0.0000   0.0000   0.0000   0.0000

          k = 0.1267 0.2887 0.0000 (  5288 PWs)   bands (ev):

   -19.5766  -9.4771  -8.0574  -7.6016   3.7517   4.6369   4.8338   5.3274

     occupation numbers 
     1.0000   1.0000   1.0000   1.0000   0.0000   0.0000   0.0000   0.0000

          k = 0.1267 0.2964 0.0000 (  5286 PWs)   bands (ev):

   -19.4993  -9.6262  -8.1375  -7.5115   3.8587   4.4884   4.9288   5.4376

     occupation numbers 
     1.0000   1.0000   1.0000   1.0000   0.0000   0.0000   0.0000   0.0000

          k = 0.1267 0.3041 0.0000 (  5279 PWs)   bands (ev):

   -19.4200  -9.7774  -8.2155  -7.4194   3.9685   4.3295   5.0354   5.5507

     occupation numbers 
     1.0000   1.0000   1.0000   1.0000   0.0000   0.0000   0.0000   0.0000

          k = 0.1267 0.3118 0.0000 (  5274 PWs)   bands (ev):

   -19.3388  -9.9305  -8.2912  -7.3252   4.0810   4.1675   5.1464   5.6667

     occupation numbers 
     1.0000   1.0000   1.0000   1.0000   0.0000   0.0000   0.0000   0.0000

          k = 0.1267 0.3195 0.0000 (  5270 PWs)   bands (ev):

   -19.2557 -10.0853  -8.3646  -7.2292   4.0036   4.1963   5.2607   5.7855

     occupation numbers 
     1.0000   1.0000   1.0000   1.0000   0.0000   0.0000   0.0000   0.0000

          k = 0.1267 0.3272 0.0000 (  5278 PWs)   bands (ev):

   -19.1707 -10.2416  -8.4359  -7.1312   3.8384   4.3143   5.3780   5.9072

     occupation numbers 
     1.0000   1.0000   1.0000   1.0000   0.0000   0.0000   0.0000   0.0000

          k = 0.1267 0.3349 0.0000 (  5276 PWs)   bands (ev):

   -19.0838 -10.3992  -8.5049  -7.0313   3.6721   4.4351   5.4981   6.0318

     occupation numbers 
     1.0000   1.0000   1.0000   1.0000   0.0000   0.0000   0.0000   0.0000

          k = 0.1267 0.3426 0.0000 (  5276 PWs)   bands (ev):

   -18.9949 -10.5579  -8.5717  -6.9297   3.5050   4.5585   5.6208   6.1591

     occupation numbers 
     1.0000   1.0000   1.0000   1.0000   0.0000   0.0000   0.0000   0.0000

          k = 0.1267 0.3503 0.0000 (  5284 PWs)   bands (ev):

   -18.9043 -10.7175  -8.6364  -6.8263   3.3372   4.6847   5.7463   6.2892

     occupation numbers 
     1.0000   1.0000   1.0000   1.0000   0.0000   0.0000   0.0000   0.0000

          k = 0.1267 0.3580 0.0000 (  5288 PWs)   bands (ev):

   -18.8117 -10.8779  -8.6988  -6.7212   3.1688   4.8135   5.8743   6.4220

     occupation numbers 
     1.0000   1.0000   1.0000   1.0000   0.0000   0.0000   0.0000   0.0000

          k = 0.1267 0.3657 0.0000 (  5288 PWs)   bands (ev):

   -18.7173 -11.0389  -8.7591  -6.6146   3.0002   4.9450   6.0049   6.5574

     occupation numbers 
     1.0000   1.0000   1.0000   1.0000   0.0000   0.0000   0.0000   0.0000

          k = 0.1267 0.3734 0.0000 (  5286 PWs)   bands (ev):

   -18.6211 -11.2004  -8.8172  -6.5064   2.8313   5.0792   6.1380   6.6951

     occupation numbers 
     1.0000   1.0000   1.0000   1.0000   0.0000   0.0000   0.0000   0.0000

          k = 0.1267 0.3811 0.0000 (  5278 PWs)   bands (ev):

   -18.5231 -11.3621  -8.8732  -6.3968   2.6625   5.2160   6.2735   6.8344

     occupation numbers 
     1.0000   1.0000   1.0000   1.0000   0.0000   0.0000   0.0000   0.0000

          k = 0.1267 0.3887 0.0000 (  5278 PWs)   bands (ev):

   -18.4232 -11.5240  -8.9270  -6.2859   2.4939   5.3554   6.4115   6.9728

     occupation numbers 
     1.0000   1.0000   1.0000   1.0000   0.0000   0.0000   0.0000   0.0000

          k = 0.1267 0.3964 0.0000 (  5282 PWs)   bands (ev):

   -18.3216 -11.6860  -8.9787  -6.1738   2.3257   5.4974   6.5519   7.0964

     occupation numbers 
     1.0000   1.0000   1.0000   1.0000   0.0000   0.0000   0.0000   0.0000

          k = 0.1267 0.4041 0.0000 (  5280 PWs)   bands (ev):

   -18.2183 -11.8478  -9.0282  -6.0606   2.1581   5.6419   6.6946   7.1479

     occupation numbers 
     1.0000   1.0000   1.0000   1.0000   0.0000   0.0000   0.0000   0.0000

          k = 0.1267 0.4118 0.0000 (  5284 PWs)   bands (ev):

   -18.1132 -12.0094  -9.0756  -5.9465   1.9914   5.7888   6.8395   7.1463

     occupation numbers 
     1.0000   1.0000   1.0000   1.0000   0.0000   0.0000   0.0000   0.0000

          k = 0.1267 0.4195 0.0000 (  5282 PWs)   bands (ev):

   -18.0064 -12.1707  -9.1209  -5.8316   1.8257   5.9381   6.9866   7.1354

     occupation numbers 
     1.0000   1.0000   1.0000   1.0000   0.0000   0.0000   0.0000   0.0000

          k = 0.1267 0.4272 0.0000 (  5280 PWs)   bands (ev):

   -17.8979 -12.3315  -9.1640  -5.7161   1.6614   6.0896   7.1226   7.1357

     occupation numbers 
     1.0000   1.0000   1.0000   1.0000   0.0000   0.0000   0.0000   0.0000

          k = 0.1267 0.4349 0.0000 (  5285 PWs)   bands (ev):

   -17.7879 -12.4917  -9.2050  -5.6003   1.4987   6.2431   7.1098   7.2868

     occupation numbers 
     1.0000   1.0000   1.0000   1.0000   0.0000   0.0000   0.0000   0.0000

          k = 0.1267 0.4426 0.0000 (  5289 PWs)   bands (ev):

   -17.6762 -12.6513  -9.2439  -5.4843   1.3379   6.3980   7.0982   7.4398

     occupation numbers 
     1.0000   1.0000   1.0000   1.0000   0.0000   0.0000   0.0000   0.0000

          k = 0.1267 0.4503 0.0000 (  5293 PWs)   bands (ev):

   -17.5630 -12.8101  -9.2806  -5.3685   1.1794   6.5534   7.0889   7.5945

     occupation numbers 
     1.0000   1.0000   1.0000   1.0000   0.0000   0.0000   0.0000   0.0000

          k = 0.1267 0.4580 0.0000 (  5297 PWs)   bands (ev):

   -17.4483 -12.9679  -9.3151  -5.2532   1.0236   6.7062   7.0851   7.7507

     occupation numbers 
     1.0000   1.0000   1.0000   1.0000   0.0000   0.0000   0.0000   0.0000

          k = 0.1267 0.4657 0.0000 (  5295 PWs)   bands (ev):

   -17.3323 -13.1247  -9.3476  -5.1387   0.8709   6.8464   7.0970   7.9082

     occupation numbers 
     1.0000   1.0000   1.0000   1.0000   0.0000   0.0000   0.0000   0.0000

          k = 0.1267 0.4734 0.0000 (  5295 PWs)   bands (ev):

   -17.2149 -13.2803  -9.3778  -5.0256   0.7218   6.9415   7.1570   8.0668

     occupation numbers 
     1.0000   1.0000   1.0000   1.0000   0.0000   0.0000   0.0000   0.0000

          k = 0.1267 0.4811 0.0000 (  5297 PWs)   bands (ev):

   -17.0963 -13.4346  -9.4060  -4.9143   0.5768   6.9731   7.2836   8.2262

     occupation numbers 
     1.0000   1.0000   1.0000   1.0000   0.0000   0.0000   0.0000   0.0000

          k = 0.1267 0.4888 0.0000 (  5301 PWs)   bands (ev):

   -16.9766 -13.5873  -9.4319  -4.8053   0.4367   6.9775   7.4406   8.3860

     occupation numbers 
     1.0000   1.0000   1.0000   1.0000   0.0000   0.0000   0.0000   0.0000

          k = 0.1267 0.4965 0.0000 (  5301 PWs)   bands (ev):

   -16.8561 -13.7383  -9.4558  -4.6995   0.3021   6.9741   7.6084   8.5457

     occupation numbers 
     1.0000   1.0000   1.0000   1.0000   0.0000   0.0000   0.0000   0.0000

          k = 0.1267 0.5042 0.0000 (  5293 PWs)   bands (ev):

   -16.7350 -13.8872  -9.4774  -4.5976   0.1739   6.9684   7.7816   8.7047

     occupation numbers 
     1.0000   1.0000   1.0000   1.0000   0.0000   0.0000   0.0000   0.0000

          k = 0.1267 0.5119 0.0000 (  5285 PWs)   bands (ev):

   -16.6136 -14.0337  -9.4969  -4.5006   0.0530   6.9621   7.9586   8.8621

     occupation numbers 
     1.0000   1.0000   1.0000   1.0000   0.0000   0.0000   0.0000   0.0000

          k = 0.1267 0.5196 0.0000 (  5285 PWs)   bands (ev):

   -16.4924 -14.1772  -9.5143  -4.4094  -0.0594   6.9558   8.1384   9.0170

     occupation numbers 
     1.0000   1.0000   1.0000   1.0000   0.0000   0.0000   0.0000   0.0000

          k = 0.1267 0.5273 0.0000 (  5285 PWs)   bands (ev):

   -16.3722 -14.3170  -9.5295  -4.3252  -0.1622   6.9500   8.3206   9.1678

     occupation numbers 
     1.0000   1.0000   1.0000   1.0000   0.0000   0.0000   0.0000   0.0000

          k = 0.1267 0.5350 0.0000 (  5289 PWs)   bands (ev):

   -16.2542 -14.4519  -9.5425  -4.2494  -0.2540   6.9448   8.5051   9.3126

     occupation numbers 
     1.0000   1.0000   1.0000   1.0000   0.0000   0.0000   0.0000   0.0000

          k = 0.1267 0.5427 0.0000 (  5290 PWs)   bands (ev):

   -16.1401 -14.5801  -9.5533  -4.1833  -0.3335   6.9404   8.6915   9.4484

     occupation numbers 
     1.0000   1.0000   1.0000   1.0000   0.0000   0.0000   0.0000   0.0000

          k = 0.1267 0.5504 0.0000 (  5290 PWs)   bands (ev):

   -16.0331 -14.6984  -9.5620  -4.1282  -0.3993   6.9367   8.8795   9.5712

     occupation numbers 
     1.0000   1.0000   1.0000   1.0000   0.0000   0.0000   0.0000   0.0000

          k = 0.1267 0.5581 0.0000 (  5292 PWs)   bands (ev):

   -15.9382 -14.8017  -9.5685  -4.0856  -0.4500   6.9340   9.0686   9.6750

     occupation numbers 
     1.0000   1.0000   1.0000   1.0000   0.0000   0.0000   0.0000   0.0000

          k = 0.1267 0.5658 0.0000 (  5294 PWs)   bands (ev):

   -15.8639 -14.8816  -9.5729  -4.0564  -0.4846   6.9321   9.2578   9.7521

     occupation numbers 
     1.0000   1.0000   1.0000   1.0000   0.0000   0.0000   0.0000   0.0000

          k = 0.1267 0.5735 0.0000 (  5296 PWs)   bands (ev):

   -15.8218 -14.9266  -9.5750  -4.0416  -0.5021   6.9312   9.4394   9.6683

     occupation numbers 
     1.0000   1.0000   1.0000   1.0000   0.0000   0.0000   0.0000   0.0000

          k = 0.1333 0.2309 0.0000 (  5260 PWs)   bands (ev):

   -20.0639  -8.5027  -8.1739  -7.4419   3.0788   4.1366   4.6351   5.7356

     occupation numbers 
     1.0000   1.0000   1.0000   1.0000   0.0000   0.0000   0.0000   0.0000

          k = 0.1333 0.2386 0.0000 (  5271 PWs)   bands (ev):

   -20.0014  -8.6253  -8.1001  -7.5398   3.1649   4.2227   4.7237   5.5922

     occupation numbers 
     1.0000   1.0000   1.0000   1.0000   0.0000   0.0000   0.0000   0.0000

          k = 0.1333 0.2463 0.0000 (  5275 PWs)   bands (ev):

   -19.9369  -8.7512  -8.0241  -7.6364   3.2539   4.3116   4.8151   5.4464

     occupation numbers 
     1.0000   1.0000   1.0000   1.0000   0.0000   0.0000   0.0000   0.0000

          k = 0.1333 0.2540 0.0000 (  5280 PWs)   bands (ev):

   -19.8704  -8.8804  -7.9458  -7.7314   3.3456   4.4030   4.9095   5.2986

     occupation numbers 
     1.0000   1.0000   1.0000   1.0000   0.0000   0.0000   0.0000   0.0000

          k = 0.1333 0.2617 0.0000 (  5280 PWs)   bands (ev):

   -19.8020  -9.0127  -7.8653  -7.8245   3.4402   4.4967   5.0067   5.1490

     occupation numbers 
     1.0000   1.0000   1.0000   1.0000   0.0000   0.0000   0.0000   0.0000

          k = 0.1333 0.2694 0.0000 (  5284 PWs)   bands (ev):

   -19.7315  -9.1482  -7.9156  -7.7827   3.5375   4.5920   4.9985   5.1069

     occupation numbers 
     1.0000   1.0000   1.0000   1.0000   0.0000   0.0000   0.0000   0.0000

          k = 0.1333 0.2771 0.0000 (  5282 PWs)   bands (ev):

   -19.6591  -9.2867  -8.0045  -7.6979   3.6376   4.6834   4.8529   5.2099

     occupation numbers 
     1.0000   1.0000   1.0000   1.0000   0.0000   0.0000   0.0000   0.0000

          k = 0.1333 0.2848 0.0000 (  5291 PWs)   bands (ev):

   -19.5848  -9.4280  -8.0910  -7.6110   3.7405   4.6656   4.8172   5.3159

     occupation numbers 
     1.0000   1.0000   1.0000   1.0000   0.0000   0.0000   0.0000   0.0000

          k = 0.1333 0.2925 0.0000 (  5287 PWs)   bands (ev):

   -19.5084  -9.5720  -8.1752  -7.5220   3.8461   4.5185   4.9121   5.4247

     occupation numbers 
     1.0000   1.0000   1.0000   1.0000   0.0000   0.0000   0.0000   0.0000

          k = 0.1333 0.3002 0.0000 (  5285 PWs)   bands (ev):

   -19.4302  -9.7185  -8.2569  -7.4309   3.9546   4.3613   5.0180   5.5364

     occupation numbers 
     1.0000   1.0000   1.0000   1.0000   0.0000   0.0000   0.0000   0.0000

          k = 0.1333 0.3079 0.0000 (  5279 PWs)   bands (ev):

   -19.3500  -9.8673  -8.3362  -7.3379   4.0657   4.2015   5.1280   5.6509

     occupation numbers 
     1.0000   1.0000   1.0000   1.0000   0.0000   0.0000   0.0000   0.0000

          k = 0.1333 0.3156 0.0000 (  5272 PWs)   bands (ev):

   -19.2679 -10.0181  -8.4131  -7.2428   4.0399   4.1796   5.2411   5.7684

     occupation numbers 
     1.0000   1.0000   1.0000   1.0000   0.0000   0.0000   0.0000   0.0000

          k = 0.1333 0.3233 0.0000 (  5274 PWs)   bands (ev):

   -19.1839 -10.1707  -8.4875  -7.1459   3.8769   4.2963   5.3571   5.8887

     occupation numbers 
     1.0000   1.0000   1.0000   1.0000   0.0000   0.0000   0.0000   0.0000

          k = 0.1333 0.3310 0.0000 (  5278 PWs)   bands (ev):

   -19.0980 -10.3250  -8.5595  -7.0470   3.7128   4.4156   5.4757   6.0118

     occupation numbers 
     1.0000   1.0000   1.0000   1.0000   0.0000   0.0000   0.0000   0.0000

          k = 0.1333 0.3387 0.0000 (  5280 PWs)   bands (ev):

   -19.0101 -10.4807  -8.6292  -6.9464   3.5478   4.5377   5.5971   6.1378

     occupation numbers 
     1.0000   1.0000   1.0000   1.0000   0.0000   0.0000   0.0000   0.0000

          k = 0.1333 0.3464 0.0000 (  5286 PWs)   bands (ev):

   -18.9204 -10.6376  -8.6965  -6.8439   3.3821   4.6625   5.7210   6.2666

     occupation numbers 
     1.0000   1.0000   1.0000   1.0000   0.0000   0.0000   0.0000   0.0000

          k = 0.1333 0.3541 0.0000 (  5282 PWs)   bands (ev):

   -18.8289 -10.7955  -8.7614  -6.7398   3.2157   4.7900   5.8476   6.3982

     occupation numbers 
     1.0000   1.0000   1.0000   1.0000   0.0000   0.0000   0.0000   0.0000

          k = 0.1333 0.3618 0.0000 (  5286 PWs)   bands (ev):

   -18.7355 -10.9543  -8.8241  -6.6340   3.0489   4.9202   5.9767   6.5325

     occupation numbers 
     1.0000   1.0000   1.0000   1.0000   0.0000   0.0000   0.0000   0.0000

          k = 0.1333 0.3695 0.0000 (  5288 PWs)   bands (ev):

   -18.6402 -11.1138  -8.8844  -6.5267   2.8818   5.0531   6.1082   6.6694

     occupation numbers 
     1.0000   1.0000   1.0000   1.0000   0.0000   0.0000   0.0000   0.0000

          k = 0.1333 0.3772 0.0000 (  5284 PWs)   bands (ev):

   -18.5432 -11.2738  -8.9425  -6.4178   2.7146   5.1885   6.2423   6.8086

     occupation numbers 
     1.0000   1.0000   1.0000   1.0000   0.0000   0.0000   0.0000   0.0000

          k = 0.1333 0.3849 0.0000 (  5286 PWs)   bands (ev):

   -18.4443 -11.4341  -8.9983  -6.3077   2.5475   5.3267   6.3787   6.9496

     occupation numbers 
     1.0000   1.0000   1.0000   1.0000   0.0000   0.0000   0.0000   0.0000

          k = 0.1333 0.3926 0.0000 (  5286 PWs)   bands (ev):

   -18.3436 -11.5946  -9.0519  -6.1962   2.3806   5.4674   6.5174   7.0903

     occupation numbers 
     1.0000   1.0000   1.0000   1.0000   0.0000   0.0000   0.0000   0.0000

          k = 0.1333 0.4003 0.0000 (  5282 PWs)   bands (ev):

   -18.2412 -11.7552  -9.1033  -6.0836   2.2141   5.6106   6.6585   7.2197

     occupation numbers 
     1.0000   1.0000   1.0000   1.0000   0.0000   0.0000   0.0000   0.0000

          k = 0.1333 0.4080 0.0000 (  5282 PWs)   bands (ev):

   -18.1371 -11.9158  -9.1524  -5.9699   2.0484   5.7564   6.8018   7.2824

     occupation numbers 
     1.0000   1.0000   1.0000   1.0000   0.0000   0.0000   0.0000   0.0000

          k = 0.1333 0.4157 0.0000 (  5278 PWs)   bands (ev):

   -18.0312 -12.0761  -9.1994  -5.8554   1.8835   5.9047   6.9472   7.2836

     occupation numbers 
     1.0000   1.0000   1.0000   1.0000   0.0000   0.0000   0.0000   0.0000

          k = 0.1333 0.4234 0.0000 (  5290 PWs)   bands (ev):

   -17.9237 -12.2362  -9.2441  -5.7403   1.7198   6.0553   7.0946   7.2734

     occupation numbers 
     1.0000   1.0000   1.0000   1.0000   0.0000   0.0000   0.0000   0.0000

          k = 0.1333 0.4311 0.0000 (  5286 PWs)   bands (ev):

   -17.8145 -12.3958  -9.2867  -5.6246   1.5575   6.2081   7.2440   7.2610

     occupation numbers 
     1.0000   1.0000   1.0000   1.0000   0.0000   0.0000   0.0000   0.0000

          k = 0.1333 0.4388 0.0000 (  5283 PWs)   bands (ev):

   -17.7038 -12.5548  -9.3271  -5.5086   1.3969   6.3629   7.2486   7.3951

     occupation numbers 
     1.0000   1.0000   1.0000   1.0000   0.0000   0.0000   0.0000   0.0000

          k = 0.1333 0.4465 0.0000 (  5289 PWs)   bands (ev):

   -17.5914 -12.7132  -9.3653  -5.3927   1.2383   6.5193   7.2371   7.5480

     occupation numbers 
     1.0000   1.0000   1.0000   1.0000   0.0000   0.0000   0.0000   0.0000

          k = 0.1333 0.4542 0.0000 (  5301 PWs)   bands (ev):

   -17.4776 -12.8707  -9.4013  -5.2771   1.0821   6.6762   7.2278   7.7023

     occupation numbers 
     1.0000   1.0000   1.0000   1.0000   0.0000   0.0000   0.0000   0.0000

          k = 0.1333 0.4619 0.0000 (  5299 PWs)   bands (ev):

   -17.3623 -13.0274  -9.4351  -5.1621   0.9287   6.8312   7.2234   7.8578

     occupation numbers 
     1.0000   1.0000   1.0000   1.0000   0.0000   0.0000   0.0000   0.0000

          k = 0.1333 0.4696 0.0000 (  5297 PWs)   bands (ev):

   -17.2457 -13.1829  -9.4667  -5.0481   0.7785   6.9754   7.2328   8.0144

     occupation numbers 
     1.0000   1.0000   1.0000   1.0000   0.0000   0.0000   0.0000   0.0000

          k = 0.1333 0.4773 0.0000 (  5299 PWs)   bands (ev):

   -17.1278 -13.3373  -9.4962  -4.9357   0.6322   7.0780   7.2867   8.1716

     occupation numbers 
     1.0000   1.0000   1.0000   1.0000   0.0000   0.0000   0.0000   0.0000

          k = 0.1333 0.4850 0.0000 (  5301 PWs)   bands (ev):

   -17.0088 -13.4902  -9.5235  -4.8253   0.4902   7.1143   7.4101   8.3291

     occupation numbers 
     1.0000   1.0000   1.0000   1.0000   0.0000   0.0000   0.0000   0.0000

          k = 0.1333 0.4927 0.0000 (  5305 PWs)   bands (ev):

   -16.8888 -13.6415  -9.5486  -4.7177   0.3533   7.1200   7.5671   8.4863

     occupation numbers 
     1.0000   1.0000   1.0000   1.0000   0.0000   0.0000   0.0000   0.0000

          k = 0.1333 0.5004 0.0000 (  5293 PWs)   bands (ev):

   -16.7681 -13.7910  -9.5715  -4.6135   0.2222   7.1173   7.7356   8.6428

     occupation numbers 
     1.0000   1.0000   1.0000   1.0000   0.0000   0.0000   0.0000   0.0000

          k = 0.1333 0.5081 0.0000 (  5285 PWs)   bands (ev):

   -16.6470 -13.9383  -9.5923  -4.5137   0.0979   7.1120   7.9097   8.7975

     occupation numbers 
     1.0000   1.0000   1.0000   1.0000   0.0000   0.0000   0.0000   0.0000

          k = 0.1333 0.5158 0.0000 (  5287 PWs)   bands (ev):

   -16.5258 -14.0829  -9.6108  -4.4191  -0.0186   7.1061   8.0874   8.9495

     occupation numbers 
     1.0000   1.0000   1.0000   1.0000   0.0000   0.0000   0.0000   0.0000

          k = 0.1333 0.5235 0.0000 (  5279 PWs)   bands (ev):

   -16.4052 -14.2243  -9.6272  -4.3309  -0.1262   7.1003   8.2679   9.0975

     occupation numbers 
     1.0000   1.0000   1.0000   1.0000   0.0000   0.0000   0.0000   0.0000

          k = 0.1333 0.5312 0.0000 (  5281 PWs)   bands (ev):

   -16.2861 -14.3614  -9.6414  -4.2505  -0.2236   7.0949   8.4508   9.2394

     occupation numbers 
     1.0000   1.0000   1.0000   1.0000   0.0000   0.0000   0.0000   0.0000

          k = 0.1333 0.5389 0.0000 (  5283 PWs)   bands (ev):

   -16.1700 -14.4929  -9.6535  -4.1790  -0.3094   7.0902   8.6357   9.3728

     occupation numbers 
     1.0000   1.0000   1.0000   1.0000   0.0000   0.0000   0.0000   0.0000

          k = 0.1333 0.5466 0.0000 (  5283 PWs)   bands (ev):

   -16.0591 -14.6162  -9.6633  -4.1179  -0.3823   7.0862   8.8224   9.4942

     occupation numbers 
     1.0000   1.0000   1.0000   1.0000   0.0000   0.0000   0.0000   0.0000

          k = 0.1333 0.5543 0.0000 (  5286 PWs)   bands (ev):

   -15.9576 -14.7276  -9.6709  -4.0686  -0.4407   7.0831   9.0104   9.5989

     occupation numbers 
     1.0000   1.0000   1.0000   1.0000   0.0000   0.0000   0.0000   0.0000

          k = 0.1333 0.5620 0.0000 (  5288 PWs)   bands (ev):

   -15.8719 -14.8202  -9.6764  -4.0324  -0.4836   7.0808   9.1991   9.6812

     occupation numbers 
     1.0000   1.0000   1.0000   1.0000   0.0000   0.0000   0.0000   0.0000

          k = 0.1333 0.5697 0.0000 (  5286 PWs)   bands (ev):

   -15.8124 -14.8839  -9.6797  -4.0102  -0.5097   7.0794   9.3859   9.7344

     occupation numbers 
     1.0000   1.0000   1.0000   1.0000   0.0000   0.0000   0.0000   0.0000

          k = 0.1333 0.5774 0.0000 (  5292 PWs)   bands (ev):

   -15.7906 -14.9071  -9.6808  -4.0027  -0.5185   7.0790   9.5258   9.6508

     occupation numbers 
     1.0000   1.0000   1.0000   1.0000   0.0000   0.0000   0.0000   0.0000

          k = 0.1400 0.2425 0.0000 (  5272 PWs)   bands (ev):

   -19.9379  -8.7446  -8.0253  -7.6405   3.2525   4.3103   4.8137   5.4494

     occupation numbers 
     1.0000   1.0000   1.0000   1.0000   0.0000   0.0000   0.0000   0.0000

          k = 0.1400 0.2502 0.0000 (  5276 PWs)   bands (ev):

   -19.8725  -8.8671  -7.9482  -7.7399   3.3428   4.4005   4.9066   5.3044

     occupation numbers 
     1.0000   1.0000   1.0000   1.0000   0.0000   0.0000   0.0000   0.0000

          k = 0.1400 0.2579 0.0000 (  5284 PWs)   bands (ev):

   -19.8050  -8.9928  -7.8689  -7.8377   3.4360   4.4932   5.0024   5.1573

     occupation numbers 
     1.0000   1.0000   1.0000   1.0000   0.0000   0.0000   0.0000   0.0000

          k = 0.1400 0.2656 0.0000 (  5279 PWs)   bands (ev):

   -19.7356  -9.1218  -7.9336  -7.7874   3.5319   4.5882   5.0088   5.1011

     occupation numbers 
     1.0000   1.0000   1.0000   1.0000   0.0000   0.0000   0.0000   0.0000

          k = 0.1400 0.2733 0.0000 (  5285 PWs)   bands (ev):

   -19.6642  -9.2539  -8.0272  -7.7037   3.6306   4.6829   4.8611   5.2027

     occupation numbers 
     1.0000   1.0000   1.0000   1.0000   0.0000   0.0000   0.0000   0.0000

          k = 0.1400 0.2810 0.0000 (  5283 PWs)   bands (ev):

   -19.5909  -9.3890  -8.1185  -7.6180   3.7321   4.6898   4.8023   5.3072

     occupation numbers 
     1.0000   1.0000   1.0000   1.0000   0.0000   0.0000   0.0000   0.0000

          k = 0.1400 0.2887 0.0000 (  5293 PWs)   bands (ev):

   -19.5156  -9.5272  -8.2072  -7.5301   3.8364   4.5427   4.8984   5.4146

     occupation numbers 
     1.0000   1.0000   1.0000   1.0000   0.0000   0.0000   0.0000   0.0000

          k = 0.1400 0.2964 0.0000 (  5287 PWs)   bands (ev):

   -19.4383  -9.6682  -8.2934  -7.4402   3.9434   4.3874   5.0038   5.5249

     occupation numbers 
     1.0000   1.0000   1.0000   1.0000   0.0000   0.0000   0.0000   0.0000

          k = 0.1400 0.3041 0.0000 (  5283 PWs)   bands (ev):

   -19.3592  -9.8118  -8.3769  -7.3482   4.0532   4.2298   5.1127   5.6380

     occupation numbers 
     1.0000   1.0000   1.0000   1.0000   0.0000   0.0000   0.0000   0.0000

          k = 0.1400 0.3118 0.0000 (  5277 PWs)   bands (ev):

   -19.2781  -9.9579  -8.4578  -7.2542   4.0706   4.1657   5.2246   5.7540

     occupation numbers 
     1.0000   1.0000   1.0000   1.0000   0.0000   0.0000   0.0000   0.0000

          k = 0.1400 0.3195 0.0000 (  5278 PWs)   bands (ev):

   -19.1950 -10.1062  -8.5360  -7.1583   3.9100   4.2810   5.3391   5.8729

     occupation numbers 
     1.0000   1.0000   1.0000   1.0000   0.0000   0.0000   0.0000   0.0000

          k = 0.1400 0.3272 0.0000 (  5276 PWs)   bands (ev):

   -19.1101 -10.2564  -8.6116  -7.0605   3.7483   4.3990   5.4564   5.9947

     occupation numbers 
     1.0000   1.0000   1.0000   1.0000   0.0000   0.0000   0.0000   0.0000

          k = 0.1400 0.3349 0.0000 (  5282 PWs)   bands (ev):

   -19.0233 -10.4085  -8.6845  -6.9608   3.5857   4.5197   5.5763   6.1193

     occupation numbers 
     1.0000   1.0000   1.0000   1.0000   0.0000   0.0000   0.0000   0.0000

          k = 0.1400 0.3426 0.0000 (  5278 PWs)   bands (ev):

   -18.9346 -10.5620  -8.7549  -6.8594   3.4221   4.6431   5.6988   6.2467

     occupation numbers 
     1.0000   1.0000   1.0000   1.0000   0.0000   0.0000   0.0000   0.0000

          k = 0.1400 0.3503 0.0000 (  5278 PWs)   bands (ev):

   -18.8440 -10.7170  -8.8228  -6.7562   3.2579   4.7693   5.8238   6.3770

     occupation numbers 
     1.0000   1.0000   1.0000   1.0000   0.0000   0.0000   0.0000   0.0000

          k = 0.1400 0.3580 0.0000 (  5284 PWs)   bands (ev):

   -18.7516 -10.8731  -8.8882  -6.6513   3.0931   4.8981   5.9514   6.5100

     occupation numbers 
     1.0000   1.0000   1.0000   1.0000   0.0000   0.0000   0.0000   0.0000

          k = 0.1400 0.3657 0.0000 (  5288 PWs)   bands (ev):

   -18.6573 -11.0301  -8.9511  -6.5448   2.9279   5.0296   6.0814   6.6458

     occupation numbers 
     1.0000   1.0000   1.0000   1.0000   0.0000   0.0000   0.0000   0.0000

          k = 0.1400 0.3734 0.0000 (  5292 PWs)   bands (ev):

   -18.5613 -11.1879  -9.0116  -6.4368   2.7625   5.1638   6.2139   6.7842

     occupation numbers 
     1.0000   1.0000   1.0000   1.0000   0.0000   0.0000   0.0000   0.0000

          k = 0.1400 0.3811 0.0000 (  5288 PWs)   bands (ev):

   -18.4634 -11.3463  -9.0697  -6.3273   2.5970   5.3006   6.3487   6.9250

     occupation numbers 
     1.0000   1.0000   1.0000   1.0000   0.0000   0.0000   0.0000   0.0000

          k = 0.1400 0.3887 0.0000 (  5290 PWs)   bands (ev):

   -18.3637 -11.5051  -9.1255  -6.2166   2.4316   5.4400   6.4859   7.0677

     occupation numbers 
     1.0000   1.0000   1.0000   1.0000   0.0000   0.0000   0.0000   0.0000

          k = 0.1400 0.3964 0.0000 (  5290 PWs)   bands (ev):

   -18.2622 -11.6642  -9.1789  -6.1046   2.2665   5.5820   6.6253   7.2107

     occupation numbers 
     1.0000   1.0000   1.0000   1.0000   0.0000   0.0000   0.0000   0.0000

          k = 0.1400 0.4041 0.0000 (  5284 PWs)   bands (ev):

   -18.1590 -11.8234  -9.2300  -5.9915   2.1020   5.7266   6.7669   7.3452

     occupation numbers 
     1.0000   1.0000   1.0000   1.0000   0.0000   0.0000   0.0000   0.0000

          k = 0.1400 0.4118 0.0000 (  5288 PWs)   bands (ev):

   -18.0541 -11.9826  -9.2788  -5.8775   1.9381   5.8736   6.9106   7.4207

     occupation numbers 
     1.0000   1.0000   1.0000   1.0000   0.0000   0.0000   0.0000   0.0000

          k = 0.1400 0.4195 0.0000 (  5280 PWs)   bands (ev):

   -17.9475 -12.1416  -9.3254  -5.7626   1.7752   6.0231   7.0563   7.4256

     occupation numbers 
     1.0000   1.0000   1.0000   1.0000   0.0000   0.0000   0.0000   0.0000

          k = 0.1400 0.4272 0.0000 (  5280 PWs)   bands (ev):

   -17.8392 -12.3003  -9.3696  -5.6472   1.6135   6.1750   7.2039   7.4163

     occupation numbers 
     1.0000   1.0000   1.0000   1.0000   0.0000   0.0000   0.0000   0.0000

          k = 0.1400 0.4349 0.0000 (  5285 PWs)   bands (ev):

   -17.7294 -12.4586  -9.4117  -5.5314   1.4533   6.3291   7.3533   7.4044

     occupation numbers 
     1.0000   1.0000   1.0000   1.0000   0.0000   0.0000   0.0000   0.0000

          k = 0.1400 0.4426 0.0000 (  5283 PWs)   bands (ev):

   -17.6179 -12.6164  -9.4514  -5.4154   1.2948   6.4853   7.3922   7.5042

     occupation numbers 
     1.0000   1.0000   1.0000   1.0000   0.0000   0.0000   0.0000   0.0000

          k = 0.1400 0.4503 0.0000 (  5289 PWs)   bands (ev):

   -17.5049 -12.7735  -9.4890  -5.2995   1.1385   6.6430   7.3809   7.6566

     occupation numbers 
     1.0000   1.0000   1.0000   1.0000   0.0000   0.0000   0.0000   0.0000

          k = 0.1400 0.4580 0.0000 (  5291 PWs)   bands (ev):

   -17.3905 -12.9298  -9.5243  -5.1841   0.9847   6.8015   7.3716   7.8101

     occupation numbers 
     1.0000   1.0000   1.0000   1.0000   0.0000   0.0000   0.0000   0.0000

          k = 0.1400 0.4657 0.0000 (  5291 PWs)   bands (ev):

   -17.2747 -13.0852  -9.5574  -5.0695   0.8338   6.9586   7.3666   7.9645

     occupation numbers 
     1.0000   1.0000   1.0000   1.0000   0.0000   0.0000   0.0000   0.0000

          k = 0.1400 0.4734 0.0000 (  5291 PWs)   bands (ev):

   -17.1575 -13.2394  -9.5883  -4.9561   0.6863   7.1066   7.3735   8.1195

     occupation numbers 
     1.0000   1.0000   1.0000   1.0000   0.0000   0.0000   0.0000   0.0000

          k = 0.1400 0.4811 0.0000 (  5295 PWs)   bands (ev):

   -17.0392 -13.3925  -9.6170  -4.8445   0.5428   7.2176   7.4206   8.2747

     occupation numbers 
     1.0000   1.0000   1.0000   1.0000   0.0000   0.0000   0.0000   0.0000

          k = 0.1400 0.4888 0.0000 (  5295 PWs)   bands (ev):

   -16.9199 -13.5440  -9.6434  -4.7353   0.4039   7.2597   7.5395   8.4294

     occupation numbers 
     1.0000   1.0000   1.0000   1.0000   0.0000   0.0000   0.0000   0.0000

          k = 0.1400 0.4965 0.0000 (  5295 PWs)   bands (ev):

   -16.7996 -13.6939  -9.6677  -4.6291   0.2704   7.2671   7.6961   8.5832

     occupation numbers 
     1.0000   1.0000   1.0000   1.0000   0.0000   0.0000   0.0000   0.0000

          k = 0.1400 0.5042 0.0000 (  5291 PWs)   bands (ev):

   -16.6788 -13.8418  -9.6897  -4.5267   0.1430   7.2651   7.8652   8.7351

     occupation numbers 
     1.0000   1.0000   1.0000   1.0000   0.0000   0.0000   0.0000   0.0000

          k = 0.1400 0.5119 0.0000 (  5287 PWs)   bands (ev):

   -16.5578 -13.9873  -9.7095  -4.4290   0.0228   7.2604   8.0400   8.8842

     occupation numbers 
     1.0000   1.0000   1.0000   1.0000   0.0000   0.0000   0.0000   0.0000

          k = 0.1400 0.5196 0.0000 (  5289 PWs)   bands (ev):

   -16.4370 -14.1299  -9.7272  -4.3372  -0.0892   7.2550   8.2183   9.0290

     occupation numbers 
     1.0000   1.0000   1.0000   1.0000   0.0000   0.0000   0.0000   0.0000

          k = 0.1400 0.5273 0.0000 (  5287 PWs)   bands (ev):

   -16.3172 -14.2689  -9.7426  -4.2524  -0.1917   7.2496   8.3994   9.1678

     occupation numbers 
     1.0000   1.0000   1.0000   1.0000   0.0000   0.0000   0.0000   0.0000

          k = 0.1400 0.5350 0.0000 (  5287 PWs)   bands (ev):

   -16.1995 -14.4030  -9.7558  -4.1759  -0.2835   7.2447   8.5828   9.2984

     occupation numbers 
     1.0000   1.0000   1.0000   1.0000   0.0000   0.0000   0.0000   0.0000

          k = 0.1400 0.5427 0.0000 (  5283 PWs)   bands (ev):

   -16.0859 -14.5304  -9.7668  -4.1091  -0.3630   7.2404   8.7681   9.4176

     occupation numbers 
     1.0000   1.0000   1.0000   1.0000   0.0000   0.0000   0.0000   0.0000

          k = 0.1400 0.5504 0.0000 (  5281 PWs)   bands (ev):

   -15.9793 -14.6480  -9.7756  -4.0534  -0.4289   7.2369   8.9549   9.5219

     occupation numbers 
     1.0000   1.0000   1.0000   1.0000   0.0000   0.0000   0.0000   0.0000

          k = 0.1400 0.5581 0.0000 (  5281 PWs)   bands (ev):

   -15.8849 -14.7507  -9.7822  -4.0102  -0.4798   7.2342   9.1426   9.6068

     occupation numbers 
     1.0000   1.0000   1.0000   1.0000   0.0000   0.0000   0.0000   0.0000

          k = 0.1400 0.5658 0.0000 (  5280 PWs)   bands (ev):

   -15.8110 -14.8301  -9.7866  -3.9806  -0.5144   7.2324   9.3301   9.6672

     occupation numbers 
     1.0000   1.0000   1.0000   1.0000   0.0000   0.0000   0.0000   0.0000

          k = 0.1400 0.5735 0.0000 (  5278 PWs)   bands (ev):

   -15.7692 -14.8747  -9.7888  -3.9656  -0.5320   7.2315   9.5089   9.6992

     occupation numbers 
     1.0000   1.0000   1.0000   1.0000   0.0000   0.0000   0.0000   0.0000

          k = 0.1467 0.2540 0.0000 (  5280 PWs)   bands (ev):

   -19.8061  -8.9861  -7.8700  -7.8422   3.4346   4.4921   5.0010   5.1601

     occupation numbers 
     1.0000   1.0000   1.0000   1.0000   0.0000   0.0000   0.0000   0.0000

          k = 0.1467 0.2617 0.0000 (  5282 PWs)   bands (ev):

   -19.7377  -9.1082  -7.9429  -7.7897   3.5291   4.5862   5.0139   5.0982

     occupation numbers 
     1.0000   1.0000   1.0000   1.0000   0.0000   0.0000   0.0000   0.0000

          k = 0.1467 0.2694 0.0000 (  5286 PWs)   bands (ev):

   -19.6673  -9.2334  -8.0416  -7.7073   3.6265   4.6822   4.8666   5.1984

     occupation numbers 
     1.0000   1.0000   1.0000   1.0000   0.0000   0.0000   0.0000   0.0000

          k = 0.1467 0.2771 0.0000 (  5286 PWs)   bands (ev):

   -19.5950  -9.3619  -8.1380  -7.6226   3.7266   4.7088   4.7895   5.3015

     occupation numbers 
     1.0000   1.0000   1.0000   1.0000   0.0000   0.0000   0.0000   0.0000

          k = 0.1467 0.2848 0.0000 (  5289 PWs)   bands (ev):

   -19.5207  -9.4935  -8.2318  -7.5359   3.8294   4.5607   4.8881   5.4074

     occupation numbers 
     1.0000   1.0000   1.0000   1.0000   0.0000   0.0000   0.0000   0.0000

          k = 0.1467 0.2925 0.0000 (  5289 PWs)   bands (ev):

   -19.4445  -9.6283  -8.3230  -7.4471   3.9350   4.4074   4.9929   5.5162

     occupation numbers 
     1.0000   1.0000   1.0000   1.0000   0.0000   0.0000   0.0000   0.0000

          k = 0.1467 0.3002 0.0000 (  5287 PWs)   bands (ev):

   -19.3663  -9.7659  -8.4114  -7.3562   4.0434   4.2522   5.1006   5.6280

     occupation numbers 
     1.0000   1.0000   1.0000   1.0000   0.0000   0.0000   0.0000   0.0000

          k = 0.1467 0.3079 0.0000 (  5279 PWs)   bands (ev):

   -19.2862  -9.9064  -8.4970  -7.2634   4.0956   4.1546   5.2111   5.7425

     occupation numbers 
     1.0000   1.0000   1.0000   1.0000   0.0000   0.0000   0.0000   0.0000

          k = 0.1467 0.3156 0.0000 (  5273 PWs)   bands (ev):

   -19.2042 -10.0495  -8.5797  -7.1685   3.9376   4.2685   5.3243   5.8600

     occupation numbers 
     1.0000   1.0000   1.0000   1.0000   0.0000   0.0000   0.0000   0.0000

          k = 0.1467 0.3233 0.0000 (  5276 PWs)   bands (ev):

   -19.1203 -10.1949  -8.6594  -7.0717   3.7784   4.3851   5.4402   5.9804

     occupation numbers 
     1.0000   1.0000   1.0000   1.0000   0.0000   0.0000   0.0000   0.0000

          k = 0.1467 0.3310 0.0000 (  5274 PWs)   bands (ev):

   -19.0345 -10.3425  -8.7364  -6.9731   3.6182   4.5044   5.5586   6.1036

     occupation numbers 
     1.0000   1.0000   1.0000   1.0000   0.0000   0.0000   0.0000   0.0000

          k = 0.1467 0.3387 0.0000 (  5274 PWs)   bands (ev):

   -18.9467 -10.4921  -8.8105  -6.8726   3.4570   4.6265   5.6796   6.2296

     occupation numbers 
     1.0000   1.0000   1.0000   1.0000   0.0000   0.0000   0.0000   0.0000

          k = 0.1467 0.3464 0.0000 (  5274 PWs)   bands (ev):

   -18.8572 -10.6434  -8.8818  -6.7704   3.2950   4.7513   5.8031   6.3585

     occupation numbers 
     1.0000   1.0000   1.0000   1.0000   0.0000   0.0000   0.0000   0.0000

          k = 0.1467 0.3541 0.0000 (  5284 PWs)   bands (ev):

   -18.7657 -10.7962  -8.9504  -6.6664   3.1324   4.8787   5.9291   6.4902

     occupation numbers 
     1.0000   1.0000   1.0000   1.0000   0.0000   0.0000   0.0000   0.0000

          k = 0.1467 0.3618 0.0000 (  5286 PWs)   bands (ev):

   -18.6725 -10.9502  -9.0163  -6.5608   2.9693   5.0089   6.0576   6.6248

     occupation numbers 
     1.0000   1.0000   1.0000   1.0000   0.0000   0.0000   0.0000   0.0000

          k = 0.1467 0.3695 0.0000 (  5292 PWs)   bands (ev):

   -18.5773 -11.1053  -9.0797  -6.4536   2.8059   5.1417   6.1885   6.7620

     occupation numbers 
     1.0000   1.0000   1.0000   1.0000   0.0000   0.0000   0.0000   0.0000

          k = 0.1467 0.3772 0.0000 (  5292 PWs)   bands (ev):

   -18.4804 -11.2613  -9.1404  -6.3450   2.6422   5.2772   6.3217   6.9019

     occupation numbers 
     1.0000   1.0000   1.0000   1.0000   0.0000   0.0000   0.0000   0.0000

          k = 0.1467 0.3849 0.0000 (  5282 PWs)   bands (ev):

   -18.3817 -11.4180  -9.1987  -6.2350   2.4786   5.4153   6.4573   7.0443

     occupation numbers 
     1.0000   1.0000   1.0000   1.0000   0.0000   0.0000   0.0000   0.0000

          k = 0.1467 0.3926 0.0000 (  5280 PWs)   bands (ev):

   -18.2812 -11.5752  -9.2544  -6.1236   2.3151   5.5560   6.5951   7.1887

     occupation numbers 
     1.0000   1.0000   1.0000   1.0000   0.0000   0.0000   0.0000   0.0000

          k = 0.1467 0.4003 0.0000 (  5278 PWs)   bands (ev):

   -18.1790 -11.7327  -9.3077  -6.0111   2.1519   5.6993   6.7350   7.3337

     occupation numbers 
     1.0000   1.0000   1.0000   1.0000   0.0000   0.0000   0.0000   0.0000

          k = 0.1467 0.4080 0.0000 (  5282 PWs)   bands (ev):

   -18.0750 -11.8904  -9.3586  -5.8976   1.9893   5.8451   6.8770   7.4728

     occupation numbers 
     1.0000   1.0000   1.0000   1.0000   0.0000   0.0000   0.0000   0.0000

          k = 0.1467 0.4157 0.0000 (  5282 PWs)   bands (ev):

   -17.9693 -12.0481  -9.4072  -5.7832   1.8274   5.9934   7.0210   7.5620

     occupation numbers 
     1.0000   1.0000   1.0000   1.0000   0.0000   0.0000   0.0000   0.0000

          k = 0.1467 0.4234 0.0000 (  5282 PWs)   bands (ev):

   -17.8620 -12.2058  -9.4533  -5.6681   1.6665   6.1442   7.1668   7.5719

     occupation numbers 
     1.0000   1.0000   1.0000   1.0000   0.0000   0.0000   0.0000   0.0000

          k = 0.1467 0.4311 0.0000 (  5280 PWs)   bands (ev):

   -17.7530 -12.3631  -9.4972  -5.5525   1.5069   6.2974   7.3143   7.5636

     occupation numbers 
     1.0000   1.0000   1.0000   1.0000   0.0000   0.0000   0.0000   0.0000

          k = 0.1467 0.4388 0.0000 (  5281 PWs)   bands (ev):

   -17.6425 -12.5201  -9.5387  -5.4365   1.3488   6.4527   7.4633   7.5522

     occupation numbers 
     1.0000   1.0000   1.0000   1.0000   0.0000   0.0000   0.0000   0.0000

          k = 0.1467 0.4465 0.0000 (  5281 PWs)   bands (ev):

   -17.5304 -12.6766  -9.5779  -5.3205   1.1926   6.6101   7.5404   7.6137

     occupation numbers 
     1.0000   1.0000   1.0000   1.0000   0.0000   0.0000   0.0000   0.0000

          k = 0.1467 0.4542 0.0000 (  5291 PWs)   bands (ev):

   -17.4168 -12.8324  -9.6148  -5.2048   1.0386   6.7692   7.5293   7.7651

     occupation numbers 
     1.0000   1.0000   1.0000   1.0000   0.0000   0.0000   0.0000   0.0000

          k = 0.1467 0.4619 0.0000 (  5291 PWs)   bands (ev):

   -17.3018 -12.9873  -9.6495  -5.0897   0.8873   6.9292   7.5199   7.9174

     occupation numbers 
     1.0000   1.0000   1.0000   1.0000   0.0000   0.0000   0.0000   0.0000

          k = 0.1467 0.4696 0.0000 (  5291 PWs)   bands (ev):

   -17.1854 -13.1414  -9.6818  -4.9755   0.7389   7.0883   7.5144   8.0701

     occupation numbers 
     1.0000   1.0000   1.0000   1.0000   0.0000   0.0000   0.0000   0.0000

          k = 0.1467 0.4773 0.0000 (  5293 PWs)   bands (ev):

   -17.0678 -13.2943  -9.7120  -4.8629   0.5942   7.2400   7.5191   8.2229

     occupation numbers 
     1.0000   1.0000   1.0000   1.0000   0.0000   0.0000   0.0000   0.0000

          k = 0.1467 0.4850 0.0000 (  5295 PWs)   bands (ev):

   -16.9491 -13.4459  -9.7398  -4.7522   0.4537   7.3595   7.5590   8.3751

     occupation numbers 
     1.0000   1.0000   1.0000   1.0000   0.0000   0.0000   0.0000   0.0000

          k = 0.1467 0.4927 0.0000 (  5293 PWs)   bands (ev):

   -16.8294 -13.5960  -9.7655  -4.6442   0.3180   7.4090   7.6718   8.5261

     occupation numbers 
     1.0000   1.0000   1.0000   1.0000   0.0000   0.0000   0.0000   0.0000

          k = 0.1467 0.5004 0.0000 (  5295 PWs)   bands (ev):

   -16.7091 -13.7443  -9.7889  -4.5395   0.1879   7.4186   7.8276   8.6751

     occupation numbers 
     1.0000   1.0000   1.0000   1.0000   0.0000   0.0000   0.0000   0.0000

          k = 0.1467 0.5081 0.0000 (  5287 PWs)   bands (ev):

   -16.5883 -13.8905  -9.8100  -4.4391   0.0644   7.4174   7.9971   8.8210

     occupation numbers 
     1.0000   1.0000   1.0000   1.0000   0.0000   0.0000   0.0000   0.0000

          k = 0.1467 0.5158 0.0000 (  5287 PWs)   bands (ev):

   -16.4674 -14.0342  -9.8289  -4.3439  -0.0516   7.4132   8.1724   8.9626

     occupation numbers 
     1.0000   1.0000   1.0000   1.0000   0.0000   0.0000   0.0000   0.0000

          k = 0.1467 0.5235 0.0000 (  5283 PWs)   bands (ev):

   -16.3472 -14.1746  -9.8456  -4.2550  -0.1588   7.4082   8.3513   9.0981

     occupation numbers 
     1.0000   1.0000   1.0000   1.0000   0.0000   0.0000   0.0000   0.0000

          k = 0.1467 0.5312 0.0000 (  5287 PWs)   bands (ev):

   -16.2286 -14.3108  -9.8601  -4.1738  -0.2560   7.4033   8.5329   9.2254

     occupation numbers 
     1.0000   1.0000   1.0000   1.0000   0.0000   0.0000   0.0000   0.0000

          k = 0.1467 0.5389 0.0000 (  5283 PWs)   bands (ev):

   -16.1129 -14.4414  -9.8723  -4.1016  -0.3419   7.3989   8.7166   9.3420

     occupation numbers 
     1.0000   1.0000   1.0000   1.0000   0.0000   0.0000   0.0000   0.0000

          k = 0.1467 0.5466 0.0000 (  5283 PWs)   bands (ev):

   -16.0025 -14.5640  -9.8823  -4.0398  -0.4148   7.3950   8.9020   9.4448

     occupation numbers 
     1.0000   1.0000   1.0000   1.0000   0.0000   0.0000   0.0000   0.0000

          k = 0.1467 0.5543 0.0000 (  5279 PWs)   bands (ev):

   -15.9014 -14.6746  -9.8901  -3.9898  -0.4734   7.3920   9.0887   9.5303

     occupation numbers 
     1.0000   1.0000   1.0000   1.0000   0.0000   0.0000   0.0000   0.0000

          k = 0.1467 0.5620 0.0000 (  5283 PWs)   bands (ev):

   -15.8162 -14.7666  -9.8956  -3.9530  -0.5164   7.3898   9.2757   9.5949

     occupation numbers 
     1.0000   1.0000   1.0000   1.0000   0.0000   0.0000   0.0000   0.0000

          k = 0.1467 0.5697 0.0000 (  5278 PWs)   bands (ev):

   -15.7570 -14.8299  -9.8990  -3.9305  -0.5427   7.3884   9.4602   9.6353

     occupation numbers 
     1.0000   1.0000   1.0000   1.0000   0.0000   0.0000   0.0000   0.0000

          k = 0.1467 0.5774 0.0000 (  5280 PWs)   bands (ev):

   -15.7354 -14.8529  -9.9001  -3.9229  -0.5515   7.3880   9.5959   9.6491

     occupation numbers 
     1.0000   1.0000   1.0000   1.0000   0.0000   0.0000   0.0000   0.0000

          k = 0.1533 0.2656 0.0000 (  5286 PWs)   bands (ev):

   -19.6683  -9.2265  -8.0465  -7.7084   3.6251   4.6818   4.8686   5.1970

     occupation numbers 
     1.0000   1.0000   1.0000   1.0000   0.0000   0.0000   0.0000   0.0000

          k = 0.1533 0.2733 0.0000 (  5284 PWs)   bands (ev):

   -19.5970  -9.3479  -8.1481  -7.6250   3.7238   4.7205   4.7809   5.2986

     occupation numbers 
     1.0000   1.0000   1.0000   1.0000   0.0000   0.0000   0.0000   0.0000

          k = 0.1533 0.2810 0.0000 (  5288 PWs)   bands (ev):

   -19.5237  -9.4725  -8.2474  -7.5394   3.8252   4.5717   4.8816   5.4031

     occupation numbers 
     1.0000   1.0000   1.0000   1.0000   0.0000   0.0000   0.0000   0.0000

          k = 0.1533 0.2887 0.0000 (  5284 PWs)   bands (ev):

   -19.4485  -9.6004  -8.3441  -7.4517   3.9295   4.4209   4.9854   5.5105

     occupation numbers 
     1.0000   1.0000   1.0000   1.0000   0.0000   0.0000   0.0000   0.0000

          k = 0.1533 0.2964 0.0000 (  5284 PWs)   bands (ev):

   -19.3714  -9.7313  -8.4379  -7.3620   4.0365   4.2684   5.0919   5.6208

     occupation numbers 
     1.0000   1.0000   1.0000   1.0000   0.0000   0.0000   0.0000   0.0000

          k = 0.1533 0.3041 0.0000 (  5278 PWs)   bands (ev):

   -19.2923  -9.8654  -8.5288  -7.2702   4.1145   4.1462   5.2010   5.7339

     occupation numbers 
     1.0000   1.0000   1.0000   1.0000   0.0000   0.0000   0.0000   0.0000

          k = 0.1533 0.3118 0.0000 (  5274 PWs)   bands (ev):

   -19.2113 -10.0024  -8.6166  -7.1764   3.9593   4.2587   5.3127   5.8500

     occupation numbers 
     1.0000   1.0000   1.0000   1.0000   0.0000   0.0000   0.0000   0.0000

          k = 0.1533 0.3195 0.0000 (  5268 PWs)   bands (ev):

   -19.1284 -10.1422  -8.7014  -7.0807   3.8027   4.3740   5.4271   5.9689

     occupation numbers 
     1.0000   1.0000   1.0000   1.0000   0.0000   0.0000   0.0000   0.0000

          k = 0.1533 0.3272 0.0000 (  5263 PWs)   bands (ev):

   -19.0436 -10.2846  -8.7829  -6.9831   3.6451   4.4919   5.5440   6.0907

     occupation numbers 
     1.0000   1.0000   1.0000   1.0000   0.0000   0.0000   0.0000   0.0000

          k = 0.1533 0.3349 0.0000 (  5266 PWs)   bands (ev):

   -18.9569 -10.4293  -8.8614  -6.8837   3.4865   4.6126   5.6635   6.2153

     occupation numbers 
     1.0000   1.0000   1.0000   1.0000   0.0000   0.0000   0.0000   0.0000

          k = 0.1533 0.3426 0.0000 (  5272 PWs)   bands (ev):

   -18.8683 -10.5761  -8.9369  -6.7824   3.3270   4.7360   5.7855   6.3429

     occupation numbers 
     1.0000   1.0000   1.0000   1.0000   0.0000   0.0000   0.0000   0.0000

          k = 0.1533 0.3503 0.0000 (  5284 PWs)   bands (ev):

   -18.7779 -10.7249  -9.0093  -6.6794   3.1667   4.8621   5.9099   6.4732

     occupation numbers 
     1.0000   1.0000   1.0000   1.0000   0.0000   0.0000   0.0000   0.0000

          k = 0.1533 0.3580 0.0000 (  5282 PWs)   bands (ev):

   -18.6856 -10.8753  -9.0788  -6.5747   3.0059   4.9909   6.0368   6.6064

     occupation numbers 
     1.0000   1.0000   1.0000   1.0000   0.0000   0.0000   0.0000   0.0000

          k = 0.1533 0.3657 0.0000 (  5284 PWs)   bands (ev):

   -18.5914 -11.0271  -9.1455  -6.4684   2.8446   5.1224   6.1661   6.7424

     occupation numbers 
     1.0000   1.0000   1.0000   1.0000   0.0000   0.0000   0.0000   0.0000

          k = 0.1533 0.3734 0.0000 (  5288 PWs)   bands (ev):

   -18.4955 -11.1801  -9.2093  -6.3606   2.6830   5.2565   6.2978   6.8811

     occupation numbers 
     1.0000   1.0000   1.0000   1.0000   0.0000   0.0000   0.0000   0.0000

          k = 0.1533 0.3811 0.0000 (  5284 PWs)   bands (ev):

   -18.3978 -11.3341  -9.2705  -6.2513   2.5212   5.3933   6.4317   7.0225

     occupation numbers 
     1.0000   1.0000   1.0000   1.0000   0.0000   0.0000   0.0000   0.0000

          k = 0.1533 0.3887 0.0000 (  5280 PWs)   bands (ev):

   -18.2982 -11.4890  -9.3289  -6.1407   2.3594   5.5327   6.5678   7.1664

     occupation numbers 
     1.0000   1.0000   1.0000   1.0000   0.0000   0.0000   0.0000   0.0000

          k = 0.1533 0.3964 0.0000 (  5286 PWs)   bands (ev):

   -18.1969 -11.6444  -9.3848  -6.0289   2.1978   5.6747   6.7060   7.3124

     occupation numbers 
     1.0000   1.0000   1.0000   1.0000   0.0000   0.0000   0.0000   0.0000

          k = 0.1533 0.4041 0.0000 (  5286 PWs)   bands (ev):

   -18.0939 -11.8003  -9.4381  -5.9159   2.0366   5.8192   6.8463   7.4594

     occupation numbers 
     1.0000   1.0000   1.0000   1.0000   0.0000   0.0000   0.0000   0.0000

          k = 0.1533 0.4118 0.0000 (  5288 PWs)   bands (ev):

   -17.9892 -11.9564  -9.4889  -5.8020   1.8760   5.9663   6.9885   7.6025

     occupation numbers 
     1.0000   1.0000   1.0000   1.0000   0.0000   0.0000   0.0000   0.0000

          k = 0.1533 0.4195 0.0000 (  5284 PWs)   bands (ev):

   -17.8828 -12.1126  -9.5371  -5.6873   1.7162   6.1159   7.1325   7.7055

     occupation numbers 
     1.0000   1.0000   1.0000   1.0000   0.0000   0.0000   0.0000   0.0000

          k = 0.1533 0.4272 0.0000 (  5284 PWs)   bands (ev):

   -17.7748 -12.2687  -9.5830  -5.5719   1.5574   6.2679   7.2782   7.7221

     occupation numbers 
     1.0000   1.0000   1.0000   1.0000   0.0000   0.0000   0.0000   0.0000

          k = 0.1533 0.4349 0.0000 (  5281 PWs)   bands (ev):

   -17.6651 -12.4246  -9.6264  -5.4561   1.3999   6.4222   7.4253   7.7150

     occupation numbers 
     1.0000   1.0000   1.0000   1.0000   0.0000   0.0000   0.0000   0.0000

          k = 0.1533 0.4426 0.0000 (  5279 PWs)   bands (ev):

   -17.5539 -12.5802  -9.6675  -5.3401   1.2441   6.5788   7.5736   7.7041

     occupation numbers 
     1.0000   1.0000   1.0000   1.0000   0.0000   0.0000   0.0000   0.0000

          k = 0.1533 0.4503 0.0000 (  5285 PWs)   bands (ev):

   -17.4412 -12.7353  -9.7061  -5.2242   1.0902   6.7375   7.6927   7.7230

     occupation numbers 
     1.0000   1.0000   1.0000   1.0000   0.0000   0.0000   0.0000   0.0000

          k = 0.1533 0.4580 0.0000 (  5291 PWs)   bands (ev):

   -17.3270 -12.8897  -9.7425  -5.1086   0.9386   6.8979   7.6818   7.8731

     occupation numbers 
     1.0000   1.0000   1.0000   1.0000   0.0000   0.0000   0.0000   0.0000

          k = 0.1533 0.4657 0.0000 (  5289 PWs)   bands (ev):

   -17.2114 -13.0433  -9.7765  -4.9939   0.7898   7.0594   7.6725   8.0235

     occupation numbers 
     1.0000   1.0000   1.0000   1.0000   0.0000   0.0000   0.0000   0.0000

          k = 0.1533 0.4734 0.0000 (  5293 PWs)   bands (ev):

   -17.0946 -13.1959  -9.8081  -4.8803   0.6441   7.2202   7.6665   8.1738

     occupation numbers 
     1.0000   1.0000   1.0000   1.0000   0.0000   0.0000   0.0000   0.0000

          k = 0.1533 0.4811 0.0000 (  5295 PWs)   bands (ev):

   -16.9766 -13.3474  -9.8375  -4.7684   0.5022   7.3753   7.6692   8.3233

     occupation numbers 
     1.0000   1.0000   1.0000   1.0000   0.0000   0.0000   0.0000   0.0000

          k = 0.1533 0.4888 0.0000 (  5293 PWs)   bands (ev):

   -16.8575 -13.4976  -9.8646  -4.6587   0.3647   7.5033   7.7019   8.4716

     occupation numbers 
     1.0000   1.0000   1.0000   1.0000   0.0000   0.0000   0.0000   0.0000

          k = 0.1533 0.4965 0.0000 (  5295 PWs)   bands (ev):

   -16.7376 -13.6462  -9.8894  -4.5520   0.2323   7.5617   7.8072   8.6175

     occupation numbers 
     1.0000   1.0000   1.0000   1.0000   0.0000   0.0000   0.0000   0.0000

          k = 0.1533 0.5042 0.0000 (  5291 PWs)   bands (ev):

   -16.6172 -13.7929  -9.9119  -4.4491   0.1059   7.5739   7.9615   8.7602

     occupation numbers 
     1.0000   1.0000   1.0000   1.0000   0.0000   0.0000   0.0000   0.0000

          k = 0.1533 0.5119 0.0000 (  5287 PWs)   bands (ev):

   -16.4965 -13.9373  -9.9322  -4.3508  -0.0136   7.5736   8.1311   8.8984

     occupation numbers 
     1.0000   1.0000   1.0000   1.0000   0.0000   0.0000   0.0000   0.0000

          k = 0.1533 0.5196 0.0000 (  5281 PWs)   bands (ev):

   -16.3761 -14.0788  -9.9502  -4.2582  -0.1251   7.5700   8.3069   9.0303

     occupation numbers 
     1.0000   1.0000   1.0000   1.0000   0.0000   0.0000   0.0000   0.0000

          k = 0.1533 0.5273 0.0000 (  5283 PWs)   bands (ev):

   -16.2567 -14.2168  -9.9660  -4.1726  -0.2274   7.5655   8.4863   9.1541

     occupation numbers 
     1.0000   1.0000   1.0000   1.0000   0.0000   0.0000   0.0000   0.0000

          k = 0.1533 0.5350 0.0000 (  5281 PWs)   bands (ev):

   -16.1396 -14.3500  -9.9794  -4.0953  -0.3191   7.5611   8.6682   9.2676

     occupation numbers 
     1.0000   1.0000   1.0000   1.0000   0.0000   0.0000   0.0000   0.0000

          k = 0.1533 0.5427 0.0000 (  5281 PWs)   bands (ev):

   -16.0264 -14.4765  -9.9907  -4.0277  -0.3987   7.5571   8.8521   9.3682

     occupation numbers 
     1.0000   1.0000   1.0000   1.0000   0.0000   0.0000   0.0000   0.0000

          k = 0.1533 0.5504 0.0000 (  5281 PWs)   bands (ev):

   -15.9203 -14.5933  -9.9997  -3.9712  -0.4647   7.5537   9.0374   9.4531

     occupation numbers 
     1.0000   1.0000   1.0000   1.0000   0.0000   0.0000   0.0000   0.0000

          k = 0.1533 0.5581 0.0000 (  5279 PWs)   bands (ev):

   -15.8263 -14.6953 -10.0064  -3.9274  -0.5158   7.5511   9.2235   9.5197

     occupation numbers 
     1.0000   1.0000   1.0000   1.0000   0.0000   0.0000   0.0000   0.0000

          k = 0.1533 0.5658 0.0000 (  5277 PWs)   bands (ev):

   -15.7529 -14.7741 -10.0109  -3.8974  -0.5506   7.5494   9.4089   9.5656

     occupation numbers 
     1.0000   1.0000   1.0000   1.0000   0.0000   0.0000   0.0000   0.0000

          k = 0.1533 0.5735 0.0000 (  5273 PWs)   bands (ev):

   -15.7113 -14.8184 -10.0131  -3.8821  -0.5683   7.5485   9.5844   9.5890

     occupation numbers 
     1.0000   1.0000   1.0000   1.0000   0.0000   0.0000   0.0000   0.0000

          k = 0.1600 0.2771 0.0000 (  5286 PWs)   bands (ev):

   -19.5248  -9.4654  -8.2527  -7.5406   3.8238   4.5755   4.8795   5.4017

     occupation numbers 
     1.0000   1.0000   1.0000   1.0000   0.0000   0.0000   0.0000   0.0000

          k = 0.1600 0.2848 0.0000 (  5286 PWs)   bands (ev):

   -19.4506  -9.5860  -8.3550  -7.4540   3.9267   4.4277   4.9816   5.5076

     occupation numbers 
     1.0000   1.0000   1.0000   1.0000   0.0000   0.0000   0.0000   0.0000

          k = 0.1600 0.2925 0.0000 (  5286 PWs)   bands (ev):

   -19.3744  -9.7098  -8.4547  -7.3654   4.0323   4.2783   5.0866   5.6165

     occupation numbers 
     1.0000   1.0000   1.0000   1.0000   0.0000   0.0000   0.0000   0.0000

          k = 0.1600 0.3002 0.0000 (  5282 PWs)   bands (ev):

   -19.2964  -9.8368  -8.5514  -7.2748   4.1273   4.1407   5.1942   5.7282

     occupation numbers 
     1.0000   1.0000   1.0000   1.0000   0.0000   0.0000   0.0000   0.0000

          k = 0.1600 0.3079 0.0000 (  5274 PWs)   bands (ev):

   -19.2164  -9.9669  -8.6450  -7.1821   3.9749   4.2518   5.3044   5.8428

     occupation numbers 
     1.0000   1.0000   1.0000   1.0000   0.0000   0.0000   0.0000   0.0000

          k = 0.1600 0.3156 0.0000 (  5278 PWs)   bands (ev):

   -19.1345 -10.1002  -8.7353  -7.0875   3.8212   4.3656   5.4172   5.9603

     occupation numbers 
     1.0000   1.0000   1.0000   1.0000   0.0000   0.0000   0.0000   0.0000

          k = 0.1600 0.3233 0.0000 (  5268 PWs)   bands (ev):

   -19.0507 -10.2364  -8.8223  -6.9909   3.6663   4.4822   5.5326   6.0807

     occupation numbers 
     1.0000   1.0000   1.0000   1.0000   0.0000   0.0000   0.0000   0.0000

          k = 0.1600 0.3310 0.0000 (  5269 PWs)   bands (ev):

   -18.9650 -10.3754  -8.9060  -6.8925   3.5104   4.6015   5.6505   6.2039

     occupation numbers 
     1.0000   1.0000   1.0000   1.0000   0.0000   0.0000   0.0000   0.0000

          k = 0.1600 0.3387 0.0000 (  5271 PWs)   bands (ev):

   -18.8774 -10.5169  -8.9863  -6.7922   3.3535   4.7236   5.7709   6.3300

     occupation numbers 
     1.0000   1.0000   1.0000   1.0000   0.0000   0.0000   0.0000   0.0000

          k = 0.1600 0.3464 0.0000 (  5277 PWs)   bands (ev):

   -18.7879 -10.6607  -9.0633  -6.6902   3.1957   4.8483   5.8938   6.4590

     occupation numbers 
     1.0000   1.0000   1.0000   1.0000   0.0000   0.0000   0.0000   0.0000

          k = 0.1600 0.3541 0.0000 (  5275 PWs)   bands (ev):

   -18.6966 -10.8067  -9.1371  -6.5865   3.0373   4.9757   6.0191   6.5908

     occupation numbers 
     1.0000   1.0000   1.0000   1.0000   0.0000   0.0000   0.0000   0.0000

          k = 0.1600 0.3618 0.0000 (  5279 PWs)   bands (ev):

   -18.6035 -10.9545  -9.2077  -6.4811   2.8783   5.1058   6.1468   6.7254

     occupation numbers 
     1.0000   1.0000   1.0000   1.0000   0.0000   0.0000   0.0000   0.0000

          k = 0.1600 0.3695 0.0000 (  5279 PWs)   bands (ev):

   -18.5086 -11.1038  -9.2752  -6.3741   2.7188   5.2386   6.2769   6.8628

     occupation numbers 
     1.0000   1.0000   1.0000   1.0000   0.0000   0.0000   0.0000   0.0000

          k = 0.1600 0.3772 0.0000 (  5285 PWs)   bands (ev):

   -18.4118 -11.2546  -9.3398  -6.2657   2.5591   5.3740   6.4091   7.0030

     occupation numbers 
     1.0000   1.0000   1.0000   1.0000   0.0000   0.0000   0.0000   0.0000

          k = 0.1600 0.3849 0.0000 (  5286 PWs)   bands (ev):

   -18.3132 -11.4065  -9.4014  -6.1558   2.3993   5.5120   6.5436   7.1459

     occupation numbers 
     1.0000   1.0000   1.0000   1.0000   0.0000   0.0000   0.0000   0.0000

          k = 0.1600 0.3926 0.0000 (  5282 PWs)   bands (ev):

   -18.2129 -11.5593  -9.4602  -6.0447   2.2395   5.6527   6.6801   7.2913

     occupation numbers 
     1.0000   1.0000   1.0000   1.0000   0.0000   0.0000   0.0000   0.0000

          k = 0.1600 0.4003 0.0000 (  5282 PWs)   bands (ev):

   -18.1109 -11.7128  -9.5163  -5.9323   2.0799   5.7959   6.8187   7.4390

     occupation numbers 
     1.0000   1.0000   1.0000   1.0000   0.0000   0.0000   0.0000   0.0000

          k = 0.1600 0.4080 0.0000 (  5278 PWs)   bands (ev):

   -18.0071 -11.8669  -9.5696  -5.8189   1.9207   5.9417   6.9591   7.5879

     occupation numbers 
     1.0000   1.0000   1.0000   1.0000   0.0000   0.0000   0.0000   0.0000

          k = 0.1600 0.4157 0.0000 (  5284 PWs)   bands (ev):

   -17.9016 -12.0213  -9.6204  -5.7047   1.7622   6.0901   7.1013   7.7344

     occupation numbers 
     1.0000   1.0000   1.0000   1.0000   0.0000   0.0000   0.0000   0.0000

          k = 0.1600 0.4234 0.0000 (  5280 PWs)   bands (ev):

   -17.7945 -12.1759  -9.6685  -5.5896   1.6045   6.2409   7.2450   7.8502

     occupation numbers 
     1.0000   1.0000   1.0000   1.0000   0.0000   0.0000   0.0000   0.0000

          k = 0.1600 0.4311 0.0000 (  5274 PWs)   bands (ev):

   -17.6858 -12.3304  -9.7140  -5.4740   1.4479   6.3941   7.3902   7.8758

     occupation numbers 
     1.0000   1.0000   1.0000   1.0000   0.0000   0.0000   0.0000   0.0000

          k = 0.1600 0.4388 0.0000 (  5275 PWs)   bands (ev):

   -17.5755 -12.4848  -9.7571  -5.3581   1.2926   6.5496   7.5365   7.8702

     occupation numbers 
     1.0000   1.0000   1.0000   1.0000   0.0000   0.0000   0.0000   0.0000

          k = 0.1600 0.4465 0.0000 (  5279 PWs)   bands (ev):

   -17.4636 -12.6389  -9.7977  -5.2421   1.1391   6.7074   7.6838   7.8599

     occupation numbers 
     1.0000   1.0000   1.0000   1.0000   0.0000   0.0000   0.0000   0.0000

          k = 0.1600 0.4542 0.0000 (  5281 PWs)   bands (ev):

   -17.3503 -12.7925  -9.8359  -5.1263   0.9876   6.8673   7.8317   7.8488

     occupation numbers 
     1.0000   1.0000   1.0000   1.0000   0.0000   0.0000   0.0000   0.0000

          k = 0.1600 0.4619 0.0000 (  5291 PWs)   bands (ev):

   -17.2355 -12.9455  -9.8717  -5.0110   0.8384   7.0289   7.8382   7.9797

     occupation numbers 
     1.0000   1.0000   1.0000   1.0000   0.0000   0.0000   0.0000   0.0000

          k = 0.1600 0.4696 0.0000 (  5283 PWs)   bands (ev):

   -17.1195 -13.0977  -9.9050  -4.8967   0.6922   7.1918   7.8289   8.1275

     occupation numbers 
     1.0000   1.0000   1.0000   1.0000   0.0000   0.0000   0.0000   0.0000

          k = 0.1600 0.4773 0.0000 (  5287 PWs)   bands (ev):

   -17.0022 -13.2489  -9.9360  -4.7837   0.5493   7.3544   7.8225   8.2744

     occupation numbers 
     1.0000   1.0000   1.0000   1.0000   0.0000   0.0000   0.0000   0.0000

          k = 0.1600 0.4850 0.0000 (  5289 PWs)   bands (ev):

   -16.8838 -13.3989  -9.9647  -4.6727   0.4103   7.5125   7.8235   8.4197

     occupation numbers 
     1.0000   1.0000   1.0000   1.0000   0.0000   0.0000   0.0000   0.0000

          k = 0.1600 0.4927 0.0000 (  5285 PWs)   bands (ev):

   -16.7645 -13.5475  -9.9910  -4.5642   0.2760   7.6483   7.8496   8.5626

     occupation numbers 
     1.0000   1.0000   1.0000   1.0000   0.0000   0.0000   0.0000   0.0000

          k = 0.1600 0.5004 0.0000 (  5285 PWs)   bands (ev):

   -16.6445 -13.6945 -10.0150  -4.4590   0.1470   7.7171   7.9457   8.7019

     occupation numbers 
     1.0000   1.0000   1.0000   1.0000   0.0000   0.0000   0.0000   0.0000

          k = 0.1600 0.5081 0.0000 (  5279 PWs)   bands (ev):

   -16.5241 -13.8394 -10.0367  -4.3579   0.0243   7.7326   8.0978   8.8365

     occupation numbers 
     1.0000   1.0000   1.0000   1.0000   0.0000   0.0000   0.0000   0.0000

          k = 0.1600 0.5158 0.0000 (  5281 PWs)   bands (ev):

   -16.4037 -13.9819 -10.0561  -4.2619  -0.0910   7.7335   8.2673   8.9647

     occupation numbers 
     1.0000   1.0000   1.0000   1.0000   0.0000   0.0000   0.0000   0.0000

          k = 0.1600 0.5235 0.0000 (  5279 PWs)   bands (ev):

   -16.2839 -14.1212 -10.0731  -4.1723  -0.1979   7.7305   8.4434   9.0848

     occupation numbers 
     1.0000   1.0000   1.0000   1.0000   0.0000   0.0000   0.0000   0.0000

          k = 0.1600 0.5312 0.0000 (  5277 PWs)   bands (ev):

   -16.1657 -14.2564 -10.0879  -4.0902  -0.2950   7.7265   8.6231   9.1949

     occupation numbers 
     1.0000   1.0000   1.0000   1.0000   0.0000   0.0000   0.0000   0.0000

          k = 0.1600 0.5389 0.0000 (  5275 PWs)   bands (ev):

   -16.0504 -14.3860 -10.1004  -4.0171  -0.3808   7.7226   8.8052   9.2926

     occupation numbers 
     1.0000   1.0000   1.0000   1.0000   0.0000   0.0000   0.0000   0.0000

          k = 0.1600 0.5466 0.0000 (  5279 PWs)   bands (ev):

   -15.9406 -14.5077 -10.1107  -3.9544  -0.4539   7.7190   8.9890   9.3760

     occupation numbers 
     1.0000   1.0000   1.0000   1.0000   0.0000   0.0000   0.0000   0.0000

          k = 0.1600 0.5543 0.0000 (  5279 PWs)   bands (ev):

   -15.8400 -14.6176 -10.1186  -3.9037  -0.5127   7.7161   9.1739   9.4430

     occupation numbers 
     1.0000   1.0000   1.0000   1.0000   0.0000   0.0000   0.0000   0.0000

          k = 0.1600 0.5620 0.0000 (  5275 PWs)   bands (ev):

   -15.7552 -14.7089 -10.1243  -3.8663  -0.5559   7.7140   9.3589   9.4920

     occupation numbers 
     1.0000   1.0000   1.0000   1.0000   0.0000   0.0000   0.0000   0.0000

          k = 0.1600 0.5697 0.0000 (  5272 PWs)   bands (ev):

   -15.6964 -14.7717 -10.1277  -3.8434  -0.5823   7.7127   9.5219   9.5407

     occupation numbers 
     1.0000   1.0000   1.0000   1.0000   0.0000   0.0000   0.0000   0.0000

          k = 0.1600 0.5774 0.0000 (  5268 PWs)   bands (ev):

   -15.6749 -14.7945 -10.1288  -3.8357  -0.5912   7.7122   9.5319   9.6716

     occupation numbers 
     1.0000   1.0000   1.0000   1.0000   0.0000   0.0000   0.0000   0.0000

          k = 0.1667 0.2887 0.0000 (  5288 PWs)   bands (ev):

   -19.3755  -9.7024  -8.4604  -7.3666   4.0309   4.2816   5.0848   5.6150

     occupation numbers 
     1.0000   1.0000   1.0000   1.0000   0.0000   0.0000   0.0000   0.0000

          k = 0.1667 0.2964 0.0000 (  5280 PWs)   bands (ev):

   -19.2984  -9.8220  -8.5631  -7.2771   4.1337   4.1379   5.1907   5.7253

     occupation numbers 
     1.0000   1.0000   1.0000   1.0000   0.0000   0.0000   0.0000   0.0000

          k = 0.1667 0.3041 0.0000 (  5278 PWs)   bands (ev):

   -19.2194  -9.9448  -8.6629  -7.1855   3.9843   4.2476   5.2993   5.8385

     occupation numbers 
     1.0000   1.0000   1.0000   1.0000   0.0000   0.0000   0.0000   0.0000

          k = 0.1667 0.3118 0.0000 (  5272 PWs)   bands (ev):

   -19.1385 -10.0708  -8.7594  -7.0920   3.8336   4.3601   5.4106   5.9546

     occupation numbers 
     1.0000   1.0000   1.0000   1.0000   0.0000   0.0000   0.0000   0.0000

          k = 0.1667 0.3195 0.0000 (  5274 PWs)   bands (ev):

   -19.0557 -10.2000  -8.8525  -6.9965   3.6816   4.4753   5.5244   6.0735

     occupation numbers 
     1.0000   1.0000   1.0000   1.0000   0.0000   0.0000   0.0000   0.0000

          k = 0.1667 0.3272 0.0000 (  5268 PWs)   bands (ev):

   -18.9710 -10.3323  -8.9421  -6.8991   3.5285   4.5932   5.6407   6.1953

     occupation numbers 
     1.0000   1.0000   1.0000   1.0000   0.0000   0.0000   0.0000   0.0000

          k = 0.1667 0.3349 0.0000 (  5273 PWs)   bands (ev):

   -18.8845 -10.4676  -9.0280  -6.7999   3.3743   4.7138   5.7596   6.3200

     occupation numbers 
     1.0000   1.0000   1.0000   1.0000   0.0000   0.0000   0.0000   0.0000

          k = 0.1667 0.3426 0.0000 (  5277 PWs)   bands (ev):

   -18.7960 -10.6056  -9.1104  -6.6989   3.2192   4.8372   5.8809   6.4476

     occupation numbers 
     1.0000   1.0000   1.0000   1.0000   0.0000   0.0000   0.0000   0.0000

          k = 0.1667 0.3503 0.0000 (  5283 PWs)   bands (ev):

   -18.7057 -10.7461  -9.1893  -6.5961   3.0633   4.9633   6.0046   6.5780

     occupation numbers 
     1.0000   1.0000   1.0000   1.0000   0.0000   0.0000   0.0000   0.0000

          k = 0.1667 0.3580 0.0000 (  5279 PWs)   bands (ev):

   -18.6136 -10.8890  -9.2646  -6.4916   2.9068   5.0920   6.1307   6.7112

     occupation numbers 
     1.0000   1.0000   1.0000   1.0000   0.0000   0.0000   0.0000   0.0000

          k = 0.1667 0.3657 0.0000 (  5281 PWs)   bands (ev):

   -18.5196 -11.0339  -9.3365  -6.3856   2.7497   5.2234   6.2591   6.8473

     occupation numbers 
     1.0000   1.0000   1.0000   1.0000   0.0000   0.0000   0.0000   0.0000

          k = 0.1667 0.3734 0.0000 (  5281 PWs)   bands (ev):

   -18.4238 -11.1806  -9.4052  -6.2780   2.5922   5.3574   6.3897   6.9862

     occupation numbers 
     1.0000   1.0000   1.0000   1.0000   0.0000   0.0000   0.0000   0.0000

          k = 0.1667 0.3811 0.0000 (  5287 PWs)   bands (ev):

   -18.3263 -11.3289  -9.4706  -6.1689   2.4344   5.4941   6.5224   7.1278

     occupation numbers 
     1.0000   1.0000   1.0000   1.0000   0.0000   0.0000   0.0000   0.0000

          k = 0.1667 0.3887 0.0000 (  5287 PWs)   bands (ev):

   -18.2269 -11.4784  -9.5329  -6.0585   2.2766   5.6335   6.6573   7.2722

     occupation numbers 
     1.0000   1.0000   1.0000   1.0000   0.0000   0.0000   0.0000   0.0000

          k = 0.1667 0.3964 0.0000 (  5281 PWs)   bands (ev):

   -18.1258 -11.6291  -9.5922  -5.9468   2.1188   5.7754   6.7941   7.4191

     occupation numbers 
     1.0000   1.0000   1.0000   1.0000   0.0000   0.0000   0.0000   0.0000

          k = 0.1667 0.4041 0.0000 (  5279 PWs)   bands (ev):

   -18.0230 -11.7806  -9.6486  -5.8341   1.9613   5.9199   6.9327   7.5684

     occupation numbers 
     1.0000   1.0000   1.0000   1.0000   0.0000   0.0000   0.0000   0.0000

          k = 0.1667 0.4118 0.0000 (  5281 PWs)   bands (ev):

   -17.9185 -11.9327  -9.7021  -5.7203   1.8043   6.0669   7.0731   7.7191

     occupation numbers 
     1.0000   1.0000   1.0000   1.0000   0.0000   0.0000   0.0000   0.0000

          k = 0.1667 0.4195 0.0000 (  5281 PWs)   bands (ev):

   -17.8123 -12.0853  -9.7528  -5.6056   1.6478   6.2164   7.2150   7.8685

     occupation numbers 
     1.0000   1.0000   1.0000   1.0000   0.0000   0.0000   0.0000   0.0000

          k = 0.1667 0.4272 0.0000 (  5273 PWs)   bands (ev):

   -17.7045 -12.2381  -9.8009  -5.4904   1.4923   6.3684   7.3582   7.9956

     occupation numbers 
     1.0000   1.0000   1.0000   1.0000   0.0000   0.0000   0.0000   0.0000

          k = 0.1667 0.4349 0.0000 (  5278 PWs)   bands (ev):

   -17.5951 -12.3910  -9.8462  -5.3746   1.3379   6.5228   7.5025   8.0326

     occupation numbers 
     1.0000   1.0000   1.0000   1.0000   0.0000   0.0000   0.0000   0.0000

          k = 0.1667 0.4426 0.0000 (  5277 PWs)   bands (ev):

   -17.4841 -12.5438  -9.8890  -5.2586   1.1850   6.6795   7.6476   8.0288

     occupation numbers 
     1.0000   1.0000   1.0000   1.0000   0.0000   0.0000   0.0000   0.0000

          k = 0.1667 0.4503 0.0000 (  5273 PWs)   bands (ev):

   -17.3717 -12.6963  -9.9292  -5.1426   1.0338   6.8385   7.7932   8.0191

     occupation numbers 
     1.0000   1.0000   1.0000   1.0000   0.0000   0.0000   0.0000   0.0000

          k = 0.1667 0.4580 0.0000 (  5279 PWs)   bands (ev):

   -17.2578 -12.8484  -9.9669  -5.0270   0.8847   6.9995   7.9388   8.0084

     occupation numbers 
     1.0000   1.0000   1.0000   1.0000   0.0000   0.0000   0.0000   0.0000

          k = 0.1667 0.4657 0.0000 (  5285 PWs)   bands (ev):

   -17.1425 -12.9998 -10.0022  -4.9120   0.7381   7.1623   7.9980   8.0840

     occupation numbers 
     1.0000   1.0000   1.0000   1.0000   0.0000   0.0000   0.0000   0.0000

          k = 0.1667 0.4734 0.0000 (  5281 PWs)   bands (ev):

   -17.0260 -13.1505 -10.0349  -4.7982   0.5945   7.3264   7.9888   8.2282

     occupation numbers 
     1.0000   1.0000   1.0000   1.0000   0.0000   0.0000   0.0000   0.0000

          k = 0.1667 0.4811 0.0000 (  5283 PWs)   bands (ev):

   -16.9083 -13.3002 -10.0653  -4.6859   0.4544   7.4906   7.9821   8.3706

     occupation numbers 
     1.0000   1.0000   1.0000   1.0000   0.0000   0.0000   0.0000   0.0000

          k = 0.1667 0.4888 0.0000 (  5283 PWs)   bands (ev):

   -16.7896 -13.4486 -10.0932  -4.5759   0.3184   7.6514   7.9817   8.5103

     occupation numbers 
     1.0000   1.0000   1.0000   1.0000   0.0000   0.0000   0.0000   0.0000

          k = 0.1667 0.4965 0.0000 (  5279 PWs)   bands (ev):

   -16.6701 -13.5957 -10.1188  -4.4686   0.1873   7.7942   8.0020   8.6462

     occupation numbers 
     1.0000   1.0000   1.0000   1.0000   0.0000   0.0000   0.0000   0.0000

          k = 0.1667 0.5042 0.0000 (  5281 PWs)   bands (ev):

   -16.5501 -13.7409 -10.1420  -4.3650   0.0619   7.8746   8.0875   8.7771

     occupation numbers 
     1.0000   1.0000   1.0000   1.0000   0.0000   0.0000   0.0000   0.0000

          k = 0.1667 0.5119 0.0000 (  5285 PWs)   bands (ev):

   -16.4298 -13.8840 -10.1628  -4.2660  -0.0569   7.8944   8.2363   8.9015

     occupation numbers 
     1.0000   1.0000   1.0000   1.0000   0.0000   0.0000   0.0000   0.0000

          k = 0.1667 0.5196 0.0000 (  5281 PWs)   bands (ev):

   -16.3099 -14.0243 -10.1813  -4.1726  -0.1679   7.8965   8.4055   9.0177

     occupation numbers 
     1.0000   1.0000   1.0000   1.0000   0.0000   0.0000   0.0000   0.0000

          k = 0.1667 0.5273 0.0000 (  5275 PWs)   bands (ev):

   -16.1909 -14.1611 -10.1974  -4.0861  -0.2699   7.8942   8.5818   9.1240

     occupation numbers 
     1.0000   1.0000   1.0000   1.0000   0.0000   0.0000   0.0000   0.0000

          k = 0.1667 0.5350 0.0000 (  5275 PWs)   bands (ev):

   -16.0742 -14.2932 -10.2113  -4.0078  -0.3615   7.8908   8.7615   9.2185

     occupation numbers 
     1.0000   1.0000   1.0000   1.0000   0.0000   0.0000   0.0000   0.0000

          k = 0.1667 0.5427 0.0000 (  5271 PWs)   bands (ev):

   -15.9616 -14.4188 -10.2228  -3.9392  -0.4412   7.8873   8.9436   9.2996

     occupation numbers 
     1.0000   1.0000   1.0000   1.0000   0.0000   0.0000   0.0000   0.0000

          k = 0.1667 0.5504 0.0000 (  5277 PWs)   bands (ev):

   -15.8560 -14.5347 -10.2320  -3.8819  -0.5075   7.8842   9.1270   9.3659

     occupation numbers 
     1.0000   1.0000   1.0000   1.0000   0.0000   0.0000   0.0000   0.0000

          k = 0.1667 0.5581 0.0000 (  5272 PWs)   bands (ev):

   -15.7625 -14.6359 -10.2389  -3.8373  -0.5588   7.8818   9.3111   9.4163

     occupation numbers 
     1.0000   1.0000   1.0000   1.0000   0.0000   0.0000   0.0000   0.0000

          k = 0.1667 0.5658 0.0000 (  5270 PWs)   bands (ev):

   -15.6895 -14.7141 -10.2435  -3.8067  -0.5939   7.8801   9.4502   9.4941

     occupation numbers 
     1.0000   1.0000   1.0000   1.0000   0.0000   0.0000   0.0000   0.0000

          k = 0.1667 0.5735 0.0000 (  5264 PWs)   bands (ev):

   -15.6481 -14.7581 -10.2458  -3.7912  -0.6117   7.8793   9.4672   9.6655

     occupation numbers 
     1.0000   1.0000   1.0000   1.0000   0.0000   0.0000   0.0000   0.0000

          k = 0.1733 0.3002 0.0000 (  5274 PWs)   bands (ev):

   -19.2204  -9.9373  -8.6690  -7.1866   3.9875   4.2462   5.2976   5.8371

     occupation numbers 
     1.0000   1.0000   1.0000   1.0000   0.0000   0.0000   0.0000   0.0000

          k = 0.1733 0.3079 0.0000 (  5268 PWs)   bands (ev):

   -19.1406 -10.0556  -8.7719  -7.0942   3.8398   4.3573   5.4072   5.9517

     occupation numbers 
     1.0000   1.0000   1.0000   1.0000   0.0000   0.0000   0.0000   0.0000

          k = 0.1733 0.3156 0.0000 (  5272 PWs)   bands (ev):

   -19.0588 -10.1773  -8.8715  -6.9999   3.6908   4.4711   5.5194   6.0692

     occupation numbers 
     1.0000   1.0000   1.0000   1.0000   0.0000   0.0000   0.0000   0.0000

          k = 0.1733 0.3233 0.0000 (  5274 PWs)   bands (ev):

   -18.9751 -10.3022  -8.9676  -6.9036   3.5406   4.5876   5.6342   6.1896

     occupation numbers 
     1.0000   1.0000   1.0000   1.0000   0.0000   0.0000   0.0000   0.0000

          k = 0.1733 0.3310 0.0000 (  5276 PWs)   bands (ev):

   -18.8895 -10.4303  -9.0600  -6.8054   3.3893   4.7069   5.7514   6.3129

     occupation numbers 
     1.0000   1.0000   1.0000   1.0000   0.0000   0.0000   0.0000   0.0000

          k = 0.1733 0.3387 0.0000 (  5277 PWs)   bands (ev):

   -18.8021 -10.5615  -9.1486  -6.7054   3.2369   4.8289   5.8711   6.4390

     occupation numbers 
     1.0000   1.0000   1.0000   1.0000   0.0000   0.0000   0.0000   0.0000

          k = 0.1733 0.3464 0.0000 (  5287 PWs)   bands (ev):

   -18.7128 -10.6957  -9.2333  -6.6036   3.0838   4.9536   5.9932   6.5680

     occupation numbers 
     1.0000   1.0000   1.0000   1.0000   0.0000   0.0000   0.0000   0.0000

          k = 0.1733 0.3541 0.0000 (  5287 PWs)   bands (ev):

   -18.6216 -10.8326  -9.3142  -6.5001   2.9298   5.0809   6.1177   6.6998

     occupation numbers 
     1.0000   1.0000   1.0000   1.0000   0.0000   0.0000   0.0000   0.0000

          k = 0.1733 0.3618 0.0000 (  5287 PWs)   bands (ev):

   -18.5287 -10.9721  -9.3914  -6.3950   2.7752   5.2109   6.2444   6.8345

     occupation numbers 
     1.0000   1.0000   1.0000   1.0000   0.0000   0.0000   0.0000   0.0000

          k = 0.1733 0.3695 0.0000 (  5295 PWs)   bands (ev):

   -18.4339 -11.1138  -9.4649  -6.2882   2.6201   5.3436   6.3734   6.9721

     occupation numbers 
     1.0000   1.0000   1.0000   1.0000   0.0000   0.0000   0.0000   0.0000

          k = 0.1733 0.3772 0.0000 (  5295 PWs)   bands (ev):

   -18.3373 -11.2576  -9.5349  -6.1800   2.4646   5.4790   6.5045   7.1124

     occupation numbers 
     1.0000   1.0000   1.0000   1.0000   0.0000   0.0000   0.0000   0.0000

          k = 0.1733 0.3849 0.0000 (  5287 PWs)   bands (ev):

   -18.2389 -11.4031  -9.6014  -6.0704   2.3089   5.6169   6.6376   7.2555

     occupation numbers 
     1.0000   1.0000   1.0000   1.0000   0.0000   0.0000   0.0000   0.0000

          k = 0.1733 0.3926 0.0000 (  5285 PWs)   bands (ev):

   -18.1388 -11.5502  -9.6645  -5.9594   2.1532   5.7575   6.7726   7.4013

     occupation numbers 
     1.0000   1.0000   1.0000   1.0000   0.0000   0.0000   0.0000   0.0000

          k = 0.1733 0.4003 0.0000 (  5287 PWs)   bands (ev):

   -18.0370 -11.6984  -9.7245  -5.8473   1.9975   5.9007   6.9095   7.5497

     occupation numbers 
     1.0000   1.0000   1.0000   1.0000   0.0000   0.0000   0.0000   0.0000

          k = 0.1733 0.4080 0.0000 (  5279 PWs)   bands (ev):

   -17.9334 -11.8477  -9.7813  -5.7341   1.8421   6.0464   7.0480   7.7005

     occupation numbers 
     1.0000   1.0000   1.0000   1.0000   0.0000   0.0000   0.0000   0.0000

          k = 0.1733 0.4157 0.0000 (  5279 PWs)   bands (ev):

   -17.8282 -11.9978  -9.8351  -5.6199   1.6872   6.1946   7.1880   7.8531

     occupation numbers 
     1.0000   1.0000   1.0000   1.0000   0.0000   0.0000   0.0000   0.0000

          k = 0.1733 0.4234 0.0000 (  5279 PWs)   bands (ev):

   -17.7213 -12.1484  -9.8860  -5.5050   1.5330   6.3453   7.3292   8.0050

     occupation numbers 
     1.0000   1.0000   1.0000   1.0000   0.0000   0.0000   0.0000   0.0000

          k = 0.1733 0.4311 0.0000 (  5275 PWs)   bands (ev):

   -17.6128 -12.2993  -9.9340  -5.3895   1.3797   6.4985   7.4715   8.1412

     occupation numbers 
     1.0000   1.0000   1.0000   1.0000   0.0000   0.0000   0.0000   0.0000

          k = 0.1733 0.4388 0.0000 (  5278 PWs)   bands (ev):

   -17.5027 -12.4504  -9.9793  -5.2736   1.2276   6.6540   7.6144   8.1919

     occupation numbers 
     1.0000   1.0000   1.0000   1.0000   0.0000   0.0000   0.0000   0.0000

          k = 0.1733 0.4465 0.0000 (  5270 PWs)   bands (ev):

   -17.3912 -12.6015 -10.0218  -5.1576   1.0769   6.8119   7.7578   8.1904

     occupation numbers 
     1.0000   1.0000   1.0000   1.0000   0.0000   0.0000   0.0000   0.0000

          k = 0.1733 0.4542 0.0000 (  5272 PWs)   bands (ev):

   -17.2781 -12.7524 -10.0617  -5.0417   0.9281   6.9719   7.9010   8.1814

     occupation numbers 
     1.0000   1.0000   1.0000   1.0000   0.0000   0.0000   0.0000   0.0000

          k = 0.1733 0.4619 0.0000 (  5278 PWs)   bands (ev):

   -17.1637 -12.9029 -10.0990  -4.9263   0.7815   7.1341   8.0436   8.1711

     occupation numbers 
     1.0000   1.0000   1.0000   1.0000   0.0000   0.0000   0.0000   0.0000

          k = 0.1733 0.4696 0.0000 (  5280 PWs)   bands (ev):

   -17.0480 -13.0527 -10.1337  -4.8117   0.6375   7.2980   8.1609   8.1850

     occupation numbers 
     1.0000   1.0000   1.0000   1.0000   0.0000   0.0000   0.0000   0.0000

          k = 0.1733 0.4773 0.0000 (  5278 PWs)   bands (ev):

   -16.9310 -13.2018 -10.1659  -4.6984   0.4966   7.4633   8.1518   8.3244

     occupation numbers 
     1.0000   1.0000   1.0000   1.0000   0.0000   0.0000   0.0000   0.0000

          k = 0.1733 0.4850 0.0000 (  5274 PWs)   bands (ev):

   -16.8130 -13.3499 -10.1956  -4.5870   0.3594   7.6289   8.1449   8.4609

     occupation numbers 
     1.0000   1.0000   1.0000   1.0000   0.0000   0.0000   0.0000   0.0000

          k = 0.1733 0.4927 0.0000 (  5270 PWs)   bands (ev):

   -16.6941 -13.4967 -10.2228  -4.4780   0.2266   7.7920   8.1434   8.5933

     occupation numbers 
     1.0000   1.0000   1.0000   1.0000   0.0000   0.0000   0.0000   0.0000

          k = 0.1733 0.5004 0.0000 (  5277 PWs)   bands (ev):

   -16.5745 -13.6420 -10.2477  -4.3721   0.0988   7.9409   8.1587   8.7205

     occupation numbers 
     1.0000   1.0000   1.0000   1.0000   0.0000   0.0000   0.0000   0.0000

          k = 0.1733 0.5081 0.0000 (  5283 PWs)   bands (ev):

   -16.4545 -13.7854 -10.2700  -4.2703  -0.0230   8.0336   8.2328   8.8409

     occupation numbers 
     1.0000   1.0000   1.0000   1.0000   0.0000   0.0000   0.0000   0.0000

          k = 0.1733 0.5158 0.0000 (  5275 PWs)   bands (ev):

   -16.3345 -13.9265 -10.2900  -4.1735  -0.1377   8.0588   8.3772   8.9531

     occupation numbers 
     1.0000   1.0000   1.0000   1.0000   0.0000   0.0000   0.0000   0.0000

          k = 0.1733 0.5235 0.0000 (  5275 PWs)   bands (ev):

   -16.2152 -14.0645 -10.3077  -4.0829  -0.2442   8.0624   8.5457   9.0554

     occupation numbers 
     1.0000   1.0000   1.0000   1.0000   0.0000   0.0000   0.0000   0.0000

          k = 0.1733 0.5312 0.0000 (  5273 PWs)   bands (ev):

   -16.0975 -14.1985 -10.3229  -3.9998  -0.3411   8.0608   8.7218   9.1464

     occupation numbers 
     1.0000   1.0000   1.0000   1.0000   0.0000   0.0000   0.0000   0.0000

          k = 0.1733 0.5389 0.0000 (  5267 PWs)   bands (ev):

   -15.9827 -14.3271 -10.3358  -3.9256  -0.4270   8.0579   8.9015   9.2247

     occupation numbers 
     1.0000   1.0000   1.0000   1.0000   0.0000   0.0000   0.0000   0.0000

          k = 0.1733 0.5466 0.0000 (  5268 PWs)   bands (ev):

   -15.8734 -14.4478 -10.3463  -3.8620  -0.5003   8.0549   9.0832   9.2894

     occupation numbers 
     1.0000   1.0000   1.0000   1.0000   0.0000   0.0000   0.0000   0.0000

          k = 0.1733 0.5543 0.0000 (  5274 PWs)   bands (ev):

   -15.7733 -14.5567 -10.3545  -3.8103  -0.5595   8.0523   9.2660   9.3399

     occupation numbers 
     1.0000   1.0000   1.0000   1.0000   0.0000   0.0000   0.0000   0.0000

          k = 0.1733 0.5620 0.0000 (  5272 PWs)   bands (ev):

   -15.6890 -14.6473 -10.3603  -3.7722  -0.6030   8.0503   9.3759   9.4486

     occupation numbers 
     1.0000   1.0000   1.0000   1.0000   0.0000   0.0000   0.0000   0.0000

          k = 0.1733 0.5697 0.0000 (  5270 PWs)   bands (ev):

   -15.6305 -14.7097 -10.3638  -3.7488  -0.6296   8.0491   9.3976   9.6271

     occupation numbers 
     1.0000   1.0000   1.0000   1.0000   0.0000   0.0000   0.0000   0.0000

          k = 0.1733 0.5774 0.0000 (  5260 PWs)   bands (ev):

   -15.6091 -14.7323 -10.3650  -3.7409  -0.6386   8.0487   9.4047   9.7524

     occupation numbers 
     1.0000   1.0000   1.0000   1.0000   0.0000   0.0000   0.0000   0.0000

          k = 0.1800 0.3118 0.0000 (  5278 PWs)   bands (ev):

   -19.0598 -10.1695  -8.8780  -7.0010   3.6939   4.4697   5.5178   6.0678

     occupation numbers 
     1.0000   1.0000   1.0000   1.0000   0.0000   0.0000   0.0000   0.0000

          k = 0.1800 0.3195 0.0000 (  5276 PWs)   bands (ev):

   -18.9771 -10.2866  -8.9809  -6.9058   3.5467   4.5849   5.6309   6.1867

     occupation numbers 
     1.0000   1.0000   1.0000   1.0000   0.0000   0.0000   0.0000   0.0000

          k = 0.1800 0.3272 0.0000 (  5274 PWs)   bands (ev):

   -18.8926 -10.4069  -9.0801  -6.8087   3.3983   4.7027   5.7465   6.3086

     occupation numbers 
     1.0000   1.0000   1.0000   1.0000   0.0000   0.0000   0.0000   0.0000

          k = 0.1800 0.3349 0.0000 (  5275 PWs)   bands (ev):

   -18.8061 -10.5306  -9.1755  -6.7097   3.2489   4.8233   5.8646   6.4333

     occupation numbers 
     1.0000   1.0000   1.0000   1.0000   0.0000   0.0000   0.0000   0.0000

          k = 0.1800 0.3426 0.0000 (  5283 PWs)   bands (ev):

   -18.7178 -10.6574  -9.2670  -6.6090   3.0985   4.9466   5.9851   6.5608

     occupation numbers 
     1.0000   1.0000   1.0000   1.0000   0.0000   0.0000   0.0000   0.0000

          k = 0.1800 0.3503 0.0000 (  5283 PWs)   bands (ev):

   -18.6277 -10.7875  -9.3544  -6.5065   2.9472   5.0726   6.1079   6.6913

     occupation numbers 
     1.0000   1.0000   1.0000   1.0000   0.0000   0.0000   0.0000   0.0000

          k = 0.1800 0.3580 0.0000 (  5287 PWs)   bands (ev):

   -18.5357 -10.9205  -9.4377  -6.4023   2.7953   5.2013   6.2330   6.8246

     occupation numbers 
     1.0000   1.0000   1.0000   1.0000   0.0000   0.0000   0.0000   0.0000

          k = 0.1800 0.3657 0.0000 (  5293 PWs)   bands (ev):

   -18.4419 -11.0563  -9.5170  -6.2965   2.6427   5.3326   6.3603   6.9607

     occupation numbers 
     1.0000   1.0000   1.0000   1.0000   0.0000   0.0000   0.0000   0.0000

          k = 0.1800 0.3734 0.0000 (  5291 PWs)   bands (ev):

   -18.3463 -11.1945  -9.5924  -6.1891   2.4897   5.4666   6.4897   7.0997

     occupation numbers 
     1.0000   1.0000   1.0000   1.0000   0.0000   0.0000   0.0000   0.0000

          k = 0.1800 0.3811 0.0000 (  5289 PWs)   bands (ev):

   -18.2489 -11.3351  -9.6639  -6.0803   2.3363   5.6032   6.6211   7.2415

     occupation numbers 
     1.0000   1.0000   1.0000   1.0000   0.0000   0.0000   0.0000   0.0000

          k = 0.1800 0.3887 0.0000 (  5289 PWs)   bands (ev):

   -18.1498 -11.4776  -9.7317  -5.9701   2.1827   5.7424   6.7544   7.3860

     occupation numbers 
     1.0000   1.0000   1.0000   1.0000   0.0000   0.0000   0.0000   0.0000

          k = 0.1800 0.3964 0.0000 (  5287 PWs)   bands (ev):

   -18.0489 -11.6219  -9.7959  -5.8587   2.0290   5.8842   6.8895   7.5333

     occupation numbers 
     1.0000   1.0000   1.0000   1.0000   0.0000   0.0000   0.0000   0.0000

          k = 0.1800 0.4041 0.0000 (  5289 PWs)   bands (ev):

   -17.9463 -11.7675  -9.8567  -5.7461   1.8755   6.0285   7.0261   7.6832

     occupation numbers 
     1.0000   1.0000   1.0000   1.0000   0.0000   0.0000   0.0000   0.0000

          k = 0.1800 0.4118 0.0000 (  5279 PWs)   bands (ev):

   -17.8420 -11.9144  -9.9141  -5.6325   1.7223   6.1754   7.1642   7.8355

     occupation numbers 
     1.0000   1.0000   1.0000   1.0000   0.0000   0.0000   0.0000   0.0000

          k = 0.1800 0.4195 0.0000 (  5283 PWs)   bands (ev):

   -17.7361 -12.0622  -9.9683  -5.5180   1.5696   6.3249   7.3035   7.9898

     occupation numbers 
     1.0000   1.0000   1.0000   1.0000   0.0000   0.0000   0.0000   0.0000

          k = 0.1800 0.4272 0.0000 (  5281 PWs)   bands (ev):

   -17.6285 -12.2107 -10.0195  -5.4028   1.4176   6.4767   7.4437   8.1441

     occupation numbers 
     1.0000   1.0000   1.0000   1.0000   0.0000   0.0000   0.0000   0.0000

          k = 0.1800 0.4349 0.0000 (  5270 PWs)   bands (ev):

   -17.5194 -12.3597 -10.0676  -5.2871   1.2666   6.6310   7.5845   8.2872

     occupation numbers 
     1.0000   1.0000   1.0000   1.0000   0.0000   0.0000   0.0000   0.0000

          k = 0.1800 0.4426 0.0000 (  5272 PWs)   bands (ev):

   -17.4087 -12.5089 -10.1128  -5.1711   1.1168   6.7877   7.7255   8.3532

     occupation numbers 
     1.0000   1.0000   1.0000   1.0000   0.0000   0.0000   0.0000   0.0000

          k = 0.1800 0.4503 0.0000 (  5268 PWs)   bands (ev):

   -17.2966 -12.6581 -10.1552  -5.0551   0.9685   6.9466   7.8663   8.3546

     occupation numbers 
     1.0000   1.0000   1.0000   1.0000   0.0000   0.0000   0.0000   0.0000

          k = 0.1800 0.4580 0.0000 (  5270 PWs)   bands (ev):

   -17.1830 -12.8072 -10.1948  -4.9394   0.8222   7.1078   8.0064   8.3464

     occupation numbers 
     1.0000   1.0000   1.0000   1.0000   0.0000   0.0000   0.0000   0.0000

          k = 0.1800 0.4657 0.0000 (  5276 PWs)   bands (ev):

   -17.0681 -12.9560 -10.2317  -4.8242   0.6781   7.2710   8.1450   8.3364

     occupation numbers 
     1.0000   1.0000   1.0000   1.0000   0.0000   0.0000   0.0000   0.0000

          k = 0.1800 0.4734 0.0000 (  5276 PWs)   bands (ev):

   -16.9519 -13.1042 -10.2660  -4.7101   0.5367   7.4359   8.2813   8.3265

     occupation numbers 
     1.0000   1.0000   1.0000   1.0000   0.0000   0.0000   0.0000   0.0000

          k = 0.1800 0.4811 0.0000 (  5278 PWs)   bands (ev):

   -16.8346 -13.2516 -10.2977  -4.5975   0.3986   7.6023   8.3175   8.4145

     occupation numbers 
     1.0000   1.0000   1.0000   1.0000   0.0000   0.0000   0.0000   0.0000

          k = 0.1800 0.4888 0.0000 (  5276 PWs)   bands (ev):

   -16.7163 -13.3980 -10.3268  -4.4869   0.2643   7.7692   8.3105   8.5434

     occupation numbers 
     1.0000   1.0000   1.0000   1.0000   0.0000   0.0000   0.0000   0.0000

          k = 0.1800 0.4965 0.0000 (  5276 PWs)   bands (ev):

   -16.5972 -13.5431 -10.3533  -4.3791   0.1346   7.9342   8.3081   8.6667

     occupation numbers 
     1.0000   1.0000   1.0000   1.0000   0.0000   0.0000   0.0000   0.0000

          k = 0.1800 0.5042 0.0000 (  5274 PWs)   bands (ev):

   -16.4776 -13.6866 -10.3774  -4.2748   0.0103   8.0881   8.3193   8.7831

     occupation numbers 
     1.0000   1.0000   1.0000   1.0000   0.0000   0.0000   0.0000   0.0000

          k = 0.1800 0.5119 0.0000 (  5270 PWs)   bands (ev):

   -16.3578 -13.8280 -10.3990  -4.1749  -0.1077   8.1934   8.3819   8.8911

     occupation numbers 
     1.0000   1.0000   1.0000   1.0000   0.0000   0.0000   0.0000   0.0000

          k = 0.1800 0.5196 0.0000 (  5268 PWs)   bands (ev):

   -16.2383 -13.9669 -10.4182  -4.0806  -0.2182   8.2252   8.5203   8.9893

     occupation numbers 
     1.0000   1.0000   1.0000   1.0000   0.0000   0.0000   0.0000   0.0000

          k = 0.1800 0.5273 0.0000 (  5266 PWs)   bands (ev):

   -16.1199 -14.1023 -10.4349  -3.9930  -0.3200   8.2306   8.6877   9.0765

     occupation numbers 
     1.0000   1.0000   1.0000   1.0000   0.0000   0.0000   0.0000   0.0000

          k = 0.1800 0.5350 0.0000 (  5270 PWs)   bands (ev):

   -16.0037 -14.2332 -10.4492  -3.9136  -0.4116   8.2299   8.8634   9.1516

     occupation numbers 
     1.0000   1.0000   1.0000   1.0000   0.0000   0.0000   0.0000   0.0000

          k = 0.1800 0.5427 0.0000 (  5267 PWs)   bands (ev):

   -15.8915 -14.3577 -10.4611  -3.8438  -0.4915   8.2275   9.0427   9.2141

     occupation numbers 
     1.0000   1.0000   1.0000   1.0000   0.0000   0.0000   0.0000   0.0000

          k = 0.1800 0.5504 0.0000 (  5267 PWs)   bands (ev):

   -15.7864 -14.4726 -10.4706  -3.7854  -0.5581   8.2250   9.2238   9.2638

     occupation numbers 
     1.0000   1.0000   1.0000   1.0000   0.0000   0.0000   0.0000   0.0000

          k = 0.1800 0.5581 0.0000 (  5269 PWs)   bands (ev):

   -15.6935 -14.5730 -10.4778  -3.7399  -0.6098   8.2229   9.3007   9.4053

     occupation numbers 
     1.0000   1.0000   1.0000   1.0000   0.0000   0.0000   0.0000   0.0000

          k = 0.1800 0.5658 0.0000 (  5266 PWs)   bands (ev):

   -15.6208 -14.6506 -10.4825  -3.7087  -0.6452   8.2214   9.3250   9.5852

     occupation numbers 
     1.0000   1.0000   1.0000   1.0000   0.0000   0.0000   0.0000   0.0000

          k = 0.1800 0.5735 0.0000 (  5266 PWs)   bands (ev):

   -15.5797 -14.6941 -10.4849  -3.6928  -0.6631   8.2206   9.3371   9.7518

     occupation numbers 
     1.0000   1.0000   1.0000   1.0000   0.0000   0.0000   0.0000   0.0000

          k = 0.1867 0.3233 0.0000 (  5282 PWs)   bands (ev):

   -18.8936 -10.3990  -9.0870  -6.8098   3.4013   4.7014   5.7449   6.3071

     occupation numbers 
     1.0000   1.0000   1.0000   1.0000   0.0000   0.0000   0.0000   0.0000

          k = 0.1867 0.3310 0.0000 (  5274 PWs)   bands (ev):

   -18.8081 -10.5146  -9.1896  -6.7119   3.2549   4.8206   5.8613   6.4304

     occupation numbers 
     1.0000   1.0000   1.0000   1.0000   0.0000   0.0000   0.0000   0.0000

          k = 0.1867 0.3387 0.0000 (  5279 PWs)   bands (ev):

   -18.7209 -10.6335  -9.2882  -6.6122   3.1074   4.9425   5.9802   6.5566

     occupation numbers 
     1.0000   1.0000   1.0000   1.0000   0.0000   0.0000   0.0000   0.0000

          k = 0.1867 0.3464 0.0000 (  5281 PWs)   bands (ev):

   -18.6317 -10.7558  -9.3828  -6.5107   2.9589   5.0671   6.1014   6.6856

     occupation numbers 
     1.0000   1.0000   1.0000   1.0000   0.0000   0.0000   0.0000   0.0000

          k = 0.1867 0.3541 0.0000 (  5281 PWs)   bands (ev):

   -18.5407 -10.8813  -9.4731  -6.4075   2.8097   5.1943   6.2248   6.8174

     occupation numbers 
     1.0000   1.0000   1.0000   1.0000   0.0000   0.0000   0.0000   0.0000

          k = 0.1867 0.3618 0.0000 (  5283 PWs)   bands (ev):

   -18.4479 -11.0101  -9.5591  -6.3026   2.6598   5.3243   6.3504   6.9522

     occupation numbers 
     1.0000   1.0000   1.0000   1.0000   0.0000   0.0000   0.0000   0.0000

          k = 0.1867 0.3695 0.0000 (  5293 PWs)   bands (ev):

   -18.3533 -11.1418  -9.6408  -6.1962   2.5093   5.4569   6.4781   7.0898

     occupation numbers 
     1.0000   1.0000   1.0000   1.0000   0.0000   0.0000   0.0000   0.0000

          k = 0.1867 0.3772 0.0000 (  5297 PWs)   bands (ev):

   -18.2569 -11.2763  -9.7183  -6.0882   2.3584   5.5921   6.6078   7.2302

     occupation numbers 
     1.0000   1.0000   1.0000   1.0000   0.0000   0.0000   0.0000   0.0000

          k = 0.1867 0.3849 0.0000 (  5291 PWs)   bands (ev):

   -18.1588 -11.4133  -9.7917  -5.9789   2.2071   5.7300   6.7394   7.3734

     occupation numbers 
     1.0000   1.0000   1.0000   1.0000   0.0000   0.0000   0.0000   0.0000

          k = 0.1867 0.3926 0.0000 (  5291 PWs)   bands (ev):

   -18.0589 -11.5525  -9.8611  -5.8682   2.0557   5.8704   6.8727   7.5194

     occupation numbers 
     1.0000   1.0000   1.0000   1.0000   0.0000   0.0000   0.0000   0.0000

          k = 0.1867 0.4003 0.0000 (  5287 PWs)   bands (ev):

   -17.9572 -11.6937  -9.9266  -5.7563   1.9042   6.0134   7.0075   7.6681

     occupation numbers 
     1.0000   1.0000   1.0000   1.0000   0.0000   0.0000   0.0000   0.0000

          k = 0.1867 0.4080 0.0000 (  5287 PWs)   bands (ev):

   -17.8539 -11.8366  -9.9884  -5.6433   1.7529   6.1590   7.1437   7.8195

     occupation numbers 
     1.0000   1.0000   1.0000   1.0000   0.0000   0.0000   0.0000   0.0000

          k = 0.1867 0.4157 0.0000 (  5287 PWs)   bands (ev):

   -17.7489 -11.9808 -10.0466  -5.5293   1.6019   6.3071   7.2810   7.9733

     occupation numbers 
     1.0000   1.0000   1.0000   1.0000   0.0000   0.0000   0.0000   0.0000

          k = 0.1867 0.4234 0.0000 (  5283 PWs)   bands (ev):

   -17.6423 -12.1262 -10.1015  -5.4145   1.4515   6.4576   7.4191   8.1292

     occupation numbers 
     1.0000   1.0000   1.0000   1.0000   0.0000   0.0000   0.0000   0.0000

          k = 0.1867 0.4311 0.0000 (  5277 PWs)   bands (ev):

   -17.5341 -12.2724 -10.1530  -5.2991   1.3017   6.6106   7.5578   8.2856

     occupation numbers 
     1.0000   1.0000   1.0000   1.0000   0.0000   0.0000   0.0000   0.0000

          k = 0.1867 0.4388 0.0000 (  5276 PWs)   bands (ev):

   -17.4243 -12.4192 -10.2013  -5.1833   1.1530   6.7660   7.6965   8.4342

     occupation numbers 
     1.0000   1.0000   1.0000   1.0000   0.0000   0.0000   0.0000   0.0000

          k = 0.1867 0.4465 0.0000 (  5264 PWs)   bands (ev):

   -17.3131 -12.5663 -10.2466  -5.0672   1.0056   6.9238   7.8349   8.5159

     occupation numbers 
     1.0000   1.0000   1.0000   1.0000   0.0000   0.0000   0.0000   0.0000

          k = 0.1867 0.4542 0.0000 (  5268 PWs)   bands (ev):

   -17.2004 -12.7137 -10.2889  -4.9513   0.8597   7.0838   7.9723   8.5210

     occupation numbers 
     1.0000   1.0000   1.0000   1.0000   0.0000   0.0000   0.0000   0.0000

          k = 0.1867 0.4619 0.0000 (  5268 PWs)   bands (ev):

   -17.0863 -12.8609 -10.3284  -4.8357   0.7158   7.2459   8.1081   8.5136

     occupation numbers 
     1.0000   1.0000   1.0000   1.0000   0.0000   0.0000   0.0000   0.0000

          k = 0.1867 0.4696 0.0000 (  5274 PWs)   bands (ev):

   -16.9709 -13.0079 -10.3650  -4.7209   0.5743   7.4101   8.2414   8.5040

     occupation numbers 
     1.0000   1.0000   1.0000   1.0000   0.0000   0.0000   0.0000   0.0000

          k = 0.1867 0.4773 0.0000 (  5272 PWs)   bands (ev):

   -16.8543 -13.1543 -10.3988  -4.6073   0.4356   7.5761   8.3713   8.4943

     occupation numbers 
     1.0000   1.0000   1.0000   1.0000   0.0000   0.0000   0.0000   0.0000

          k = 0.1867 0.4850 0.0000 (  5278 PWs)   bands (ev):

   -16.7367 -13.2999 -10.4300  -4.4954   0.3003   7.7434   8.4855   8.4966

     occupation numbers 
     1.0000   1.0000   1.0000   1.0000   0.0000   0.0000   0.0000   0.0000

          k = 0.1867 0.4927 0.0000 (  5276 PWs)   bands (ev):

   -16.6182 -13.4445 -10.4585  -4.3858   0.1691   7.9115   8.4784   8.6161

     occupation numbers 
     1.0000   1.0000   1.0000   1.0000   0.0000   0.0000   0.0000   0.0000

          k = 0.1867 0.5004 0.0000 (  5272 PWs)   bands (ev):

   -16.4990 -13.5878 -10.4844  -4.2793   0.0426   8.0781   8.4753   8.7284

     occupation numbers 
     1.0000   1.0000   1.0000   1.0000   0.0000   0.0000   0.0000   0.0000

          k = 0.1867 0.5081 0.0000 (  5262 PWs)   bands (ev):

   -16.3795 -13.7294 -10.5078  -4.1766  -0.0781   8.2360   8.4834   8.8322

     occupation numbers 
     1.0000   1.0000   1.0000   1.0000   0.0000   0.0000   0.0000   0.0000

          k = 0.1867 0.5158 0.0000 (  5264 PWs)   bands (ev):

   -16.2600 -13.8687 -10.5286  -4.0789  -0.1922   8.3531   8.5348   8.9262

     occupation numbers 
     1.0000   1.0000   1.0000   1.0000   0.0000   0.0000   0.0000   0.0000

          k = 0.1867 0.5235 0.0000 (  5265 PWs)   bands (ev):

   -16.1412 -14.0052 -10.5470  -3.9872  -0.2984   8.3932   8.6656   9.0093

     occupation numbers 
     1.0000   1.0000   1.0000   1.0000   0.0000   0.0000   0.0000   0.0000

          k = 0.1867 0.5312 0.0000 (  5264 PWs)   bands (ev):

   -16.0240 -14.1378 -10.5628  -3.9029  -0.3952   8.4008   8.8313   9.0810

     occupation numbers 
     1.0000   1.0000   1.0000   1.0000   0.0000   0.0000   0.0000   0.0000

          k = 0.1867 0.5389 0.0000 (  5264 PWs)   bands (ev):

   -15.9098 -14.2651 -10.5762  -3.8275  -0.4813   8.4009   9.0063   9.1408

     occupation numbers 
     1.0000   1.0000   1.0000   1.0000   0.0000   0.0000   0.0000   0.0000

          k = 0.1867 0.5466 0.0000 (  5264 PWs)   bands (ev):

   -15.8010 -14.3847 -10.5871  -3.7626  -0.5550   8.3991   9.1849   9.1889

     occupation numbers 
     1.0000   1.0000   1.0000   1.0000   0.0000   0.0000   0.0000   0.0000

          k = 0.1867 0.5543 0.0000 (  5266 PWs)   bands (ev):

   -15.7014 -14.4926 -10.5956  -3.7098  -0.6145   8.3971   9.2256   9.3649

     occupation numbers 
     1.0000   1.0000   1.0000   1.0000   0.0000   0.0000   0.0000   0.0000

          k = 0.1867 0.5620 0.0000 (  5260 PWs)   bands (ev):

   -15.6176 -14.5825 -10.6016  -3.6708  -0.6584   8.3955   9.2513   9.5444

     occupation numbers 
     1.0000   1.0000   1.0000   1.0000   0.0000   0.0000   0.0000   0.0000

          k = 0.1867 0.5697 0.0000 (  5266 PWs)   bands (ev):

   -15.5594 -14.6443 -10.6053  -3.6469  -0.6853   8.3944   9.2665   9.7190

     occupation numbers 
     1.0000   1.0000   1.0000   1.0000   0.0000   0.0000   0.0000   0.0000

          k = 0.1867 0.5774 0.0000 (  5266 PWs)   bands (ev):

   -15.5382 -14.6667 -10.6065  -3.6388  -0.6944   8.3940   9.2715   9.8378

     occupation numbers 
     1.0000   1.0000   1.0000   1.0000   0.0000   0.0000   0.0000   0.0000

          k = 0.1933 0.3349 0.0000 (  5276 PWs)   bands (ev):

   -18.7219 -10.6253  -9.2955  -6.6132   3.1103   4.9411   5.9785   6.5551

     occupation numbers 
     1.0000   1.0000   1.0000   1.0000   0.0000   0.0000   0.0000   0.0000

          k = 0.1933 0.3426 0.0000 (  5281 PWs)   bands (ev):

   -18.6337 -10.7394  -9.3975  -6.5128   2.9648   5.0643   6.0981   6.6827

     occupation numbers 
     1.0000   1.0000   1.0000   1.0000   0.0000   0.0000   0.0000   0.0000

          k = 0.1933 0.3503 0.0000 (  5285 PWs)   bands (ev):

   -18.5437 -10.8568  -9.4954  -6.4106   2.8184   5.1902   6.2199   6.8132

     occupation numbers 
     1.0000   1.0000   1.0000   1.0000   0.0000   0.0000   0.0000   0.0000

          k = 0.1933 0.3580 0.0000 (  5283 PWs)   bands (ev):

   -18.4519 -10.9776  -9.5889  -6.3067   2.6713   5.3188   6.3438   6.9465

     occupation numbers 
     1.0000   1.0000   1.0000   1.0000   0.0000   0.0000   0.0000   0.0000

          k = 0.1933 0.3657 0.0000 (  5285 PWs)   bands (ev):

   -18.3583 -11.1017  -9.6779  -6.2013   2.5235   5.4500   6.4699   7.0827

     occupation numbers 
     1.0000   1.0000   1.0000   1.0000   0.0000   0.0000   0.0000   0.0000

          k = 0.1933 0.3734 0.0000 (  5287 PWs)   bands (ev):

   -18.2629 -11.2291  -9.7624  -6.0942   2.3751   5.5838   6.5978   7.2217

     occupation numbers 
     1.0000   1.0000   1.0000   1.0000   0.0000   0.0000   0.0000   0.0000

          k = 0.1933 0.3811 0.0000 (  5285 PWs)   bands (ev):

   -18.1658 -11.3594  -9.8423  -5.9857   2.2263   5.7203   6.7277   7.3635

     occupation numbers 
     1.0000   1.0000   1.0000   1.0000   0.0000   0.0000   0.0000   0.0000

          k = 0.1933 0.3887 0.0000 (  5287 PWs)   bands (ev):

   -18.0668 -11.4925  -9.9178  -5.8758   2.0773   5.8594   6.8592   7.5082

     occupation numbers 
     1.0000   1.0000   1.0000   1.0000   0.0000   0.0000   0.0000   0.0000

          k = 0.1933 0.3964 0.0000 (  5287 PWs)   bands (ev):

   -17.9662 -11.6282  -9.9890  -5.7646   1.9280   6.0010   6.9921   7.6556

     occupation numbers 
     1.0000   1.0000   1.0000   1.0000   0.0000   0.0000   0.0000   0.0000

          k = 0.1933 0.4041 0.0000 (  5289 PWs)   bands (ev):

   -17.8638 -11.7660 -10.0561  -5.6523   1.7788   6.1453   7.1264   7.8058

     occupation numbers 
     1.0000   1.0000   1.0000   1.0000   0.0000   0.0000   0.0000   0.0000

          k = 0.1933 0.4118 0.0000 (  5287 PWs)   bands (ev):

   -17.7598 -11.9058 -10.1192  -5.5389   1.6297   6.2920   7.2618   7.9586

     occupation numbers 
     1.0000   1.0000   1.0000   1.0000   0.0000   0.0000   0.0000   0.0000

          k = 0.1933 0.4195 0.0000 (  5287 PWs)   bands (ev):

   -17.6541 -12.0471 -10.1785  -5.4246   1.4810   6.4412   7.3979   8.1139

     occupation numbers 
     1.0000   1.0000   1.0000   1.0000   0.0000   0.0000   0.0000   0.0000

          k = 0.1933 0.4272 0.0000 (  5281 PWs)   bands (ev):

   -17.5469 -12.1898 -10.2341  -5.3095   1.3328   6.5929   7.5344   8.2714

     occupation numbers 
     1.0000   1.0000   1.0000   1.0000   0.0000   0.0000   0.0000   0.0000

          k = 0.1933 0.4349 0.0000 (  5273 PWs)   bands (ev):

   -17.4380 -12.3335 -10.2862  -5.1939   1.1854   6.7470   7.6709   8.4297

     occupation numbers 
     1.0000   1.0000   1.0000   1.0000   0.0000   0.0000   0.0000   0.0000

          k = 0.1933 0.4426 0.0000 (  5279 PWs)   bands (ev):

   -17.3276 -12.4780 -10.3349  -5.0780   1.0390   6.9035   7.8068   8.5826

     occupation numbers 
     1.0000   1.0000   1.0000   1.0000   0.0000   0.0000   0.0000   0.0000

          k = 0.1933 0.4503 0.0000 (  5269 PWs)   bands (ev):

   -17.2158 -12.6230 -10.3804  -4.9620   0.8939   7.0623   7.9417   8.6795

     occupation numbers 
     1.0000   1.0000   1.0000   1.0000   0.0000   0.0000   0.0000   0.0000

          k = 0.1933 0.4580 0.0000 (  5269 PWs)   bands (ev):

   -17.1026 -12.7682 -10.4227  -4.8461   0.7505   7.2232   8.0747   8.6892

     occupation numbers 
     1.0000   1.0000   1.0000   1.0000   0.0000   0.0000   0.0000   0.0000

          k = 0.1933 0.4657 0.0000 (  5273 PWs)   bands (ev):

   -16.9880 -12.9135 -10.4620  -4.7308   0.6092   7.3863   8.2049   8.6826

     occupation numbers 
     1.0000   1.0000   1.0000   1.0000   0.0000   0.0000   0.0000   0.0000

          k = 0.1933 0.4734 0.0000 (  5275 PWs)   bands (ev):

   -16.8722 -13.0585 -10.4984  -4.6164   0.4702   7.5514   8.3315   8.6734

     occupation numbers 
     1.0000   1.0000   1.0000   1.0000   0.0000   0.0000   0.0000   0.0000

          k = 0.1933 0.4811 0.0000 (  5273 PWs)   bands (ev):

   -16.7553 -13.2030 -10.5319  -4.5033   0.3343   7.7183   8.4532   8.6640

     occupation numbers 
     1.0000   1.0000   1.0000   1.0000   0.0000   0.0000   0.0000   0.0000

          k = 0.1933 0.4888 0.0000 (  5275 PWs)   bands (ev):

   -16.6375 -13.3468 -10.5626  -4.3923   0.2018   7.8865   8.5688   8.6553

     occupation numbers 
     1.0000   1.0000   1.0000   1.0000   0.0000   0.0000   0.0000   0.0000

          k = 0.1933 0.4965 0.0000 (  5267 PWs)   bands (ev):

   -16.5188 -13.4895 -10.5906  -4.2838   0.0737   8.0555   8.6482   8.6770

     occupation numbers 
     1.0000   1.0000   1.0000   1.0000   0.0000   0.0000   0.0000   0.0000

          k = 0.1933 0.5042 0.0000 (  5267 PWs)   bands (ev):

   -16.3997 -13.6309 -10.6159  -4.1786  -0.0495   8.2235   8.6446   8.7765

     occupation numbers 
     1.0000   1.0000   1.0000   1.0000   0.0000   0.0000   0.0000   0.0000

          k = 0.1933 0.5119 0.0000 (  5261 PWs)   bands (ev):

   -16.2804 -13.7704 -10.6386  -4.0778  -0.1666   8.3846   8.6502   8.8662

     occupation numbers 
     1.0000   1.0000   1.0000   1.0000   0.0000   0.0000   0.0000   0.0000

          k = 0.1933 0.5196 0.0000 (  5264 PWs)   bands (ev):

   -16.1614 -13.9074 -10.6586  -3.9823  -0.2766   8.5122   8.6917   8.9453

     occupation numbers 
     1.0000   1.0000   1.0000   1.0000   0.0000   0.0000   0.0000   0.0000

          k = 0.1933 0.5273 0.0000 (  5268 PWs)   bands (ev):

   -16.0435 -14.0413 -10.6761  -3.8935  -0.3783   8.5621   8.8131   9.0132

     occupation numbers 
     1.0000   1.0000   1.0000   1.0000   0.0000   0.0000   0.0000   0.0000

          k = 0.1933 0.5350 0.0000 (  5266 PWs)   bands (ev):

   -15.9279 -14.1707 -10.6911  -3.8127  -0.4700   8.5723   8.9763   9.0700

     occupation numbers 
     1.0000   1.0000   1.0000   1.0000   0.0000   0.0000   0.0000   0.0000

          k = 0.1933 0.5427 0.0000 (  5262 PWs)   bands (ev):

   -15.8163 -14.2938 -10.7035  -3.7417  -0.5503   8.5734   9.1160   9.1503

     occupation numbers 
     1.0000   1.0000   1.0000   1.0000   0.0000   0.0000   0.0000   0.0000

          k = 0.1933 0.5504 0.0000 (  5266 PWs)   bands (ev):

   -15.7117 -14.4077 -10.7134  -3.6820  -0.6173   8.5723   9.1517   9.3278

     occupation numbers 
     1.0000   1.0000   1.0000   1.0000   0.0000   0.0000   0.0000   0.0000

          k = 0.1933 0.5581 0.0000 (  5272 PWs)   bands (ev):

   -15.6192 -14.5071 -10.7208  -3.6354  -0.6695   8.5708   9.1777   9.5060

     occupation numbers 
     1.0000   1.0000   1.0000   1.0000   0.0000   0.0000   0.0000   0.0000

          k = 0.1933 0.5658 0.0000 (  5266 PWs)   bands (ev):

   -15.5470 -14.5840 -10.7258  -3.6033  -0.7053   8.5696   9.1946   9.6821

     occupation numbers 
     1.0000   1.0000   1.0000   1.0000   0.0000   0.0000   0.0000   0.0000

          k = 0.1933 0.5735 0.0000 (  5268 PWs)   bands (ev):

   -15.5061 -14.6272 -10.7283  -3.5869  -0.7235   8.5689   9.2030   9.8428

     occupation numbers 
     1.0000   1.0000   1.0000   1.0000   0.0000   0.0000   0.0000   0.0000

          k = 0.2000 0.3464 0.0000 (  5282 PWs)   bands (ev):

   -18.5448 -10.8484  -9.5031  -6.4117   2.8214   5.1888   6.2182   6.8117

     occupation numbers 
     1.0000   1.0000   1.0000   1.0000   0.0000   0.0000   0.0000   0.0000

          k = 0.2000 0.3541 0.0000 (  5280 PWs)   bands (ev):

   -18.4540 -10.9607  -9.6044  -6.3088   2.6771   5.3160   6.3405   6.9436

     occupation numbers 
     1.0000   1.0000   1.0000   1.0000   0.0000   0.0000   0.0000   0.0000

          k = 0.2000 0.3618 0.0000 (  5280 PWs)   bands (ev):

   -18.3613 -11.0765  -9.7013  -6.2043   2.5320   5.4458   6.4649   7.0784

     occupation numbers 
     1.0000   1.0000   1.0000   1.0000   0.0000   0.0000   0.0000   0.0000

          k = 0.2000 0.3695 0.0000 (  5288 PWs)   bands (ev):

   -18.2669 -11.1958  -9.7935  -6.0982   2.3864   5.5783   6.5912   7.2160

     occupation numbers 
     1.0000   1.0000   1.0000   1.0000   0.0000   0.0000   0.0000   0.0000

          k = 0.2000 0.3772 0.0000 (  5284 PWs)   bands (ev):

   -18.1708 -11.3184  -9.8810  -5.9906   2.2402   5.7134   6.7193   7.3564

     occupation numbers 
     1.0000   1.0000   1.0000   1.0000   0.0000   0.0000   0.0000   0.0000

          k = 0.2000 0.3849 0.0000 (  5280 PWs)   bands (ev):

   -18.0728 -11.4443  -9.9637  -5.8815   2.0936   5.8511   6.8490   7.4997

     occupation numbers 
     1.0000   1.0000   1.0000   1.0000   0.0000   0.0000   0.0000   0.0000

          k = 0.2000 0.3926 0.0000 (  5276 PWs)   bands (ev):

   -17.9731 -11.5732 -10.0417  -5.7711   1.9467   5.9914   6.9802   7.6458

     occupation numbers 
     1.0000   1.0000   1.0000   1.0000   0.0000   0.0000   0.0000   0.0000

          k = 0.2000 0.4003 0.0000 (  5280 PWs)   bands (ev):

   -17.8718 -11.7049 -10.1151  -5.6595   1.7997   6.1343   7.1126   7.7946

     occupation numbers 
     1.0000   1.0000   1.0000   1.0000   0.0000   0.0000   0.0000   0.0000

          k = 0.2000 0.4080 0.0000 (  5280 PWs)   bands (ev):

   -17.7687 -11.8390 -10.1840  -5.5467   1.6527   6.2796   7.2460   7.9462

     occupation numbers 
     1.0000   1.0000   1.0000   1.0000   0.0000   0.0000   0.0000   0.0000

          k = 0.2000 0.4157 0.0000 (  5286 PWs)   bands (ev):

   -17.6640 -11.9754 -10.2487  -5.4330   1.5059   6.4275   7.3801   8.1005

     occupation numbers 
     1.0000   1.0000   1.0000   1.0000   0.0000   0.0000   0.0000   0.0000

          k = 0.2000 0.4234 0.0000 (  5286 PWs)   bands (ev):

   -17.5577 -12.1136 -10.3092  -5.3184   1.3595   6.5779   7.5144   8.2573

     occupation numbers 
     1.0000   1.0000   1.0000   1.0000   0.0000   0.0000   0.0000   0.0000

          k = 0.2000 0.4311 0.0000 (  5282 PWs)   bands (ev):

   -17.4497 -12.2533 -10.3658  -5.2031   1.2136   6.7307   7.6487   8.4163

     occupation numbers 
     1.0000   1.0000   1.0000   1.0000   0.0000   0.0000   0.0000   0.0000

          k = 0.2000 0.4388 0.0000 (  5275 PWs)   bands (ev):

   -17.3403 -12.3943 -10.4186  -5.0874   1.0685   6.8858   7.7823   8.5764

     occupation numbers 
     1.0000   1.0000   1.0000   1.0000   0.0000   0.0000   0.0000   0.0000

          k = 0.2000 0.4465 0.0000 (  5273 PWs)   bands (ev):

   -17.2294 -12.5363 -10.4679  -4.9714   0.9245   7.0433   7.9145   8.7327

     occupation numbers 
     1.0000   1.0000   1.0000   1.0000   0.0000   0.0000   0.0000   0.0000

          k = 0.2000 0.4542 0.0000 (  5265 PWs)   bands (ev):

   -17.1170 -12.6789 -10.5137  -4.8554   0.7819   7.2031   8.0447   8.8432

     occupation numbers 
     1.0000   1.0000   1.0000   1.0000   0.0000   0.0000   0.0000   0.0000

          k = 0.2000 0.4619 0.0000 (  5271 PWs)   bands (ev):

   -17.0033 -12.8219 -10.5562  -4.7397   0.6409   7.3650   8.1720   8.8586

     occupation numbers 
     1.0000   1.0000   1.0000   1.0000   0.0000   0.0000   0.0000   0.0000

          k = 0.2000 0.4696 0.0000 (  5267 PWs)   bands (ev):

   -16.8883 -12.9650 -10.5955  -4.6246   0.5021   7.5290   8.2952   8.8529

     occupation numbers 
     1.0000   1.0000   1.0000   1.0000   0.0000   0.0000   0.0000   0.0000

          k = 0.2000 0.4773 0.0000 (  5277 PWs)   bands (ev):

   -16.7722 -13.1080 -10.6317  -4.5107   0.3658   7.6949   8.4133   8.8441

     occupation numbers 
     1.0000   1.0000   1.0000   1.0000   0.0000   0.0000   0.0000   0.0000

          k = 0.2000 0.4850 0.0000 (  5275 PWs)   bands (ev):

   -16.6550 -13.2505 -10.6649  -4.3983   0.2326   7.8625   8.5251   8.8350

     occupation numbers 
     1.0000   1.0000   1.0000   1.0000   0.0000   0.0000   0.0000   0.0000

          k = 0.2000 0.4927 0.0000 (  5267 PWs)   bands (ev):

   -16.5369 -13.3923 -10.6952  -4.2881   0.1031   8.0316   8.6291   8.8264

     occupation numbers 
     1.0000   1.0000   1.0000   1.0000   0.0000   0.0000   0.0000   0.0000

          k = 0.2000 0.5004 0.0000 (  5271 PWs)   bands (ev):

   -16.4183 -13.5331 -10.7227  -4.1808  -0.0220   8.2013   8.7244   8.8193

     occupation numbers 
     1.0000   1.0000   1.0000   1.0000   0.0000   0.0000   0.0000   0.0000

          k = 0.2000 0.5081 0.0000 (  5264 PWs)   bands (ev):

   -16.2992 -13.6723 -10.7474  -4.0771  -0.1418   8.3703   8.8097   8.8153

     occupation numbers 
     1.0000   1.0000   1.0000   1.0000   0.0000   0.0000   0.0000   0.0000

          k = 0.2000 0.5158 0.0000 (  5264 PWs)   bands (ev):

   -16.1803 -13.8096 -10.7694  -3.9783  -0.2552   8.5338   8.8191   8.8846

     occupation numbers 
     1.0000   1.0000   1.0000   1.0000   0.0000   0.0000   0.0000   0.0000

          k = 0.2000 0.5235 0.0000 (  5270 PWs)   bands (ev):

   -16.0620 -13.9441 -10.7887  -3.8853  -0.3610   8.6703   8.8522   8.9488

     occupation numbers 
     1.0000   1.0000   1.0000   1.0000   0.0000   0.0000   0.0000   0.0000

          k = 0.2000 0.5312 0.0000 (  5276 PWs)   bands (ev):

   -15.9454 -14.0751 -10.8054  -3.7996  -0.4579   8.7313   8.9627   9.0023

     occupation numbers 
     1.0000   1.0000   1.0000   1.0000   0.0000   0.0000   0.0000   0.0000

          k = 0.2000 0.5389 0.0000 (  5270 PWs)   bands (ev):

   -15.8317 -14.2009 -10.8194  -3.7227  -0.5443   8.7446   9.0458   9.1227

     occupation numbers 
     1.0000   1.0000   1.0000   1.0000   0.0000   0.0000   0.0000   0.0000

          k = 0.2000 0.5466 0.0000 (  5270 PWs)   bands (ev):

   -15.7235 -14.3192 -10.8309  -3.6564  -0.6185   8.7468   9.0798   9.2951

     occupation numbers 
     1.0000   1.0000   1.0000   1.0000   0.0000   0.0000   0.0000   0.0000

          k = 0.2000 0.5543 0.0000 (  5270 PWs)   bands (ev):

   -15.6244 -14.4260 -10.8398  -3.6023  -0.6786   8.7464   9.1053   9.4708

     occupation numbers 
     1.0000   1.0000   1.0000   1.0000   0.0000   0.0000   0.0000   0.0000

          k = 0.2000 0.5620 0.0000 (  5272 PWs)   bands (ev):

   -15.5410 -14.5150 -10.8461  -3.5622  -0.7231   8.7454   9.1229   9.6464

     occupation numbers 
     1.0000   1.0000   1.0000   1.0000   0.0000   0.0000   0.0000   0.0000

          k = 0.2000 0.5697 0.0000 (  5268 PWs)   bands (ev):

   -15.4831 -14.5763 -10.8499  -3.5375  -0.7504   8.7446   9.1332   9.8159

     occupation numbers 
     1.0000   1.0000   1.0000   1.0000   0.0000   0.0000   0.0000   0.0000

          k = 0.2000 0.5774 0.0000 (  5262 PWs)   bands (ev):

   -15.4620 -14.5986 -10.8512  -3.5292  -0.7596   8.7443   9.1366   9.9273

     occupation numbers 
     1.0000   1.0000   1.0000   1.0000   0.0000   0.0000   0.0000   0.0000

          k = 0.2067 0.3580 0.0000 (  5278 PWs)   bands (ev):

   -18.3623 -11.0679  -9.7093  -6.2053   2.5349   5.4444   6.4632   7.0770

     occupation numbers 
     1.0000   1.0000   1.0000   1.0000   0.0000   0.0000   0.0000   0.0000

          k = 0.2067 0.3657 0.0000 (  5284 PWs)   bands (ev):

   -18.2689 -11.1785  -9.8097  -6.1002   2.3920   5.5755   6.5878   7.2131

     occupation numbers 
     1.0000   1.0000   1.0000   1.0000   0.0000   0.0000   0.0000   0.0000

          k = 0.2067 0.3734 0.0000 (  5284 PWs)   bands (ev):

   -18.1737 -11.2926  -9.9054  -5.9935   2.2485   5.7093   6.7142   7.3522

     occupation numbers 
     1.0000   1.0000   1.0000   1.0000   0.0000   0.0000   0.0000   0.0000

          k = 0.2067 0.3811 0.0000 (  5280 PWs)   bands (ev):

   -18.0768 -11.4102  -9.9962  -5.8853   2.1045   5.8456   6.8422   7.4940

     occupation numbers 
     1.0000   1.0000   1.0000   1.0000   0.0000   0.0000   0.0000   0.0000

          k = 0.2067 0.3887 0.0000 (  5278 PWs)   bands (ev):

   -17.9781 -11.5313 -10.0820  -5.7758   1.9602   5.9845   6.9716   7.6387

     occupation numbers 
     1.0000   1.0000   1.0000   1.0000   0.0000   0.0000   0.0000   0.0000

          k = 0.2067 0.3964 0.0000 (  5272 PWs)   bands (ev):

   -17.8777 -11.6556 -10.1628  -5.6649   1.8156   6.1260   7.1021   7.7862

     occupation numbers 
     1.0000   1.0000   1.0000   1.0000   0.0000   0.0000   0.0000   0.0000

          k = 0.2067 0.4041 0.0000 (  5272 PWs)   bands (ev):

   -17.7756 -11.7829 -10.2387  -5.5528   1.6708   6.2700   7.2336   7.9365

     occupation numbers 
     1.0000   1.0000   1.0000   1.0000   0.0000   0.0000   0.0000   0.0000

          k = 0.2067 0.4118 0.0000 (  5282 PWs)   bands (ev):

   -17.6719 -11.9131 -10.3098  -5.4397   1.5261   6.4166   7.3657   8.0895

     occupation numbers 
     1.0000   1.0000   1.0000   1.0000   0.0000   0.0000   0.0000   0.0000

          k = 0.2067 0.4195 0.0000 (  5286 PWs)   bands (ev):

   -17.5665 -12.0457 -10.3763  -5.3257   1.3816   6.5656   7.4980   8.2452

     occupation numbers 
     1.0000   1.0000   1.0000   1.0000   0.0000   0.0000   0.0000   0.0000

          k = 0.2067 0.4272 0.0000 (  5286 PWs)   bands (ev):

   -17.4595 -12.1804 -10.4384  -5.2108   1.2375   6.7170   7.6300   8.4035

     occupation numbers 
     1.0000   1.0000   1.0000   1.0000   0.0000   0.0000   0.0000   0.0000

          k = 0.2067 0.4349 0.0000 (  5277 PWs)   bands (ev):

   -17.3510 -12.3170 -10.4962  -5.0954   1.0940   6.8708   7.7612   8.5640

     occupation numbers 
     1.0000   1.0000   1.0000   1.0000   0.0000   0.0000   0.0000   0.0000

          k = 0.2067 0.4426 0.0000 (  5275 PWs)   bands (ev):

   -17.2410 -12.4550 -10.5500  -4.9795   0.9512   7.0270   7.8910   8.7258

     occupation numbers 
     1.0000   1.0000   1.0000   1.0000   0.0000   0.0000   0.0000   0.0000

          k = 0.2067 0.4503 0.0000 (  5271 PWs)   bands (ev):

   -17.1295 -12.5942 -10.6000  -4.8635   0.8096   7.1855   8.0184   8.8850

     occupation numbers 
     1.0000   1.0000   1.0000   1.0000   0.0000   0.0000   0.0000   0.0000

          k = 0.2067 0.4580 0.0000 (  5271 PWs)   bands (ev):

   -17.0167 -12.7343 -10.6463  -4.7475   0.6694   7.3461   8.1427   9.0069

     occupation numbers 
     1.0000   1.0000   1.0000   1.0000   0.0000   0.0000   0.0000   0.0000

          k = 0.2067 0.4657 0.0000 (  5267 PWs)   bands (ev):

   -16.9025 -12.8749 -10.6890  -4.6320   0.5309   7.5089   8.2627   9.0288

     occupation numbers 
     1.0000   1.0000   1.0000   1.0000   0.0000   0.0000   0.0000   0.0000

          k = 0.2067 0.4734 0.0000 (  5271 PWs)   bands (ev):

   -16.7872 -13.0157 -10.7284  -4.5173   0.3946   7.6737   8.3773   9.0241

     occupation numbers 
     1.0000   1.0000   1.0000   1.0000   0.0000   0.0000   0.0000   0.0000

          k = 0.2067 0.4811 0.0000 (  5271 PWs)   bands (ev):

   -16.6707 -13.1565 -10.7646  -4.4039   0.2610   7.8404   8.4851   9.0157

     occupation numbers 
     1.0000   1.0000   1.0000   1.0000   0.0000   0.0000   0.0000   0.0000

          k = 0.2067 0.4888 0.0000 (  5271 PWs)   bands (ev):

   -16.5533 -13.2969 -10.7976  -4.2922   0.1305   8.0087   8.5851   9.0067

     occupation numbers 
     1.0000   1.0000   1.0000   1.0000   0.0000   0.0000   0.0000   0.0000

          k = 0.2067 0.4965 0.0000 (  5270 PWs)   bands (ev):

   -16.4352 -13.4366 -10.8276  -4.1830   0.0040   8.1784   8.6761   8.9983

     occupation numbers 
     1.0000   1.0000   1.0000   1.0000   0.0000   0.0000   0.0000   0.0000

          k = 0.2067 0.5042 0.0000 (  5272 PWs)   bands (ev):

   -16.3165 -13.5751 -10.8546  -4.0769  -0.1180   8.3488   8.7571   8.9913

     occupation numbers 
     1.0000   1.0000   1.0000   1.0000   0.0000   0.0000   0.0000   0.0000

          k = 0.2067 0.5119 0.0000 (  5272 PWs)   bands (ev):

   -16.1978 -13.7122 -10.8788  -3.9749  -0.2343   8.5186   8.8278   8.9870

     occupation numbers 
     1.0000   1.0000   1.0000   1.0000   0.0000   0.0000   0.0000   0.0000

          k = 0.2067 0.5196 0.0000 (  5274 PWs)   bands (ev):

   -16.0793 -13.8470 -10.9001  -3.8782  -0.3438   8.6838   8.8880   8.9894

     occupation numbers 
     1.0000   1.0000   1.0000   1.0000   0.0000   0.0000   0.0000   0.0000

          k = 0.2067 0.5273 0.0000 (  5278 PWs)   bands (ev):

   -15.9620 -13.9789 -10.9187  -3.7879  -0.4454   8.8273   8.9381   9.0156

     occupation numbers 
     1.0000   1.0000   1.0000   1.0000   0.0000   0.0000   0.0000   0.0000

          k = 0.2067 0.5350 0.0000 (  5278 PWs)   bands (ev):

   -15.8470 -14.1065 -10.9345  -3.7056  -0.5374   8.9000   8.9787   9.1143

     occupation numbers 
     1.0000   1.0000   1.0000   1.0000   0.0000   0.0000   0.0000   0.0000

          k = 0.2067 0.5427 0.0000 (  5278 PWs)   bands (ev):

   -15.7359 -14.2281 -10.9476  -3.6329  -0.6181   8.9172   9.0107   9.2700

     occupation numbers 
     1.0000   1.0000   1.0000   1.0000   0.0000   0.0000   0.0000   0.0000

          k = 0.2067 0.5504 0.0000 (  5276 PWs)   bands (ev):

   -15.6319 -14.3407 -10.9581  -3.5717  -0.6859   8.9207   9.0350   9.4402

     occupation numbers 
     1.0000   1.0000   1.0000   1.0000   0.0000   0.0000   0.0000   0.0000

          k = 0.2067 0.5581 0.0000 (  5272 PWs)   bands (ev):

   -15.5399 -14.4391 -10.9660  -3.5237  -0.7388   8.9209   9.0524   9.6134

     occupation numbers 
     1.0000   1.0000   1.0000   1.0000   0.0000   0.0000   0.0000   0.0000

          k = 0.2067 0.5658 0.0000 (  5268 PWs)   bands (ev):

   -15.4680 -14.5153 -10.9712  -3.4906  -0.7751   8.9204   9.0636   9.7845

     occupation numbers 
     1.0000   1.0000   1.0000   1.0000   0.0000   0.0000   0.0000   0.0000

          k = 0.2067 0.5735 0.0000 (  5266 PWs)   bands (ev):

   -15.4273 -14.5582 -10.9738  -3.4738  -0.7936   8.9200   9.0690   9.9378

     occupation numbers 
     1.0000   1.0000   1.0000   1.0000   0.0000   0.0000   0.0000   0.0000

          k = 0.2133 0.3695 0.0000 (  5286 PWs)   bands (ev):

   -18.1747 -11.2838  -9.9138  -5.9945   2.2513   5.7079   6.7125   7.3508

     occupation numbers 
     1.0000   1.0000   1.0000   1.0000   0.0000   0.0000   0.0000   0.0000

          k = 0.2133 0.3772 0.0000 (  5282 PWs)   bands (ev):

   -18.0788 -11.3926 -10.0131  -5.8872   2.1100   5.8428   6.8388   7.4912

     occupation numbers 
     1.0000   1.0000   1.0000   1.0000   0.0000   0.0000   0.0000   0.0000

          k = 0.2133 0.3849 0.0000 (  5278 PWs)   bands (ev):

   -17.9811 -11.5049 -10.1074  -5.7785   1.9683   5.9804   6.9664   7.6345

     occupation numbers 
     1.0000   1.0000   1.0000   1.0000   0.0000   0.0000   0.0000   0.0000

          k = 0.2133 0.3926 0.0000 (  5276 PWs)   bands (ev):

   -17.8817 -11.6208 -10.1966  -5.6685   1.8262   6.1205   7.0952   7.7806

     occupation numbers 
     1.0000   1.0000   1.0000   1.0000   0.0000   0.0000   0.0000   0.0000

          k = 0.2133 0.4003 0.0000 (  5274 PWs)   bands (ev):

   -17.7806 -11.7401 -10.2805  -5.5572   1.6839   6.2631   7.2248   7.9295

     occupation numbers 
     1.0000   1.0000   1.0000   1.0000   0.0000   0.0000   0.0000   0.0000

          k = 0.2133 0.4080 0.0000 (  5280 PWs)   bands (ev):

   -17.6778 -11.8628 -10.3593  -5.4448   1.5414   6.4083   7.3549   8.0812

     occupation numbers 
     1.0000   1.0000   1.0000   1.0000   0.0000   0.0000   0.0000   0.0000

          k = 0.2133 0.4157 0.0000 (  5284 PWs)   bands (ev):

   -17.5734 -11.9885 -10.4329  -5.3313   1.3990   6.5560   7.4852   8.2357

     occupation numbers 
     1.0000   1.0000   1.0000   1.0000   0.0000   0.0000   0.0000   0.0000

          k = 0.2133 0.4234 0.0000 (  5280 PWs)   bands (ev):

   -17.4674 -12.1170 -10.5016  -5.2170   1.2568   6.7060   7.6150   8.3928

     occupation numbers 
     1.0000   1.0000   1.0000   1.0000   0.0000   0.0000   0.0000   0.0000

          k = 0.2133 0.4311 0.0000 (  5278 PWs)   bands (ev):

   -17.3598 -12.2480 -10.5655  -5.1019   1.1151   6.8585   7.7439   8.5524

     occupation numbers 
     1.0000   1.0000   1.0000   1.0000   0.0000   0.0000   0.0000   0.0000

          k = 0.2133 0.4388 0.0000 (  5277 PWs)   bands (ev):

   -17.2507 -12.3810 -10.6248  -4.9863   0.9739   7.0134   7.8712   8.7144

     occupation numbers 
     1.0000   1.0000   1.0000   1.0000   0.0000   0.0000   0.0000   0.0000

          k = 0.2133 0.4465 0.0000 (  5275 PWs)   bands (ev):

   -17.1401 -12.5158 -10.6799  -4.8704   0.8335   7.1705   7.9959   8.8778

     occupation numbers 
     1.0000   1.0000   1.0000   1.0000   0.0000   0.0000   0.0000   0.0000

          k = 0.2133 0.4542 0.0000 (  5271 PWs)   bands (ev):

   -17.0282 -12.6520 -10.7308  -4.7543   0.6943   7.3299   8.1173   9.0393

     occupation numbers 
     1.0000   1.0000   1.0000   1.0000   0.0000   0.0000   0.0000   0.0000

          k = 0.2133 0.4619 0.0000 (  5269 PWs)   bands (ev):

   -16.9149 -12.7893 -10.7777  -4.6385   0.5565   7.4914   8.2341   9.1704

     occupation numbers 
     1.0000   1.0000   1.0000   1.0000   0.0000   0.0000   0.0000   0.0000

          k = 0.2133 0.4696 0.0000 (  5271 PWs)   bands (ev):

   -16.8003 -12.9273 -10.8209  -4.5233   0.4205   7.6550   8.3452   9.1993

     occupation numbers 
     1.0000   1.0000   1.0000   1.0000   0.0000   0.0000   0.0000   0.0000

          k = 0.2133 0.4773 0.0000 (  5267 PWs)   bands (ev):

   -16.6846 -13.0656 -10.8606  -4.4089   0.2868   7.8206   8.4493   9.1955

     occupation numbers 
     1.0000   1.0000   1.0000   1.0000   0.0000   0.0000   0.0000   0.0000

          k = 0.2133 0.4850 0.0000 (  5266 PWs)   bands (ev):

   -16.5679 -13.2041 -10.8968  -4.2960   0.1558   7.9879   8.5452   9.1874

     occupation numbers 
     1.0000   1.0000   1.0000   1.0000   0.0000   0.0000   0.0000   0.0000

          k = 0.2133 0.4927 0.0000 (  5276 PWs)   bands (ev):

   -16.4504 -13.3422 -10.9297  -4.1851   0.0281   8.1568   8.6320   9.1787

     occupation numbers 
     1.0000   1.0000   1.0000   1.0000   0.0000   0.0000   0.0000   0.0000

          k = 0.2133 0.5004 0.0000 (  5276 PWs)   bands (ev):

   -16.3322 -13.4796 -10.9594  -4.0769  -0.0955   8.3269   8.7087   9.1704

     occupation numbers 
     1.0000   1.0000   1.0000   1.0000   0.0000   0.0000   0.0000   0.0000

          k = 0.2133 0.5081 0.0000 (  5276 PWs)   bands (ev):

   -16.2137 -13.6159 -10.9860  -3.9723  -0.2142   8.4977   8.7752   9.1634

     occupation numbers 
     1.0000   1.0000   1.0000   1.0000   0.0000   0.0000   0.0000   0.0000

          k = 0.2133 0.5158 0.0000 (  5278 PWs)   bands (ev):

   -16.0954 -13.7505 -11.0097  -3.8721  -0.3270   8.6680   8.8314   9.1590

     occupation numbers 
     1.0000   1.0000   1.0000   1.0000   0.0000   0.0000   0.0000   0.0000

          k = 0.2133 0.5235 0.0000 (  5280 PWs)   bands (ev):

   -15.9777 -13.8827 -11.0303  -3.7776  -0.4326   8.8344   8.8778   9.1604

     occupation numbers 
     1.0000   1.0000   1.0000   1.0000   0.0000   0.0000   0.0000   0.0000

          k = 0.2133 0.5312 0.0000 (  5290 PWs)   bands (ev):

   -15.8616 -14.0115 -11.0482  -3.6903  -0.5297   8.9154   8.9830   9.1813

     occupation numbers 
     1.0000   1.0000   1.0000   1.0000   0.0000   0.0000   0.0000   0.0000

          k = 0.2133 0.5389 0.0000 (  5284 PWs)   bands (ev):

   -15.7486 -14.1355 -11.0632  -3.6117  -0.6166   8.9449   9.0675   9.2678

     occupation numbers 
     1.0000   1.0000   1.0000   1.0000   0.0000   0.0000   0.0000   0.0000

          k = 0.2133 0.5466 0.0000 (  5278 PWs)   bands (ev):

   -15.6409 -14.2523 -11.0754  -3.5436  -0.6915   8.9675   9.0893   9.4178

     occupation numbers 
     1.0000   1.0000   1.0000   1.0000   0.0000   0.0000   0.0000   0.0000

          k = 0.2133 0.5543 0.0000 (  5278 PWs)   bands (ev):

   -15.5423 -14.3579 -11.0849  -3.4879  -0.7525   8.9841   9.0942   9.5850

     occupation numbers 
     1.0000   1.0000   1.0000   1.0000   0.0000   0.0000   0.0000   0.0000

          k = 0.2133 0.5620 0.0000 (  5280 PWs)   bands (ev):

   -15.4593 -14.4460 -11.0916  -3.4465  -0.7977   8.9953   9.0952   9.7545

     occupation numbers 
     1.0000   1.0000   1.0000   1.0000   0.0000   0.0000   0.0000   0.0000

          k = 0.2133 0.5697 0.0000 (  5272 PWs)   bands (ev):

   -15.4016 -14.5067 -11.0957  -3.4209  -0.8255   9.0018   9.0952   9.9174

     occupation numbers 
     1.0000   1.0000   1.0000   1.0000   0.0000   0.0000   0.0000   0.0000

          k = 0.2133 0.5774 0.0000 (  5268 PWs)   bands (ev):

   -15.3806 -14.5288 -11.0970  -3.4122  -0.8349   9.0039   9.0951  10.0202

     occupation numbers 
     1.0000   1.0000   1.0000   1.0000   0.0000   0.0000   0.0000   0.0000

          k = 0.2200 0.3811 0.0000 (  5278 PWs)   bands (ev):

   -17.9821 -11.4958 -10.1161  -5.7795   1.9710   5.9790   6.9647   7.6331

     occupation numbers 
     1.0000   1.0000   1.0000   1.0000   0.0000   0.0000   0.0000   0.0000

          k = 0.2200 0.3887 0.0000 (  5280 PWs)   bands (ev):

   -17.8837 -11.6027 -10.2141  -5.6703   1.8315   6.1177   7.0917   7.7778

     occupation numbers 
     1.0000   1.0000   1.0000   1.0000   0.0000   0.0000   0.0000   0.0000

          k = 0.2200 0.3964 0.0000 (  5276 PWs)   bands (ev):

   -17.7835 -11.7131 -10.3069  -5.5599   1.6917   6.2590   7.2195   7.9253

     occupation numbers 
     1.0000   1.0000   1.0000   1.0000   0.0000   0.0000   0.0000   0.0000

          k = 0.2200 0.4041 0.0000 (  5280 PWs)   bands (ev):

   -17.6817 -11.8272 -10.3943  -5.4482   1.5517   6.4028   7.3477   8.0756

     occupation numbers 
     1.0000   1.0000   1.0000   1.0000   0.0000   0.0000   0.0000   0.0000

          k = 0.2200 0.4118 0.0000 (  5274 PWs)   bands (ev):

   -17.5783 -11.9448 -10.4762  -5.3354   1.4116   6.5491   7.4759   8.2287

     occupation numbers 
     1.0000   1.0000   1.0000   1.0000   0.0000   0.0000   0.0000   0.0000

          k = 0.2200 0.4195 0.0000 (  5280 PWs)   bands (ev):

   -17.4732 -12.0658 -10.5527  -5.2216   1.2715   6.6978   7.6037   8.3846

     occupation numbers 
     1.0000   1.0000   1.0000   1.0000   0.0000   0.0000   0.0000   0.0000

          k = 0.2200 0.4272 0.0000 (  5280 PWs)   bands (ev):

   -17.3666 -12.1898 -10.6239  -5.1070   1.1316   6.8490   7.7303   8.5431

     occupation numbers 
     1.0000   1.0000   1.0000   1.0000   0.0000   0.0000   0.0000   0.0000

          k = 0.2200 0.4349 0.0000 (  5275 PWs)   bands (ev):

   -17.2585 -12.3166 -10.6900  -4.9918   0.9922   7.0025   7.8552   8.7042

     occupation numbers 
     1.0000   1.0000   1.0000   1.0000   0.0000   0.0000   0.0000   0.0000

          k = 0.2200 0.4426 0.0000 (  5275 PWs)   bands (ev):

   -17.1488 -12.4458 -10.7512  -4.8760   0.8534   7.1583   7.9773   8.8675

     occupation numbers 
     1.0000   1.0000   1.0000   1.0000   0.0000   0.0000   0.0000   0.0000

          k = 0.2200 0.4503 0.0000 (  5271 PWs)   bands (ev):

   -17.0377 -12.5770 -10.8077  -4.7601   0.7154   7.3163   8.0958   9.0324

     occupation numbers 
     1.0000   1.0000   1.0000   1.0000   0.0000   0.0000   0.0000   0.0000

          k = 0.2200 0.4580 0.0000 (  5271 PWs)   bands (ev):

   -16.9253 -12.7100 -10.8598  -4.6441   0.5786   7.4766   8.2095   9.1960

     occupation numbers 
     1.0000   1.0000   1.0000   1.0000   0.0000   0.0000   0.0000   0.0000

          k = 0.2200 0.4657 0.0000 (  5269 PWs)   bands (ev):

   -16.8116 -12.8442 -10.9077  -4.5284   0.4432   7.6389   8.3172   9.3339

     occupation numbers 
     1.0000   1.0000   1.0000   1.0000   0.0000   0.0000   0.0000   0.0000

          k = 0.2200 0.4734 0.0000 (  5265 PWs)   bands (ev):

   -16.6967 -12.9793 -10.9515  -4.4134   0.3097   7.8032   8.4177   9.3695

     occupation numbers 
     1.0000   1.0000   1.0000   1.0000   0.0000   0.0000   0.0000   0.0000

          k = 0.2200 0.4811 0.0000 (  5264 PWs)   bands (ev):

   -16.5807 -13.1150 -10.9915  -4.2995   0.1785   7.9694   8.5097   9.3666

     occupation numbers 
     1.0000   1.0000   1.0000   1.0000   0.0000   0.0000   0.0000   0.0000

          k = 0.2200 0.4888 0.0000 (  5268 PWs)   bands (ev):

   -16.4639 -13.2509 -11.0279  -4.1873   0.0502   8.1372   8.5923   9.3588

     occupation numbers 
     1.0000   1.0000   1.0000   1.0000   0.0000   0.0000   0.0000   0.0000

          k = 0.2200 0.4965 0.0000 (  5274 PWs)   bands (ev):

   -16.3463 -13.3865 -11.0608  -4.0772  -0.0747   8.3065   8.6648   9.3502

     occupation numbers 
     1.0000   1.0000   1.0000   1.0000   0.0000   0.0000   0.0000   0.0000

          k = 0.2200 0.5042 0.0000 (  5276 PWs)   bands (ev):

   -16.2282 -13.5215 -11.0903  -3.9701  -0.1954   8.4770   8.7270   9.3420

     occupation numbers 
     1.0000   1.0000   1.0000   1.0000   0.0000   0.0000   0.0000   0.0000

          k = 0.2200 0.5119 0.0000 (  5276 PWs)   bands (ev):

   -16.1100 -13.6553 -11.1166  -3.8669  -0.3109   8.6480   8.7792   9.3351

     occupation numbers 
     1.0000   1.0000   1.0000   1.0000   0.0000   0.0000   0.0000   0.0000

          k = 0.2200 0.5196 0.0000 (  5284 PWs)   bands (ev):

   -15.9922 -13.7873 -11.1397  -3.7687  -0.4201   8.8184   8.8220   9.3305

     occupation numbers 
     1.0000   1.0000   1.0000   1.0000   0.0000   0.0000   0.0000   0.0000

          k = 0.2200 0.5273 0.0000 (  5288 PWs)   bands (ev):

   -15.8755 -13.9167 -11.1598  -3.6767  -0.5217   8.8563   8.9854   9.3312

     occupation numbers 
     1.0000   1.0000   1.0000   1.0000   0.0000   0.0000   0.0000   0.0000

          k = 0.2200 0.5350 0.0000 (  5290 PWs)   bands (ev):

   -15.7610 -14.0421 -11.1769  -3.5925  -0.6141   8.8831   9.1376   9.3481

     occupation numbers 
     1.0000   1.0000   1.0000   1.0000   0.0000   0.0000   0.0000   0.0000

          k = 0.2200 0.5427 0.0000 (  5288 PWs)   bands (ev):

   -15.6506 -14.1619 -11.1911  -3.5179  -0.6956   8.9036   9.2330   9.4227

     occupation numbers 
     1.0000   1.0000   1.0000   1.0000   0.0000   0.0000   0.0000   0.0000

          k = 0.2200 0.5504 0.0000 (  5278 PWs)   bands (ev):

   -15.5471 -14.2729 -11.2024  -3.4548  -0.7643   8.9187   9.2603   9.5658

     occupation numbers 
     1.0000   1.0000   1.0000   1.0000   0.0000   0.0000   0.0000   0.0000

          k = 0.2200 0.5581 0.0000 (  5280 PWs)   bands (ev):

   -15.4555 -14.3702 -11.2108  -3.4051  -0.8182   8.9293   9.2668   9.7288

     occupation numbers 
     1.0000   1.0000   1.0000   1.0000   0.0000   0.0000   0.0000   0.0000

          k = 0.2200 0.5658 0.0000 (  5280 PWs)   bands (ev):

   -15.3838 -14.4456 -11.2164  -3.3708  -0.8553   8.9360   9.2684   9.8924

     occupation numbers 
     1.0000   1.0000   1.0000   1.0000   0.0000   0.0000   0.0000   0.0000

          k = 0.2200 0.5735 0.0000 (  5278 PWs)   bands (ev):

   -15.3433 -14.4881 -11.2192  -3.3532  -0.8742   8.9393   9.2688  10.0362

     occupation numbers 
     1.0000   1.0000   1.0000   1.0000   0.0000   0.0000   0.0000   0.0000

          k = 0.2267 0.3926 0.0000 (  5278 PWs)   bands (ev):

   -17.7845 -11.7039 -10.3160  -5.5607   1.6944   6.2576   7.2177   7.9239

     occupation numbers 
     1.0000   1.0000   1.0000   1.0000   0.0000   0.0000   0.0000   0.0000

          k = 0.2267 0.4003 0.0000 (  5278 PWs)   bands (ev):

   -17.6837 -11.8087 -10.4125  -5.4499   1.5569   6.4001   7.3441   8.0728

     occupation numbers 
     1.0000   1.0000   1.0000   1.0000   0.0000   0.0000   0.0000   0.0000

          k = 0.2267 0.4080 0.0000 (  5278 PWs)   bands (ev):

   -17.5812 -11.9173 -10.5036  -5.3378   1.4191   6.5450   7.4704   8.2246

     occupation numbers 
     1.0000   1.0000   1.0000   1.0000   0.0000   0.0000   0.0000   0.0000

          k = 0.2267 0.4157 0.0000 (  5280 PWs)   bands (ev):

   -17.4772 -12.0295 -10.5889  -5.2247   1.2813   6.6923   7.5961   8.3791

     occupation numbers 
     1.0000   1.0000   1.0000   1.0000   0.0000   0.0000   0.0000   0.0000

          k = 0.2267 0.4234 0.0000 (  5278 PWs)   bands (ev):

   -17.3715 -12.1453 -10.6687  -5.1107   1.1436   6.8421   7.7206   8.5363

     occupation numbers 
     1.0000   1.0000   1.0000   1.0000   0.0000   0.0000   0.0000   0.0000

          k = 0.2267 0.4311 0.0000 (  5277 PWs)   bands (ev):

   -17.2643 -12.2644 -10.7428  -4.9959   1.0061   6.9942   7.8431   8.6962

     occupation numbers 
     1.0000   1.0000   1.0000   1.0000   0.0000   0.0000   0.0000   0.0000

          k = 0.2267 0.4388 0.0000 (  5275 PWs)   bands (ev):

   -17.1556 -12.3867 -10.8114  -4.8805   0.8690   7.1487   7.9628   8.8586

     occupation numbers 
     1.0000   1.0000   1.0000   1.0000   0.0000   0.0000   0.0000   0.0000

          k = 0.2267 0.4465 0.0000 (  5269 PWs)   bands (ev):

   -17.0454 -12.5116 -10.8748  -4.7647   0.7325   7.3054   8.0785   9.0234

     occupation numbers 
     1.0000   1.0000   1.0000   1.0000   0.0000   0.0000   0.0000   0.0000

          k = 0.2267 0.4542 0.0000 (  5269 PWs)   bands (ev):

   -16.9339 -12.6390 -10.9331  -4.6487   0.5969   7.4644   8.1892   9.1897

     occupation numbers 
     1.0000   1.0000   1.0000   1.0000   0.0000   0.0000   0.0000   0.0000

          k = 0.2267 0.4619 0.0000 (  5267 PWs)   bands (ev):

   -16.8210 -12.7683 -10.9866  -4.5328   0.4625   7.6254   8.2936   9.3550

     occupation numbers 
     1.0000   1.0000   1.0000   1.0000   0.0000   0.0000   0.0000   0.0000

          k = 0.2267 0.4696 0.0000 (  5264 PWs)   bands (ev):

   -16.7070 -12.8992 -11.0356  -4.4173   0.3295   7.7884   8.3905   9.4977

     occupation numbers 
     1.0000   1.0000   1.0000   1.0000   0.0000   0.0000   0.0000   0.0000

          k = 0.2267 0.4773 0.0000 (  5262 PWs)   bands (ev):

   -16.5918 -13.0312 -11.0803  -4.3026   0.1985   7.9534   8.4787   9.5388

     occupation numbers 
     1.0000   1.0000   1.0000   1.0000   0.0000   0.0000   0.0000   0.0000

          k = 0.2267 0.4850 0.0000 (  5264 PWs)   bands (ev):

   -16.4756 -13.1640 -11.1209  -4.1892   0.0698   8.1200   8.5572   9.5366

     occupation numbers 
     1.0000   1.0000   1.0000   1.0000   0.0000   0.0000   0.0000   0.0000

          k = 0.2267 0.4927 0.0000 (  5268 PWs)   bands (ev):

   -16.3586 -13.2971 -11.1576  -4.0776  -0.0559   8.2883   8.6256   9.5290

     occupation numbers 
     1.0000   1.0000   1.0000   1.0000   0.0000   0.0000   0.0000   0.0000

          k = 0.2267 0.5004 0.0000 (  5272 PWs)   bands (ev):

   -16.2410 -13.4301 -11.1906  -3.9684  -0.1780   8.4579   8.6837   9.5205

     occupation numbers 
     1.0000   1.0000   1.0000   1.0000   0.0000   0.0000   0.0000   0.0000

          k = 0.2267 0.5081 0.0000 (  5274 PWs)   bands (ev):

   -16.1231 -13.5624 -11.2200  -3.8625  -0.2957   8.6284   8.7319   9.5124

     occupation numbers 
     1.0000   1.0000   1.0000   1.0000   0.0000   0.0000   0.0000   0.0000

          k = 0.2267 0.5158 0.0000 (  5280 PWs)   bands (ev):

   -16.0054 -13.6936 -11.2460  -3.7609  -0.4079   8.7709   8.7994   9.5055

     occupation numbers 
     1.0000   1.0000   1.0000   1.0000   0.0000   0.0000   0.0000   0.0000

          k = 0.2267 0.5235 0.0000 (  5282 PWs)   bands (ev):

   -15.8883 -13.8227 -11.2687  -3.6647  -0.5134   8.8018   8.9697   9.5009

     occupation numbers 
     1.0000   1.0000   1.0000   1.0000   0.0000   0.0000   0.0000   0.0000

          k = 0.2267 0.5312 0.0000 (  5288 PWs)   bands (ev):

   -15.7729 -13.9489 -11.2882  -3.5755  -0.6109   8.8257   9.1367   9.5010

     occupation numbers 
     1.0000   1.0000   1.0000   1.0000   0.0000   0.0000   0.0000   0.0000

          k = 0.2267 0.5389 0.0000 (  5288 PWs)   bands (ev):

   -15.6605 -14.0706 -11.3046  -3.4947  -0.6985   8.8438   9.2910   9.5148

     occupation numbers 
     1.0000   1.0000   1.0000   1.0000   0.0000   0.0000   0.0000   0.0000

          k = 0.2267 0.5466 0.0000 (  5284 PWs)   bands (ev):

   -15.5533 -14.1855 -11.3179  -3.4245  -0.7745   8.8571   9.3957   9.5786

     occupation numbers 
     1.0000   1.0000   1.0000   1.0000   0.0000   0.0000   0.0000   0.0000

          k = 0.2267 0.5543 0.0000 (  5284 PWs)   bands (ev):

   -15.4552 -14.2897 -11.3282  -3.3668  -0.8366   8.8665   9.4292   9.7132

     occupation numbers 
     1.0000   1.0000   1.0000   1.0000   0.0000   0.0000   0.0000   0.0000

          k = 0.2267 0.5620 0.0000 (  5282 PWs)   bands (ev):

   -15.3725 -14.3768 -11.3355  -3.3237  -0.8829   8.8728   9.4375   9.8702

     occupation numbers 
     1.0000   1.0000   1.0000   1.0000   0.0000   0.0000   0.0000   0.0000

          k = 0.2267 0.5697 0.0000 (  5284 PWs)   bands (ev):

   -15.3150 -14.4369 -11.3399  -3.2970  -0.9115   8.8763   9.4398  10.0232

     occupation numbers 
     1.0000   1.0000   1.0000   1.0000   0.0000   0.0000   0.0000   0.0000

          k = 0.2267 0.5774 0.0000 (  5288 PWs)   bands (ev):

   -15.2939 -14.4588 -11.3413  -3.2880  -0.9211   8.8774   9.4403  10.1154

     occupation numbers 
     1.0000   1.0000   1.0000   1.0000   0.0000   0.0000   0.0000   0.0000

          k = 0.2333 0.4041 0.0000 (  5278 PWs)   bands (ev):

   -17.5822 -11.9078 -10.5129  -5.3386   1.4217   6.5436   7.4685   8.2232

     occupation numbers 
     1.0000   1.0000   1.0000   1.0000   0.0000   0.0000   0.0000   0.0000

          k = 0.2333 0.4118 0.0000 (  5278 PWs)   bands (ev):

   -17.4791 -12.0106 -10.6078  -5.2263   1.2863   6.6896   7.5923   8.3763

     occupation numbers 
     1.0000   1.0000   1.0000   1.0000   0.0000   0.0000   0.0000   0.0000

          k = 0.2333 0.4195 0.0000 (  5280 PWs)   bands (ev):

   -17.3744 -12.1171 -10.6969  -5.1129   1.1508   6.8380   7.7147   8.5322

     occupation numbers 
     1.0000   1.0000   1.0000   1.0000   0.0000   0.0000   0.0000   0.0000

          k = 0.2333 0.4272 0.0000 (  5282 PWs)   bands (ev):

   -17.2682 -12.2274 -10.7802  -4.9986   1.0154   6.9888   7.8350   8.6908

     occupation numbers 
     1.0000   1.0000   1.0000   1.0000   0.0000   0.0000   0.0000   0.0000

          k = 0.2333 0.4349 0.0000 (  5279 PWs)   bands (ev):

   -17.1604 -12.3413 -10.8575  -4.8837   0.8803   7.1419   7.9523   8.8520

     occupation numbers 
     1.0000   1.0000   1.0000   1.0000   0.0000   0.0000   0.0000   0.0000

          k = 0.2333 0.4426 0.0000 (  5273 PWs)   bands (ev):

   -17.0512 -12.4586 -10.9290  -4.7681   0.7455   7.2973   8.0654   9.0158

     occupation numbers 
     1.0000   1.0000   1.0000   1.0000   0.0000   0.0000   0.0000   0.0000

          k = 0.2333 0.4503 0.0000 (  5265 PWs)   bands (ev):

   -16.9405 -12.5790 -10.9949  -4.6523   0.6114   7.4548   8.1733   9.1819

     occupation numbers 
     1.0000   1.0000   1.0000   1.0000   0.0000   0.0000   0.0000   0.0000

          k = 0.2333 0.4580 0.0000 (  5258 PWs)   bands (ev):

   -16.8286 -12.7020 -11.0554  -4.5363   0.4781   7.6145   8.2746   9.3496

     occupation numbers 
     1.0000   1.0000   1.0000   1.0000   0.0000   0.0000   0.0000   0.0000

          k = 0.2333 0.4657 0.0000 (  5264 PWs)   bands (ev):

   -16.7154 -12.8274 -11.1107  -4.4205   0.3461   7.7763   8.3680   9.5164

     occupation numbers 
     1.0000   1.0000   1.0000   1.0000   0.0000   0.0000   0.0000   0.0000

          k = 0.2333 0.4734 0.0000 (  5264 PWs)   bands (ev):

   -16.6010 -12.9546 -11.1611  -4.3053   0.2155   7.9399   8.4525   9.6621

     occupation numbers 
     1.0000   1.0000   1.0000   1.0000   0.0000   0.0000   0.0000   0.0000

          k = 0.2333 0.4811 0.0000 (  5264 PWs)   bands (ev):

   -16.4856 -13.0832 -11.2069  -4.1910   0.0869   8.1054   8.5272   9.7066

     occupation numbers 
     1.0000   1.0000   1.0000   1.0000   0.0000   0.0000   0.0000   0.0000

          k = 0.2333 0.4888 0.0000 (  5264 PWs)   bands (ev):

   -16.3692 -13.2128 -11.2482  -4.0780  -0.0392   8.2724   8.5915   9.7048

     occupation numbers 
     1.0000   1.0000   1.0000   1.0000   0.0000   0.0000   0.0000   0.0000

          k = 0.2333 0.4965 0.0000 (  5272 PWs)   bands (ev):

   -16.2522 -13.3429 -11.2854  -3.9671  -0.1624   8.4410   8.6455   9.6972

     occupation numbers 
     1.0000   1.0000   1.0000   1.0000   0.0000   0.0000   0.0000   0.0000

          k = 0.2333 0.5042 0.0000 (  5272 PWs)   bands (ev):

   -16.1348 -13.4730 -11.3186  -3.8589  -0.2817   8.6106   8.6897   9.6887

     occupation numbers 
     1.0000   1.0000   1.0000   1.0000   0.0000   0.0000   0.0000   0.0000

          k = 0.2333 0.5119 0.0000 (  5276 PWs)   bands (ev):

   -16.0172 -13.6025 -11.3481  -3.7543  -0.3964   8.7249   8.7811   9.6806

     occupation numbers 
     1.0000   1.0000   1.0000   1.0000   0.0000   0.0000   0.0000   0.0000

          k = 0.2333 0.5196 0.0000 (  5280 PWs)   bands (ev):

   -15.9001 -13.7308 -11.3739  -3.6543  -0.5054   8.7523   8.9517   9.6738

     occupation numbers 
     1.0000   1.0000   1.0000   1.0000   0.0000   0.0000   0.0000   0.0000

          k = 0.2333 0.5273 0.0000 (  5280 PWs)   bands (ev):

   -15.7840 -13.8569 -11.3962  -3.5604  -0.6072   8.7732   9.1215   9.6691

     occupation numbers 
     1.0000   1.0000   1.0000   1.0000   0.0000   0.0000   0.0000   0.0000

          k = 0.2333 0.5350 0.0000 (  5282 PWs)   bands (ev):

   -15.6702 -13.9795 -11.4151  -3.4740  -0.7004   8.7886   9.2879   9.6688

     occupation numbers 
     1.0000   1.0000   1.0000   1.0000   0.0000   0.0000   0.0000   0.0000

          k = 0.2333 0.5427 0.0000 (  5286 PWs)   bands (ev):

   -15.5603 -14.0969 -11.4307  -3.3970  -0.7831   8.7997   9.4430   9.6803

     occupation numbers 
     1.0000   1.0000   1.0000   1.0000   0.0000   0.0000   0.0000   0.0000

          k = 0.2333 0.5504 0.0000 (  5284 PWs)   bands (ev):

   -15.4573 -14.2061 -11.4432  -3.3316  -0.8531   8.8075   9.5552   9.7344

     occupation numbers 
     1.0000   1.0000   1.0000   1.0000   0.0000   0.0000   0.0000   0.0000

          k = 0.2333 0.5581 0.0000 (  5288 PWs)   bands (ev):

   -15.3661 -14.3020 -11.4524  -3.2798  -0.9082   8.8127   9.5952   9.8587

     occupation numbers 
     1.0000   1.0000   1.0000   1.0000   0.0000   0.0000   0.0000   0.0000

          k = 0.2333 0.5658 0.0000 (  5284 PWs)   bands (ev):

   -15.2946 -14.3767 -11.4586  -3.2439  -0.9465   8.8159   9.6054  10.0069

     occupation numbers 
     1.0000   1.0000   1.0000   1.0000   0.0000   0.0000   0.0000   0.0000

          k = 0.2333 0.5735 0.0000 (  5284 PWs)   bands (ev):

   -15.2540 -14.4188 -11.4617  -3.2254  -0.9661   8.8174   9.6081  10.1372

     occupation numbers 
     1.0000   1.0000   1.0000   1.0000   0.0000   0.0000   0.0000   0.0000

          k = 0.2400 0.4157 0.0000 (  5286 PWs)   bands (ev):

   -17.3754 -12.1075 -10.7066  -5.1136   1.1532   6.8366   7.7128   8.5308

     occupation numbers 
     1.0000   1.0000   1.0000   1.0000   0.0000   0.0000   0.0000   0.0000

          k = 0.2400 0.4234 0.0000 (  5282 PWs)   bands (ev):

   -17.2701 -12.2082 -10.7997  -5.0000   1.0201   6.9860   7.8310   8.6880

     occupation numbers 
     1.0000   1.0000   1.0000   1.0000   0.0000   0.0000   0.0000   0.0000

          k = 0.2400 0.4311 0.0000 (  5273 PWs)   bands (ev):

   -17.1633 -12.3127 -10.8867  -4.8856   0.8871   7.1378   7.9460   8.8480

     occupation numbers 
     1.0000   1.0000   1.0000   1.0000   0.0000   0.0000   0.0000   0.0000

          k = 0.2400 0.4388 0.0000 (  5277 PWs)   bands (ev):

   -17.0550 -12.4210 -10.9676  -4.7705   0.7542   7.2918   8.0567   9.0106

     occupation numbers 
     1.0000   1.0000   1.0000   1.0000   0.0000   0.0000   0.0000   0.0000

          k = 0.2400 0.4465 0.0000 (  5266 PWs)   bands (ev):

   -16.9453 -12.5329 -11.0423  -4.6549   0.6218   7.4480   8.1618   9.1757

     occupation numbers 
     1.0000   1.0000   1.0000   1.0000   0.0000   0.0000   0.0000   0.0000

          k = 0.2400 0.4542 0.0000 (  5260 PWs)   bands (ev):

   -16.8342 -12.6483 -11.1111  -4.5390   0.4900   7.6064   8.2601   9.3431

     occupation numbers 
     1.0000   1.0000   1.0000   1.0000   0.0000   0.0000   0.0000   0.0000

          k = 0.2400 0.4619 0.0000 (  5266 PWs)   bands (ev):

   -16.7219 -12.7666 -11.1741  -4.4231   0.3591   7.7668   8.3504   9.5121

     occupation numbers 
     1.0000   1.0000   1.0000   1.0000   0.0000   0.0000   0.0000   0.0000

          k = 0.2400 0.4696 0.0000 (  5268 PWs)   bands (ev):

   -16.6084 -12.8876 -11.2315  -4.3075   0.2294   7.9291   8.4314   9.6801

     occupation numbers 
     1.0000   1.0000   1.0000   1.0000   0.0000   0.0000   0.0000   0.0000

          k = 0.2400 0.4773 0.0000 (  5266 PWs)   bands (ev):

   -16.4937 -13.0108 -11.2836  -4.1925   0.1012   8.0933   8.5023   9.8269

     occupation numbers 
     1.0000   1.0000   1.0000   1.0000   0.0000   0.0000   0.0000   0.0000

          k = 0.2400 0.4850 0.0000 (  5270 PWs)   bands (ev):

   -16.3781 -13.1357 -11.3307  -4.0785  -0.0250   8.2591   8.5627   9.8721

     occupation numbers 
     1.0000   1.0000   1.0000   1.0000   0.0000   0.0000   0.0000   0.0000

          k = 0.2400 0.4927 0.0000 (  5272 PWs)   bands (ev):

   -16.2618 -13.2619 -11.3731  -3.9661  -0.1487   8.4264   8.6127   9.8703

     occupation numbers 
     1.0000   1.0000   1.0000   1.0000   0.0000   0.0000   0.0000   0.0000

          k = 0.2400 0.5004 0.0000 (  5276 PWs)   bands (ev):

   -16.1448 -13.3887 -11.4110  -3.8559  -0.2693   8.5950   8.6530   9.8626

     occupation numbers 
     1.0000   1.0000   1.0000   1.0000   0.0000   0.0000   0.0000   0.0000

          k = 0.2400 0.5081 0.0000 (  5270 PWs)   bands (ev):

   -16.0276 -13.5156 -11.4446  -3.7487  -0.3859   8.6844   8.7646   9.8540

     occupation numbers 
     1.0000   1.0000   1.0000   1.0000   0.0000   0.0000   0.0000   0.0000

          k = 0.2400 0.5158 0.0000 (  5278 PWs)   bands (ev):

   -15.9105 -13.6421 -11.4741  -3.6454  -0.4977   8.7083   8.9346   9.8458

     occupation numbers 
     1.0000   1.0000   1.0000   1.0000   0.0000   0.0000   0.0000   0.0000

          k = 0.2400 0.5235 0.0000 (  5280 PWs)   bands (ev):

   -15.7942 -13.7671 -11.4998  -3.5473  -0.6033   8.7259   9.1046   9.8389

     occupation numbers 
     1.0000   1.0000   1.0000   1.0000   0.0000   0.0000   0.0000   0.0000

          k = 0.2400 0.5312 0.0000 (  5284 PWs)   bands (ev):

   -15.6794 -13.8898 -11.5217  -3.4557  -0.7014   8.7384   9.2734   9.8342

     occupation numbers 
     1.0000   1.0000   1.0000   1.0000   0.0000   0.0000   0.0000   0.0000

          k = 0.2400 0.5389 0.0000 (  5286 PWs)   bands (ev):

   -15.5676 -14.0086 -11.5401  -3.3724  -0.7902   8.7471   9.4387   9.8335

     occupation numbers 
     1.0000   1.0000   1.0000   1.0000   0.0000   0.0000   0.0000   0.0000

          k = 0.2400 0.5466 0.0000 (  5290 PWs)   bands (ev):

   -15.4609 -14.1210 -11.5550  -3.2996  -0.8676   8.7529   9.5934   9.8431

     occupation numbers 
     1.0000   1.0000   1.0000   1.0000   0.0000   0.0000   0.0000   0.0000

          k = 0.2400 0.5543 0.0000 (  5288 PWs)   bands (ev):

   -15.3632 -14.2234 -11.5665  -3.2393  -0.9314   8.7566   9.7107   9.8886

     occupation numbers 
     1.0000   1.0000   1.0000   1.0000   0.0000   0.0000   0.0000   0.0000

          k = 0.2400 0.5620 0.0000 (  5282 PWs)   bands (ev):

   -15.2807 -14.3093 -11.5747  -3.1941  -0.9791   8.7588   9.7573  10.0006

     occupation numbers 
     1.0000   1.0000   1.0000   1.0000   0.0000   0.0000   0.0000   0.0000

          k = 0.2400 0.5697 0.0000 (  5282 PWs)   bands (ev):

   -15.2232 -14.3689 -11.5796  -3.1660  -1.0088   8.7600   9.7692  10.1340

     occupation numbers 
     1.0000   1.0000   1.0000   1.0000   0.0000   0.0000   0.0000   0.0000

          k = 0.2400 0.5774 0.0000 (  5278 PWs)   bands (ev):

   -15.2021 -14.3907 -11.5812  -3.1564  -1.0188   8.7604   9.7716  10.2121

     occupation numbers 
     1.0000   1.0000   1.0000   1.0000   0.0000   0.0000   0.0000   0.0000

          k = 0.2467 0.4272 0.0000 (  5278 PWs)   bands (ev):

   -17.1643 -12.3028 -10.8967  -4.8862   0.8893   7.1364   7.9439   8.8466

     occupation numbers 
     1.0000   1.0000   1.0000   1.0000   0.0000   0.0000   0.0000   0.0000

          k = 0.2467 0.4349 0.0000 (  5274 PWs)   bands (ev):

   -17.0569 -12.4014 -10.9876  -4.7716   0.7586   7.2891   8.0523   9.0079

     occupation numbers 
     1.0000   1.0000   1.0000   1.0000   0.0000   0.0000   0.0000   0.0000

          k = 0.2467 0.4426 0.0000 (  5268 PWs)   bands (ev):

   -16.9482 -12.5038 -11.0723  -4.6564   0.6281   7.4439   8.1549   9.1719

     occupation numbers 
     1.0000   1.0000   1.0000   1.0000   0.0000   0.0000   0.0000   0.0000

          k = 0.2467 0.4503 0.0000 (  5262 PWs)   bands (ev):

   -16.8380 -12.6100 -11.1507  -4.5408   0.4980   7.6009   8.2505   9.3383

     occupation numbers 
     1.0000   1.0000   1.0000   1.0000   0.0000   0.0000   0.0000   0.0000

          k = 0.2467 0.4580 0.0000 (  5260 PWs)   bands (ev):

   -16.7266 -12.7199 -11.2227  -4.4249   0.3685   7.7600   8.3377   9.5069

     occupation numbers 
     1.0000   1.0000   1.0000   1.0000   0.0000   0.0000   0.0000   0.0000

          k = 0.2467 0.4657 0.0000 (  5272 PWs)   bands (ev):

   -16.6139 -12.8332 -11.2886  -4.3091   0.2399   7.9210   8.4153   9.6771

     occupation numbers 
     1.0000   1.0000   1.0000   1.0000   0.0000   0.0000   0.0000   0.0000

          k = 0.2467 0.4734 0.0000 (  5270 PWs)   bands (ev):

   -16.5001 -12.9494 -11.3484  -4.1937   0.1125   8.0839   8.4827   9.8460

     occupation numbers 
     1.0000   1.0000   1.0000   1.0000   0.0000   0.0000   0.0000   0.0000

          k = 0.2467 0.4811 0.0000 (  5272 PWs)   bands (ev):

   -16.3853 -13.0682 -11.4026  -4.0789  -0.0134   8.2484   8.5393   9.9919

     occupation numbers 
     1.0000   1.0000   1.0000   1.0000   0.0000   0.0000   0.0000   0.0000

          k = 0.2467 0.4888 0.0000 (  5276 PWs)   bands (ev):

   -16.2696 -13.1890 -11.4513  -3.9654  -0.1373   8.4145   8.5855  10.0343

     occupation numbers 
     1.0000   1.0000   1.0000   1.0000   0.0000   0.0000   0.0000   0.0000

          k = 0.2467 0.4965 0.0000 (  5280 PWs)   bands (ev):

   -16.1532 -13.3114 -11.4949  -3.8536  -0.2586   8.5819   8.6219  10.0319

     occupation numbers 
     1.0000   1.0000   1.0000   1.0000   0.0000   0.0000   0.0000   0.0000

          k = 0.2467 0.5042 0.0000 (  5270 PWs)   bands (ev):

   -16.0365 -13.4346 -11.5337  -3.7441  -0.3766   8.6496   8.7503  10.0239

     occupation numbers 
     1.0000   1.0000   1.0000   1.0000   0.0000   0.0000   0.0000   0.0000

          k = 0.2467 0.5119 0.0000 (  5276 PWs)   bands (ev):

   -15.9196 -13.5582 -11.5678  -3.6379  -0.4906   8.6699   8.9194  10.0150

     occupation numbers 
     1.0000   1.0000   1.0000   1.0000   0.0000   0.0000   0.0000   0.0000

          k = 0.2467 0.5196 0.0000 (  5288 PWs)   bands (ev):

   -15.8032 -13.6812 -11.5976  -3.5361  -0.5994   8.6842   9.0888  10.0067

     occupation numbers 
     1.0000   1.0000   1.0000   1.0000   0.0000   0.0000   0.0000   0.0000

          k = 0.2467 0.5273 0.0000 (  5286 PWs)   bands (ev):

   -15.6878 -13.8028 -11.6233  -3.4398  -0.7018   8.6937   9.2577   9.9997

     occupation numbers 
     1.0000   1.0000   1.0000   1.0000   0.0000   0.0000   0.0000   0.0000

          k = 0.2467 0.5350 0.0000 (  5280 PWs)   bands (ev):

   -15.5747 -13.9217 -11.6449  -3.3507  -0.7961   8.6997   9.4250   9.9948

     occupation numbers 
     1.0000   1.0000   1.0000   1.0000   0.0000   0.0000   0.0000   0.0000

          k = 0.2467 0.5427 0.0000 (  5282 PWs)   bands (ev):

   -15.4654 -14.0361 -11.6628  -3.2709  -0.8803   8.7032   9.5885   9.9936

     occupation numbers 
     1.0000   1.0000   1.0000   1.0000   0.0000   0.0000   0.0000   0.0000

          k = 0.2467 0.5504 0.0000 (  5282 PWs)   bands (ev):

   -15.3628 -14.1428 -11.6769  -3.2025  -0.9522   8.7050   9.7416  10.0014

     occupation numbers 
     1.0000   1.0000   1.0000   1.0000   0.0000   0.0000   0.0000   0.0000

          k = 0.2467 0.5581 0.0000 (  5280 PWs)   bands (ev):

   -15.2718 -14.2371 -11.6874  -3.1480  -1.0093   8.7059   9.8618  10.0388

     occupation numbers 
     1.0000   1.0000   1.0000   1.0000   0.0000   0.0000   0.0000   0.0000

          k = 0.2467 0.5658 0.0000 (  5278 PWs)   bands (ev):

   -15.2003 -14.3108 -11.6944  -3.1100  -1.0491   8.7062   9.9142  10.1352

     occupation numbers 
     1.0000   1.0000   1.0000   1.0000   0.0000   0.0000   0.0000   0.0000

          k = 0.2467 0.5735 0.0000 (  5284 PWs)   bands (ev):

   -15.1596 -14.3526 -11.6979  -3.0904  -1.0695   8.7062   9.9272  10.2402

     occupation numbers 
     1.0000   1.0000   1.0000   1.0000   0.0000   0.0000   0.0000   0.0000

          k = 0.2533 0.4388 0.0000 (  5270 PWs)   bands (ev):

   -16.9491 -12.4938 -11.0826  -4.6569   0.6302   7.4426   8.1526   9.1706

     occupation numbers 
     1.0000   1.0000   1.0000   1.0000   0.0000   0.0000   0.0000   0.0000

          k = 0.2533 0.4465 0.0000 (  5268 PWs)   bands (ev):

   -16.8399 -12.5901 -11.1713  -4.5417   0.5020   7.5982   8.2456   9.3358

     occupation numbers 
     1.0000   1.0000   1.0000   1.0000   0.0000   0.0000   0.0000   0.0000

          k = 0.2533 0.4542 0.0000 (  5262 PWs)   bands (ev):

   -16.7294 -12.6903 -11.2535  -4.4260   0.3742   7.7559   8.3300   9.5034

     occupation numbers 
     1.0000   1.0000   1.0000   1.0000   0.0000   0.0000   0.0000   0.0000

          k = 0.2533 0.4619 0.0000 (  5268 PWs)   bands (ev):

   -16.6176 -12.7944 -11.3291  -4.3102   0.2470   7.9156   8.4046   9.6732

     occupation numbers 
     1.0000   1.0000   1.0000   1.0000   0.0000   0.0000   0.0000   0.0000

          k = 0.2533 0.4696 0.0000 (  5270 PWs)   bands (ev):

   -16.5046 -12.9022 -11.3981  -4.1946   0.1206   8.0771   8.4686   9.8444

     occupation numbers 
     1.0000   1.0000   1.0000   1.0000   0.0000   0.0000   0.0000   0.0000

          k = 0.2533 0.4773 0.0000 (  5276 PWs)   bands (ev):

   -16.3906 -13.0133 -11.4608  -4.0793  -0.0045   8.2403   8.5217  10.0138

     occupation numbers 
     1.0000   1.0000   1.0000   1.0000   0.0000   0.0000   0.0000   0.0000

          k = 0.2533 0.4850 0.0000 (  5278 PWs)   bands (ev):

   -16.2757 -13.1273 -11.5174  -3.9649  -0.1281   8.4051   8.5642  10.1559

     occupation numbers 
     1.0000   1.0000   1.0000   1.0000   0.0000   0.0000   0.0000   0.0000

          k = 0.2533 0.4927 0.0000 (  5282 PWs)   bands (ev):

   -16.1600 -13.2436 -11.5681  -3.8517  -0.2497   8.5713   8.5968  10.1919

     occupation numbers 
     1.0000   1.0000   1.0000   1.0000   0.0000   0.0000   0.0000   0.0000

          k = 0.2533 0.5004 0.0000 (  5286 PWs)   bands (ev):

   -16.0438 -13.3618 -11.6132  -3.7405  -0.3687   8.6208   8.7385  10.1883

     occupation numbers 
     1.0000   1.0000   1.0000   1.0000   0.0000   0.0000   0.0000   0.0000

          k = 0.2533 0.5081 0.0000 (  5278 PWs)   bands (ev):

   -15.9273 -13.4811 -11.6531  -3.6318  -0.4844   8.6375   8.9065  10.1797

     occupation numbers 
     1.0000   1.0000   1.0000   1.0000   0.0000   0.0000   0.0000   0.0000

          k = 0.2533 0.5158 0.0000 (  5284 PWs)   bands (ev):

   -15.8110 -13.6009 -11.6879  -3.5267  -0.5957   8.6484   9.0750  10.1705

     occupation numbers 
     1.0000   1.0000   1.0000   1.0000   0.0000   0.0000   0.0000   0.0000

          k = 0.2533 0.5235 0.0000 (  5282 PWs)   bands (ev):

   -15.6954 -13.7203 -11.7181  -3.4262  -0.7017   8.6547   9.2433  10.1619

     occupation numbers 
     1.0000   1.0000   1.0000   1.0000   0.0000   0.0000   0.0000   0.0000

          k = 0.2533 0.5312 0.0000 (  5282 PWs)   bands (ev):

   -15.5813 -13.8381 -11.7438  -3.3319  -0.8008   8.6578   9.4106  10.1546

     occupation numbers 
     1.0000   1.0000   1.0000   1.0000   0.0000   0.0000   0.0000   0.0000

          k = 0.2533 0.5389 0.0000 (  5280 PWs)   bands (ev):

   -15.4701 -13.9529 -11.7652  -3.2456  -0.8912   8.6588   9.5759  10.1493

     occupation numbers 
     1.0000   1.0000   1.0000   1.0000   0.0000   0.0000   0.0000   0.0000

          k = 0.2533 0.5466 0.0000 (  5282 PWs)   bands (ev):

   -15.3640 -14.0622 -11.7825  -3.1694  -0.9707   8.6585   9.7366  10.1474

     occupation numbers 
     1.0000   1.0000   1.0000   1.0000   0.0000   0.0000   0.0000   0.0000

          k = 0.2533 0.5543 0.0000 (  5280 PWs)   bands (ev):

   -15.2666 -14.1622 -11.7958  -3.1060  -1.0368   8.6575   9.8870  10.1529

     occupation numbers 
     1.0000   1.0000   1.0000   1.0000   0.0000   0.0000   0.0000   0.0000

          k = 0.2533 0.5620 0.0000 (  5280 PWs)   bands (ev):

   -15.1841 -14.2467 -11.8052  -3.0579  -1.0866   8.6565  10.0078  10.1812

     occupation numbers 
     1.0000   1.0000   1.0000   1.0000   0.0000   0.0000   0.0000   0.0000

          k = 0.2533 0.5697 0.0000 (  5278 PWs)   bands (ev):

   -15.1263 -14.3057 -11.8109  -3.0279  -1.1178   8.6557  10.0646  10.2551

     occupation numbers 
     1.0000   1.0000   1.0000   1.0000   0.0000   0.0000   0.0000   0.0000

          k = 0.2533 0.5774 0.0000 (  5278 PWs)   bands (ev):

   -15.1051 -14.3273 -11.8127  -3.0176  -1.1284   8.6554  10.0762  10.3090

     occupation numbers 
     1.0000   1.0000   1.0000   1.0000   0.0000   0.0000   0.0000   0.0000

          k = 0.2600 0.4503 0.0000 (  5270 PWs)   bands (ev):

   -16.7303 -12.6802 -11.2640  -4.4264   0.3761   7.7546   8.3274   9.5022

     occupation numbers 
     1.0000   1.0000   1.0000   1.0000   0.0000   0.0000   0.0000   0.0000

          k = 0.2600 0.4580 0.0000 (  5260 PWs)   bands (ev):

   -16.6194 -12.7742 -11.3502  -4.3108   0.2506   7.9129   8.3992   9.6711

     occupation numbers 
     1.0000   1.0000   1.0000   1.0000   0.0000   0.0000   0.0000   0.0000

          k = 0.2600 0.4657 0.0000 (  5274 PWs)   bands (ev):

   -16.5074 -12.8722 -11.4296  -4.1951   0.1256   8.0730   8.4601   9.8420

     occupation numbers 
     1.0000   1.0000   1.0000   1.0000   0.0000   0.0000   0.0000   0.0000

          k = 0.2600 0.4734 0.0000 (  5280 PWs)   bands (ev):

   -16.3942 -12.9741 -11.5022  -4.0796   0.0015   8.2349   8.5098  10.0140

     occupation numbers 
     1.0000   1.0000   1.0000   1.0000   0.0000   0.0000   0.0000   0.0000

          k = 0.2600 0.4811 0.0000 (  5286 PWs)   bands (ev):

   -16.2801 -13.0797 -11.5680  -3.9645  -0.1215   8.3984   8.5488  10.1833

     occupation numbers 
     1.0000   1.0000   1.0000   1.0000   0.0000   0.0000   0.0000   0.0000

          k = 0.2600 0.4888 0.0000 (  5284 PWs)   bands (ev):

   -16.1651 -13.1884 -11.6273  -3.8504  -0.2430   8.5633   8.5779  10.3171

     occupation numbers 
     1.0000   1.0000   1.0000   1.0000   0.0000   0.0000   0.0000   0.0000

          k = 0.2600 0.4965 0.0000 (  5284 PWs)   bands (ev):

   -16.0495 -13.2999 -11.6803  -3.7377  -0.3624   8.5982   8.7292  10.3435

     occupation numbers 
     1.0000   1.0000   1.0000   1.0000   0.0000   0.0000   0.0000   0.0000

          k = 0.2600 0.5042 0.0000 (  5286 PWs)   bands (ev):

   -15.9335 -13.4135 -11.7272  -3.6270  -0.4791   8.6113   8.8961  10.3380

     occupation numbers 
     1.0000   1.0000   1.0000   1.0000   0.0000   0.0000   0.0000   0.0000

          k = 0.2600 0.5119 0.0000 (  5284 PWs)   bands (ev):

   -15.8175 -13.5286 -11.7684  -3.5191  -0.5925   8.6187   9.0634  10.3285

     occupation numbers 
     1.0000   1.0000   1.0000   1.0000   0.0000   0.0000   0.0000   0.0000

          k = 0.2600 0.5196 0.0000 (  5282 PWs)   bands (ev):

   -15.7018 -13.6443 -11.8042  -3.4150  -0.7014   8.6218   9.2308  10.3186

     occupation numbers 
     1.0000   1.0000   1.0000   1.0000   0.0000   0.0000   0.0000   0.0000

          k = 0.2600 0.5273 0.0000 (  5284 PWs)   bands (ev):

   -15.5872 -13.7597 -11.8349  -3.3161  -0.8045   8.6219   9.3975  10.3095

     occupation numbers 
     1.0000   1.0000   1.0000   1.0000   0.0000   0.0000   0.0000   0.0000

          k = 0.2600 0.5350 0.0000 (  5284 PWs)   bands (ev):

   -15.4748 -13.8733 -11.8607  -3.2238  -0.9004   8.6201   9.5628  10.3017

     occupation numbers 
     1.0000   1.0000   1.0000   1.0000   0.0000   0.0000   0.0000   0.0000

          k = 0.2600 0.5427 0.0000 (  5278 PWs)   bands (ev):

   -15.3661 -13.9834 -11.8819  -3.1404  -0.9868   8.6173   9.7252  10.2957

     occupation numbers 
     1.0000   1.0000   1.0000   1.0000   0.0000   0.0000   0.0000   0.0000

          k = 0.2600 0.5504 0.0000 (  5278 PWs)   bands (ev):

   -15.2639 -14.0870 -11.8986  -3.0682  -1.0614   8.6142   9.8822  10.2923

     occupation numbers 
     1.0000   1.0000   1.0000   1.0000   0.0000   0.0000   0.0000   0.0000

          k = 0.2600 0.5581 0.0000 (  5280 PWs)   bands (ev):

   -15.1729 -14.1791 -11.9110  -3.0102  -1.1212   8.6115  10.0284  10.2940

     occupation numbers 
     1.0000   1.0000   1.0000   1.0000   0.0000   0.0000   0.0000   0.0000

          k = 0.2600 0.5658 0.0000 (  5278 PWs)   bands (ev):

   -15.1011 -14.2517 -11.9192  -2.9694  -1.1632   8.6094  10.1478  10.3092

     occupation numbers 
     1.0000   1.0000   1.0000   1.0000   0.0000   0.0000   0.0000   0.0000

          k = 0.2600 0.5735 0.0000 (  5280 PWs)   bands (ev):

   -15.0601 -14.2932 -11.9233  -2.9482  -1.1850   8.6083  10.2067  10.3474

     occupation numbers 
     1.0000   1.0000   1.0000   1.0000   0.0000   0.0000   0.0000   0.0000

          k = 0.2667 0.4619 0.0000 (  5270 PWs)   bands (ev):

   -16.5083 -12.8619 -11.4404  -4.1953   0.1272   8.0717   8.4572   9.8410

     occupation numbers 
     1.0000   1.0000   1.0000   1.0000   0.0000   0.0000   0.0000   0.0000

          k = 0.2667 0.4696 0.0000 (  5284 PWs)   bands (ev):

   -16.3960 -12.9537 -11.5237  -4.0797   0.0045   8.2322   8.5039  10.0129

     occupation numbers 
     1.0000   1.0000   1.0000   1.0000   0.0000   0.0000   0.0000   0.0000

          k = 0.2667 0.4773 0.0000 (  5286 PWs)   bands (ev):

   -16.2827 -13.0495 -11.6001  -3.9643  -0.1175   8.3944   8.5396  10.1854

     occupation numbers 
     1.0000   1.0000   1.0000   1.0000   0.0000   0.0000   0.0000   0.0000

          k = 0.2667 0.4850 0.0000 (  5284 PWs)   bands (ev):

   -16.1685 -13.1491 -11.6694  -3.8495  -0.2384   8.5579   8.5651  10.3535

     occupation numbers 
     1.0000   1.0000   1.0000   1.0000   0.0000   0.0000   0.0000   0.0000

          k = 0.2667 0.4927 0.0000 (  5284 PWs)   bands (ev):

   -16.0536 -13.2522 -11.7317  -3.7357  -0.3578   8.5819   8.7226  10.4721

     occupation numbers 
     1.0000   1.0000   1.0000   1.0000   0.0000   0.0000   0.0000   0.0000

          k = 0.2667 0.5004 0.0000 (  5286 PWs)   bands (ev):

   -15.9382 -13.3584 -11.7872  -3.6234  -0.4751   8.5915   8.8882  10.4867

     occupation numbers 
     1.0000   1.0000   1.0000   1.0000   0.0000   0.0000   0.0000   0.0000

          k = 0.2667 0.5081 0.0000 (  5282 PWs)   bands (ev):

   -15.8226 -13.4671 -11.8363  -3.5132  -0.5897   8.5954   9.0543  10.4788

     occupation numbers 
     1.0000   1.0000   1.0000   1.0000   0.0000   0.0000   0.0000   0.0000

          k = 0.2667 0.5158 0.0000 (  5282 PWs)   bands (ev):

   -15.7071 -13.5775 -11.8791  -3.4061  -0.7009   8.5952   9.2206  10.4680

     occupation numbers 
     1.0000   1.0000   1.0000   1.0000   0.0000   0.0000   0.0000   0.0000

          k = 0.2667 0.5235 0.0000 (  5278 PWs)   bands (ev):

   -15.5923 -13.6888 -11.9160  -3.3031  -0.8074   8.5921   9.3864  10.4572

     occupation numbers 
     1.0000   1.0000   1.0000   1.0000   0.0000   0.0000   0.0000   0.0000

          k = 0.2667 0.5312 0.0000 (  5276 PWs)   bands (ev):

   -15.4790 -13.7998 -11.9473  -3.2056  -0.9079   8.5874   9.5510  10.4472

     occupation numbers 
     1.0000   1.0000   1.0000   1.0000   0.0000   0.0000   0.0000   0.0000

          k = 0.2667 0.5389 0.0000 (  5274 PWs)   bands (ev):

   -15.3685 -13.9089 -11.9733  -3.1155  -1.0006   8.5819   9.7134  10.4384

     occupation numbers 
     1.0000   1.0000   1.0000   1.0000   0.0000   0.0000   0.0000   0.0000

          k = 0.2667 0.5466 0.0000 (  5280 PWs)   bands (ev):

   -15.2629 -14.0137 -11.9943  -3.0352  -1.0830   8.5764   9.8721  10.4309

     occupation numbers 
     1.0000   1.0000   1.0000   1.0000   0.0000   0.0000   0.0000   0.0000

          k = 0.2667 0.5543 0.0000 (  5280 PWs)   bands (ev):

   -15.1656 -14.1107 -12.0104  -2.9674  -1.1523   8.5716  10.0242  10.4245

     occupation numbers 
     1.0000   1.0000   1.0000   1.0000   0.0000   0.0000   0.0000   0.0000

          k = 0.2667 0.5620 0.0000 (  5280 PWs)   bands (ev):

   -15.0828 -14.1933 -12.0217  -2.9156  -1.2053   8.5679  10.1647  10.4188

     occupation numbers 
     1.0000   1.0000   1.0000   1.0000   0.0000   0.0000   0.0000   0.0000

          k = 0.2667 0.5697 0.0000 (  5284 PWs)   bands (ev):

   -15.0244 -14.2516 -12.0285  -2.8829  -1.2387   8.5655  10.2805  10.4120

     occupation numbers 
     1.0000   1.0000   1.0000   1.0000   0.0000   0.0000   0.0000   0.0000

          k = 0.2667 0.5774 0.0000 (  5284 PWs)   bands (ev):

   -15.0029 -14.2732 -12.0308  -2.8716  -1.2502   8.5647  10.3350  10.4046

     occupation numbers 
     1.0000   1.0000   1.0000   1.0000   0.0000   0.0000   0.0000   0.0000

          k = 0.2733 0.4734 0.0000 (  5288 PWs)   bands (ev):

   -16.2836 -13.0391 -11.6111  -3.9643  -0.1162   8.3930   8.5365  10.1854

     occupation numbers 
     1.0000   1.0000   1.0000   1.0000   0.0000   0.0000   0.0000   0.0000

          k = 0.2733 0.4811 0.0000 (  5286 PWs)   bands (ev):

   -16.1702 -13.1285 -11.6913  -3.8491  -0.2361   8.5552   8.5587  10.3580

     occupation numbers 
     1.0000   1.0000   1.0000   1.0000   0.0000   0.0000   0.0000   0.0000

          k = 0.2733 0.4888 0.0000 (  5284 PWs)   bands (ev):

   -16.0561 -13.2219 -11.7642  -3.7345  -0.3549   8.5721   8.7186  10.5227

     occupation numbers 
     1.0000   1.0000   1.0000   1.0000   0.0000   0.0000   0.0000   0.0000

          k = 0.2733 0.4965 0.0000 (  5284 PWs)   bands (ev):

   -15.9413 -13.3191 -11.8298  -3.6210  -0.4723   8.5782   8.8829  10.6163

     occupation numbers 
     1.0000   1.0000   1.0000   1.0000   0.0000   0.0000   0.0000   0.0000

          k = 0.2733 0.5042 0.0000 (  5282 PWs)   bands (ev):

   -15.8262 -13.4196 -11.8882  -3.5091  -0.5877   8.5787   9.0478  10.6187

     occupation numbers 
     1.0000   1.0000   1.0000   1.0000   0.0000   0.0000   0.0000   0.0000

          k = 0.2733 0.5119 0.0000 (  5288 PWs)   bands (ev):

   -15.7111 -13.5230 -11.9396  -3.3994  -0.7004   8.5751   9.2128  10.6077

     occupation numbers 
     1.0000   1.0000   1.0000   1.0000   0.0000   0.0000   0.0000   0.0000

          k = 0.2733 0.5196 0.0000 (  5290 PWs)   bands (ev):

   -15.5963 -13.6284 -11.9843  -3.2930  -0.8095   8.5687   9.3776  10.5952

     occupation numbers 
     1.0000   1.0000   1.0000   1.0000   0.0000   0.0000   0.0000   0.0000

          k = 0.2733 0.5273 0.0000 (  5280 PWs)   bands (ev):

   -15.4826 -13.7349 -12.0225  -3.1909  -0.9139   8.5609   9.5413  10.5831

     occupation numbers 
     1.0000   1.0000   1.0000   1.0000   0.0000   0.0000   0.0000   0.0000

          k = 0.2733 0.5350 0.0000 (  5278 PWs)   bands (ev):

   -15.3709 -13.8411 -12.0546  -3.0949  -1.0119   8.5526   9.7031  10.5718

     occupation numbers 
     1.0000   1.0000   1.0000   1.0000   0.0000   0.0000   0.0000   0.0000

          k = 0.2733 0.5427 0.0000 (  5280 PWs)   bands (ev):

   -15.2628 -13.9452 -12.0808  -3.0070  -1.1014   8.5445   9.8618  10.5612

     occupation numbers 
     1.0000   1.0000   1.0000   1.0000   0.0000   0.0000   0.0000   0.0000

          k = 0.2733 0.5504 0.0000 (  5284 PWs)   bands (ev):

   -15.1609 -14.0442 -12.1015  -2.9300  -1.1797   8.5373  10.0155  10.5506

     occupation numbers 
     1.0000   1.0000   1.0000   1.0000   0.0000   0.0000   0.0000   0.0000

          k = 0.2733 0.5581 0.0000 (  5278 PWs)   bands (ev):

   -15.0697 -14.1335 -12.1168  -2.8673  -1.2434   8.5315  10.1613  10.5381

     occupation numbers 
     1.0000   1.0000   1.0000   1.0000   0.0000   0.0000   0.0000   0.0000

          k = 0.2733 0.5658 0.0000 (  5282 PWs)   bands (ev):

   -14.9972 -14.2047 -12.1269  -2.8224  -1.2888   8.5275  10.2939  10.5184

     occupation numbers 
     1.0000   1.0000   1.0000   1.0000   0.0000   0.0000   0.0000   0.0000

          k = 0.2733 0.5735 0.0000 (  5288 PWs)   bands (ev):

   -14.9554 -14.2460 -12.1320  -2.7990  -1.3126   8.5254  10.4037  10.4792

     occupation numbers 
     1.0000   1.0000   1.0000   1.0000   0.0000   0.0000   0.0000   0.0000

          k = 0.2800 0.4850 0.0000 (  5284 PWs)   bands (ev):

   -16.0569 -13.2115 -11.7754  -3.7341  -0.3540   8.5689   8.7173  10.5293

     occupation numbers 
     1.0000   1.0000   1.0000   1.0000   0.0000   0.0000   0.0000   0.0000

          k = 0.2800 0.4927 0.0000 (  5282 PWs)   bands (ev):

   -15.9429 -13.2985 -11.8521  -3.6198  -0.4709   8.5716   8.8802  10.6864

     occupation numbers 
     1.0000   1.0000   1.0000   1.0000   0.0000   0.0000   0.0000   0.0000

          k = 0.2800 0.5004 0.0000 (  5278 PWs)   bands (ev):

   -15.8284 -13.3895 -11.9211  -3.5066  -0.5864   8.5686   9.0438  10.7436

     occupation numbers 
     1.0000   1.0000   1.0000   1.0000   0.0000   0.0000   0.0000   0.0000

          k = 0.2800 0.5081 0.0000 (  5284 PWs)   bands (ev):

   -15.7138 -13.4840 -11.9826  -3.3950  -0.7000   8.5616   9.2076  10.7349

     occupation numbers 
     1.0000   1.0000   1.0000   1.0000   0.0000   0.0000   0.0000   0.0000

          k = 0.2800 0.5158 0.0000 (  5290 PWs)   bands (ev):

   -15.5993 -13.5817 -12.0365  -3.2858  -0.8110   8.5519   9.3712  10.7206

     occupation numbers 
     1.0000   1.0000   1.0000   1.0000   0.0000   0.0000   0.0000   0.0000

          k = 0.2800 0.5235 0.0000 (  5286 PWs)   bands (ev):

   -15.4855 -13.6818 -12.0832  -3.1799  -0.9183   8.5409   9.5338  10.7062

     occupation numbers 
     1.0000   1.0000   1.0000   1.0000   0.0000   0.0000   0.0000   0.0000

          k = 0.2800 0.5312 0.0000 (  5282 PWs)   bands (ev):

   -15.3731 -13.7831 -12.1228  -3.0788  -1.0207   8.5295   9.6948  10.6924

     occupation numbers 
     1.0000   1.0000   1.0000   1.0000   0.0000   0.0000   0.0000   0.0000

          k = 0.2800 0.5389 0.0000 (  5278 PWs)   bands (ev):

   -15.2633 -13.8842 -12.1557  -2.9841  -1.1163   8.5186   9.8529  10.6790

     occupation numbers 
     1.0000   1.0000   1.0000   1.0000   0.0000   0.0000   0.0000   0.0000

          k = 0.2800 0.5466 0.0000 (  5280 PWs)   bands (ev):

   -15.1581 -13.9828 -12.1822  -2.8985  -1.2028   8.5088  10.0067  10.6652

     occupation numbers 
     1.0000   1.0000   1.0000   1.0000   0.0000   0.0000   0.0000   0.0000

          k = 0.2800 0.5543 0.0000 (  5284 PWs)   bands (ev):

   -15.0607 -14.0753 -12.2025  -2.8251  -1.2768   8.5007  10.1540  10.6488

     occupation numbers 
     1.0000   1.0000   1.0000   1.0000   0.0000   0.0000   0.0000   0.0000

          k = 0.2800 0.5620 0.0000 (  5284 PWs)   bands (ev):

   -14.9772 -14.1556 -12.2168  -2.7679  -1.3344   8.4947  10.2914  10.6252

     occupation numbers 
     1.0000   1.0000   1.0000   1.0000   0.0000   0.0000   0.0000   0.0000

          k = 0.2800 0.5697 0.0000 (  5288 PWs)   bands (ev):

   -14.9177 -14.2132 -12.2253  -2.7312  -1.3714   8.4910  10.4132  10.5852

     occupation numbers 
     1.0000   1.0000   1.0000   1.0000   0.0000   0.0000   0.0000   0.0000

          k = 0.2800 0.5774 0.0000 (  5288 PWs)   bands (ev):

   -14.8955 -14.2347 -12.2282  -2.7185  -1.3842   8.4897  10.4971  10.5318

     occupation numbers 
     1.0000   1.0000   1.0000   1.0000   0.0000   0.0000   0.0000   0.0000

          k = 0.2867 0.4965 0.0000 (  5280 PWs)   bands (ev):

   -15.8292 -13.3791 -11.9324  -3.5058  -0.5860   8.5652   9.0425  10.8331

     occupation numbers 
     1.0000   1.0000   1.0000   1.0000   0.0000   0.0000   0.0000   0.0000

          k = 0.2867 0.5042 0.0000 (  5282 PWs)   bands (ev):

   -15.7151 -13.4637 -12.0049  -3.3928  -0.6998   8.5548   9.2050  10.8427

     occupation numbers 
     1.0000   1.0000   1.0000   1.0000   0.0000   0.0000   0.0000   0.0000

          k = 0.2867 0.5119 0.0000 (  5286 PWs)   bands (ev):

   -15.6011 -13.5521 -12.0695  -3.2814  -0.8118   8.5418   9.3673  10.8270

     occupation numbers 
     1.0000   1.0000   1.0000   1.0000   0.0000   0.0000   0.0000   0.0000

          k = 0.2867 0.5196 0.0000 (  5292 PWs)   bands (ev):

   -15.4874 -13.6438 -12.1261  -3.1726  -0.9212   8.5275   9.5288  10.8110

     occupation numbers 
     1.0000   1.0000   1.0000   1.0000   0.0000   0.0000   0.0000   0.0000

          k = 0.2867 0.5273 0.0000 (  5288 PWs)   bands (ev):

   -15.3748 -13.7382 -12.1749  -3.0672  -1.0270   8.5129   9.6887  10.7953

     occupation numbers 
     1.0000   1.0000   1.0000   1.0000   0.0000   0.0000   0.0000   0.0000

          k = 0.2867 0.5350 0.0000 (  5284 PWs)   bands (ev):

   -15.2640 -13.8340 -12.2160  -2.9667  -1.1277   8.4990   9.8459  10.7798

     occupation numbers 
     1.0000   1.0000   1.0000   1.0000   0.0000   0.0000   0.0000   0.0000

          k = 0.2867 0.5427 0.0000 (  5286 PWs)   bands (ev):

   -15.1565 -13.9297 -12.2497  -2.8734  -1.2213   8.4864   9.9992  10.7636

     occupation numbers 
     1.0000   1.0000   1.0000   1.0000   0.0000   0.0000   0.0000   0.0000

          k = 0.2867 0.5504 0.0000 (  5282 PWs)   bands (ev):

   -15.0547 -14.0224 -12.2763  -2.7900  -1.3048   8.4758  10.1468  10.7448

     occupation numbers 
     1.0000   1.0000   1.0000   1.0000   0.0000   0.0000   0.0000   0.0000

          k = 0.2867 0.5581 0.0000 (  5286 PWs)   bands (ev):

   -14.9629 -14.1076 -12.2960  -2.7205  -1.3744   8.4675  10.2858  10.7195

     occupation numbers 
     1.0000   1.0000   1.0000   1.0000   0.0000   0.0000   0.0000   0.0000

          k = 0.2867 0.5658 0.0000 (  5282 PWs)   bands (ev):

   -14.8890 -14.1773 -12.3090  -2.6698  -1.4252   8.4617  10.4122  10.6815

     occupation numbers 
     1.0000   1.0000   1.0000   1.0000   0.0000   0.0000   0.0000   0.0000

          k = 0.2867 0.5735 0.0000 (  5286 PWs)   bands (ev):

   -14.8457 -14.2185 -12.3155  -2.6428  -1.4522   8.4588  10.5164  10.6265

     occupation numbers 
     1.0000   1.0000   1.0000   1.0000   0.0000   0.0000   0.0000   0.0000

          k = 0.2933 0.5081 0.0000 (  5284 PWs)   bands (ev):

   -15.6017 -13.5419 -12.0808  -3.2800  -0.8121   8.5384   9.3660  10.8837

     occupation numbers 
     1.0000   1.0000   1.0000   1.0000   0.0000   0.0000   0.0000   0.0000

          k = 0.2933 0.5158 0.0000 (  5284 PWs)   bands (ev):

   -15.4884 -13.6240 -12.1485  -3.1689  -0.9227   8.5207   9.5263  10.8830

     occupation numbers 
     1.0000   1.0000   1.0000   1.0000   0.0000   0.0000   0.0000   0.0000

          k = 0.2933 0.5235 0.0000 (  5288 PWs)   bands (ev):

   -15.3758 -13.7096 -12.2078  -3.0602  -1.0308   8.5029   9.6850  10.8716

     occupation numbers 
     1.0000   1.0000   1.0000   1.0000   0.0000   0.0000   0.0000   0.0000

          k = 0.2933 0.5312 0.0000 (  5286 PWs)   bands (ev):

   -15.2645 -13.7981 -12.2586  -2.9550  -1.1354   8.4859   9.8412  10.8572

     occupation numbers 
     1.0000   1.0000   1.0000   1.0000   0.0000   0.0000   0.0000   0.0000

          k = 0.2933 0.5389 0.0000 (  5286 PWs)   bands (ev):

   -15.1556 -13.8883 -12.3011  -2.8551  -1.2348   8.4703   9.9937  10.8408

     occupation numbers 
     1.0000   1.0000   1.0000   1.0000   0.0000   0.0000   0.0000   0.0000

          k = 0.2933 0.5466 0.0000 (  5282 PWs)   bands (ev):

   -15.0508 -13.9782 -12.3355  -2.7628  -1.3267   8.4569  10.1408  10.8217

     occupation numbers 
     1.0000   1.0000   1.0000   1.0000   0.0000   0.0000   0.0000   0.0000

          k = 0.2933 0.5543 0.0000 (  5276 PWs)   bands (ev):

   -14.9531 -14.0647 -12.3620  -2.6816  -1.4075   8.4460  10.2802  10.7970

     occupation numbers 
     1.0000   1.0000   1.0000   1.0000   0.0000   0.0000   0.0000   0.0000

          k = 0.2933 0.5620 0.0000 (  5280 PWs)   bands (ev):

   -14.8682 -14.1418 -12.3807  -2.6165  -1.4723   8.4380  10.4087  10.7624

     occupation numbers 
     1.0000   1.0000   1.0000   1.0000   0.0000   0.0000   0.0000   0.0000

          k = 0.2933 0.5697 0.0000 (  5280 PWs)   bands (ev):

   -14.8064 -14.1989 -12.3918  -2.5735  -1.5151   8.4331  10.5201  10.7137

     occupation numbers 
     1.0000   1.0000   1.0000   1.0000   0.0000   0.0000   0.0000   0.0000

          k = 0.2933 0.5774 0.0000 (  5282 PWs)   bands (ev):

   -14.7830 -14.2208 -12.3955  -2.5584  -1.5302   8.4315  10.5848  10.6712

     occupation numbers 
     1.0000   1.0000   1.0000   1.0000   0.0000   0.0000   0.0000   0.0000

          k = 0.3000 0.5196 0.0000 (  5284 PWs)   bands (ev):

   -15.3762 -13.6998 -12.2190  -3.0578  -1.0321   8.4996   9.6837  10.9023

     occupation numbers 
     1.0000   1.0000   1.0000   1.0000   0.0000   0.0000   0.0000   0.0000

          k = 0.3000 0.5273 0.0000 (  5286 PWs)   bands (ev):

   -15.2648 -13.7793 -12.2807  -2.9491  -1.1392   8.4793   9.8388  10.9013

     occupation numbers 
     1.0000   1.0000   1.0000   1.0000   0.0000   0.0000   0.0000   0.0000

          k = 0.3000 0.5350 0.0000 (  5282 PWs)   bands (ev):

   -15.1552 -13.8618 -12.3335  -2.8440  -1.2430   8.4606   9.9903  10.8912

     occupation numbers 
     1.0000   1.0000   1.0000   1.0000   0.0000   0.0000   0.0000   0.0000

          k = 0.3000 0.5427 0.0000 (  5280 PWs)   bands (ev):

   -15.0485 -13.9463 -12.3772  -2.7441  -1.3417   8.4442  10.1366  10.8757

     occupation numbers 
     1.0000   1.0000   1.0000   1.0000   0.0000   0.0000   0.0000   0.0000

          k = 0.3000 0.5504 0.0000 (  5276 PWs)   bands (ev):

   -14.9468 -14.0305 -12.4119  -2.6524  -1.4324   8.4305  10.2758  10.8546

     occupation numbers 
     1.0000   1.0000   1.0000   1.0000   0.0000   0.0000   0.0000   0.0000

          k = 0.3000 0.5581 0.0000 (  5276 PWs)   bands (ev):

   -14.8538 -14.1105 -12.4378  -2.5733  -1.5108   8.4200  10.4049  10.8255

     occupation numbers 
     1.0000   1.0000   1.0000   1.0000   0.0000   0.0000   0.0000   0.0000

          k = 0.3000 0.5658 0.0000 (  5278 PWs)   bands (ev):

   -14.7773 -14.1784 -12.4549  -2.5132  -1.5704   8.4128  10.5196  10.7851

     occupation numbers 
     1.0000   1.0000   1.0000   1.0000   0.0000   0.0000   0.0000   0.0000

          k = 0.3000 0.5735 0.0000 (  5278 PWs)   bands (ev):

   -14.7312 -14.2204 -12.4635  -2.4800  -1.6033   8.4092  10.6084  10.7362

     occupation numbers 
     1.0000   1.0000   1.0000   1.0000   0.0000   0.0000   0.0000   0.0000

          k = 0.3067 0.5312 0.0000 (  5280 PWs)   bands (ev):

   -15.1551 -13.8527 -12.3445  -2.8402  -1.2458   8.4573   9.9891  10.9088

     occupation numbers 
     1.0000   1.0000   1.0000   1.0000   0.0000   0.0000   0.0000   0.0000

          k = 0.3067 0.5389 0.0000 (  5278 PWs)   bands (ev):

   -15.0474 -13.9295 -12.3988  -2.7346  -1.3494   8.4378  10.1345  10.9036

     occupation numbers 
     1.0000   1.0000   1.0000   1.0000   0.0000   0.0000   0.0000   0.0000

          k = 0.3067 0.5466 0.0000 (  5276 PWs)   bands (ev):

   -14.9432 -14.0084 -12.4432  -2.6344  -1.4479   8.4212  10.2730  10.8901

     occupation numbers 
     1.0000   1.0000   1.0000   1.0000   0.0000   0.0000   0.0000   0.0000

          k = 0.3067 0.5543 0.0000 (  5274 PWs)   bands (ev):

   -14.8450 -14.0870 -12.4778  -2.5427  -1.5383   8.4079  10.4020  10.8688

     occupation numbers 
     1.0000   1.0000   1.0000   1.0000   0.0000   0.0000   0.0000   0.0000

          k = 0.3067 0.5620 0.0000 (  5278 PWs)   bands (ev):

   -14.7576 -14.1605 -12.5024  -2.4652  -1.6147   8.3982  10.5181  10.8379

     occupation numbers 
     1.0000   1.0000   1.0000   1.0000   0.0000   0.0000   0.0000   0.0000

          k = 0.3067 0.5697 0.0000 (  5276 PWs)   bands (ev):

   -14.6915 -14.2182 -12.5172  -2.4111  -1.6683   8.3923  10.6149  10.7968

     occupation numbers 
     1.0000   1.0000   1.0000   1.0000   0.0000   0.0000   0.0000   0.0000

          k = 0.3067 0.5774 0.0000 (  5276 PWs)   bands (ev):

   -14.6653 -14.2416 -12.5221  -2.3912  -1.6879   8.3903  10.6656  10.7655

     occupation numbers 
     1.0000   1.0000   1.0000   1.0000   0.0000   0.0000   0.0000   0.0000

          k = 0.3133 0.5427 0.0000 (  5276 PWs)   bands (ev):

   -14.9421 -14.0007 -12.4539  -2.6282  -1.4532   8.4181  10.2720  10.9021

     occupation numbers 
     1.0000   1.0000   1.0000   1.0000   0.0000   0.0000   0.0000   0.0000

          k = 0.3133 0.5504 0.0000 (  5276 PWs)   bands (ev):

   -14.8407 -14.0745 -12.4984  -2.5267  -1.5527   8.4018  10.4005  10.8908

     occupation numbers 
     1.0000   1.0000   1.0000   1.0000   0.0000   0.0000   0.0000   0.0000

          k = 0.3133 0.5581 0.0000 (  5276 PWs)   bands (ev):

   -14.7462 -14.1482 -12.5320  -2.4339  -1.6439   8.3893  10.5168  10.8705

     occupation numbers 
     1.0000   1.0000   1.0000   1.0000   0.0000   0.0000   0.0000   0.0000

          k = 0.3133 0.5658 0.0000 (  5278 PWs)   bands (ev):

   -14.6649 -14.2155 -12.5544  -2.3574  -1.7193   8.3809  10.6166  10.8404

     occupation numbers 
     1.0000   1.0000   1.0000   1.0000   0.0000   0.0000   0.0000   0.0000

          k = 0.3133 0.5735 0.0000 (  5278 PWs)   bands (ev):

   -14.6122 -14.2611 -12.5657  -2.3114  -1.7648   8.3766  10.6894  10.8047

     occupation numbers 
     1.0000   1.0000   1.0000   1.0000   0.0000   0.0000   0.0000   0.0000

          k = 0.3200 0.5543 0.0000 (  5278 PWs)   bands (ev):

   -14.7425 -14.1438 -12.5420  -2.4229  -1.6542   8.3864  10.5163  10.8814

     occupation numbers 
     1.0000   1.0000   1.0000   1.0000   0.0000   0.0000   0.0000   0.0000

          k = 0.3200 0.5620 0.0000 (  5278 PWs)   bands (ev):

   -14.6515 -14.2136 -12.5735  -2.3270  -1.7483   8.3752  10.6170  10.8629

     occupation numbers 
     1.0000   1.0000   1.0000   1.0000   0.0000   0.0000   0.0000   0.0000

          k = 0.3200 0.5697 0.0000 (  5276 PWs)   bands (ev):

   -14.5764 -14.2760 -12.5926  -2.2499  -1.8244   8.3684  10.6972  10.8355

     occupation numbers 
     1.0000   1.0000   1.0000   1.0000   0.0000   0.0000   0.0000   0.0000

          k = 0.3200 0.5774 0.0000 (  5280 PWs)   bands (ev):

   -14.5426 -14.3055 -12.5990  -2.2171  -1.8568   8.3661  10.7374  10.8136

     occupation numbers 
     1.0000   1.0000   1.0000   1.0000   0.0000   0.0000   0.0000   0.0000

          k = 0.3267 0.5658 0.0000 (  5280 PWs)   bands (ev):

   -14.5635 -14.2818 -12.6017  -2.2252  -1.8485   8.3656  10.6990  10.8467

     occupation numbers 
     1.0000   1.0000   1.0000   1.0000   0.0000   0.0000   0.0000   0.0000

          k = 0.3267 0.5735 0.0000 (  5282 PWs)   bands (ev):

   -14.4929 -14.3424 -12.6159  -2.1429  -1.9300   8.3608  10.7576  10.8226

     occupation numbers 
     1.0000   1.0000   1.0000   1.0000   0.0000   0.0000   0.0000   0.0000

          k = 0.3333 0.5774 0.0000 (  5292 PWs)   bands (ev):

   -14.4147 -14.4147 -12.6238  -2.0362  -2.0362   8.3583  10.7983  10.7983

     occupation numbers 
     1.0000   1.0000   1.0000   0.5000   0.5000   0.0000   0.0000   0.0000

     the Fermi energy is    -2.0362 ev
     (compare with:    -2.0362 eV, computed in scf)

     Writing all to output data dir ./tmp/graphene.save/ :
     XML data file, pseudopotentials, collected wavefunctions

     init_run     :      1.79s CPU      1.87s WALL (       1 calls)
     electrons    :   3014.91s CPU   3023.82s WALL (       1 calls)

     Called by init_run:
     wfcinit      :      0.00s CPU      0.00s WALL (       1 calls)
     wfcinit:wfcr :     38.89s CPU     39.00s WALL (    1951 calls)
     potinit      :      0.36s CPU      0.38s WALL (       1 calls)
     hinit0       :      0.64s CPU      0.65s WALL (       1 calls)

     Called by electrons:
     c_bands      :   3014.90s CPU   3023.81s WALL (       1 calls)
     v_of_rho     :      0.03s CPU      0.03s WALL (       1 calls)
     v_h          :      0.01s CPU      0.01s WALL (       1 calls)
     v_xc         :      0.02s CPU      0.02s WALL (       1 calls)
     newd         :      0.09s CPU      0.12s WALL (       1 calls)

     Called by c_bands:
     init_us_2    :      0.92s CPU      1.24s WALL (    1951 calls)
     cegterg      :   2970.24s CPU   2978.21s WALL (    9372 calls)

     Called by sum_band:

     Called by *egterg:
     cdiaghg      :     12.71s CPU     12.79s WALL (  172851 calls)
     cegterg:over :    202.23s CPU    202.75s WALL (  170900 calls)
     cegterg:upda :    122.03s CPU    122.39s WALL (  170900 calls)
     cegterg:last :    343.99s CPU    344.70s WALL (  120681 calls)
     h_psi        :   2161.70s CPU   2167.58s WALL (  182223 calls)
     s_psi        :    120.05s CPU    120.59s WALL (  182223 calls)
     g_psi        :     13.45s CPU     13.50s WALL (  170900 calls)

     Called by h_psi:
     h_psi:calbec :    127.18s CPU    127.55s WALL (  182223 calls)
     vloc_psi     :   1906.79s CPU   1911.95s WALL (  182223 calls)
     add_vuspsi   :    121.72s CPU    122.08s WALL (  182223 calls)

     General routines
     calbec       :    126.76s CPU    127.17s WALL (  182223 calls)
     fft          :      0.49s CPU      0.49s WALL (       5 calls)
     ffts         :      0.32s CPU      0.32s WALL (       1 calls)
     fftw         :   1459.29s CPU   1462.83s WALL ( 1982364 calls)
     interpolate  :      0.33s CPU      0.33s WALL (       1 calls)
     davcio       :      0.42s CPU      0.64s WALL (    3902 calls)


     PWSCF        :  50m17.15s CPU  50m26.78s WALL


   This run was terminated on:   6: 7:18   4Oct2025            

=------------------------------------------------------------------------------=
   JOB DONE.
=------------------------------------------------------------------------------=
