
     Program PWSCF v.7.4.1 starts on 29Jan2026 at  2:22:35 

     This program is part of the open-source Quantum ESPRESSO suite
     for quantum simulation of materials; please cite
         "P. Giannozzi et al., J. Phys.:Condens. Matter 21 395502 (2009);
         "P. Giannozzi et al., J. Phys.:Condens. Matter 29 465901 (2017);
         "P. Giannozzi et al., J. Chem. Phys. 152 154105 (2020);
          URL http://www.quantum-espresso.org", 
     in publications or presentations arising from this work. More details at
     http://www.quantum-espresso.org/quote

     Parallel version (MPI), running on    20 processors

     MPI processes distributed on     1 nodes
     113915 MiB available memory on the printing compute node when the environment starts
 
     Reading input from grap_SOC_scf.in

     Current dimensions of program PWSCF are:
     Max number of different atomic species (ntypx) = 10
     Max number of k-points (npk) =  40000
     Max angular momentum in pseudopotentials (lmaxx) =  4
     Presently stress not available with electric field and gates

     file C.rel-pbe-n-kjpaw_psl.1.0.0.UPF: wavefunction(s)  2S 2P 2P renormalized
 
     R & G space division:  proc/nbgrp/npool/nimage =      20
     Subspace diagonalization in iterative solution of the eigenvalue problem:
     a serial algorithm will be used

 
     Parallelization info
     --------------------
     sticks:   dense  smooth     PW     G-vecs:    dense   smooth      PW
     Min          52      21      6                 8339     2113     392
     Max          57      22      7                 8350     2140     425
     Sum        1045     421    139               166859    42343    8205
 
     Using Slab Decomposition
 


     bravais-lattice index     =            0
     lattice parameter (alat)  =       4.6624  a.u.
     unit-cell volume          =     533.6317 (a.u.)^3
     number of atoms/cell      =            2
     number of atomic types    =            1
     number of electrons       =         8.00
     number of Kohn-Sham states=           16
     kinetic-energy cutoff     =      70.0000  Ry
     charge density cutoff     =     700.0000  Ry
     scf convergence threshold =      1.0E-08
     mixing beta               =       0.1000
     number of iterations used =            8  plain     mixing
     Exchange-correlation= SLA  PW   PBX  PBC
                           (   1   4   3   4   0   0   0)
     Non magnetic calculation with spin-orbit


     celldm(1)=   4.662410  celldm(2)=   0.000000  celldm(3)=   0.000000
     celldm(4)=   0.000000  celldm(5)=   0.000000  celldm(6)=   0.000000

     crystal axes: (cart. coord. in units of alat)
               a(1) = (   1.000000   0.000000   0.000000 )  
               a(2) = (  -0.500000   0.866025   0.000000 )  
               a(3) = (   0.000000   0.000000   6.079666 )  

     reciprocal axes: (cart. coord. in units 2 pi/alat)
               b(1) = (  1.000000  0.577350  0.000000 )  
               b(2) = (  0.000000  1.154701  0.000000 )  
               b(3) = (  0.000000  0.000000  0.164483 )  


     PseudoPot. # 1 for C  read from file:
     ../../../PP_C/C.rel-pbe-n-kjpaw_psl.1.0.0.UPF
     MD5 check sum: dd2b8f743de1f3a10095e4114fb28074
     Pseudo is Projector augmented-wave + core cor, Zval =  4.0
     Generated using &quot;atomic&quot; code by A. Dal Corso  v.6.3
     Shape of augmentation charge: PSQ
     Using radial grid of 1073 points,  6 beta functions with: 
                l(1) =   0
                l(2) =   0
                l(3) =   1
                l(4) =   1
                l(5) =   1
                l(6) =   1
     Q(r) pseudized with 0 coefficients 


     atomic species   valence    mass     pseudopotential
     C                 4.00    12.01100     C ( 1.00)

     No symmetry found



   Cartesian axes

     site n.     atom                  positions (alat units)
         1        C      tau(   1) = (   0.0000000   0.0000000   3.0398328  )
         2        C      tau(   2) = (   0.0000000   0.5773503   3.0398328  )

     number of k points=    74  Gaussian smearing, width (Ry)=  0.0020
                       cart. coord. in units 2pi/alat
        k(    1) = (   0.0000000   0.0000000   0.0000000), wk =   0.0069444
        k(    2) = (   0.0000000   0.0962250   0.0000000), wk =   0.0138889
        k(    3) = (   0.0000000   0.1924501   0.0000000), wk =   0.0138889
        k(    4) = (   0.0000000   0.2886751   0.0000000), wk =   0.0138889
        k(    5) = (   0.0000000   0.3849002   0.0000000), wk =   0.0138889
        k(    6) = (   0.0000000   0.4811252   0.0000000), wk =   0.0138889
        k(    7) = (   0.0000000  -0.5773503   0.0000000), wk =   0.0069444
        k(    8) = (   0.0833333   0.0481125   0.0000000), wk =   0.0138889
        k(    9) = (   0.0833333   0.1443376   0.0000000), wk =   0.0138889
        k(   10) = (   0.0833333   0.2405626   0.0000000), wk =   0.0138889
        k(   11) = (   0.0833333   0.3367877   0.0000000), wk =   0.0138889
        k(   12) = (   0.0833333   0.4330127   0.0000000), wk =   0.0138889
        k(   13) = (   0.0833333   0.5292377   0.0000000), wk =   0.0138889
        k(   14) = (   0.0833333  -0.5292377   0.0000000), wk =   0.0138889
        k(   15) = (   0.0833333  -0.4330127   0.0000000), wk =   0.0138889
        k(   16) = (   0.0833333  -0.3367877   0.0000000), wk =   0.0138889
        k(   17) = (   0.0833333  -0.2405626   0.0000000), wk =   0.0138889
        k(   18) = (   0.0833333  -0.1443376   0.0000000), wk =   0.0138889
        k(   19) = (   0.0833333  -0.0481125   0.0000000), wk =   0.0138889
        k(   20) = (   0.1666667   0.0962250   0.0000000), wk =   0.0138889
        k(   21) = (   0.1666667   0.1924501   0.0000000), wk =   0.0138889
        k(   22) = (   0.1666667   0.2886751   0.0000000), wk =   0.0138889
        k(   23) = (   0.1666667   0.3849002   0.0000000), wk =   0.0138889
        k(   24) = (   0.1666667   0.4811252   0.0000000), wk =   0.0138889
        k(   25) = (   0.1666667   0.5773503   0.0000000), wk =   0.0138889
        k(   26) = (   0.1666667  -0.4811252   0.0000000), wk =   0.0138889
        k(   27) = (   0.1666667  -0.3849002   0.0000000), wk =   0.0138889
        k(   28) = (   0.1666667  -0.2886751   0.0000000), wk =   0.0138889
        k(   29) = (   0.1666667  -0.1924501   0.0000000), wk =   0.0138889
        k(   30) = (   0.1666667  -0.0962250   0.0000000), wk =   0.0138889
        k(   31) = (   0.1666667  -0.0000000   0.0000000), wk =   0.0138889
        k(   32) = (   0.2500000   0.1443376   0.0000000), wk =   0.0138889
        k(   33) = (   0.2500000   0.2405626   0.0000000), wk =   0.0138889
        k(   34) = (   0.2500000   0.3367877   0.0000000), wk =   0.0138889
        k(   35) = (   0.2500000   0.4330127   0.0000000), wk =   0.0138889
        k(   36) = (   0.2500000   0.5292377   0.0000000), wk =   0.0138889
        k(   37) = (   0.2500000   0.6254628   0.0000000), wk =   0.0138889
        k(   38) = (   0.2500000  -0.4330127   0.0000000), wk =   0.0138889
        k(   39) = (   0.2500000  -0.3367877   0.0000000), wk =   0.0138889
        k(   40) = (   0.2500000  -0.2405626   0.0000000), wk =   0.0138889
        k(   41) = (   0.2500000  -0.1443376   0.0000000), wk =   0.0138889
        k(   42) = (   0.2500000  -0.0481125   0.0000000), wk =   0.0138889
        k(   43) = (   0.2500000   0.0481125   0.0000000), wk =   0.0138889
        k(   44) = (   0.3333333   0.1924501   0.0000000), wk =   0.0138889
        k(   45) = (   0.3333333   0.2886751   0.0000000), wk =   0.0138889
        k(   46) = (   0.3333333   0.3849002   0.0000000), wk =   0.0138889
        k(   47) = (   0.3333333   0.4811252   0.0000000), wk =   0.0138889
        k(   48) = (   0.3333333   0.5773503   0.0000000), wk =   0.0138889
        k(   49) = (   0.3333333   0.6735753   0.0000000), wk =   0.0138889
        k(   50) = (   0.3333333  -0.3849002   0.0000000), wk =   0.0138889
        k(   51) = (   0.3333333  -0.2886751   0.0000000), wk =   0.0138889
        k(   52) = (   0.3333333  -0.1924501   0.0000000), wk =   0.0138889
        k(   53) = (   0.3333333  -0.0962250   0.0000000), wk =   0.0138889
        k(   54) = (   0.3333333  -0.0000000   0.0000000), wk =   0.0138889
        k(   55) = (   0.3333333   0.0962250   0.0000000), wk =   0.0138889
        k(   56) = (   0.4166667   0.2405626   0.0000000), wk =   0.0138889
        k(   57) = (   0.4166667   0.3367877   0.0000000), wk =   0.0138889
        k(   58) = (   0.4166667   0.4330127   0.0000000), wk =   0.0138889
        k(   59) = (   0.4166667   0.5292377   0.0000000), wk =   0.0138889
        k(   60) = (   0.4166667   0.6254628   0.0000000), wk =   0.0138889
        k(   61) = (   0.4166667   0.7216878   0.0000000), wk =   0.0138889
        k(   62) = (   0.4166667  -0.3367877   0.0000000), wk =   0.0138889
        k(   63) = (   0.4166667  -0.2405626   0.0000000), wk =   0.0138889
        k(   64) = (   0.4166667  -0.1443376   0.0000000), wk =   0.0138889
        k(   65) = (   0.4166667  -0.0481125   0.0000000), wk =   0.0138889
        k(   66) = (   0.4166667   0.0481125   0.0000000), wk =   0.0138889
        k(   67) = (   0.4166667   0.1443376   0.0000000), wk =   0.0138889
        k(   68) = (  -0.5000000  -0.2886751   0.0000000), wk =   0.0069444
        k(   69) = (  -0.5000000  -0.1924501   0.0000000), wk =   0.0138889
        k(   70) = (  -0.5000000  -0.0962250   0.0000000), wk =   0.0138889
        k(   71) = (  -0.5000000   0.0000000   0.0000000), wk =   0.0138889
        k(   72) = (  -0.5000000   0.0962250   0.0000000), wk =   0.0138889
        k(   73) = (  -0.5000000   0.1924501   0.0000000), wk =   0.0138889
        k(   74) = (  -0.5000000  -0.8660254   0.0000000), wk =   0.0069444

     Dense  grid:   166859 G-vectors     FFT dimensions: (  40,  40, 240)

     Smooth grid:    42343 G-vectors     FFT dimensions: (  25,  25, 160)

     Estimated max dynamical RAM per process >      40.42 MB

     Estimated total dynamical RAM >     808.50 MB

     Initial potential from superposition of free atoms

     starting charge       7.9999, renormalised to       8.0000

     negative rho (up, down):  2.223E-05 0.000E+00
 
     Adding external electric field

     Computed dipole along edir(3) : 
        Dipole               -0.0000 Ry au,         -0.0000 Debye
        Dipole field         -0.0000 Ry au, 
 
        E field amplitude [Ha a.u.]:  6.8064E-03
        Potential amp.        0.3666 Ry
        Total length         26.9286 bohr
 
     Starting wfcs are random
     Checking if some PAW data can be deallocated... 

     total cpu time spent up to now is        0.6 secs

     per-process dynamical memory:    53.7 Mb

     Self-consistent Calculation

     iteration #  1     ecut=    70.00 Ry     beta= 0.10
     Davidson diagonalization with overlap
     ethr =  1.00E-02,  avg # of iterations =  8.6

     negative rho (up, down):  2.151E-05 0.000E+00
 
     Adding external electric field

     Computed dipole along edir(3) : 
        Dipole                0.0085 Ry au,          0.0217 Debye
        Dipole field          0.0002 Ry au, 
 
        E field amplitude [Ha a.u.]:  6.8064E-03
        Potential amp.        0.3558 Ry
        Total length         26.9286 bohr
 

     total cpu time spent up to now is        5.8 secs

     total energy              =     -36.95164575 Ry
     estimated scf accuracy    <       0.20383894 Ry

     iteration #  2     ecut=    70.00 Ry     beta= 0.10
     Davidson diagonalization with overlap
     ethr =  2.55E-03,  avg # of iterations =  1.0

     negative rho (up, down):  2.675E-05 0.000E+00
 
     Adding external electric field

     Computed dipole along edir(3) : 
        Dipole                0.0548 Ry au,          0.1392 Debye
        Dipole field          0.0013 Ry au, 
 
        E field amplitude [Ha a.u.]:  6.8064E-03
        Potential amp.        0.2971 Ry
        Total length         26.9286 bohr
 

     total cpu time spent up to now is        7.0 secs

     total energy              =     -36.86210363 Ry
     estimated scf accuracy    <       0.15024631 Ry

     iteration #  3     ecut=    70.00 Ry     beta= 0.10
     Davidson diagonalization with overlap
     ethr =  1.88E-03,  avg # of iterations =  2.9

     negative rho (up, down):  2.654E-05 0.000E+00
 
     Adding external electric field

     Computed dipole along edir(3) : 
        Dipole                0.0434 Ry au,          0.1102 Debye
        Dipole field          0.0010 Ry au, 
 
        E field amplitude [Ha a.u.]:  6.8064E-03
        Potential amp.        0.3116 Ry
        Total length         26.9286 bohr
 

     total cpu time spent up to now is        8.5 secs

     total energy              =     -36.88716753 Ry
     estimated scf accuracy    <       0.00285096 Ry

     iteration #  4     ecut=    70.00 Ry     beta= 0.10
     Davidson diagonalization with overlap
     ethr =  3.56E-05,  avg # of iterations =  6.6

     negative rho (up, down):  2.900E-05 0.000E+00
 
     Adding external electric field

     Computed dipole along edir(3) : 
        Dipole                0.0259 Ry au,          0.0657 Debye
        Dipole field          0.0006 Ry au, 
 
        E field amplitude [Ha a.u.]:  6.8064E-03
        Potential amp.        0.3338 Ry
        Total length         26.9286 bohr
 

     total cpu time spent up to now is       10.9 secs

     total energy              =     -36.88750208 Ry
     estimated scf accuracy    <       0.00164685 Ry

     iteration #  5     ecut=    70.00 Ry     beta= 0.10
     Davidson diagonalization with overlap
     ethr =  2.06E-05,  avg # of iterations =  3.0

     negative rho (up, down):  2.989E-05 0.000E+00
 
     Adding external electric field

     Computed dipole along edir(3) : 
        Dipole                0.0322 Ry au,          0.0819 Debye
        Dipole field          0.0008 Ry au, 
 
        E field amplitude [Ha a.u.]:  6.8064E-03
        Potential amp.        0.3257 Ry
        Total length         26.9286 bohr
 

     total cpu time spent up to now is       12.3 secs

     total energy              =     -36.88754702 Ry
     estimated scf accuracy    <       0.00057636 Ry

     iteration #  6     ecut=    70.00 Ry     beta= 0.10
     Davidson diagonalization with overlap
     ethr =  7.20E-06,  avg # of iterations =  2.2

     negative rho (up, down):  3.263E-05 0.000E+00
 
     Adding external electric field

     Computed dipole along edir(3) : 
        Dipole                0.0404 Ry au,          0.1027 Debye
        Dipole field          0.0010 Ry au, 
 
        E field amplitude [Ha a.u.]:  6.8064E-03
        Potential amp.        0.3153 Ry
        Total length         26.9286 bohr
 

     total cpu time spent up to now is       13.6 secs

     total energy              =     -36.88753581 Ry
     estimated scf accuracy    <       0.00025532 Ry

     iteration #  7     ecut=    70.00 Ry     beta= 0.10
     Davidson diagonalization with overlap
     ethr =  3.19E-06,  avg # of iterations =  4.3

     negative rho (up, down):  3.278E-05 0.000E+00
 
     Adding external electric field

     Computed dipole along edir(3) : 
        Dipole                0.0390 Ry au,          0.0991 Debye
        Dipole field          0.0009 Ry au, 
 
        E field amplitude [Ha a.u.]:  6.8064E-03
        Potential amp.        0.3171 Ry
        Total length         26.9286 bohr
 

     total cpu time spent up to now is       15.3 secs

     total energy              =     -36.88756319 Ry
     estimated scf accuracy    <       0.00000579 Ry

     iteration #  8     ecut=    70.00 Ry     beta= 0.10
     Davidson diagonalization with overlap
     ethr =  7.24E-08,  avg # of iterations =  2.0

     negative rho (up, down):  3.338E-05 0.000E+00
 
     Adding external electric field

     Computed dipole along edir(3) : 
        Dipole                0.0404 Ry au,          0.1027 Debye
        Dipole field          0.0010 Ry au, 
 
        E field amplitude [Ha a.u.]:  6.8064E-03
        Potential amp.        0.3153 Ry
        Total length         26.9286 bohr
 

     total cpu time spent up to now is       16.6 secs

     total energy              =     -36.88755864 Ry
     estimated scf accuracy    <       0.00001092 Ry

     iteration #  9     ecut=    70.00 Ry     beta= 0.10
     Davidson diagonalization with overlap
     ethr =  7.24E-08,  avg # of iterations =  2.0

     negative rho (up, down):  3.349E-05 0.000E+00
 
     Adding external electric field

     Computed dipole along edir(3) : 
        Dipole                0.0405 Ry au,          0.1029 Debye
        Dipole field          0.0010 Ry au, 
 
        E field amplitude [Ha a.u.]:  6.8064E-03
        Potential amp.        0.3152 Ry
        Total length         26.9286 bohr
 

     total cpu time spent up to now is       18.1 secs

     total energy              =     -36.88756157 Ry
     estimated scf accuracy    <       0.00000143 Ry

     iteration # 10     ecut=    70.00 Ry     beta= 0.10
     Davidson diagonalization with overlap
     ethr =  1.79E-08,  avg # of iterations =  1.0

     negative rho (up, down):  3.385E-05 0.000E+00
 
     Adding external electric field

     Computed dipole along edir(3) : 
        Dipole                0.0403 Ry au,          0.1024 Debye
        Dipole field          0.0009 Ry au, 
 
        E field amplitude [Ha a.u.]:  6.8064E-03
        Potential amp.        0.3155 Ry
        Total length         26.9286 bohr
 

     total cpu time spent up to now is       19.2 secs

     total energy              =     -36.88756128 Ry
     estimated scf accuracy    <       0.00000126 Ry

     iteration # 11     ecut=    70.00 Ry     beta= 0.10
     Davidson diagonalization with overlap
     ethr =  1.58E-08,  avg # of iterations =  2.0

     negative rho (up, down):  3.405E-05 0.000E+00
 
     Adding external electric field

     Computed dipole along edir(3) : 
        Dipole                0.0401 Ry au,          0.1018 Debye
        Dipole field          0.0009 Ry au, 
 
        E field amplitude [Ha a.u.]:  6.8064E-03
        Potential amp.        0.3158 Ry
        Total length         26.9286 bohr
 

     total cpu time spent up to now is       20.5 secs

     total energy              =     -36.88756140 Ry
     estimated scf accuracy    <       0.00000014 Ry

     iteration # 12     ecut=    70.00 Ry     beta= 0.10
     Davidson diagonalization with overlap
     ethr =  1.80E-09,  avg # of iterations =  1.7

     negative rho (up, down):  3.542E-05 0.000E+00
 
     Adding external electric field

     Computed dipole along edir(3) : 
        Dipole                0.0401 Ry au,          0.1019 Debye
        Dipole field          0.0009 Ry au, 
 
        E field amplitude [Ha a.u.]:  6.8064E-03
        Potential amp.        0.3157 Ry
        Total length         26.9286 bohr
 

     total cpu time spent up to now is       21.7 secs

     End of self-consistent calculation

          k = 0.0000 0.0000 0.0000 (  5307 PWs)   bands (ev):

   -21.1300 -21.1300  -9.2265  -9.2265  -4.6730  -4.6730  -4.6638  -4.6638
     1.1081   1.1081   2.1012   2.1012   2.8762   2.8762   4.9156   4.9156

          k = 0.0000 0.0962 0.0000 (  5285 PWs)   bands (ev):

   -20.9663 -20.9663  -9.0308  -9.0307  -5.3191  -5.3191  -5.0063  -5.0063
     1.3342   1.3342   2.3253   2.3254   3.0997   3.0997   5.1383   5.1384

          k = 0.0000 0.1925 0.0000 (  5253 PWs)   bands (ev):

   -20.4768 -20.4767  -8.4488  -8.4488  -6.9564  -6.9564  -5.7979  -5.7979
     2.0121   2.0122   2.9977   2.9978   3.7687   3.7688   5.8031   5.8033

          k = 0.0000 0.2887 0.0000 (  5269 PWs)   bands (ev):

   -19.6673 -19.6673  -9.0540  -9.0540  -7.4999  -7.4999  -6.6769  -6.6769
     3.1397   3.1397   4.1168   4.1168   4.8568   4.8570   5.6449   5.6449

          k = 0.0000 0.3849 0.0000 (  5285 PWs)   bands (ev):

   -18.5500 -18.5500 -11.2558 -11.2558  -7.4097  -7.4097  -6.2342  -6.2341
     3.2886   3.2887   4.7230   4.7231   5.6631   5.6632   6.1060   6.1064

          k = 0.0000 0.4811 0.0000 (  5290 PWs)   bands (ev):

   -17.1563 -17.1563 -13.3538 -13.3538  -7.8822  -7.8822  -4.8146  -4.8146
     1.1604   1.1604   5.8362   5.8362   6.7474   6.7476   7.7003   7.7003

          k = 0.0000-0.5774 0.0000 (  5288 PWs)   bands (ev):

   -15.8976 -15.8976 -14.8551 -14.8551  -8.0445  -8.0445  -3.9722  -3.9722
     0.0657   0.0657   5.7569   5.7569   9.1491   9.1491   9.2145   9.2145

          k = 0.0833 0.0481 0.0000 (  5285 PWs)   bands (ev):

   -20.9663 -20.9663  -9.0308  -9.0307  -5.3191  -5.3191  -5.0063  -5.0063
     1.3342   1.3342   2.3253   2.3254   3.0997   3.0997   5.1383   5.1384

          k = 0.0833 0.1443 0.0000 (  5269 PWs)   bands (ev):

   -20.6396 -20.6396  -8.6418  -8.6418  -6.3529  -6.3529  -5.6829  -5.6829
     1.7863   1.7863   2.7738   2.7738   3.5462   3.5463   5.5830   5.5831

          k = 0.0833 0.2406 0.0000 (  5261 PWs)   bands (ev):

   -19.9902 -19.9901  -8.0623  -8.0623  -7.8752  -7.8752  -6.6800  -6.6800
     2.6896   2.6896   3.6704   3.6704   4.4351   4.4352   6.4079   6.4081

          k = 0.0833 0.3368 0.0000 (  5275 PWs)   bands (ev):

   -19.0266 -19.0266 -10.1341 -10.1341  -7.5657  -7.5657  -6.7614  -6.7614
     4.0284   4.0285   4.3203   4.3204   5.0126   5.0127   5.7817   5.7820

          k = 0.0833 0.4330 0.0000 (  5284 PWs)   bands (ev):

   -17.7680 -17.7680 -12.2551 -12.2550  -8.2001  -8.2001  -5.3847  -5.3846
     2.1046   2.1047   5.8391   5.8393   6.6201   6.6201   6.8533   6.8533

          k = 0.0833 0.5292 0.0000 (  5302 PWs)   bands (ev):

   -16.2915 -16.2915 -14.1934 -14.1934  -8.5284  -8.5283  -4.0785  -4.0785
     0.3407   0.3407   6.4950   6.4950   8.0736   8.0738   9.0236   9.0236

          k = 0.0833-0.5292 0.0000 (  5302 PWs)   bands (ev):

   -16.2915 -16.2915 -14.1934 -14.1934  -8.5284  -8.5283  -4.0785  -4.0785
     0.3407   0.3407   6.4950   6.4950   8.0736   8.0738   9.0236   9.0236

          k = 0.0833-0.4330 0.0000 (  5284 PWs)   bands (ev):

   -17.7680 -17.7680 -12.2551 -12.2550  -8.2001  -8.2001  -5.3847  -5.3846
     2.1046   2.1047   5.8391   5.8393   6.6201   6.6201   6.8533   6.8533

          k = 0.0833-0.3368 0.0000 (  5275 PWs)   bands (ev):

   -19.0266 -19.0266 -10.1341 -10.1341  -7.5657  -7.5657  -6.7614  -6.7614
     4.0284   4.0285   4.3203   4.3204   5.0126   5.0127   5.7817   5.7820

          k = 0.0833-0.2406 0.0000 (  5261 PWs)   bands (ev):

   -19.9902 -19.9901  -8.0623  -8.0623  -7.8752  -7.8752  -6.6800  -6.6800
     2.6896   2.6896   3.6704   3.6704   4.4351   4.4352   6.4079   6.4081

          k = 0.0833-0.1443 0.0000 (  5269 PWs)   bands (ev):

   -20.6396 -20.6396  -8.6418  -8.6418  -6.3529  -6.3529  -5.6829  -5.6829
     1.7863   1.7863   2.7738   2.7738   3.5462   3.5463   5.5830   5.5831

          k = 0.0833-0.0481 0.0000 (  5285 PWs)   bands (ev):

   -20.9663 -20.9663  -9.0308  -9.0307  -5.3191  -5.3191  -5.0063  -5.0063
     1.3342   1.3342   2.3253   2.3254   3.0997   3.0997   5.1383   5.1384

          k = 0.1667 0.0962 0.0000 (  5253 PWs)   bands (ev):

   -20.4768 -20.4767  -8.4488  -8.4488  -6.9564  -6.9564  -5.7979  -5.7979
     2.0121   2.0122   2.9977   2.9978   3.7687   3.7688   5.8031   5.8033

          k = 0.1667 0.1925 0.0000 (  5261 PWs)   bands (ev):

   -19.9902 -19.9901  -8.0623  -8.0623  -7.8752  -7.8752  -6.6800  -6.6800
     2.6896   2.6896   3.6704   3.6704   4.4351   4.4352   6.4079   6.4081

          k = 0.1667 0.2887 0.0000 (  5288 PWs)   bands (ev):

   -19.1866 -19.1866  -9.3929  -9.3929  -8.0402  -8.0402  -6.9398  -6.9398
     3.8168   3.8169   4.7543   4.7544   4.7906   4.7906   5.5398   5.5400

          k = 0.1667 0.3849 0.0000 (  5285 PWs)   bands (ev):

   -18.0802 -18.0802 -11.1189 -11.1189  -9.0959  -9.0959  -5.6893  -5.6892
     2.8112   2.8113   5.3888   5.3890   6.3531   6.3532   7.0595   7.0598

          k = 0.1667 0.4811 0.0000 (  5283 PWs)   bands (ev):

   -16.7064 -16.7064 -13.0272 -13.0272  -9.6719  -9.6718  -4.2656  -4.2655
     0.9036   0.9036   7.3884   7.3887   8.2895   8.2895   8.4582   8.4585

          k = 0.1667 0.5774 0.0000 (  5264 PWs)   bands (ev):

   -15.4765 -15.4765 -14.4575 -14.4575  -9.8567  -9.8567  -3.3751  -3.3750
    -0.1618  -0.1617   8.3014   8.3014   9.6450   9.6451   9.7669   9.7671

          k = 0.1667-0.4811 0.0000 (  5283 PWs)   bands (ev):

   -16.7064 -16.7064 -13.0272 -13.0272  -9.6718  -9.6718  -4.2656  -4.2655
     0.9036   0.9036   7.3884   7.3887   8.2895   8.2895   8.4582   8.4585

          k = 0.1667-0.3849 0.0000 (  5285 PWs)   bands (ev):

   -18.0802 -18.0802 -11.1189 -11.1189  -9.0959  -9.0959  -5.6893  -5.6892
     2.8112   2.8113   5.3888   5.3890   6.3531   6.3532   7.0595   7.0598

          k = 0.1667-0.2887 0.0000 (  5288 PWs)   bands (ev):

   -19.1866 -19.1866  -9.3929  -9.3929  -8.0402  -8.0402  -6.9398  -6.9398
     3.8168   3.8169   4.7543   4.7544   4.7906   4.7906   5.5398   5.5400

          k = 0.1667-0.1925 0.0000 (  5261 PWs)   bands (ev):

   -19.9902 -19.9901  -8.0623  -8.0623  -7.8752  -7.8752  -6.6800  -6.6800
     2.6896   2.6896   3.6704   3.6704   4.4351   4.4352   6.4079   6.4081

          k = 0.1667-0.0962 0.0000 (  5253 PWs)   bands (ev):

   -20.4768 -20.4767  -8.4488  -8.4488  -6.9564  -6.9564  -5.7979  -5.7979
     2.0121   2.0122   2.9977   2.9978   3.7687   3.7688   5.8031   5.8033

          k = 0.1667-0.0000 0.0000 (  5269 PWs)   bands (ev):

   -20.6396 -20.6396  -8.6418  -8.6418  -6.3529  -6.3529  -5.6829  -5.6829
     1.7863   1.7863   2.7738   2.7738   3.5462   3.5463   5.5830   5.5831

          k = 0.2500 0.1443 0.0000 (  5269 PWs)   bands (ev):

   -19.6673 -19.6673  -9.0540  -9.0540  -7.4999  -7.4999  -6.6769  -6.6769
     3.1397   3.1397   4.1168   4.1168   4.8568   4.8570   5.6449   5.6449

          k = 0.2500 0.2406 0.0000 (  5275 PWs)   bands (ev):

   -19.0266 -19.0266 -10.1341 -10.1341  -7.5657  -7.5657  -6.7614  -6.7614
     4.0284   4.0285   4.3203   4.3204   5.0126   5.0127   5.7817   5.7820

          k = 0.2500 0.3368 0.0000 (  5285 PWs)   bands (ev):

   -18.0802 -18.0802 -11.1189 -11.1189  -9.0959  -9.0959  -5.6893  -5.6892
     2.8112   2.8113   5.3888   5.3890   6.3531   6.3532   7.0595   7.0598

          k = 0.2500 0.4330 0.0000 (  5268 PWs)   bands (ev):

   -16.8537 -16.8537 -12.1552 -12.1552 -10.5763 -10.5763  -4.3493  -4.3493
     1.1999   1.2000   7.1591   7.1593   8.1267   8.1268   8.6096   8.6100

          k = 0.2500 0.5292 0.0000 (  5282 PWs)   bands (ev):

   -15.4342 -15.4342 -13.5739 -13.5739 -11.2836 -11.2836  -2.9665  -2.9665
    -0.3171  -0.3171   9.0748   9.0752   9.6395   9.6399  10.2791  10.2791

          k = 0.2500 0.6255 0.0000 (  5282 PWs)   bands (ev):

   -15.4342 -15.4342 -13.5739 -13.5739 -11.2836 -11.2836  -2.9665  -2.9665
    -0.3171  -0.3171   9.0748   9.0752   9.6395   9.6399  10.2791  10.2791

          k = 0.2500-0.4330 0.0000 (  5268 PWs)   bands (ev):

   -16.8537 -16.8537 -12.1552 -12.1552 -10.5763 -10.5763  -4.3493  -4.3493
     1.1999   1.2000   7.1591   7.1593   8.1268   8.1268   8.6096   8.6100

          k = 0.2500-0.3368 0.0000 (  5285 PWs)   bands (ev):

   -18.0802 -18.0802 -11.1189 -11.1189  -9.0959  -9.0959  -5.6893  -5.6892
     2.8112   2.8113   5.3888   5.3890   6.3531   6.3532   7.0595   7.0598

          k = 0.2500-0.2406 0.0000 (  5275 PWs)   bands (ev):

   -19.0266 -19.0266 -10.1341 -10.1341  -7.5657  -7.5657  -6.7614  -6.7614
     4.0284   4.0285   4.3203   4.3204   5.0126   5.0127   5.7817   5.7820

          k = 0.2500-0.1443 0.0000 (  5269 PWs)   bands (ev):

   -19.6673 -19.6673  -9.0540  -9.0540  -7.4999  -7.4999  -6.6769  -6.6769
     3.1397   3.1397   4.1168   4.1168   4.8568   4.8570   5.6448   5.6449

          k = 0.2500-0.0481 0.0000 (  5261 PWs)   bands (ev):

   -19.9902 -19.9901  -8.0623  -8.0623  -7.8752  -7.8752  -6.6800  -6.6800
     2.6896   2.6896   3.6704   3.6704   4.4351   4.4352   6.4079   6.4081

          k = 0.2500 0.0481 0.0000 (  5261 PWs)   bands (ev):

   -19.9902 -19.9901  -8.0623  -8.0623  -7.8752  -7.8752  -6.6800  -6.6800
     2.6896   2.6896   3.6704   3.6704   4.4351   4.4352   6.4079   6.4081

          k = 0.3333 0.1925 0.0000 (  5285 PWs)   bands (ev):

   -18.5500 -18.5500 -11.2558 -11.2558  -7.4097  -7.4097  -6.2342  -6.2341
     3.2886   3.2887   4.7230   4.7231   5.6631   5.6632   6.1060   6.1064

          k = 0.3333 0.2887 0.0000 (  5284 PWs)   bands (ev):

   -17.7680 -17.7680 -12.2550 -12.2550  -8.2001  -8.2001  -5.3847  -5.3846
     2.1046   2.1047   5.8391   5.8393   6.6201   6.6201   6.8533   6.8533

          k = 0.3333 0.3849 0.0000 (  5283 PWs)   bands (ev):

   -16.7064 -16.7064 -13.0272 -13.0272  -9.6719  -9.6718  -4.2656  -4.2655
     0.9036   0.9036   7.3884   7.3887   8.2895   8.2895   8.4582   8.4585

          k = 0.3333 0.4811 0.0000 (  5282 PWs)   bands (ev):

   -15.4342 -15.4342 -13.5739 -13.5739 -11.2836 -11.2836  -2.9665  -2.9665
    -0.3171  -0.3171   9.0748   9.0752   9.6395   9.6399  10.2791  10.2791

          k = 0.3333 0.5774 0.0000 (  5292 PWs)   bands (ev):

   -14.2203 -14.2202 -14.2182 -14.2181 -12.1749 -12.1749  -1.6131  -1.6131
    -1.6131  -1.6130   8.9841   8.9841  11.1854  11.1861  11.1893  11.1894

          k = 0.3333 0.6736 0.0000 (  5282 PWs)   bands (ev):

   -15.4342 -15.4342 -13.5739 -13.5739 -11.2836 -11.2836  -2.9665  -2.9665
    -0.3171  -0.3171   9.0748   9.0752   9.6395   9.6399  10.2791  10.2791

          k = 0.3333-0.3849 0.0000 (  5283 PWs)   bands (ev):

   -16.7064 -16.7064 -13.0272 -13.0272  -9.6718  -9.6718  -4.2656  -4.2655
     0.9036   0.9036   7.3884   7.3887   8.2895   8.2895   8.4582   8.4585

          k = 0.3333-0.2887 0.0000 (  5284 PWs)   bands (ev):

   -17.7680 -17.7680 -12.2551 -12.2550  -8.2001  -8.2001  -5.3847  -5.3846
     2.1046   2.1047   5.8391   5.8393   6.6201   6.6201   6.8533   6.8533

          k = 0.3333-0.1925 0.0000 (  5285 PWs)   bands (ev):

   -18.5500 -18.5500 -11.2558 -11.2558  -7.4097  -7.4097  -6.2342  -6.2341
     3.2886   3.2887   4.7230   4.7231   5.6631   5.6632   6.1060   6.1064

          k = 0.3333-0.0962 0.0000 (  5275 PWs)   bands (ev):

   -19.0266 -19.0266 -10.1341 -10.1341  -7.5657  -7.5657  -6.7614  -6.7614
     4.0284   4.0285   4.3203   4.3204   5.0126   5.0127   5.7817   5.7820

          k = 0.3333-0.0000 0.0000 (  5288 PWs)   bands (ev):

   -19.1866 -19.1866  -9.3929  -9.3929  -8.0402  -8.0402  -6.9398  -6.9398
     3.8168   3.8169   4.7543   4.7544   4.7906   4.7906   5.5398   5.5400

          k = 0.3333 0.0962 0.0000 (  5275 PWs)   bands (ev):

   -19.0266 -19.0266 -10.1341 -10.1341  -7.5657  -7.5657  -6.7614  -6.7614
     4.0284   4.0285   4.3203   4.3204   5.0126   5.0127   5.7817   5.7820

          k = 0.4167 0.2406 0.0000 (  5290 PWs)   bands (ev):

   -17.1563 -17.1563 -13.3538 -13.3538  -7.8823  -7.8823  -4.8146  -4.8146
     1.1604   1.1605   5.8362   5.8362   6.7474   6.7476   7.7003   7.7003

          k = 0.4167 0.3368 0.0000 (  5302 PWs)   bands (ev):

   -16.2915 -16.2915 -14.1934 -14.1934  -8.5284  -8.5284  -4.0785  -4.0785
     0.3407   0.3407   6.4950   6.4950   8.0736   8.0738   9.0236   9.0236

          k = 0.4167 0.4330 0.0000 (  5264 PWs)   bands (ev):

   -15.4765 -15.4765 -14.4575 -14.4575  -9.8567  -9.8567  -3.3751  -3.3751
    -0.1618  -0.1617   8.3014   8.3014   9.6450   9.6451   9.7669   9.7671

          k = 0.4167 0.5292 0.0000 (  5282 PWs)   bands (ev):

   -15.4342 -15.4342 -13.5739 -13.5739 -11.2836 -11.2836  -2.9665  -2.9665
    -0.3171  -0.3171   9.0748   9.0752   9.6395   9.6399  10.2791  10.2791

          k = 0.4167 0.6255 0.0000 (  5282 PWs)   bands (ev):

   -15.4342 -15.4342 -13.5739 -13.5739 -11.2836 -11.2836  -2.9665  -2.9665
    -0.3171  -0.3171   9.0748   9.0752   9.6395   9.6399  10.2791  10.2791

          k = 0.4167 0.7217 0.0000 (  5264 PWs)   bands (ev):

   -15.4765 -15.4765 -14.4575 -14.4575  -9.8567  -9.8567  -3.3751  -3.3750
    -0.1618  -0.1617   8.3014   8.3014   9.6450   9.6451   9.7669   9.7671

          k = 0.4167-0.3368 0.0000 (  5302 PWs)   bands (ev):

   -16.2915 -16.2915 -14.1934 -14.1934  -8.5284  -8.5283  -4.0785  -4.0785
     0.3407   0.3407   6.4950   6.4950   8.0736   8.0738   9.0236   9.0236

          k = 0.4167-0.2406 0.0000 (  5290 PWs)   bands (ev):

   -17.1563 -17.1563 -13.3538 -13.3538  -7.8822  -7.8822  -4.8146  -4.8146
     1.1604   1.1604   5.8362   5.8362   6.7474   6.7476   7.7003   7.7003

          k = 0.4167-0.1443 0.0000 (  5284 PWs)   bands (ev):

   -17.7680 -17.7680 -12.2551 -12.2550  -8.2001  -8.2001  -5.3847  -5.3846
     2.1046   2.1047   5.8391   5.8393   6.6201   6.6201   6.8533   6.8533

          k = 0.4167-0.0481 0.0000 (  5285 PWs)   bands (ev):

   -18.0802 -18.0802 -11.1189 -11.1189  -9.0959  -9.0959  -5.6893  -5.6892
     2.8112   2.8113   5.3888   5.3890   6.3531   6.3532   7.0595   7.0598

          k = 0.4167 0.0481 0.0000 (  5285 PWs)   bands (ev):

   -18.0802 -18.0802 -11.1189 -11.1189  -9.0959  -9.0959  -5.6893  -5.6892
     2.8112   2.8113   5.3888   5.3890   6.3531   6.3532   7.0595   7.0598

          k = 0.4167 0.1443 0.0000 (  5284 PWs)   bands (ev):

   -17.7680 -17.7680 -12.2550 -12.2550  -8.2001  -8.2001  -5.3847  -5.3846
     2.1046   2.1047   5.8391   5.8393   6.6201   6.6201   6.8533   6.8533

          k =-0.5000-0.2887 0.0000 (  5288 PWs)   bands (ev):

   -15.8976 -15.8976 -14.8551 -14.8551  -8.0445  -8.0445  -3.9722  -3.9722
     0.0657   0.0657   5.7569   5.7569   9.1491   9.1491   9.2145   9.2145

          k =-0.5000-0.1925 0.0000 (  5302 PWs)   bands (ev):

   -16.2915 -16.2915 -14.1934 -14.1934  -8.5284  -8.5284  -4.0785  -4.0785
     0.3407   0.3407   6.4950   6.4950   8.0736   8.0738   9.0236   9.0236

          k =-0.5000-0.0962 0.0000 (  5283 PWs)   bands (ev):

   -16.7064 -16.7064 -13.0272 -13.0272  -9.6719  -9.6718  -4.2656  -4.2655
     0.9036   0.9036   7.3884   7.3887   8.2895   8.2895   8.4582   8.4585

          k =-0.5000 0.0000 0.0000 (  5268 PWs)   bands (ev):

   -16.8537 -16.8537 -12.1552 -12.1552 -10.5763 -10.5763  -4.3493  -4.3493
     1.1999   1.2000   7.1591   7.1593   8.1267   8.1268   8.6096   8.6100

          k =-0.5000 0.0962 0.0000 (  5283 PWs)   bands (ev):

   -16.7064 -16.7064 -13.0272 -13.0272  -9.6719  -9.6718  -4.2656  -4.2655
     0.9036   0.9036   7.3884   7.3887   8.2895   8.2895   8.4582   8.4585

          k =-0.5000 0.1925 0.0000 (  5302 PWs)   bands (ev):

   -16.2915 -16.2915 -14.1934 -14.1934  -8.5284  -8.5283  -4.0785  -4.0785
     0.3407   0.3407   6.4950   6.4950   8.0736   8.0738   9.0236   9.0236

          k =-0.5000-0.8660 0.0000 (  5288 PWs)   bands (ev):

   -15.8976 -15.8976 -14.8551 -14.8551  -8.0445  -8.0445  -3.9722  -3.9722
     0.0657   0.0657   5.7569   5.7569   9.1491   9.1491   9.2145   9.2145

     the Fermi energy is    -1.61308824 ev

!    total energy              =     -36.88756144 Ry
     total all-electron energy =      -152.415834 Ry
     estimated scf accuracy    <          5.8E-09 Ry
     smearing contrib. (-TS)   =      -0.00003134 Ry
     internal energy E=F+TS    =     -36.88753009 Ry

     The total energy is F=E-TS. E is the sum of the following terms:
     one-electron contribution =    -156.61705468 Ry
     hartree contribution      =      79.92661485 Ry
     xc contribution           =      -9.27200466 Ry
     ewald contribution        =      61.40972547 Ry
     electric field correction =      -0.00050775 Ry
     one-center paw contrib.   =     -12.33430333 Ry

     convergence has been achieved in  12 iterations

     negative rho (up, down):  3.542E-05 0.000E+00

     Forces acting on atoms (cartesian axes, Ry/au):

     atom    1 type  1   force =     0.00000086    0.00000077   -0.00000046
     atom    2 type  1   force =    -0.00000086   -0.00000077    0.00000046

     Total force =     0.000002     Total SCF correction =     0.000005
     SCF correction compared to forces is large: reduce conv_thr to get better values

     Writing all to output data dir ../tmp/graphene.save/ :
     XML data file, charge density, pseudopotentials, collected wavefunctions
 
     init_run     :      0.49s CPU      0.54s WALL (       1 calls)
     electrons    :     20.36s CPU     21.18s WALL (       1 calls)
     forces       :      0.07s CPU      0.07s WALL (       1 calls)

     Called by init_run:
     wfcinit      :      0.41s CPU      0.44s WALL (       1 calls)
     potinit      :      0.02s CPU      0.03s WALL (       1 calls)
     hinit0       :      0.01s CPU      0.02s WALL (       1 calls)

     Called by electrons:
     c_bands      :     17.26s CPU     17.87s WALL (      12 calls)
     sum_band     :      2.60s CPU      2.72s WALL (      12 calls)
     v_of_rho     :      0.11s CPU      0.13s WALL (      13 calls)
     newd         :      0.19s CPU      0.20s WALL (      13 calls)
     PAW_pot      :      0.12s CPU      0.12s WALL (      13 calls)
     mix_rho      :      0.07s CPU      0.07s WALL (      12 calls)

     Called by c_bands:
     init_us_2    :      0.12s CPU      0.13s WALL (    1924 calls)
     cegterg      :     16.68s CPU     17.26s WALL (     888 calls)

     Called by *egterg:
     cdiaghg      :      2.54s CPU      2.60s WALL (    3647 calls)
     h_psi        :     12.53s CPU     13.03s WALL (    3721 calls)
     s_psi        :      0.22s CPU      0.23s WALL (    3721 calls)
     g_psi        :      0.05s CPU      0.05s WALL (    2759 calls)

     Called by h_psi:
     h_psi:calbec :      0.37s CPU      0.38s WALL (    3721 calls)
     vloc_psi     :     11.78s CPU     12.26s WALL (    3721 calls)
     add_vuspsi   :      0.25s CPU      0.26s WALL (    3721 calls)

     General routines
     calbec       :      0.45s CPU      0.47s WALL (    4905 calls)
     fft          :      0.14s CPU      0.14s WALL (     322 calls)
     ffts         :      0.01s CPU      0.01s WALL (     100 calls)
     fftw         :     10.16s CPU     10.58s WALL (  192788 calls)
     interpolate  :      0.02s CPU      0.02s WALL (      52 calls)
 
     Parallel routines
 
     PWSCF        :     21.20s CPU     24.23s WALL

 
   This run was terminated on:   2:22:59  29Jan2026            

=------------------------------------------------------------------------------=
   JOB DONE.
=------------------------------------------------------------------------------=
