
     Program PWSCF v.7.4.1 starts on  1Oct2025 at  7: 4:54 

     This program is part of the open-source Quantum ESPRESSO suite
     for quantum simulation of materials; please cite
         "P. Giannozzi et al., J. Phys.:Condens. Matter 21 395502 (2009);
         "P. Giannozzi et al., J. Phys.:Condens. Matter 29 465901 (2017);
         "P. Giannozzi et al., J. Chem. Phys. 152 154105 (2020);
          URL http://www.quantum-espresso.org", 
     in publications or presentations arising from this work. More details at
     http://www.quantum-espresso.org/quote

     Serial version
     16831 MiB available memory on the printing compute node when the environment starts

     Reading input from graphene_scf.in

     Current dimensions of program PWSCF are:
     Max number of different atomic species (ntypx) = 10
     Max number of k-points (npk) =  40000
     Max angular momentum in pseudopotentials (lmaxx) =  4
     file C.pbe-n-kjpaw_psl.1.0.0.UPF: wavefunction(s)  2S 2P renormalized
     Message from routine setup:
     using ibrav=0 with symmetry is DISCOURAGED, use correct ibrav instead


     G-vector sticks info
     --------------------
     sticks:   dense  smooth     PW     G-vecs:    dense   smooth      PW
     Sum         517     211     73                58729    14861    2797

     Using Slab Decomposition



     bravais-lattice index     =            0
     lattice parameter (alat)  =       4.6540  a.u.
     unit-cell volume          =     531.7080 (a.u.)^3
     number of atoms/cell      =            2
     number of atomic types    =            1
     number of electrons       =         8.00
     number of Kohn-Sham states=            8
     kinetic-energy cutoff     =      35.0000  Ry
     charge density cutoff     =     350.0000  Ry
     scf convergence threshold =      1.0E-08
     mixing beta               =       0.7000
     number of iterations used =            8  plain     mixing
     Exchange-correlation= SLA  PW   PBX  PBC
                           (   1   4   3   4   0   0   0)

     celldm(1)=   4.653998  celldm(2)=   0.000000  celldm(3)=   0.000000
     celldm(4)=   0.000000  celldm(5)=   0.000000  celldm(6)=   0.000000

     crystal axes: (cart. coord. in units of alat)
               a(1) = (   1.000000   0.000000   0.000000 )  
               a(2) = (  -0.500000   0.866025   0.000000 )  
               a(3) = (   0.000000   0.000000   6.090654 )  

     reciprocal axes: (cart. coord. in units 2 pi/alat)
               b(1) = (  1.000000  0.577350 -0.000000 )  
               b(2) = (  0.000000  1.154701  0.000000 )  
               b(3) = (  0.000000 -0.000000  0.164186 )  


     PseudoPot. # 1 for C  read from file:
     ../../../../pseudos/C.pbe-n-kjpaw_psl.1.0.0.UPF
     MD5 check sum: 5d2aebdfa2cae82b50a7e79e9516da0f
     Pseudo is Projector augmented-wave + core cor, Zval =  4.0
     Generated using "atomic" code by A. Dal Corso  v.5.1
     Shape of augmentation charge: PSQ
     Using radial grid of 1073 points,  4 beta functions with: 
                l(1) =   0
                l(2) =   0
                l(3) =   1
                l(4) =   1
     Q(r) pseudized with 0 coefficients 


     atomic species   valence    mass     pseudopotential
     C                 4.00    12.01070     C ( 1.00)

     24 Sym. Ops., with inversion, found (12 have fractional translation)



   Cartesian axes

     site n.     atom                  positions (alat units)
         1        C      tau(   1) = (   0.0000000   0.0000000   0.0000000  )
         2        C      tau(   2) = (   0.0000000   0.5773503   0.0000000  )

     number of k points=    12  Gaussian smearing, width (Ry)=  0.0100
                       cart. coord. in units 2pi/alat
        k(    1) = (   0.0000000   0.0000000   0.0000000), wk =   0.0246914
        k(    2) = (   0.0000000   0.1283001   0.0000000), wk =   0.1481481
        k(    3) = (   0.0000000   0.2566001   0.0000000), wk =   0.1481481
        k(    4) = (   0.0000000   0.3849002   0.0000000), wk =   0.1481481
        k(    5) = (   0.0000000   0.5132002   0.0000000), wk =   0.1481481
        k(    6) = (   0.1111111   0.1924501   0.0000000), wk =   0.1481481
        k(    7) = (   0.1111111   0.3207501   0.0000000), wk =   0.2962963
        k(    8) = (   0.1111111   0.4490502   0.0000000), wk =   0.2962963
        k(    9) = (   0.1111111   0.5773503   0.0000000), wk =   0.1481481
        k(   10) = (   0.2222222   0.3849002   0.0000000), wk =   0.1481481
        k(   11) = (   0.2222222   0.5132002   0.0000000), wk =   0.2962963
        k(   12) = (   0.3333333   0.5773503   0.0000000), wk =   0.0493827

     Dense  grid:    58729 G-vectors     FFT dimensions: (  27,  27, 180)

     Smooth grid:    14861 G-vectors     FFT dimensions: (  18,  18, 108)

     Estimated max dynamical RAM per process >      81.73 MB

     Check: negative core charge=   -0.000005

     Initial potential from superposition of free atoms

     starting charge       7.9999, renormalised to       8.0000

     negative rho (up, down):  9.780E-05 0.000E+00
     Starting wfcs are    8 randomized atomic wfcs

     total cpu time spent up to now is        1.2 secs

     Self-consistent Calculation

     iteration #  1     ecut=    35.00 Ry     beta= 0.70
     Davidson diagonalization with overlap
     ethr =  1.00E-02,  avg # of iterations =  5.2

     negative rho (up, down):  1.676E-04 0.000E+00

     total cpu time spent up to now is        2.0 secs

     total energy              =     -36.85249403 Ry
     estimated scf accuracy    <       0.19839642 Ry

     iteration #  2     ecut=    35.00 Ry     beta= 0.70
     Davidson diagonalization with overlap
     ethr =  2.48E-03,  avg # of iterations =  4.4

     negative rho (up, down):  1.977E-04 0.000E+00

     total cpu time spent up to now is        2.5 secs

     total energy              =     -36.88185402 Ry
     estimated scf accuracy    <       0.00229537 Ry

     iteration #  3     ecut=    35.00 Ry     beta= 0.70
     Davidson diagonalization with overlap
     ethr =  2.87E-05,  avg # of iterations =  8.2

     negative rho (up, down):  2.157E-04 0.000E+00

     total cpu time spent up to now is        3.3 secs

     total energy              =     -36.88206793 Ry
     estimated scf accuracy    <       0.00016378 Ry

     iteration #  4     ecut=    35.00 Ry     beta= 0.70
     Davidson diagonalization with overlap
     ethr =  2.05E-06,  avg # of iterations =  4.0

     negative rho (up, down):  2.164E-04 0.000E+00

     total cpu time spent up to now is        3.8 secs

     total energy              =     -36.88207588 Ry
     estimated scf accuracy    <       0.00000074 Ry

     iteration #  5     ecut=    35.00 Ry     beta= 0.70
     Davidson diagonalization with overlap
     ethr =  9.24E-09,  avg # of iterations =  3.3

     negative rho (up, down):  2.167E-04 0.000E+00

     total cpu time spent up to now is        4.4 secs

     total energy              =     -36.88207673 Ry
     estimated scf accuracy    <       0.00000002 Ry

     iteration #  6     ecut=    35.00 Ry     beta= 0.70
     Davidson diagonalization with overlap
     ethr =  3.00E-10,  avg # of iterations =  2.0

     negative rho (up, down):  2.168E-04 0.000E+00

     total cpu time spent up to now is        4.9 secs

     End of self-consistent calculation

          k = 0.0000 0.0000 0.0000 (  1907 PWs)   bands (ev):

   -21.2689  -9.3515  -4.7509  -4.7509   1.4184   2.2409   2.4980   4.4696

          k = 0.0000 0.1283 0.0000 (  1889 PWs)   bands (ev):

   -20.9770  -9.0027  -5.8674  -5.3238   1.8177   2.6429   2.9012   4.8668

          k = 0.0000 0.2566 0.0000 (  1872 PWs)   bands (ev):

   -20.1069  -8.4226  -7.9734  -6.4822   3.0145   3.8426   4.1104   6.0075

          k = 0.0000 0.3849 0.0000 (  1848 PWs)   bands (ev):

   -18.6795 -11.3625  -7.5040  -6.3443   3.2286   4.9964   5.8674   6.0059

          k = 0.0000 0.5132 0.0000 (  1840 PWs)   bands (ev):

   -16.7714 -14.1128  -8.0681  -4.4962   0.5237   5.7572   7.7728   8.6316

          k = 0.1111 0.1925 0.0000 (  1881 PWs)   bands (ev):

   -20.3960  -8.3133  -7.4260  -6.4723   2.6164   3.4450   3.7080   5.6577

          k = 0.1111 0.3208 0.0000 (  1868 PWs)   bands (ev):

   -19.2471  -9.8844  -7.8601  -6.9742   4.2097   4.4817   5.0609   5.3204

          k = 0.1111 0.4491 0.0000 (  1853 PWs)   bands (ev):

   -17.5683 -12.6515  -8.7426  -5.1421   1.6331   6.5707   7.1242   7.4170

          k = 0.1111 0.5774 0.0000 (  1848 PWs)   bands (ev):

   -15.8232 -14.7986  -9.0436  -3.8025  -0.0953   6.9605   9.6116   9.7628

          k = 0.2222 0.3849 0.0000 (  1858 PWs)   bands (ev):

   -17.8441 -11.4041  -9.8808  -5.3882   2.2641   6.1896   6.9798   7.3340

          k = 0.2222 0.5132 0.0000 (  1851 PWs)   bands (ev):

   -15.9914 -13.5228 -10.8820  -3.5075   0.0184   8.8935   9.1452   9.8291

          k = 0.3333 0.5774 0.0000 (  1848 PWs)   bands (ev):

   -14.3290 -14.3290 -12.3040  -1.6989  -1.6989   8.9170  11.1952  11.1952

     the Fermi energy is    -1.6989 ev

!    total energy              =     -36.88207673 Ry
     total all-electron energy =      -152.410272 Ry
     estimated scf accuracy    <          1.1E-09 Ry
     smearing contrib. (-TS)   =      -0.00027861 Ry
     internal energy E=F+TS    =     -36.88179812 Ry

     The total energy is F=E-TS. E is the sum of the following terms:
     one-electron contribution =    -157.19094300 Ry
     hartree contribution      =      80.21913178 Ry
     xc contribution           =      -9.27885799 Ry
     ewald contribution        =      61.70343446 Ry
     one-center paw contrib.   =     -12.33456337 Ry

     convergence has been achieved in   6 iterations

     negative rho (up, down):  2.168E-04 0.000E+00

     Forces acting on atoms (cartesian axes, Ry/au):

     atom    1 type  1   force =     0.00000000   -0.00000000    0.00000000
     atom    2 type  1   force =     0.00000000    0.00000000    0.00000000

     Total force =     0.000000     Total SCF correction =     0.000000


     Computing stress (Cartesian axis) and pressure


     negative rho (up, down):  2.168E-04 0.000E+00
          total   stress  (Ry/bohr**3)                   (kbar)     P=       -3.95
  -0.00001471  -0.00000000   0.00000000           -2.16       -0.00        0.00
  -0.00000000  -0.00001471  -0.00000000           -0.00       -2.16       -0.00
   0.00000000  -0.00000000  -0.00005105            0.00       -0.00       -7.51


     Writing all to output data dir ./tmp/graphene.save/ :
     XML data file, charge density, pseudopotentials, collected wavefunctions

     init_run     :      1.22s CPU      1.15s WALL (       1 calls)
     electrons    :      6.16s CPU      3.67s WALL (       1 calls)
     forces       :      0.11s CPU      0.11s WALL (       1 calls)
     stress       :      0.62s CPU      0.44s WALL (       1 calls)

     Called by init_run:
     wfcinit      :      0.34s CPU      0.25s WALL (       1 calls)
     potinit      :      0.32s CPU      0.34s WALL (       1 calls)
     hinit0       :      0.50s CPU      0.51s WALL (       1 calls)

     Called by electrons:
     c_bands      :      3.76s CPU      2.07s WALL (       6 calls)
     sum_band     :      1.10s CPU      0.59s WALL (       6 calls)
     v_of_rho     :      0.77s CPU      0.48s WALL (       7 calls)
     newd         :      0.16s CPU      0.20s WALL (       7 calls)
     PAW_pot      :      0.38s CPU      0.39s WALL (       7 calls)
     mix_rho      :      0.07s CPU      0.04s WALL (       6 calls)

     Called by c_bands:
     init_us_2    :      0.13s CPU      0.07s WALL (     180 calls)
     cegterg      :      3.60s CPU      1.99s WALL (      72 calls)

     Called by *egterg:
     cdiaghg      :      0.11s CPU      0.05s WALL (     398 calls)
     h_psi        :      3.37s CPU      1.94s WALL (     410 calls)
     s_psi        :      0.05s CPU      0.04s WALL (     410 calls)
     g_psi        :      0.03s CPU      0.01s WALL (     326 calls)

     Called by h_psi:
     h_psi:calbec :      0.08s CPU      0.04s WALL (     410 calls)
     vloc_psi     :      3.14s CPU      1.79s WALL (     410 calls)
     add_vuspsi   :      0.13s CPU      0.10s WALL (     410 calls)

     General routines
     calbec       :      0.10s CPU      0.06s WALL (     686 calls)
     fft          :      0.74s CPU      0.62s WALL (     114 calls)
     ffts         :      0.23s CPU      0.23s WALL (      13 calls)
     fftw         :      2.91s CPU      1.69s WALL (    4266 calls)
     interpolate  :      0.23s CPU      0.23s WALL (       7 calls)


     PWSCF        :      8.30s CPU      5.48s WALL


   This run was terminated on:   7: 5: 0   1Oct2025            

=------------------------------------------------------------------------------=
   JOB DONE.
=------------------------------------------------------------------------------=
