
     Program PWSCF v.7.4.1 starts on 29Jan2026 at  2:22:55 

     This program is part of the open-source Quantum ESPRESSO suite
     for quantum simulation of materials; please cite
         "P. Giannozzi et al., J. Phys.:Condens. Matter 21 395502 (2009);
         "P. Giannozzi et al., J. Phys.:Condens. Matter 29 465901 (2017);
         "P. Giannozzi et al., J. Chem. Phys. 152 154105 (2020);
          URL http://www.quantum-espresso.org", 
     in publications or presentations arising from this work. More details at
     http://www.quantum-espresso.org/quote

     Parallel version (MPI), running on    20 processors

     MPI processes distributed on     1 nodes
     113926 MiB available memory on the printing compute node when the environment starts
 
     Reading input from grap_SOC_scf.in

     Current dimensions of program PWSCF are:
     Max number of different atomic species (ntypx) = 10
     Max number of k-points (npk) =  40000
     Max angular momentum in pseudopotentials (lmaxx) =  4
     Presently stress not available with electric field and gates

     file C.rel-pbe-n-kjpaw_psl.1.0.0.UPF: wavefunction(s)  2S 2P 2P renormalized
 
     R & G space division:  proc/nbgrp/npool/nimage =      20
     Subspace diagonalization in iterative solution of the eigenvalue problem:
     a serial algorithm will be used

 
     Parallelization info
     --------------------
     sticks:   dense  smooth     PW     G-vecs:    dense   smooth      PW
     Min          52      21      6                 8339     2113     392
     Max          57      22      7                 8350     2140     425
     Sum        1045     421    139               166859    42343    8205
 
     Using Slab Decomposition
 


     bravais-lattice index     =            0
     lattice parameter (alat)  =       4.6624  a.u.
     unit-cell volume          =     533.6317 (a.u.)^3
     number of atoms/cell      =            2
     number of atomic types    =            1
     number of electrons       =         8.00
     number of Kohn-Sham states=           16
     kinetic-energy cutoff     =      70.0000  Ry
     charge density cutoff     =     700.0000  Ry
     scf convergence threshold =      1.0E-08
     mixing beta               =       0.1000
     number of iterations used =            8  plain     mixing
     Exchange-correlation= SLA  PW   PBX  PBC
                           (   1   4   3   4   0   0   0)
     Non magnetic calculation with spin-orbit


     celldm(1)=   4.662410  celldm(2)=   0.000000  celldm(3)=   0.000000
     celldm(4)=   0.000000  celldm(5)=   0.000000  celldm(6)=   0.000000

     crystal axes: (cart. coord. in units of alat)
               a(1) = (   1.000000   0.000000   0.000000 )  
               a(2) = (  -0.500000   0.866025   0.000000 )  
               a(3) = (   0.000000   0.000000   6.079666 )  

     reciprocal axes: (cart. coord. in units 2 pi/alat)
               b(1) = (  1.000000  0.577350  0.000000 )  
               b(2) = (  0.000000  1.154701  0.000000 )  
               b(3) = (  0.000000  0.000000  0.164483 )  


     PseudoPot. # 1 for C  read from file:
     ../../../PP_C/C.rel-pbe-n-kjpaw_psl.1.0.0.UPF
     MD5 check sum: dd2b8f743de1f3a10095e4114fb28074
     Pseudo is Projector augmented-wave + core cor, Zval =  4.0
     Generated using &quot;atomic&quot; code by A. Dal Corso  v.6.3
     Shape of augmentation charge: PSQ
     Using radial grid of 1073 points,  6 beta functions with: 
                l(1) =   0
                l(2) =   0
                l(3) =   1
                l(4) =   1
                l(5) =   1
                l(6) =   1
     Q(r) pseudized with 0 coefficients 


     atomic species   valence    mass     pseudopotential
     C                 4.00    12.01100     C ( 1.00)

     No symmetry found



   Cartesian axes

     site n.     atom                  positions (alat units)
         1        C      tau(   1) = (   0.0000000   0.0000000   3.0398328  )
         2        C      tau(   2) = (   0.0000000   0.5773503   3.0398328  )

     number of k points=    74  Gaussian smearing, width (Ry)=  0.0020
                       cart. coord. in units 2pi/alat
        k(    1) = (   0.0000000   0.0000000   0.0000000), wk =   0.0069444
        k(    2) = (   0.0000000   0.0962250   0.0000000), wk =   0.0138889
        k(    3) = (   0.0000000   0.1924501   0.0000000), wk =   0.0138889
        k(    4) = (   0.0000000   0.2886751   0.0000000), wk =   0.0138889
        k(    5) = (   0.0000000   0.3849002   0.0000000), wk =   0.0138889
        k(    6) = (   0.0000000   0.4811252   0.0000000), wk =   0.0138889
        k(    7) = (   0.0000000  -0.5773503   0.0000000), wk =   0.0069444
        k(    8) = (   0.0833333   0.0481125   0.0000000), wk =   0.0138889
        k(    9) = (   0.0833333   0.1443376   0.0000000), wk =   0.0138889
        k(   10) = (   0.0833333   0.2405626   0.0000000), wk =   0.0138889
        k(   11) = (   0.0833333   0.3367877   0.0000000), wk =   0.0138889
        k(   12) = (   0.0833333   0.4330127   0.0000000), wk =   0.0138889
        k(   13) = (   0.0833333   0.5292377   0.0000000), wk =   0.0138889
        k(   14) = (   0.0833333  -0.5292377   0.0000000), wk =   0.0138889
        k(   15) = (   0.0833333  -0.4330127   0.0000000), wk =   0.0138889
        k(   16) = (   0.0833333  -0.3367877   0.0000000), wk =   0.0138889
        k(   17) = (   0.0833333  -0.2405626   0.0000000), wk =   0.0138889
        k(   18) = (   0.0833333  -0.1443376   0.0000000), wk =   0.0138889
        k(   19) = (   0.0833333  -0.0481125   0.0000000), wk =   0.0138889
        k(   20) = (   0.1666667   0.0962250   0.0000000), wk =   0.0138889
        k(   21) = (   0.1666667   0.1924501   0.0000000), wk =   0.0138889
        k(   22) = (   0.1666667   0.2886751   0.0000000), wk =   0.0138889
        k(   23) = (   0.1666667   0.3849002   0.0000000), wk =   0.0138889
        k(   24) = (   0.1666667   0.4811252   0.0000000), wk =   0.0138889
        k(   25) = (   0.1666667   0.5773503   0.0000000), wk =   0.0138889
        k(   26) = (   0.1666667  -0.4811252   0.0000000), wk =   0.0138889
        k(   27) = (   0.1666667  -0.3849002   0.0000000), wk =   0.0138889
        k(   28) = (   0.1666667  -0.2886751   0.0000000), wk =   0.0138889
        k(   29) = (   0.1666667  -0.1924501   0.0000000), wk =   0.0138889
        k(   30) = (   0.1666667  -0.0962250   0.0000000), wk =   0.0138889
        k(   31) = (   0.1666667  -0.0000000   0.0000000), wk =   0.0138889
        k(   32) = (   0.2500000   0.1443376   0.0000000), wk =   0.0138889
        k(   33) = (   0.2500000   0.2405626   0.0000000), wk =   0.0138889
        k(   34) = (   0.2500000   0.3367877   0.0000000), wk =   0.0138889
        k(   35) = (   0.2500000   0.4330127   0.0000000), wk =   0.0138889
        k(   36) = (   0.2500000   0.5292377   0.0000000), wk =   0.0138889
        k(   37) = (   0.2500000   0.6254628   0.0000000), wk =   0.0138889
        k(   38) = (   0.2500000  -0.4330127   0.0000000), wk =   0.0138889
        k(   39) = (   0.2500000  -0.3367877   0.0000000), wk =   0.0138889
        k(   40) = (   0.2500000  -0.2405626   0.0000000), wk =   0.0138889
        k(   41) = (   0.2500000  -0.1443376   0.0000000), wk =   0.0138889
        k(   42) = (   0.2500000  -0.0481125   0.0000000), wk =   0.0138889
        k(   43) = (   0.2500000   0.0481125   0.0000000), wk =   0.0138889
        k(   44) = (   0.3333333   0.1924501   0.0000000), wk =   0.0138889
        k(   45) = (   0.3333333   0.2886751   0.0000000), wk =   0.0138889
        k(   46) = (   0.3333333   0.3849002   0.0000000), wk =   0.0138889
        k(   47) = (   0.3333333   0.4811252   0.0000000), wk =   0.0138889
        k(   48) = (   0.3333333   0.5773503   0.0000000), wk =   0.0138889
        k(   49) = (   0.3333333   0.6735753   0.0000000), wk =   0.0138889
        k(   50) = (   0.3333333  -0.3849002   0.0000000), wk =   0.0138889
        k(   51) = (   0.3333333  -0.2886751   0.0000000), wk =   0.0138889
        k(   52) = (   0.3333333  -0.1924501   0.0000000), wk =   0.0138889
        k(   53) = (   0.3333333  -0.0962250   0.0000000), wk =   0.0138889
        k(   54) = (   0.3333333  -0.0000000   0.0000000), wk =   0.0138889
        k(   55) = (   0.3333333   0.0962250   0.0000000), wk =   0.0138889
        k(   56) = (   0.4166667   0.2405626   0.0000000), wk =   0.0138889
        k(   57) = (   0.4166667   0.3367877   0.0000000), wk =   0.0138889
        k(   58) = (   0.4166667   0.4330127   0.0000000), wk =   0.0138889
        k(   59) = (   0.4166667   0.5292377   0.0000000), wk =   0.0138889
        k(   60) = (   0.4166667   0.6254628   0.0000000), wk =   0.0138889
        k(   61) = (   0.4166667   0.7216878   0.0000000), wk =   0.0138889
        k(   62) = (   0.4166667  -0.3367877   0.0000000), wk =   0.0138889
        k(   63) = (   0.4166667  -0.2405626   0.0000000), wk =   0.0138889
        k(   64) = (   0.4166667  -0.1443376   0.0000000), wk =   0.0138889
        k(   65) = (   0.4166667  -0.0481125   0.0000000), wk =   0.0138889
        k(   66) = (   0.4166667   0.0481125   0.0000000), wk =   0.0138889
        k(   67) = (   0.4166667   0.1443376   0.0000000), wk =   0.0138889
        k(   68) = (  -0.5000000  -0.2886751   0.0000000), wk =   0.0069444
        k(   69) = (  -0.5000000  -0.1924501   0.0000000), wk =   0.0138889
        k(   70) = (  -0.5000000  -0.0962250   0.0000000), wk =   0.0138889
        k(   71) = (  -0.5000000   0.0000000   0.0000000), wk =   0.0138889
        k(   72) = (  -0.5000000   0.0962250   0.0000000), wk =   0.0138889
        k(   73) = (  -0.5000000   0.1924501   0.0000000), wk =   0.0138889
        k(   74) = (  -0.5000000  -0.8660254   0.0000000), wk =   0.0069444

     Dense  grid:   166859 G-vectors     FFT dimensions: (  40,  40, 240)

     Smooth grid:    42343 G-vectors     FFT dimensions: (  25,  25, 160)

     Estimated max dynamical RAM per process >      40.42 MB

     Estimated total dynamical RAM >     808.50 MB

     Initial potential from superposition of free atoms

     starting charge       7.9999, renormalised to       8.0000

     negative rho (up, down):  2.223E-05 0.000E+00
 
     Adding external electric field

     Computed dipole along edir(3) : 
        Dipole               -0.0000 Ry au,         -0.0000 Debye
        Dipole field         -0.0000 Ry au, 
 
        E field amplitude [Ha a.u.]:  7.7788E-03
        Potential amp.        0.4189 Ry
        Total length         26.9286 bohr
 
     Starting wfcs are random
     Checking if some PAW data can be deallocated... 

     total cpu time spent up to now is        0.6 secs

     per-process dynamical memory:    53.7 Mb

     Self-consistent Calculation

     iteration #  1     ecut=    70.00 Ry     beta= 0.10
     Davidson diagonalization with overlap
     ethr =  1.00E-02,  avg # of iterations =  8.6

     negative rho (up, down):  2.144E-05 0.000E+00
 
     Adding external electric field

     Computed dipole along edir(3) : 
        Dipole                0.0097 Ry au,          0.0248 Debye
        Dipole field          0.0002 Ry au, 
 
        E field amplitude [Ha a.u.]:  7.7788E-03
        Potential amp.        0.4066 Ry
        Total length         26.9286 bohr
 

     total cpu time spent up to now is        5.8 secs

     total energy              =     -36.95173542 Ry
     estimated scf accuracy    <       0.20412153 Ry

     iteration #  2     ecut=    70.00 Ry     beta= 0.10
     Davidson diagonalization with overlap
     ethr =  2.55E-03,  avg # of iterations =  1.0

     negative rho (up, down):  2.667E-05 0.000E+00
 
     Adding external electric field

     Computed dipole along edir(3) : 
        Dipole                0.0628 Ry au,          0.1595 Debye
        Dipole field          0.0015 Ry au, 
 
        E field amplitude [Ha a.u.]:  7.7788E-03
        Potential amp.        0.3394 Ry
        Total length         26.9286 bohr
 

     total cpu time spent up to now is        6.9 secs

     total energy              =     -36.86211927 Ry
     estimated scf accuracy    <       0.15043349 Ry

     iteration #  3     ecut=    70.00 Ry     beta= 0.10
     Davidson diagonalization with overlap
     ethr =  1.88E-03,  avg # of iterations =  2.8

     negative rho (up, down):  2.648E-05 0.000E+00
 
     Adding external electric field

     Computed dipole along edir(3) : 
        Dipole                0.0508 Ry au,          0.1292 Debye
        Dipole field          0.0012 Ry au, 
 
        E field amplitude [Ha a.u.]:  7.7788E-03
        Potential amp.        0.3545 Ry
        Total length         26.9286 bohr
 

     total cpu time spent up to now is        8.4 secs

     total energy              =     -36.88728025 Ry
     estimated scf accuracy    <       0.00301770 Ry

     iteration #  4     ecut=    70.00 Ry     beta= 0.10
     Davidson diagonalization with overlap
     ethr =  3.77E-05,  avg # of iterations =  6.2

     negative rho (up, down):  2.889E-05 0.000E+00
 
     Adding external electric field

     Computed dipole along edir(3) : 
        Dipole                0.0290 Ry au,          0.0736 Debye
        Dipole field          0.0007 Ry au, 
 
        E field amplitude [Ha a.u.]:  7.7788E-03
        Potential amp.        0.3822 Ry
        Total length         26.9286 bohr
 

     total cpu time spent up to now is       10.7 secs

     total energy              =     -36.88755725 Ry
     estimated scf accuracy    <       0.00173749 Ry

     iteration #  5     ecut=    70.00 Ry     beta= 0.10
     Davidson diagonalization with overlap
     ethr =  2.17E-05,  avg # of iterations =  3.0

     negative rho (up, down):  2.899E-05 0.000E+00
 
     Adding external electric field

     Computed dipole along edir(3) : 
        Dipole                0.0292 Ry au,          0.0742 Debye
        Dipole field          0.0007 Ry au, 
 
        E field amplitude [Ha a.u.]:  7.7788E-03
        Potential amp.        0.3819 Ry
        Total length         26.9286 bohr
 

     total cpu time spent up to now is       12.2 secs

     total energy              =     -36.88777353 Ry
     estimated scf accuracy    <       0.00074130 Ry

     iteration #  6     ecut=    70.00 Ry     beta= 0.10
     Davidson diagonalization with overlap
     ethr =  9.27E-06,  avg # of iterations =  1.0

     negative rho (up, down):  2.941E-05 0.000E+00
 
     Adding external electric field

     Computed dipole along edir(3) : 
        Dipole                0.0325 Ry au,          0.0826 Debye
        Dipole field          0.0008 Ry au, 
 
        E field amplitude [Ha a.u.]:  7.7788E-03
        Potential amp.        0.3777 Ry
        Total length         26.9286 bohr
 

     total cpu time spent up to now is       13.3 secs

     total energy              =     -36.88770560 Ry
     estimated scf accuracy    <       0.00072534 Ry

     iteration #  7     ecut=    70.00 Ry     beta= 0.10
     Davidson diagonalization with overlap
     ethr =  9.07E-06,  avg # of iterations =  1.0

     negative rho (up, down):  3.236E-05 0.000E+00
 
     Adding external electric field

     Computed dipole along edir(3) : 
        Dipole                0.0395 Ry au,          0.1005 Debye
        Dipole field          0.0009 Ry au, 
 
        E field amplitude [Ha a.u.]:  7.7788E-03
        Potential amp.        0.3688 Ry
        Total length         26.9286 bohr
 

     total cpu time spent up to now is       14.5 secs

     total energy              =     -36.88767130 Ry
     estimated scf accuracy    <       0.00049123 Ry

     iteration #  8     ecut=    70.00 Ry     beta= 0.10
     Davidson diagonalization with overlap
     ethr =  6.14E-06,  avg # of iterations =  2.7

     negative rho (up, down):  3.381E-05 0.000E+00
 
     Adding external electric field

     Computed dipole along edir(3) : 
        Dipole                0.0428 Ry au,          0.1088 Debye
        Dipole field          0.0010 Ry au, 
 
        E field amplitude [Ha a.u.]:  7.7788E-03
        Potential amp.        0.3647 Ry
        Total length         26.9286 bohr
 

     total cpu time spent up to now is       15.8 secs

     total energy              =     -36.88762998 Ry
     estimated scf accuracy    <       0.00017186 Ry

     iteration #  9     ecut=    70.00 Ry     beta= 0.10
     Davidson diagonalization with overlap
     ethr =  2.15E-06,  avg # of iterations =  3.3

     negative rho (up, down):  3.393E-05 0.000E+00
 
     Adding external electric field

     Computed dipole along edir(3) : 
        Dipole                0.0452 Ry au,          0.1149 Debye
        Dipole field          0.0011 Ry au, 
 
        E field amplitude [Ha a.u.]:  7.7788E-03
        Potential amp.        0.3616 Ry
        Total length         26.9286 bohr
 

     total cpu time spent up to now is       17.3 secs

     total energy              =     -36.88764211 Ry
     estimated scf accuracy    <       0.00002086 Ry

     iteration # 10     ecut=    70.00 Ry     beta= 0.10
     Davidson diagonalization with overlap
     ethr =  2.61E-07,  avg # of iterations =  2.2

     negative rho (up, down):  3.400E-05 0.000E+00
 
     Adding external electric field

     Computed dipole along edir(3) : 
        Dipole                0.0452 Ry au,          0.1149 Debye
        Dipole field          0.0011 Ry au, 
 
        E field amplitude [Ha a.u.]:  7.7788E-03
        Potential amp.        0.3616 Ry
        Total length         26.9286 bohr
 

     total cpu time spent up to now is       18.7 secs

     total energy              =     -36.88764543 Ry
     estimated scf accuracy    <       0.00001667 Ry

     iteration # 11     ecut=    70.00 Ry     beta= 0.10
     Davidson diagonalization with overlap
     ethr =  2.08E-07,  avg # of iterations =  1.0

     negative rho (up, down):  3.396E-05 0.000E+00
 
     Adding external electric field

     Computed dipole along edir(3) : 
        Dipole                0.0456 Ry au,          0.1160 Debye
        Dipole field          0.0011 Ry au, 
 
        E field amplitude [Ha a.u.]:  7.7788E-03
        Potential amp.        0.3611 Ry
        Total length         26.9286 bohr
 

     total cpu time spent up to now is       19.8 secs

     total energy              =     -36.88764367 Ry
     estimated scf accuracy    <       0.00001529 Ry

     iteration # 12     ecut=    70.00 Ry     beta= 0.10
     Davidson diagonalization with overlap
     ethr =  1.91E-07,  avg # of iterations =  1.0

     negative rho (up, down):  3.396E-05 0.000E+00
 
     Adding external electric field

     Computed dipole along edir(3) : 
        Dipole                0.0462 Ry au,          0.1174 Debye
        Dipole field          0.0011 Ry au, 
 
        E field amplitude [Ha a.u.]:  7.7788E-03
        Potential amp.        0.3604 Ry
        Total length         26.9286 bohr
 

     total cpu time spent up to now is       21.0 secs

     total energy              =     -36.88764452 Ry
     estimated scf accuracy    <       0.00000194 Ry

     iteration # 13     ecut=    70.00 Ry     beta= 0.10
     Davidson diagonalization with overlap
     ethr =  2.42E-08,  avg # of iterations =  2.0

     negative rho (up, down):  3.410E-05 0.000E+00
 
     Adding external electric field

     Computed dipole along edir(3) : 
        Dipole                0.0462 Ry au,          0.1175 Debye
        Dipole field          0.0011 Ry au, 
 
        E field amplitude [Ha a.u.]:  7.7788E-03
        Potential amp.        0.3603 Ry
        Total length         26.9286 bohr
 

     total cpu time spent up to now is       22.3 secs

     total energy              =     -36.88764480 Ry
     estimated scf accuracy    <       0.00000047 Ry

     iteration # 14     ecut=    70.00 Ry     beta= 0.10
     Davidson diagonalization with overlap
     ethr =  5.82E-09,  avg # of iterations =  1.6

     negative rho (up, down):  3.430E-05 0.000E+00
 
     Adding external electric field

     Computed dipole along edir(3) : 
        Dipole                0.0457 Ry au,          0.1162 Debye
        Dipole field          0.0011 Ry au, 
 
        E field amplitude [Ha a.u.]:  7.7788E-03
        Potential amp.        0.3610 Ry
        Total length         26.9286 bohr
 

     total cpu time spent up to now is       23.5 secs

     total energy              =     -36.88764492 Ry
     estimated scf accuracy    <       0.00000012 Ry

     iteration # 15     ecut=    70.00 Ry     beta= 0.10
     Davidson diagonalization with overlap
     ethr =  1.51E-09,  avg # of iterations =  2.0

     negative rho (up, down):  3.441E-05 0.000E+00
 
     Adding external electric field

     Computed dipole along edir(3) : 
        Dipole                0.0458 Ry au,          0.1164 Debye
        Dipole field          0.0011 Ry au, 
 
        E field amplitude [Ha a.u.]:  7.7788E-03
        Potential amp.        0.3609 Ry
        Total length         26.9286 bohr
 

     total cpu time spent up to now is       24.9 secs

     total energy              =     -36.88764493 Ry
     estimated scf accuracy    <       0.00000008 Ry

     iteration # 16     ecut=    70.00 Ry     beta= 0.10
     Davidson diagonalization with overlap
     ethr =  9.38E-10,  avg # of iterations =  1.3

     negative rho (up, down):  3.539E-05 0.000E+00
 
     Adding external electric field

     Computed dipole along edir(3) : 
        Dipole                0.0459 Ry au,          0.1165 Debye
        Dipole field          0.0011 Ry au, 
 
        E field amplitude [Ha a.u.]:  7.7788E-03
        Potential amp.        0.3608 Ry
        Total length         26.9286 bohr
 

     total cpu time spent up to now is       26.1 secs

     End of self-consistent calculation

          k = 0.0000 0.0000 0.0000 (  5307 PWs)   bands (ev):

   -21.1149 -21.1149  -9.2115  -9.2115  -4.6579  -4.6579  -4.6487  -4.6487
     0.9848   0.9848   2.0006   2.0006   2.9326   2.9326   4.8782   4.8782

          k = 0.0000 0.0962 0.0000 (  5285 PWs)   bands (ev):

   -20.9512 -20.9512  -9.0157  -9.0157  -5.3039  -5.3039  -4.9912  -4.9912
     1.2114   1.2114   2.2246   2.2246   3.1556   3.1557   5.1007   5.1008

          k = 0.0000 0.1925 0.0000 (  5253 PWs)   bands (ev):

   -20.4617 -20.4617  -8.4338  -8.4338  -6.9413  -6.9413  -5.7828  -5.7828
     1.8908   1.8909   2.8966   2.8966   3.8234   3.8236   5.7649   5.7651

          k = 0.0000 0.2887 0.0000 (  5269 PWs)   bands (ev):

   -19.6522 -19.6522  -9.0389  -9.0388  -7.4848  -7.4848  -6.6618  -6.6618
     3.0212   3.0213   4.0145   4.0145   4.9091   4.9094   5.6591   5.6591

          k = 0.0000 0.3849 0.0000 (  5285 PWs)   bands (ev):

   -18.5349 -18.5349 -11.2407 -11.2407  -7.3946  -7.3946  -6.2191  -6.2191
     3.3031   3.3031   4.6100   4.6102   5.5662   5.5663   6.1106   6.1110

          k = 0.0000 0.4811 0.0000 (  5290 PWs)   bands (ev):

   -17.1412 -17.1412 -13.3387 -13.3387  -7.8671  -7.8671  -4.7995  -4.7995
     1.1754   1.1754   5.8511   5.8512   6.6391   6.6392   7.5950   7.5951

          k = 0.0000-0.5774 0.0000 (  5288 PWs)   bands (ev):

   -15.8825 -15.8825 -14.8400 -14.8400  -8.0293  -8.0293  -3.9571  -3.9571
     0.0806   0.0806   5.7720   5.7720   9.0601   9.0601   9.1133   9.1133

          k = 0.0833 0.0481 0.0000 (  5285 PWs)   bands (ev):

   -20.9512 -20.9512  -9.0157  -9.0157  -5.3039  -5.3039  -4.9912  -4.9912
     1.2114   1.2114   2.2246   2.2246   3.1556   3.1557   5.1007   5.1007

          k = 0.0833 0.1443 0.0000 (  5269 PWs)   bands (ev):

   -20.6245 -20.6245  -8.6268  -8.6268  -6.3378  -6.3378  -5.6678  -5.6678
     1.6645   1.6645   2.6727   2.6728   3.6013   3.6015   5.5450   5.5451

          k = 0.0833 0.2406 0.0000 (  5261 PWs)   bands (ev):

   -19.9751 -19.9751  -8.0472  -8.0471  -7.8602  -7.8601  -6.6649  -6.6649
     2.5699   2.5699   3.5687   3.5687   4.4887   4.4889   6.3897   6.3899

          k = 0.0833 0.3368 0.0000 (  5275 PWs)   bands (ev):

   -19.0115 -19.0115 -10.1190 -10.1190  -7.5506  -7.5506  -6.7464  -6.7463
     3.9168   3.9168   4.3304   4.3305   4.9115   4.9116   5.8308   5.8312

          k = 0.0833 0.4330 0.0000 (  5284 PWs)   bands (ev):

   -17.7529 -17.7529 -12.2399 -12.2399  -8.1850  -8.1850  -5.3696  -5.3696
     2.1196   2.1197   5.7301   5.7302   6.5958   6.5959   6.7844   6.7846

          k = 0.0833 0.5292 0.0000 (  5302 PWs)   bands (ev):

   -16.2764 -16.2764 -14.1783 -14.1783  -8.5132  -8.5132  -4.0634  -4.0634
     0.3557   0.3557   6.5101   6.5101   7.9722   7.9724   8.9154   8.9155

          k = 0.0833-0.5292 0.0000 (  5302 PWs)   bands (ev):

   -16.2764 -16.2764 -14.1783 -14.1783  -8.5132  -8.5132  -4.0634  -4.0634
     0.3557   0.3557   6.5101   6.5101   7.9722   7.9724   8.9154   8.9155

          k = 0.0833-0.4330 0.0000 (  5284 PWs)   bands (ev):

   -17.7529 -17.7529 -12.2399 -12.2399  -8.1850  -8.1850  -5.3696  -5.3696
     2.1196   2.1197   5.7301   5.7302   6.5958   6.5959   6.7844   6.7846

          k = 0.0833-0.3368 0.0000 (  5275 PWs)   bands (ev):

   -19.0115 -19.0115 -10.1190 -10.1190  -7.5506  -7.5506  -6.7464  -6.7463
     3.9168   3.9168   4.3304   4.3305   4.9115   4.9116   5.8308   5.8312

          k = 0.0833-0.2406 0.0000 (  5261 PWs)   bands (ev):

   -19.9751 -19.9751  -8.0472  -8.0471  -7.8602  -7.8601  -6.6649  -6.6649
     2.5699   2.5699   3.5687   3.5687   4.4887   4.4889   6.3897   6.3899

          k = 0.0833-0.1443 0.0000 (  5269 PWs)   bands (ev):

   -20.6245 -20.6245  -8.6268  -8.6268  -6.3378  -6.3378  -5.6678  -5.6678
     1.6645   1.6645   2.6727   2.6728   3.6013   3.6015   5.5450   5.5451

          k = 0.0833-0.0481 0.0000 (  5285 PWs)   bands (ev):

   -20.9512 -20.9512  -9.0157  -9.0157  -5.3039  -5.3039  -4.9912  -4.9912
     1.2114   1.2114   2.2246   2.2246   3.1556   3.1557   5.1007   5.1008

          k = 0.1667 0.0962 0.0000 (  5253 PWs)   bands (ev):

   -20.4617 -20.4617  -8.4338  -8.4338  -6.9413  -6.9413  -5.7828  -5.7828
     1.8908   1.8909   2.8966   2.8966   3.8234   3.8236   5.7649   5.7651

          k = 0.1667 0.1925 0.0000 (  5261 PWs)   bands (ev):

   -19.9751 -19.9751  -8.0472  -8.0471  -7.8602  -7.8601  -6.6649  -6.6649
     2.5699   2.5699   3.5687   3.5687   4.4887   4.4889   6.3897   6.3899

          k = 0.1667 0.2887 0.0000 (  5288 PWs)   bands (ev):

   -19.1715 -19.1715  -9.3778  -9.3778  -8.0251  -8.0251  -6.9248  -6.9248
     3.6999   3.7000   4.6877   4.6878   4.7694   4.7695   5.5918   5.5920

          k = 0.1667 0.3849 0.0000 (  5285 PWs)   bands (ev):

   -18.0651 -18.0651 -11.1038 -11.1038  -9.0808  -9.0808  -5.6742  -5.6742
     2.8263   2.8264   5.2769   5.2771   6.2482   6.2483   7.1087   7.1091

          k = 0.1667 0.4811 0.0000 (  5283 PWs)   bands (ev):

   -16.6913 -16.6913 -13.0121 -13.0121  -9.6567  -9.6567  -4.2505  -4.2505
     0.9186   0.9187   7.2861   7.2863   8.2118   8.2120   8.4374   8.4378

          k = 0.1667 0.5774 0.0000 (  5264 PWs)   bands (ev):

   -15.4614 -15.4614 -14.4424 -14.4424  -9.8416  -9.8416  -3.3600  -3.3600
    -0.1467  -0.1467   8.3164   8.3164   9.5753   9.5754   9.6906   9.6908

          k = 0.1667-0.4811 0.0000 (  5283 PWs)   bands (ev):

   -16.6913 -16.6913 -13.0121 -13.0121  -9.6567  -9.6567  -4.2505  -4.2505
     0.9186   0.9187   7.2861   7.2863   8.2118   8.2120   8.4374   8.4378

          k = 0.1667-0.3849 0.0000 (  5285 PWs)   bands (ev):

   -18.0651 -18.0651 -11.1038 -11.1038  -9.0808  -9.0808  -5.6742  -5.6742
     2.8263   2.8264   5.2769   5.2771   6.2482   6.2483   7.1087   7.1091

          k = 0.1667-0.2887 0.0000 (  5288 PWs)   bands (ev):

   -19.1715 -19.1715  -9.3778  -9.3778  -8.0251  -8.0251  -6.9248  -6.9248
     3.6999   3.7000   4.6877   4.6878   4.7694   4.7695   5.5918   5.5920

          k = 0.1667-0.1925 0.0000 (  5261 PWs)   bands (ev):

   -19.9751 -19.9751  -8.0472  -8.0471  -7.8602  -7.8601  -6.6649  -6.6649
     2.5699   2.5699   3.5687   3.5687   4.4887   4.4889   6.3897   6.3899

          k = 0.1667-0.0962 0.0000 (  5253 PWs)   bands (ev):

   -20.4617 -20.4617  -8.4338  -8.4338  -6.9413  -6.9413  -5.7828  -5.7828
     1.8908   1.8909   2.8966   2.8966   3.8234   3.8236   5.7649   5.7651

          k = 0.1667-0.0000 0.0000 (  5269 PWs)   bands (ev):

   -20.6245 -20.6245  -8.6268  -8.6268  -6.3378  -6.3378  -5.6678  -5.6678
     1.6645   1.6645   2.6727   2.6728   3.6013   3.6015   5.5450   5.5451

          k = 0.2500 0.1443 0.0000 (  5269 PWs)   bands (ev):

   -19.6522 -19.6522  -9.0389  -9.0388  -7.4848  -7.4848  -6.6618  -6.6618
     3.0212   3.0213   4.0145   4.0145   4.9091   4.9094   5.6591   5.6591

          k = 0.2500 0.2406 0.0000 (  5275 PWs)   bands (ev):

   -19.0115 -19.0115 -10.1190 -10.1189  -7.5506  -7.5506  -6.7464  -6.7463
     3.9168   3.9168   4.3304   4.3305   4.9115   4.9116   5.8308   5.8312

          k = 0.2500 0.3368 0.0000 (  5285 PWs)   bands (ev):

   -18.0651 -18.0651 -11.1038 -11.1038  -9.0808  -9.0808  -5.6742  -5.6742
     2.8263   2.8264   5.2769   5.2771   6.2482   6.2483   7.1087   7.1091

          k = 0.2500 0.4330 0.0000 (  5268 PWs)   bands (ev):

   -16.8386 -16.8386 -12.1401 -12.1400 -10.5612 -10.5612  -4.3342  -4.3342
     1.2150   1.2151   7.0555   7.0557   8.0158   8.0160   8.6569   8.6574

          k = 0.2500 0.5292 0.0000 (  5282 PWs)   bands (ev):

   -15.4191 -15.4191 -13.5588 -13.5588 -11.2685 -11.2685  -2.9515  -2.9514
    -0.3020  -0.3020   9.0288   9.0292   9.6224   9.6227  10.1688  10.1688

          k = 0.2500 0.6255 0.0000 (  5282 PWs)   bands (ev):

   -15.4191 -15.4191 -13.5588 -13.5588 -11.2685 -11.2685  -2.9515  -2.9514
    -0.3020  -0.3020   9.0288   9.0292   9.6224   9.6227  10.1688  10.1688

          k = 0.2500-0.4330 0.0000 (  5268 PWs)   bands (ev):

   -16.8386 -16.8386 -12.1401 -12.1400 -10.5612 -10.5612  -4.3342  -4.3342
     1.2150   1.2151   7.0555   7.0557   8.0158   8.0160   8.6569   8.6574

          k = 0.2500-0.3368 0.0000 (  5285 PWs)   bands (ev):

   -18.0651 -18.0651 -11.1038 -11.1038  -9.0808  -9.0808  -5.6742  -5.6742
     2.8263   2.8264   5.2769   5.2771   6.2482   6.2483   7.1087   7.1091

          k = 0.2500-0.2406 0.0000 (  5275 PWs)   bands (ev):

   -19.0115 -19.0115 -10.1190 -10.1189  -7.5506  -7.5506  -6.7464  -6.7463
     3.9168   3.9168   4.3304   4.3305   4.9115   4.9116   5.8308   5.8312

          k = 0.2500-0.1443 0.0000 (  5269 PWs)   bands (ev):

   -19.6522 -19.6522  -9.0389  -9.0388  -7.4848  -7.4848  -6.6618  -6.6618
     3.0212   3.0213   4.0145   4.0145   4.9091   4.9094   5.6591   5.6591

          k = 0.2500-0.0481 0.0000 (  5261 PWs)   bands (ev):

   -19.9751 -19.9751  -8.0472  -8.0471  -7.8602  -7.8601  -6.6649  -6.6649
     2.5699   2.5699   3.5687   3.5687   4.4887   4.4889   6.3897   6.3899

          k = 0.2500 0.0481 0.0000 (  5261 PWs)   bands (ev):

   -19.9751 -19.9751  -8.0472  -8.0471  -7.8602  -7.8601  -6.6649  -6.6649
     2.5699   2.5699   3.5687   3.5687   4.4887   4.4889   6.3903   6.3904

          k = 0.3333 0.1925 0.0000 (  5285 PWs)   bands (ev):

   -18.5349 -18.5349 -11.2407 -11.2407  -7.3946  -7.3946  -6.2191  -6.2191
     3.3031   3.3031   4.6100   4.6102   5.5662   5.5663   6.1106   6.1110

          k = 0.3333 0.2887 0.0000 (  5284 PWs)   bands (ev):

   -17.7529 -17.7529 -12.2399 -12.2399  -8.1850  -8.1850  -5.3696  -5.3696
     2.1196   2.1197   5.7301   5.7302   6.5958   6.5959   6.7844   6.7846

          k = 0.3333 0.3849 0.0000 (  5283 PWs)   bands (ev):

   -16.6913 -16.6913 -13.0121 -13.0121  -9.6567  -9.6567  -4.2505  -4.2505
     0.9186   0.9187   7.2861   7.2863   8.2118   8.2120   8.4374   8.4378

          k = 0.3333 0.4811 0.0000 (  5282 PWs)   bands (ev):

   -15.4191 -15.4191 -13.5588 -13.5588 -11.2685 -11.2685  -2.9515  -2.9514
    -0.3020  -0.3020   9.0288   9.0292   9.6224   9.6227  10.1688  10.1688

          k = 0.3333 0.5774 0.0000 (  5292 PWs)   bands (ev):

   -14.2051 -14.2051 -14.2030 -14.2030 -12.1598 -12.1598  -1.5980  -1.5980
    -1.5980  -1.5979   8.9940   8.9940  11.1761  11.1769  11.1799  11.1799

          k = 0.3333 0.6736 0.0000 (  5282 PWs)   bands (ev):

   -15.4191 -15.4191 -13.5588 -13.5588 -11.2685 -11.2685  -2.9515  -2.9514
    -0.3020  -0.3020   9.0288   9.0292   9.6224   9.6228  10.1688  10.1688

          k = 0.3333-0.3849 0.0000 (  5283 PWs)   bands (ev):

   -16.6913 -16.6913 -13.0121 -13.0121  -9.6567  -9.6567  -4.2505  -4.2505
     0.9186   0.9187   7.2861   7.2863   8.2118   8.2120   8.4374   8.4378

          k = 0.3333-0.2887 0.0000 (  5284 PWs)   bands (ev):

   -17.7529 -17.7529 -12.2399 -12.2399  -8.1850  -8.1850  -5.3696  -5.3696
     2.1196   2.1197   5.7301   5.7302   6.5958   6.5959   6.7844   6.7846

          k = 0.3333-0.1925 0.0000 (  5285 PWs)   bands (ev):

   -18.5349 -18.5349 -11.2407 -11.2407  -7.3946  -7.3946  -6.2191  -6.2191
     3.3031   3.3031   4.6100   4.6102   5.5662   5.5663   6.1106   6.1110

          k = 0.3333-0.0962 0.0000 (  5275 PWs)   bands (ev):

   -19.0115 -19.0115 -10.1190 -10.1189  -7.5506  -7.5506  -6.7464  -6.7463
     3.9168   3.9168   4.3304   4.3305   4.9115   4.9116   5.8308   5.8312

          k = 0.3333-0.0000 0.0000 (  5288 PWs)   bands (ev):

   -19.1715 -19.1715  -9.3778  -9.3778  -8.0251  -8.0251  -6.9248  -6.9248
     3.6999   3.7000   4.6877   4.6878   4.7694   4.7695   5.5918   5.5920

          k = 0.3333 0.0962 0.0000 (  5275 PWs)   bands (ev):

   -19.0115 -19.0115 -10.1190 -10.1189  -7.5506  -7.5506  -6.7464  -6.7463
     3.9168   3.9168   4.3304   4.3305   4.9115   4.9116   5.8308   5.8312

          k = 0.4167 0.2406 0.0000 (  5290 PWs)   bands (ev):

   -17.1412 -17.1412 -13.3387 -13.3386  -7.8671  -7.8671  -4.7995  -4.7995
     1.1754   1.1754   5.8511   5.8512   6.6391   6.6392   7.5950   7.5951

          k = 0.4167 0.3368 0.0000 (  5302 PWs)   bands (ev):

   -16.2764 -16.2764 -14.1783 -14.1783  -8.5132  -8.5132  -4.0634  -4.0634
     0.3557   0.3557   6.5101   6.5101   7.9722   7.9724   8.9154   8.9155

          k = 0.4167 0.4330 0.0000 (  5264 PWs)   bands (ev):

   -15.4614 -15.4614 -14.4424 -14.4424  -9.8416  -9.8416  -3.3600  -3.3600
    -0.1467  -0.1467   8.3164   8.3164   9.5753   9.5754   9.6906   9.6908

          k = 0.4167 0.5292 0.0000 (  5282 PWs)   bands (ev):

   -15.4191 -15.4191 -13.5588 -13.5588 -11.2685 -11.2685  -2.9515  -2.9514
    -0.3020  -0.3020   9.0288   9.0292   9.6224   9.6227  10.1688  10.1688

          k = 0.4167 0.6255 0.0000 (  5282 PWs)   bands (ev):

   -15.4191 -15.4191 -13.5588 -13.5588 -11.2685 -11.2685  -2.9515  -2.9514
    -0.3020  -0.3020   9.0288   9.0292   9.6224   9.6228  10.1688  10.1688

          k = 0.4167 0.7217 0.0000 (  5264 PWs)   bands (ev):

   -15.4614 -15.4614 -14.4424 -14.4424  -9.8416  -9.8416  -3.3600  -3.3600
    -0.1467  -0.1467   8.3164   8.3164   9.5753   9.5754   9.6906   9.6908

          k = 0.4167-0.3368 0.0000 (  5302 PWs)   bands (ev):

   -16.2764 -16.2764 -14.1783 -14.1783  -8.5132  -8.5132  -4.0634  -4.0634
     0.3557   0.3557   6.5101   6.5101   7.9722   7.9724   8.9153   8.9155

          k = 0.4167-0.2406 0.0000 (  5290 PWs)   bands (ev):

   -17.1412 -17.1412 -13.3387 -13.3386  -7.8671  -7.8671  -4.7995  -4.7995
     1.1754   1.1754   5.8511   5.8512   6.6391   6.6392   7.5950   7.5951

          k = 0.4167-0.1443 0.0000 (  5284 PWs)   bands (ev):

   -17.7529 -17.7529 -12.2399 -12.2399  -8.1850  -8.1850  -5.3696  -5.3696
     2.1196   2.1197   5.7301   5.7302   6.5958   6.5959   6.7844   6.7846

          k = 0.4167-0.0481 0.0000 (  5285 PWs)   bands (ev):

   -18.0651 -18.0651 -11.1038 -11.1038  -9.0808  -9.0808  -5.6742  -5.6742
     2.8263   2.8264   5.2769   5.2771   6.2482   6.2483   7.1087   7.1091

          k = 0.4167 0.0481 0.0000 (  5285 PWs)   bands (ev):

   -18.0651 -18.0651 -11.1038 -11.1038  -9.0808  -9.0808  -5.6742  -5.6742
     2.8263   2.8264   5.2769   5.2771   6.2482   6.2483   7.1087   7.1091

          k = 0.4167 0.1443 0.0000 (  5284 PWs)   bands (ev):

   -17.7529 -17.7529 -12.2399 -12.2399  -8.1850  -8.1850  -5.3696  -5.3696
     2.1196   2.1197   5.7301   5.7302   6.5958   6.5959   6.7844   6.7846

          k =-0.5000-0.2887 0.0000 (  5288 PWs)   bands (ev):

   -15.8825 -15.8825 -14.8400 -14.8400  -8.0294  -8.0294  -3.9571  -3.9571
     0.0806   0.0806   5.7720   5.7720   9.0601   9.0601   9.1133   9.1133

          k =-0.5000-0.1925 0.0000 (  5302 PWs)   bands (ev):

   -16.2764 -16.2764 -14.1783 -14.1783  -8.5132  -8.5132  -4.0634  -4.0634
     0.3557   0.3557   6.5101   6.5101   7.9722   7.9724   8.9154   8.9155

          k =-0.5000-0.0962 0.0000 (  5283 PWs)   bands (ev):

   -16.6913 -16.6913 -13.0121 -13.0121  -9.6567  -9.6567  -4.2505  -4.2505
     0.9186   0.9187   7.2861   7.2863   8.2118   8.2120   8.4374   8.4378

          k =-0.5000 0.0000 0.0000 (  5268 PWs)   bands (ev):

   -16.8386 -16.8386 -12.1401 -12.1400 -10.5612 -10.5612  -4.3342  -4.3342
     1.2150   1.2151   7.0555   7.0557   8.0158   8.0160   8.6569   8.6574

          k =-0.5000 0.0962 0.0000 (  5283 PWs)   bands (ev):

   -16.6913 -16.6913 -13.0121 -13.0121  -9.6567  -9.6567  -4.2505  -4.2505
     0.9186   0.9187   7.2861   7.2863   8.2118   8.2120   8.4374   8.4378

          k =-0.5000 0.1925 0.0000 (  5302 PWs)   bands (ev):

   -16.2764 -16.2764 -14.1783 -14.1783  -8.5132  -8.5132  -4.0634  -4.0634
     0.3557   0.3557   6.5101   6.5101   7.9722   7.9724   8.9154   8.9155

          k =-0.5000-0.8660 0.0000 (  5288 PWs)   bands (ev):

   -15.8825 -15.8825 -14.8400 -14.8400  -8.0294  -8.0294  -3.9571  -3.9571
     0.0806   0.0806   5.7720   5.7720   9.0601   9.0601   9.1133   9.1133

     the Fermi energy is    -1.59799035 ev

!    total energy              =     -36.88764495 Ry
     total all-electron energy =      -152.415917 Ry
     estimated scf accuracy    <          2.8E-09 Ry
     smearing contrib. (-TS)   =      -0.00003134 Ry
     internal energy E=F+TS    =     -36.88761361 Ry

     The total energy is F=E-TS. E is the sum of the following terms:
     one-electron contribution =    -156.61646860 Ry
     hartree contribution      =      79.92606051 Ry
     xc contribution           =      -9.27196515 Ry
     ewald contribution        =      61.40972547 Ry
     electric field correction =      -0.00066381 Ry
     one-center paw contrib.   =     -12.33430202 Ry

     convergence has been achieved in  16 iterations

     negative rho (up, down):  3.539E-05 0.000E+00

     Forces acting on atoms (cartesian axes, Ry/au):

     atom    1 type  1   force =    -0.00000009    0.00000046   -0.00000025
     atom    2 type  1   force =     0.00000009   -0.00000046    0.00000025

     Total force =     0.000001     Total SCF correction =     0.000119
     SCF correction compared to forces is large: reduce conv_thr to get better values

     Writing all to output data dir ../tmp/graphene.save/ :
     XML data file, charge density, pseudopotentials, collected wavefunctions
 
     init_run     :      0.49s CPU      0.54s WALL (       1 calls)
     electrons    :     24.46s CPU     25.53s WALL (       1 calls)
     forces       :      0.07s CPU      0.07s WALL (       1 calls)

     Called by init_run:
     wfcinit      :      0.41s CPU      0.44s WALL (       1 calls)
     potinit      :      0.02s CPU      0.03s WALL (       1 calls)
     hinit0       :      0.01s CPU      0.02s WALL (       1 calls)

     Called by electrons:
     c_bands      :     20.34s CPU     21.16s WALL (      16 calls)
     sum_band     :      3.47s CPU      3.61s WALL (      16 calls)
     v_of_rho     :      0.14s CPU      0.16s WALL (      17 calls)
     newd         :      0.23s CPU      0.24s WALL (      17 calls)
     PAW_pot      :      0.15s CPU      0.15s WALL (      17 calls)
     mix_rho      :      0.10s CPU      0.10s WALL (      16 calls)

     Called by c_bands:
     init_us_2    :      0.16s CPU      0.17s WALL (    2516 calls)
     cegterg      :     19.58s CPU     20.35s WALL (    1184 calls)

     Called by *egterg:
     cdiaghg      :      2.64s CPU      2.70s WALL (    4202 calls)
     h_psi        :     15.18s CPU     15.85s WALL (    4276 calls)
     s_psi        :      0.26s CPU      0.28s WALL (    4276 calls)
     g_psi        :      0.06s CPU      0.06s WALL (    3018 calls)

     Called by h_psi:
     h_psi:calbec :      0.42s CPU      0.44s WALL (    4276 calls)
     vloc_psi     :     14.33s CPU     14.96s WALL (    4276 calls)
     add_vuspsi   :      0.29s CPU      0.30s WALL (    4276 calls)

     General routines
     calbec       :      0.52s CPU      0.54s WALL (    5756 calls)
     fft          :      0.17s CPU      0.17s WALL (     422 calls)
     ffts         :      0.01s CPU      0.01s WALL (     132 calls)
     fftw         :     12.58s CPU     13.12s WALL (  239224 calls)
     interpolate  :      0.02s CPU      0.03s WALL (      68 calls)
 
     Parallel routines
 
     PWSCF        :     25.31s CPU     28.55s WALL

 
   This run was terminated on:   2:23:23  29Jan2026            

=------------------------------------------------------------------------------=
   JOB DONE.
=------------------------------------------------------------------------------=
