
     Program PWSCF v.7.4.1 starts on  1Oct2025 at 21: 6:52 

     This program is part of the open-source Quantum ESPRESSO suite
     for quantum simulation of materials; please cite
         "P. Giannozzi et al., J. Phys.:Condens. Matter 21 395502 (2009);
         "P. Giannozzi et al., J. Phys.:Condens. Matter 29 465901 (2017);
         "P. Giannozzi et al., J. Chem. Phys. 152 154105 (2020);
          URL http://www.quantum-espresso.org", 
     in publications or presentations arising from this work. More details at
     http://www.quantum-espresso.org/quote

     Serial version
     12954 MiB available memory on the printing compute node when the environment starts

     Reading input from graphene_scf.in

     Current dimensions of program PWSCF are:
     Max number of different atomic species (ntypx) = 10
     Max number of k-points (npk) =  40000
     Max angular momentum in pseudopotentials (lmaxx) =  4
     file C.pbe-n-kjpaw_psl.1.0.0.UPF: wavefunction(s)  2S 2P renormalized
     Message from routine setup:
     using ibrav=0 with symmetry is DISCOURAGED, use correct ibrav instead


     G-vector sticks info
     --------------------
     sticks:   dense  smooth     PW     G-vecs:    dense   smooth      PW
     Sum         637     421    121                77309    42211    7091

     Using Slab Decomposition



     bravais-lattice index     =            0
     lattice parameter (alat)  =       4.6540  a.u.
     unit-cell volume          =     531.7080 (a.u.)^3
     number of atoms/cell      =            2
     number of atomic types    =            1
     number of electrons       =         8.00
     number of Kohn-Sham states=            8
     kinetic-energy cutoff     =      70.0000  Ry
     charge density cutoff     =     420.0000  Ry
     scf convergence threshold =      1.0E-08
     mixing beta               =       0.7000
     number of iterations used =            8  plain     mixing
     Exchange-correlation= SLA  PW   PBX  PBC
                           (   1   4   3   4   0   0   0)

     celldm(1)=   4.653998  celldm(2)=   0.000000  celldm(3)=   0.000000
     celldm(4)=   0.000000  celldm(5)=   0.000000  celldm(6)=   0.000000

     crystal axes: (cart. coord. in units of alat)
               a(1) = (   1.000000   0.000000   0.000000 )  
               a(2) = (  -0.500000   0.866025   0.000000 )  
               a(3) = (   0.000000   0.000000   6.090654 )  

     reciprocal axes: (cart. coord. in units 2 pi/alat)
               b(1) = (  1.000000  0.577350 -0.000000 )  
               b(2) = (  0.000000  1.154701  0.000000 )  
               b(3) = (  0.000000 -0.000000  0.164186 )  


     PseudoPot. # 1 for C  read from file:
     ../../../../pseudos/C.pbe-n-kjpaw_psl.1.0.0.UPF
     MD5 check sum: 5d2aebdfa2cae82b50a7e79e9516da0f
     Pseudo is Projector augmented-wave + core cor, Zval =  4.0
     Generated using "atomic" code by A. Dal Corso  v.5.1
     Shape of augmentation charge: PSQ
     Using radial grid of 1073 points,  4 beta functions with: 
                l(1) =   0
                l(2) =   0
                l(3) =   1
                l(4) =   1
     Q(r) pseudized with 0 coefficients 


     atomic species   valence    mass     pseudopotential
     C                 4.00    12.01070     C ( 1.00)

     24 Sym. Ops., with inversion, found (12 have fractional translation)



   Cartesian axes

     site n.     atom                  positions (alat units)
         1        C      tau(   1) = (   0.0000000   0.0000000   0.0000000  )
         2        C      tau(   2) = (   0.0000000   0.5773503   0.0000000  )

     number of k points=    19  Gaussian smearing, width (Ry)=  0.0100
                       cart. coord. in units 2pi/alat
        k(    1) = (   0.0000000   0.0000000   0.0000000), wk =   0.0138889
        k(    2) = (   0.0000000   0.0962250   0.0000000), wk =   0.0833333
        k(    3) = (   0.0000000   0.1924501   0.0000000), wk =   0.0833333
        k(    4) = (   0.0000000   0.2886751   0.0000000), wk =   0.0833333
        k(    5) = (   0.0000000   0.3849002   0.0000000), wk =   0.0833333
        k(    6) = (   0.0000000   0.4811252   0.0000000), wk =   0.0833333
        k(    7) = (   0.0000000  -0.5773503   0.0000000), wk =   0.0416667
        k(    8) = (   0.0833333   0.1443376   0.0000000), wk =   0.0833333
        k(    9) = (   0.0833333   0.2405626   0.0000000), wk =   0.1666667
        k(   10) = (   0.0833333   0.3367877   0.0000000), wk =   0.1666667
        k(   11) = (   0.0833333   0.4330127   0.0000000), wk =   0.1666667
        k(   12) = (   0.0833333   0.5292377   0.0000000), wk =   0.1666667
        k(   13) = (   0.1666667   0.2886751   0.0000000), wk =   0.0833333
        k(   14) = (   0.1666667   0.3849002   0.0000000), wk =   0.1666667
        k(   15) = (   0.1666667   0.4811252   0.0000000), wk =   0.1666667
        k(   16) = (   0.1666667   0.5773503   0.0000000), wk =   0.0833333
        k(   17) = (   0.2500000   0.4330127   0.0000000), wk =   0.0833333
        k(   18) = (   0.2500000   0.5292377   0.0000000), wk =   0.1666667
        k(   19) = (   0.3333333   0.5773503   0.0000000), wk =   0.0277778

     Dense  grid:    77309 G-vectors     FFT dimensions: (  36,  36, 192)

     Smooth grid:    42211 G-vectors     FFT dimensions: (  27,  27, 160)

     Estimated max dynamical RAM per process >     122.54 MB

     Check: negative core charge=   -0.000001

     Initial potential from superposition of free atoms

     starting charge       7.9999, renormalised to       8.0000

     negative rho (up, down):  3.385E-05 0.000E+00
     Starting wfcs are    8 randomized atomic wfcs

     total cpu time spent up to now is        4.7 secs

     Self-consistent Calculation

     iteration #  1     ecut=    70.00 Ry     beta= 0.70
     Davidson diagonalization with overlap
     ethr =  1.00E-02,  avg # of iterations =  5.4

     negative rho (up, down):  1.875E-05 0.000E+00

     total cpu time spent up to now is        8.7 secs

     total energy              =     -36.86073141 Ry
     estimated scf accuracy    <       0.19353520 Ry

     iteration #  2     ecut=    70.00 Ry     beta= 0.70
     Davidson diagonalization with overlap
     ethr =  2.42E-03,  avg # of iterations =  3.7

     negative rho (up, down):  1.990E-05 0.000E+00

     total cpu time spent up to now is       11.5 secs

     total energy              =     -36.88717096 Ry
     estimated scf accuracy    <       0.00195826 Ry

     iteration #  3     ecut=    70.00 Ry     beta= 0.70
     Davidson diagonalization with overlap
     c_bands:  1 eigenvalues not converged
     ethr =  2.45E-05,  avg # of iterations = 10.5

     negative rho (up, down):  2.308E-05 0.000E+00

     total cpu time spent up to now is       17.5 secs

     total energy              =     -36.88747506 Ry
     estimated scf accuracy    <       0.00015043 Ry

     iteration #  4     ecut=    70.00 Ry     beta= 0.70
     Davidson diagonalization with overlap
     ethr =  1.88E-06,  avg # of iterations =  3.2

     negative rho (up, down):  2.316E-05 0.000E+00

     total cpu time spent up to now is       20.5 secs

     total energy              =     -36.88748733 Ry
     estimated scf accuracy    <       0.00000182 Ry

     iteration #  5     ecut=    70.00 Ry     beta= 0.70
     Davidson diagonalization with overlap
     ethr =  2.28E-08,  avg # of iterations =  2.9

     negative rho (up, down):  2.306E-05 0.000E+00

     total cpu time spent up to now is       24.3 secs

     total energy              =     -36.88748842 Ry
     estimated scf accuracy    <       0.00000005 Ry

     iteration #  6     ecut=    70.00 Ry     beta= 0.70
     Davidson diagonalization with overlap
     ethr =  6.61E-10,  avg # of iterations =  2.9

     negative rho (up, down):  2.301E-05 0.000E+00

     total cpu time spent up to now is       28.2 secs

     End of self-consistent calculation

          k = 0.0000 0.0000 0.0000 (  5283 PWs)   bands (ev):

   -21.2634  -9.3524  -4.7559  -4.7559   1.4762   2.3335   2.6514   4.5907

          k = 0.0000 0.0962 0.0000 (  5251 PWs)   bands (ev):

   -21.0991  -9.1558  -5.4078  -5.0958   1.7002   2.5594   2.8785   4.8144

          k = 0.0000 0.1925 0.0000 (  5237 PWs)   bands (ev):

   -20.6080  -8.5712  -7.0493  -5.8917   2.3723   3.2354   3.5599   5.4824

          k = 0.0000 0.2887 0.0000 (  5251 PWs)   bands (ev):

   -19.7960  -9.1528  -7.6180  -6.7752   3.4904   4.3455   4.6947   5.5738

          k = 0.0000 0.3849 0.0000 (  5255 PWs)   bands (ev):

   -18.6750 -11.3615  -7.5117  -6.3462   3.2229   5.0441   5.9540   6.0374

          k = 0.0000 0.4811 0.0000 (  5270 PWs)   bands (ev):

   -17.2759 -13.4671  -7.9865  -4.9195   1.0810   5.7999   7.0622   7.9511

          k = 0.0000-0.5774 0.0000 (  5280 PWs)   bands (ev):

   -16.0064 -14.9800  -8.1495  -4.0722  -0.0205   5.7215   9.3832   9.5257

          k = 0.0833 0.1443 0.0000 (  5251 PWs)   bands (ev):

   -20.7714  -8.7651  -6.4437  -5.7762   2.1485   3.0104   3.3329   5.2608

          k = 0.0833 0.2406 0.0000 (  5240 PWs)   bands (ev):

   -20.1199  -8.1574  -7.9950  -6.7782   3.0444   3.9090   4.2417   6.1345

          k = 0.0833 0.3368 0.0000 (  5253 PWs)   bands (ev):

   -19.1532 -10.2357  -7.6678  -6.8760   4.2376   4.3838   5.2787   5.6026

          k = 0.0833 0.4330 0.0000 (  5260 PWs)   bands (ev):

   -17.8901 -12.3638  -8.3049  -5.4926   2.0315   6.1438   6.6499   7.0471

          k = 0.0833 0.5292 0.0000 (  5282 PWs)   bands (ev):

   -16.4063 -14.3111  -8.6345  -4.1794   0.2569   6.4610   8.3679   9.2171

          k = 0.1667 0.2887 0.0000 (  5262 PWs)   bands (ev):

   -19.3137  -9.4899  -8.1455  -7.0553   4.1625   4.6975   5.0259   5.3779

          k = 0.1667 0.3849 0.0000 (  5263 PWs)   bands (ev):

   -18.2036 -11.2216  -9.2050  -5.7988   2.7435   5.7192   6.5686   6.9656

          k = 0.1667 0.4811 0.0000 (  5264 PWs)   bands (ev):

   -16.8244 -13.1377  -9.7822  -4.3679   0.8250   7.6899   8.3736   8.4632

          k = 0.1667 0.5774 0.0000 (  5256 PWs)   bands (ev):

   -15.5846 -14.5788  -9.9675  -3.4724  -0.2467   8.2722   9.9527  10.1386

          k = 0.2500 0.4330 0.0000 (  5254 PWs)   bands (ev):

   -16.9726 -12.2575 -10.6941  -4.4522   1.1243   7.4779   8.1762   8.7754

          k = 0.2500 0.5292 0.0000 (  5270 PWs)   bands (ev):

   -15.5463 -13.6834 -11.4032  -3.0623  -0.4006   9.1762   9.5891  10.5359

          k = 0.3333 0.5774 0.0000 (  5268 PWs)   bands (ev):

   -14.3252 -14.3252 -12.3049  -1.7023  -1.7023   8.9192  11.1984  11.1984

     the Fermi energy is    -1.7023 ev

!    total energy              =     -36.88748844 Ry
     total all-electron energy =      -152.415684 Ry
     estimated scf accuracy    <          5.1E-10 Ry
     smearing contrib. (-TS)   =      -0.00015672 Ry
     internal energy E=F+TS    =     -36.88733172 Ry

     The total energy is F=E-TS. E is the sum of the following terms:
     one-electron contribution =    -157.20066147 Ry
     hartree contribution      =      80.22418720 Ry
     xc contribution           =      -9.28001344 Ry
     ewald contribution        =      61.70343446 Ry
     one-center paw contrib.   =     -12.33427847 Ry

     convergence has been achieved in   6 iterations

     negative rho (up, down):  2.301E-05 0.000E+00

     Forces acting on atoms (cartesian axes, Ry/au):

     atom    1 type  1   force =     0.00000000    0.00000000    0.00000000
     atom    2 type  1   force =     0.00000000   -0.00000000    0.00000000

     Total force =     0.000000     Total SCF correction =     0.000000


     Computing stress (Cartesian axis) and pressure


     negative rho (up, down):  2.301E-05 0.000E+00
          total   stress  (Ry/bohr**3)                   (kbar)     P=        3.22
   0.00003374   0.00000000   0.00000000            4.96        0.00        0.00
   0.00000000   0.00003374   0.00000000            0.00        4.96        0.00
   0.00000000   0.00000000  -0.00000171            0.00        0.00       -0.25


     Writing all to output data dir ./tmp/graphene.save/ :
     XML data file, charge density, pseudopotentials, collected wavefunctions

     init_run     :      3.16s CPU      4.45s WALL (       1 calls)
     electrons    :     27.54s CPU     23.51s WALL (       1 calls)
     forces       :      0.34s CPU      0.47s WALL (       1 calls)
     stress       :      1.38s CPU      1.74s WALL (       1 calls)

     Called by init_run:
     wfcinit      :      1.49s CPU      2.05s WALL (       1 calls)
     potinit      :      0.70s CPU      0.88s WALL (       1 calls)
     hinit0       :      0.85s CPU      1.31s WALL (       1 calls)

     Called by electrons:
     c_bands      :     22.68s CPU     18.52s WALL (       6 calls)
     sum_band     :      2.83s CPU      2.69s WALL (       6 calls)
     v_of_rho     :      0.97s CPU      1.09s WALL (       7 calls)
     newd         :      0.40s CPU      0.60s WALL (       7 calls)
     PAW_pot      :      0.78s CPU      0.85s WALL (       7 calls)
     mix_rho      :      0.11s CPU      0.08s WALL (       6 calls)

     Called by c_bands:
     init_us_2    :      0.50s CPU      0.42s WALL (     285 calls)
     cegterg      :     22.02s CPU     18.03s WALL (     114 calls)

     Called by *egterg:
     cdiaghg      :      0.20s CPU      0.11s WALL (     661 calls)
     h_psi        :     20.84s CPU     17.96s WALL (     680 calls)
     s_psi        :      0.33s CPU      0.31s WALL (     680 calls)
     g_psi        :      0.12s CPU      0.06s WALL (     547 calls)

     Called by h_psi:
     h_psi:calbec :      0.32s CPU      0.31s WALL (     680 calls)
     vloc_psi     :     19.25s CPU     15.63s WALL (     680 calls)
     add_vuspsi   :      1.17s CPU      1.95s WALL (     680 calls)

     General routines
     calbec       :      0.45s CPU      0.48s WALL (    1117 calls)
     fft          :      1.03s CPU      1.28s WALL (     114 calls)
     ffts         :      0.42s CPU      0.43s WALL (      13 calls)
     fftw         :     16.88s CPU     14.16s WALL (    6992 calls)
     interpolate  :      0.44s CPU      0.45s WALL (       7 calls)


     PWSCF        :     32.63s CPU     30.57s WALL


   This run was terminated on:  21: 7:22   1Oct2025            

=------------------------------------------------------------------------------=
   JOB DONE.
=------------------------------------------------------------------------------=
