
     Program PWSCF v.7.4.1 starts on 29Jan2026 at  2:24: 1 

     This program is part of the open-source Quantum ESPRESSO suite
     for quantum simulation of materials; please cite
         "P. Giannozzi et al., J. Phys.:Condens. Matter 21 395502 (2009);
         "P. Giannozzi et al., J. Phys.:Condens. Matter 29 465901 (2017);
         "P. Giannozzi et al., J. Chem. Phys. 152 154105 (2020);
          URL http://www.quantum-espresso.org", 
     in publications or presentations arising from this work. More details at
     http://www.quantum-espresso.org/quote

     Parallel version (MPI), running on    20 processors

     MPI processes distributed on     1 nodes
     113578 MiB available memory on the printing compute node when the environment starts
 
     Reading input from grap_SOC_scf.in

     Current dimensions of program PWSCF are:
     Max number of different atomic species (ntypx) = 10
     Max number of k-points (npk) =  40000
     Max angular momentum in pseudopotentials (lmaxx) =  4
     Presently stress not available with electric field and gates

     file C.rel-pbe-n-kjpaw_psl.1.0.0.UPF: wavefunction(s)  2S 2P 2P renormalized
 
     R & G space division:  proc/nbgrp/npool/nimage =      20
     Subspace diagonalization in iterative solution of the eigenvalue problem:
     a serial algorithm will be used

 
     Parallelization info
     --------------------
     sticks:   dense  smooth     PW     G-vecs:    dense   smooth      PW
     Min          52      21      6                 8339     2113     392
     Max          57      22      7                 8350     2140     425
     Sum        1045     421    139               166859    42343    8205
 
     Using Slab Decomposition
 


     bravais-lattice index     =            0
     lattice parameter (alat)  =       4.6624  a.u.
     unit-cell volume          =     533.6317 (a.u.)^3
     number of atoms/cell      =            2
     number of atomic types    =            1
     number of electrons       =         8.00
     number of Kohn-Sham states=           16
     kinetic-energy cutoff     =      70.0000  Ry
     charge density cutoff     =     700.0000  Ry
     scf convergence threshold =      1.0E-08
     mixing beta               =       0.1000
     number of iterations used =            8  plain     mixing
     Exchange-correlation= SLA  PW   PBX  PBC
                           (   1   4   3   4   0   0   0)
     Non magnetic calculation with spin-orbit


     celldm(1)=   4.662410  celldm(2)=   0.000000  celldm(3)=   0.000000
     celldm(4)=   0.000000  celldm(5)=   0.000000  celldm(6)=   0.000000

     crystal axes: (cart. coord. in units of alat)
               a(1) = (   1.000000   0.000000   0.000000 )  
               a(2) = (  -0.500000   0.866025   0.000000 )  
               a(3) = (   0.000000   0.000000   6.079666 )  

     reciprocal axes: (cart. coord. in units 2 pi/alat)
               b(1) = (  1.000000  0.577350  0.000000 )  
               b(2) = (  0.000000  1.154701  0.000000 )  
               b(3) = (  0.000000  0.000000  0.164483 )  


     PseudoPot. # 1 for C  read from file:
     ../../../PP_C/C.rel-pbe-n-kjpaw_psl.1.0.0.UPF
     MD5 check sum: dd2b8f743de1f3a10095e4114fb28074
     Pseudo is Projector augmented-wave + core cor, Zval =  4.0
     Generated using &quot;atomic&quot; code by A. Dal Corso  v.6.3
     Shape of augmentation charge: PSQ
     Using radial grid of 1073 points,  6 beta functions with: 
                l(1) =   0
                l(2) =   0
                l(3) =   1
                l(4) =   1
                l(5) =   1
                l(6) =   1
     Q(r) pseudized with 0 coefficients 


     atomic species   valence    mass     pseudopotential
     C                 4.00    12.01100     C ( 1.00)

     No symmetry found



   Cartesian axes

     site n.     atom                  positions (alat units)
         1        C      tau(   1) = (   0.0000000   0.0000000   3.0398328  )
         2        C      tau(   2) = (   0.0000000   0.5773503   3.0398328  )

     number of k points=    74  Gaussian smearing, width (Ry)=  0.0020
                       cart. coord. in units 2pi/alat
        k(    1) = (   0.0000000   0.0000000   0.0000000), wk =   0.0069444
        k(    2) = (   0.0000000   0.0962250   0.0000000), wk =   0.0138889
        k(    3) = (   0.0000000   0.1924501   0.0000000), wk =   0.0138889
        k(    4) = (   0.0000000   0.2886751   0.0000000), wk =   0.0138889
        k(    5) = (   0.0000000   0.3849002   0.0000000), wk =   0.0138889
        k(    6) = (   0.0000000   0.4811252   0.0000000), wk =   0.0138889
        k(    7) = (   0.0000000  -0.5773503   0.0000000), wk =   0.0069444
        k(    8) = (   0.0833333   0.0481125   0.0000000), wk =   0.0138889
        k(    9) = (   0.0833333   0.1443376   0.0000000), wk =   0.0138889
        k(   10) = (   0.0833333   0.2405626   0.0000000), wk =   0.0138889
        k(   11) = (   0.0833333   0.3367877   0.0000000), wk =   0.0138889
        k(   12) = (   0.0833333   0.4330127   0.0000000), wk =   0.0138889
        k(   13) = (   0.0833333   0.5292377   0.0000000), wk =   0.0138889
        k(   14) = (   0.0833333  -0.5292377   0.0000000), wk =   0.0138889
        k(   15) = (   0.0833333  -0.4330127   0.0000000), wk =   0.0138889
        k(   16) = (   0.0833333  -0.3367877   0.0000000), wk =   0.0138889
        k(   17) = (   0.0833333  -0.2405626   0.0000000), wk =   0.0138889
        k(   18) = (   0.0833333  -0.1443376   0.0000000), wk =   0.0138889
        k(   19) = (   0.0833333  -0.0481125   0.0000000), wk =   0.0138889
        k(   20) = (   0.1666667   0.0962250   0.0000000), wk =   0.0138889
        k(   21) = (   0.1666667   0.1924501   0.0000000), wk =   0.0138889
        k(   22) = (   0.1666667   0.2886751   0.0000000), wk =   0.0138889
        k(   23) = (   0.1666667   0.3849002   0.0000000), wk =   0.0138889
        k(   24) = (   0.1666667   0.4811252   0.0000000), wk =   0.0138889
        k(   25) = (   0.1666667   0.5773503   0.0000000), wk =   0.0138889
        k(   26) = (   0.1666667  -0.4811252   0.0000000), wk =   0.0138889
        k(   27) = (   0.1666667  -0.3849002   0.0000000), wk =   0.0138889
        k(   28) = (   0.1666667  -0.2886751   0.0000000), wk =   0.0138889
        k(   29) = (   0.1666667  -0.1924501   0.0000000), wk =   0.0138889
        k(   30) = (   0.1666667  -0.0962250   0.0000000), wk =   0.0138889
        k(   31) = (   0.1666667  -0.0000000   0.0000000), wk =   0.0138889
        k(   32) = (   0.2500000   0.1443376   0.0000000), wk =   0.0138889
        k(   33) = (   0.2500000   0.2405626   0.0000000), wk =   0.0138889
        k(   34) = (   0.2500000   0.3367877   0.0000000), wk =   0.0138889
        k(   35) = (   0.2500000   0.4330127   0.0000000), wk =   0.0138889
        k(   36) = (   0.2500000   0.5292377   0.0000000), wk =   0.0138889
        k(   37) = (   0.2500000   0.6254628   0.0000000), wk =   0.0138889
        k(   38) = (   0.2500000  -0.4330127   0.0000000), wk =   0.0138889
        k(   39) = (   0.2500000  -0.3367877   0.0000000), wk =   0.0138889
        k(   40) = (   0.2500000  -0.2405626   0.0000000), wk =   0.0138889
        k(   41) = (   0.2500000  -0.1443376   0.0000000), wk =   0.0138889
        k(   42) = (   0.2500000  -0.0481125   0.0000000), wk =   0.0138889
        k(   43) = (   0.2500000   0.0481125   0.0000000), wk =   0.0138889
        k(   44) = (   0.3333333   0.1924501   0.0000000), wk =   0.0138889
        k(   45) = (   0.3333333   0.2886751   0.0000000), wk =   0.0138889
        k(   46) = (   0.3333333   0.3849002   0.0000000), wk =   0.0138889
        k(   47) = (   0.3333333   0.4811252   0.0000000), wk =   0.0138889
        k(   48) = (   0.3333333   0.5773503   0.0000000), wk =   0.0138889
        k(   49) = (   0.3333333   0.6735753   0.0000000), wk =   0.0138889
        k(   50) = (   0.3333333  -0.3849002   0.0000000), wk =   0.0138889
        k(   51) = (   0.3333333  -0.2886751   0.0000000), wk =   0.0138889
        k(   52) = (   0.3333333  -0.1924501   0.0000000), wk =   0.0138889
        k(   53) = (   0.3333333  -0.0962250   0.0000000), wk =   0.0138889
        k(   54) = (   0.3333333  -0.0000000   0.0000000), wk =   0.0138889
        k(   55) = (   0.3333333   0.0962250   0.0000000), wk =   0.0138889
        k(   56) = (   0.4166667   0.2405626   0.0000000), wk =   0.0138889
        k(   57) = (   0.4166667   0.3367877   0.0000000), wk =   0.0138889
        k(   58) = (   0.4166667   0.4330127   0.0000000), wk =   0.0138889
        k(   59) = (   0.4166667   0.5292377   0.0000000), wk =   0.0138889
        k(   60) = (   0.4166667   0.6254628   0.0000000), wk =   0.0138889
        k(   61) = (   0.4166667   0.7216878   0.0000000), wk =   0.0138889
        k(   62) = (   0.4166667  -0.3367877   0.0000000), wk =   0.0138889
        k(   63) = (   0.4166667  -0.2405626   0.0000000), wk =   0.0138889
        k(   64) = (   0.4166667  -0.1443376   0.0000000), wk =   0.0138889
        k(   65) = (   0.4166667  -0.0481125   0.0000000), wk =   0.0138889
        k(   66) = (   0.4166667   0.0481125   0.0000000), wk =   0.0138889
        k(   67) = (   0.4166667   0.1443376   0.0000000), wk =   0.0138889
        k(   68) = (  -0.5000000  -0.2886751   0.0000000), wk =   0.0069444
        k(   69) = (  -0.5000000  -0.1924501   0.0000000), wk =   0.0138889
        k(   70) = (  -0.5000000  -0.0962250   0.0000000), wk =   0.0138889
        k(   71) = (  -0.5000000   0.0000000   0.0000000), wk =   0.0138889
        k(   72) = (  -0.5000000   0.0962250   0.0000000), wk =   0.0138889
        k(   73) = (  -0.5000000   0.1924501   0.0000000), wk =   0.0138889
        k(   74) = (  -0.5000000  -0.8660254   0.0000000), wk =   0.0069444

     Dense  grid:   166859 G-vectors     FFT dimensions: (  40,  40, 240)

     Smooth grid:    42343 G-vectors     FFT dimensions: (  25,  25, 160)

     Estimated max dynamical RAM per process >      40.42 MB

     Estimated total dynamical RAM >     808.50 MB

     Initial potential from superposition of free atoms

     starting charge       7.9999, renormalised to       8.0000

     negative rho (up, down):  2.223E-05 0.000E+00
 
     Adding external electric field

     Computed dipole along edir(3) : 
        Dipole               -0.0000 Ry au,         -0.0000 Debye
        Dipole field         -0.0000 Ry au, 
 
        E field amplitude [Ha a.u.]:  1.1668E-02
        Potential amp.        0.6284 Ry
        Total length         26.9286 bohr
 
     Starting wfcs are random
     Checking if some PAW data can be deallocated... 

     total cpu time spent up to now is        0.6 secs

     per-process dynamical memory:    53.7 Mb

     Self-consistent Calculation

     iteration #  1     ecut=    70.00 Ry     beta= 0.10
     Davidson diagonalization with overlap
     ethr =  1.00E-02,  avg # of iterations =  8.6

     negative rho (up, down):  2.125E-05 0.000E+00
 
     Adding external electric field

     Computed dipole along edir(3) : 
        Dipole                0.0146 Ry au,          0.0372 Debye
        Dipole field          0.0003 Ry au, 
 
        E field amplitude [Ha a.u.]:  1.1668E-02
        Potential amp.        0.6099 Ry
        Total length         26.9286 bohr
 

     total cpu time spent up to now is        5.8 secs

     total energy              =     -36.95238559 Ry
     estimated scf accuracy    <       0.20550344 Ry

     iteration #  2     ecut=    70.00 Ry     beta= 0.10
     Davidson diagonalization with overlap
     ethr =  2.57E-03,  avg # of iterations =  1.0

     negative rho (up, down):  2.638E-05 0.000E+00
 
     Adding external electric field

     Computed dipole along edir(3) : 
        Dipole                0.0935 Ry au,          0.2375 Debye
        Dipole field          0.0022 Ry au, 
 
        E field amplitude [Ha a.u.]:  1.1668E-02
        Potential amp.        0.5099 Ry
        Total length         26.9286 bohr
 

     total cpu time spent up to now is        7.0 secs

     total energy              =     -36.86251362 Ry
     estimated scf accuracy    <       0.15123325 Ry

     iteration #  3     ecut=    70.00 Ry     beta= 0.10
     Davidson diagonalization with overlap
     ethr =  1.89E-03,  avg # of iterations =  3.0

     negative rho (up, down):  2.621E-05 0.000E+00
 
     Adding external electric field

     Computed dipole along edir(3) : 
        Dipole                0.0744 Ry au,          0.1892 Debye
        Dipole field          0.0018 Ry au, 
 
        E field amplitude [Ha a.u.]:  1.1668E-02
        Potential amp.        0.5340 Ry
        Total length         26.9286 bohr
 

     total cpu time spent up to now is        8.5 secs

     total energy              =     -36.88775101 Ry
     estimated scf accuracy    <       0.00378221 Ry

     iteration #  4     ecut=    70.00 Ry     beta= 0.10
     Davidson diagonalization with overlap
     ethr =  4.73E-05,  avg # of iterations =  5.3

     negative rho (up, down):  2.837E-05 0.000E+00
 
     Adding external electric field

     Computed dipole along edir(3) : 
        Dipole                0.0468 Ry au,          0.1189 Debye
        Dipole field          0.0011 Ry au, 
 
        E field amplitude [Ha a.u.]:  1.1668E-02
        Potential amp.        0.5691 Ry
        Total length         26.9286 bohr
 

     total cpu time spent up to now is       10.6 secs

     total energy              =     -36.88794201 Ry
     estimated scf accuracy    <       0.00200325 Ry

     iteration #  5     ecut=    70.00 Ry     beta= 0.10
     Davidson diagonalization with overlap
     ethr =  2.50E-05,  avg # of iterations =  2.9

     negative rho (up, down):  2.841E-05 0.000E+00
 
     Adding external electric field

     Computed dipole along edir(3) : 
        Dipole                0.0456 Ry au,          0.1158 Debye
        Dipole field          0.0011 Ry au, 
 
        E field amplitude [Ha a.u.]:  1.1668E-02
        Potential amp.        0.5706 Ry
        Total length         26.9286 bohr
 

     total cpu time spent up to now is       12.1 secs

     total energy              =     -36.88831195 Ry
     estimated scf accuracy    <       0.00102729 Ry

     iteration #  6     ecut=    70.00 Ry     beta= 0.10
     Davidson diagonalization with overlap
     ethr =  1.28E-05,  avg # of iterations =  1.0

     negative rho (up, down):  3.104E-05 0.000E+00
 
     Adding external electric field

     Computed dipole along edir(3) : 
        Dipole                0.0577 Ry au,          0.1467 Debye
        Dipole field          0.0014 Ry au, 
 
        E field amplitude [Ha a.u.]:  1.1668E-02
        Potential amp.        0.5552 Ry
        Total length         26.9286 bohr
 

     total cpu time spent up to now is       13.2 secs

     total energy              =     -36.88818821 Ry
     estimated scf accuracy    <       0.00112514 Ry

     iteration #  7     ecut=    70.00 Ry     beta= 0.10
     Davidson diagonalization with overlap
     ethr =  1.28E-05,  avg # of iterations =  1.5

     negative rho (up, down):  3.277E-05 0.000E+00
 
     Adding external electric field

     Computed dipole along edir(3) : 
        Dipole                0.0709 Ry au,          0.1802 Debye
        Dipole field          0.0017 Ry au, 
 
        E field amplitude [Ha a.u.]:  1.1668E-02
        Potential amp.        0.5385 Ry
        Total length         26.9286 bohr
 

     total cpu time spent up to now is       14.5 secs

     total energy              =     -36.88801224 Ry
     estimated scf accuracy    <       0.00038780 Ry

     iteration #  8     ecut=    70.00 Ry     beta= 0.10
     Davidson diagonalization with overlap
     ethr =  4.85E-06,  avg # of iterations =  2.9

     negative rho (up, down):  3.294E-05 0.000E+00
 
     Adding external electric field

     Computed dipole along edir(3) : 
        Dipole                0.0688 Ry au,          0.1750 Debye
        Dipole field          0.0016 Ry au, 
 
        E field amplitude [Ha a.u.]:  1.1668E-02
        Potential amp.        0.5411 Ry
        Total length         26.9286 bohr
 

     total cpu time spent up to now is       16.0 secs

     total energy              =     -36.88808761 Ry
     estimated scf accuracy    <       0.00000966 Ry

     iteration #  9     ecut=    70.00 Ry     beta= 0.10
     Davidson diagonalization with overlap
     ethr =  1.21E-07,  avg # of iterations =  2.0

     negative rho (up, down):  3.304E-05 0.000E+00
 
     Adding external electric field

     Computed dipole along edir(3) : 
        Dipole                0.0688 Ry au,          0.1748 Debye
        Dipole field          0.0016 Ry au, 
 
        E field amplitude [Ha a.u.]:  1.1668E-02
        Potential amp.        0.5412 Ry
        Total length         26.9286 bohr
 

     total cpu time spent up to now is       17.4 secs

     total energy              =     -36.88808991 Ry
     estimated scf accuracy    <       0.00000122 Ry

     iteration # 10     ecut=    70.00 Ry     beta= 0.10
     Davidson diagonalization with overlap
     ethr =  1.53E-08,  avg # of iterations =  1.0

     negative rho (up, down):  3.328E-05 0.000E+00
 
     Adding external electric field

     Computed dipole along edir(3) : 
        Dipole                0.0683 Ry au,          0.1737 Debye
        Dipole field          0.0016 Ry au, 
 
        E field amplitude [Ha a.u.]:  1.1668E-02
        Potential amp.        0.5418 Ry
        Total length         26.9286 bohr
 

     total cpu time spent up to now is       18.6 secs

     total energy              =     -36.88809033 Ry
     estimated scf accuracy    <       0.00000117 Ry

     iteration # 11     ecut=    70.00 Ry     beta= 0.10
     Davidson diagonalization with overlap
     ethr =  1.46E-08,  avg # of iterations =  1.0

     negative rho (up, down):  3.389E-05 0.000E+00
 
     Adding external electric field

     Computed dipole along edir(3) : 
        Dipole                0.0687 Ry au,          0.1745 Debye
        Dipole field          0.0016 Ry au, 
 
        E field amplitude [Ha a.u.]:  1.1668E-02
        Potential amp.        0.5413 Ry
        Total length         26.9286 bohr
 

     total cpu time spent up to now is       19.7 secs

     total energy              =     -36.88809035 Ry
     estimated scf accuracy    <       0.00000171 Ry

     iteration # 12     ecut=    70.00 Ry     beta= 0.10
     Davidson diagonalization with overlap
     ethr =  1.46E-08,  avg # of iterations =  2.0

     negative rho (up, down):  3.404E-05 0.000E+00
 
     Adding external electric field

     Computed dipole along edir(3) : 
        Dipole                0.0687 Ry au,          0.1745 Debye
        Dipole field          0.0016 Ry au, 
 
        E field amplitude [Ha a.u.]:  1.1668E-02
        Potential amp.        0.5413 Ry
        Total length         26.9286 bohr
 

     total cpu time spent up to now is       21.0 secs

     total energy              =     -36.88809051 Ry
     estimated scf accuracy    <       0.00000013 Ry

     iteration # 13     ecut=    70.00 Ry     beta= 0.10
     Davidson diagonalization with overlap
     ethr =  1.68E-09,  avg # of iterations =  1.3

     negative rho (up, down):  3.414E-05 0.000E+00
 
     Adding external electric field

     Computed dipole along edir(3) : 
        Dipole                0.0686 Ry au,          0.1744 Debye
        Dipole field          0.0016 Ry au, 
 
        E field amplitude [Ha a.u.]:  1.1668E-02
        Potential amp.        0.5414 Ry
        Total length         26.9286 bohr
 

     total cpu time spent up to now is       22.2 secs

     total energy              =     -36.88809053 Ry
     estimated scf accuracy    <       0.00000005 Ry

     iteration # 14     ecut=    70.00 Ry     beta= 0.10
     Davidson diagonalization with overlap
     ethr =  6.83E-10,  avg # of iterations =  1.0

     negative rho (up, down):  3.419E-05 0.000E+00
 
     Adding external electric field

     Computed dipole along edir(3) : 
        Dipole                0.0688 Ry au,          0.1748 Debye
        Dipole field          0.0016 Ry au, 
 
        E field amplitude [Ha a.u.]:  1.1668E-02
        Potential amp.        0.5412 Ry
        Total length         26.9286 bohr
 

     total cpu time spent up to now is       23.4 secs

     total energy              =     -36.88809050 Ry
     estimated scf accuracy    <       0.00000008 Ry

     iteration # 15     ecut=    70.00 Ry     beta= 0.10
     Davidson diagonalization with overlap
     ethr =  6.83E-10,  avg # of iterations =  2.0

     negative rho (up, down):  3.525E-05 0.000E+00
 
     Adding external electric field

     Computed dipole along edir(3) : 
        Dipole                0.0688 Ry au,          0.1748 Debye
        Dipole field          0.0016 Ry au, 
 
        E field amplitude [Ha a.u.]:  1.1668E-02
        Potential amp.        0.5412 Ry
        Total length         26.9286 bohr
 

     total cpu time spent up to now is       24.7 secs

     End of self-consistent calculation

          k = 0.0000 0.0000 0.0000 (  5307 PWs)   bands (ev):

   -21.0556 -21.0556  -9.1524  -9.1524  -4.5986  -4.5986  -4.5894  -4.5894
     0.3755   0.3755   1.5953   1.5953   3.1340   3.1340   4.6401   4.6401

          k = 0.0000 0.0962 0.0000 (  5285 PWs)   bands (ev):

   -20.8918 -20.8918  -8.9566  -8.9566  -5.2447  -5.2447  -4.9320  -4.9320
     0.6034   0.6035   1.8193   1.8193   3.3557   3.3558   4.8622   4.8623

          k = 0.0000 0.1925 0.0000 (  5253 PWs)   bands (ev):

   -20.4023 -20.4023  -8.3747  -8.3746  -6.8820  -6.8820  -5.7235  -5.7235
     1.2871   1.2871   2.4909   2.4910   4.0200   4.0202   5.5252   5.5254

          k = 0.0000 0.2887 0.0000 (  5269 PWs)   bands (ev):

   -19.5928 -19.5928  -8.9796  -8.9795  -7.4257  -7.4256  -6.6025  -6.6025
     2.4256   2.4257   3.6067   3.6069   5.1037   5.1040   5.7033   5.7033

          k = 0.0000 0.3849 0.0000 (  5285 PWs)   bands (ev):

   -18.4756 -18.4756 -11.1814 -11.1813  -7.3353  -7.3353  -6.1599  -6.1599
     3.3575   3.3576   4.0289   4.0289   5.1740   5.1743   6.1465   6.1469

          k = 0.0000 0.4811 0.0000 (  5290 PWs)   bands (ev):

   -17.0819 -17.0819 -13.2793 -13.2793  -7.8078  -7.8078  -4.7402  -4.7402
     1.2341   1.2342   5.9075   5.9076   6.0741   6.0742   7.1832   7.1835

          k = 0.0000-0.5774 0.0000 (  5288 PWs)   bands (ev):

   -15.8232 -15.8232 -14.7806 -14.7806  -7.9701  -7.9701  -3.8977  -3.8977
     0.1394   0.1394   5.8315   5.8315   8.5505   8.5505   8.5717   8.5718

          k = 0.0833 0.0481 0.0000 (  5285 PWs)   bands (ev):

   -20.8918 -20.8918  -8.9566  -8.9566  -5.2447  -5.2447  -4.9319  -4.9319
     0.6034   0.6035   1.8193   1.8193   3.3557   3.3558   4.8622   4.8623

          k = 0.0833 0.1443 0.0000 (  5269 PWs)   bands (ev):

   -20.5652 -20.5652  -8.5677  -8.5676  -6.2785  -6.2785  -5.6085  -5.6085
     1.0592   1.0593   2.2672   2.2673   3.7992   3.7993   5.3054   5.3055

          k = 0.0833 0.2406 0.0000 (  5261 PWs)   bands (ev):

   -19.9157 -19.9157  -7.9879  -7.9878  -7.8010  -7.8010  -6.6056  -6.6056
     1.9705   1.9705   3.1621   3.1622   4.6830   4.6833   6.1755   6.1758

          k = 0.0833 0.3368 0.0000 (  5275 PWs)   bands (ev):

   -18.9522 -18.9522 -10.0597 -10.0596  -7.4913  -7.4913  -6.6871  -6.6871
     3.3345   3.3345   4.3505   4.3507   4.5397   4.5400   6.0092   6.0097

          k = 0.0833 0.4330 0.0000 (  5284 PWs)   bands (ev):

   -17.6935 -17.6935 -12.1806 -12.1806  -8.1257  -8.1257  -5.3103  -5.3103
     2.1783   2.1784   5.1586   5.1586   6.2728   6.2731   6.7469   6.7472

          k = 0.0833 0.5292 0.0000 (  5302 PWs)   bands (ev):

   -16.2171 -16.2170 -14.1190 -14.1190  -8.4539  -8.4539  -4.0040  -4.0040
     0.4145   0.4146   6.5694   6.5694   7.4276   7.4277   8.4912   8.4915

          k = 0.0833-0.5292 0.0000 (  5302 PWs)   bands (ev):

   -16.2171 -16.2170 -14.1190 -14.1190  -8.4539  -8.4539  -4.0040  -4.0040
     0.4145   0.4146   6.5694   6.5694   7.4276   7.4277   8.4912   8.4915

          k = 0.0833-0.4330 0.0000 (  5284 PWs)   bands (ev):

   -17.6935 -17.6935 -12.1806 -12.1806  -8.1257  -8.1257  -5.3103  -5.3103
     2.1783   2.1784   5.1586   5.1586   6.2728   6.2731   6.7469   6.7472

          k = 0.0833-0.3368 0.0000 (  5275 PWs)   bands (ev):

   -18.9522 -18.9522 -10.0597 -10.0596  -7.4913  -7.4913  -6.6871  -6.6871
     3.3345   3.3345   4.3505   4.3507   4.5397   4.5400   6.0092   6.0097

          k = 0.0833-0.2406 0.0000 (  5261 PWs)   bands (ev):

   -19.9157 -19.9157  -7.9879  -7.9878  -7.8010  -7.8010  -6.6056  -6.6056
     1.9705   1.9705   3.1621   3.1622   4.6830   4.6833   6.1755   6.1756

          k = 0.0833-0.1443 0.0000 (  5269 PWs)   bands (ev):

   -20.5652 -20.5652  -8.5677  -8.5676  -6.2785  -6.2785  -5.6085  -5.6085
     1.0592   1.0593   2.2672   2.2673   3.7992   3.7993   5.3054   5.3055

          k = 0.0833-0.0481 0.0000 (  5285 PWs)   bands (ev):

   -20.8918 -20.8918  -8.9566  -8.9566  -5.2447  -5.2447  -4.9319  -4.9319
     0.6034   0.6035   1.8193   1.8193   3.3557   3.3558   4.8622   4.8623

          k = 0.1667 0.0962 0.0000 (  5253 PWs)   bands (ev):

   -20.4023 -20.4023  -8.3747  -8.3746  -6.8820  -6.8820  -5.7235  -5.7235
     1.2871   1.2871   2.4909   2.4910   4.0200   4.0202   5.5252   5.5253

          k = 0.1667 0.1925 0.0000 (  5261 PWs)   bands (ev):

   -19.9157 -19.9157  -7.9879  -7.9878  -7.8010  -7.8010  -6.6056  -6.6056
     1.9705   1.9705   3.1621   3.1622   4.6830   4.6833   6.1755   6.1757

          k = 0.1667 0.2887 0.0000 (  5288 PWs)   bands (ev):

   -19.1121 -19.1121  -9.3185  -9.3185  -7.9658  -7.9658  -6.8656  -6.8655
     3.1088   3.1089   4.2785   4.2786   4.8287   4.8288   5.7839   5.7842

          k = 0.1667 0.3849 0.0000 (  5285 PWs)   bands (ev):

   -18.0057 -18.0057 -11.0445 -11.0445  -9.0215  -9.0215  -5.6150  -5.6149
     2.8855   2.8856   4.7008   4.7008   5.8334   5.8336   7.2992   7.2997

          k = 0.1667 0.4811 0.0000 (  5283 PWs)   bands (ev):

   -16.6320 -16.6319 -12.9528 -12.9527  -9.5974  -9.5974  -4.1911  -4.1911
     0.9778   0.9779   6.7401   6.7402   7.8039   7.8043   8.4632   8.4636

          k = 0.1667 0.5774 0.0000 (  5264 PWs)   bands (ev):

   -15.4021 -15.4021 -14.3830 -14.3830  -9.7823  -9.7822  -3.3005  -3.3005
    -0.0876  -0.0876   8.3754   8.3755   9.1662   9.1662   9.2196   9.2196

          k = 0.1667-0.4811 0.0000 (  5283 PWs)   bands (ev):

   -16.6320 -16.6319 -12.9528 -12.9527  -9.5974  -9.5974  -4.1911  -4.1911
     0.9778   0.9779   6.7401   6.7402   7.8039   7.8043   8.4632   8.4636

          k = 0.1667-0.3849 0.0000 (  5285 PWs)   bands (ev):

   -18.0057 -18.0057 -11.0445 -11.0445  -9.0215  -9.0215  -5.6150  -5.6149
     2.8855   2.8856   4.7008   4.7008   5.8334   5.8336   7.2992   7.2997

          k = 0.1667-0.2887 0.0000 (  5288 PWs)   bands (ev):

   -19.1121 -19.1121  -9.3185  -9.3185  -7.9658  -7.9658  -6.8656  -6.8655
     3.1088   3.1089   4.2785   4.2786   4.8287   4.8288   5.7839   5.7842

          k = 0.1667-0.1925 0.0000 (  5261 PWs)   bands (ev):

   -19.9157 -19.9157  -7.9879  -7.9878  -7.8010  -7.8010  -6.6056  -6.6056
     1.9705   1.9705   3.1621   3.1622   4.6830   4.6833   6.1756   6.1757

          k = 0.1667-0.0962 0.0000 (  5253 PWs)   bands (ev):

   -20.4023 -20.4023  -8.3747  -8.3746  -6.8820  -6.8820  -5.7235  -5.7235
     1.2871   1.2871   2.4909   2.4910   4.0200   4.0202   5.5252   5.5254

          k = 0.1667-0.0000 0.0000 (  5269 PWs)   bands (ev):

   -20.5652 -20.5652  -8.5677  -8.5676  -6.2785  -6.2785  -5.6085  -5.6085
     1.0592   1.0593   2.2672   2.2673   3.7992   3.7993   5.3054   5.3055

          k = 0.2500 0.1443 0.0000 (  5269 PWs)   bands (ev):

   -19.5928 -19.5928  -8.9796  -8.9795  -7.4257  -7.4256  -6.6025  -6.6025
     2.4256   2.4257   3.6067   3.6069   5.1037   5.1040   5.7033   5.7033

          k = 0.2500 0.2406 0.0000 (  5275 PWs)   bands (ev):

   -18.9522 -18.9522 -10.0597 -10.0596  -7.4913  -7.4913  -6.6871  -6.6871
     3.3345   3.3345   4.3505   4.3507   4.5397   4.5400   6.0092   6.0097

          k = 0.2500 0.3368 0.0000 (  5285 PWs)   bands (ev):

   -18.0057 -18.0057 -11.0445 -11.0445  -9.0215  -9.0215  -5.6150  -5.6149
     2.8855   2.8856   4.7008   4.7008   5.8334   5.8336   7.2992   7.2997

          k = 0.2500 0.4330 0.0000 (  5268 PWs)   bands (ev):

   -16.7793 -16.7793 -12.0807 -12.0807 -10.5019 -10.5018  -4.2749  -4.2749
     1.2744   1.2745   6.5092   6.5093   7.5761   7.5764   8.8739   8.8746

          k = 0.2500 0.5292 0.0000 (  5282 PWs)   bands (ev):

   -15.3598 -15.3597 -13.4995 -13.4995 -11.2092 -11.2091  -2.8920  -2.8920
    -0.2427  -0.2426   8.6885   8.6887   9.3773   9.3774   9.9454   9.9457

          k = 0.2500 0.6255 0.0000 (  5282 PWs)   bands (ev):

   -15.3598 -15.3597 -13.4995 -13.4995 -11.2092 -11.2092  -2.8920  -2.8920
    -0.2427  -0.2426   8.6885   8.6887   9.3773   9.3774   9.9454   9.9457

          k = 0.2500-0.4330 0.0000 (  5268 PWs)   bands (ev):

   -16.7793 -16.7793 -12.0807 -12.0807 -10.5019 -10.5018  -4.2749  -4.2749
     1.2744   1.2745   6.5092   6.5093   7.5761   7.5764   8.8739   8.8746

          k = 0.2500-0.3368 0.0000 (  5285 PWs)   bands (ev):

   -18.0057 -18.0057 -11.0445 -11.0445  -9.0215  -9.0215  -5.6150  -5.6149
     2.8855   2.8856   4.7008   4.7008   5.8334   5.8336   7.2992   7.2997

          k = 0.2500-0.2406 0.0000 (  5275 PWs)   bands (ev):

   -18.9522 -18.9522 -10.0597 -10.0596  -7.4913  -7.4913  -6.6871  -6.6871
     3.3345   3.3345   4.3505   4.3507   4.5397   4.5400   6.0092   6.0097

          k = 0.2500-0.1443 0.0000 (  5269 PWs)   bands (ev):

   -19.5928 -19.5928  -8.9796  -8.9795  -7.4257  -7.4256  -6.6025  -6.6025
     2.4256   2.4257   3.6067   3.6069   5.1037   5.1040   5.7033   5.7033

          k = 0.2500-0.0481 0.0000 (  5261 PWs)   bands (ev):

   -19.9157 -19.9157  -7.9879  -7.9878  -7.8010  -7.8010  -6.6056  -6.6056
     1.9705   1.9705   3.1621   3.1622   4.6830   4.6833   6.1755   6.1757

          k = 0.2500 0.0481 0.0000 (  5261 PWs)   bands (ev):

   -19.9157 -19.9157  -7.9879  -7.9878  -7.8010  -7.8010  -6.6056  -6.6056
     1.9705   1.9705   3.1621   3.1622   4.6830   4.6833   6.1755   6.1756

          k = 0.3333 0.1925 0.0000 (  5285 PWs)   bands (ev):

   -18.4756 -18.4756 -11.1814 -11.1813  -7.3353  -7.3353  -6.1599  -6.1599
     3.3575   3.3576   4.0289   4.0289   5.1740   5.1743   6.1465   6.1469

          k = 0.3333 0.2887 0.0000 (  5284 PWs)   bands (ev):

   -17.6935 -17.6935 -12.1806 -12.1806  -8.1257  -8.1257  -5.3103  -5.3103
     2.1783   2.1784   5.1586   5.1586   6.2728   6.2731   6.7469   6.7472

          k = 0.3333 0.3849 0.0000 (  5283 PWs)   bands (ev):

   -16.6320 -16.6319 -12.9528 -12.9528  -9.5974  -9.5974  -4.1911  -4.1911
     0.9778   0.9779   6.7401   6.7402   7.8039   7.8043   8.4632   8.4636

          k = 0.3333 0.4811 0.0000 (  5282 PWs)   bands (ev):

   -15.3598 -15.3597 -13.4995 -13.4995 -11.2092 -11.2091  -2.8920  -2.8920
    -0.2427  -0.2426   8.6885   8.6887   9.3773   9.3774   9.9454   9.9457

          k = 0.3333 0.5774 0.0000 (  5292 PWs)   bands (ev):

   -14.1458 -14.1458 -14.1437 -14.1437 -12.1004 -12.1004  -1.5386  -1.5386
    -1.5385  -1.5384   9.0253   9.0253  11.0437  11.0446  11.0460  11.0462

          k = 0.3333 0.6736 0.0000 (  5282 PWs)   bands (ev):

   -15.3598 -15.3597 -13.4995 -13.4995 -11.2092 -11.2091  -2.8920  -2.8920
    -0.2427  -0.2426   8.6885   8.6887   9.3773   9.3774   9.9454   9.9457

          k = 0.3333-0.3849 0.0000 (  5283 PWs)   bands (ev):

   -16.6320 -16.6319 -12.9528 -12.9527  -9.5974  -9.5974  -4.1911  -4.1911
     0.9778   0.9779   6.7401   6.7402   7.8039   7.8043   8.4632   8.4636

          k = 0.3333-0.2887 0.0000 (  5284 PWs)   bands (ev):

   -17.6935 -17.6935 -12.1806 -12.1806  -8.1257  -8.1257  -5.3103  -5.3103
     2.1783   2.1784   5.1586   5.1586   6.2728   6.2731   6.7469   6.7472

          k = 0.3333-0.1925 0.0000 (  5285 PWs)   bands (ev):

   -18.4756 -18.4756 -11.1814 -11.1813  -7.3353  -7.3353  -6.1599  -6.1599
     3.3575   3.3576   4.0289   4.0289   5.1740   5.1743   6.1465   6.1469

          k = 0.3333-0.0962 0.0000 (  5275 PWs)   bands (ev):

   -18.9522 -18.9522 -10.0597 -10.0596  -7.4913  -7.4913  -6.6871  -6.6871
     3.3345   3.3345   4.3505   4.3507   4.5397   4.5400   6.0092   6.0097

          k = 0.3333-0.0000 0.0000 (  5288 PWs)   bands (ev):

   -19.1121 -19.1121  -9.3185  -9.3185  -7.9658  -7.9658  -6.8656  -6.8655
     3.1088   3.1089   4.2785   4.2786   4.8287   4.8288   5.7839   5.7842

          k = 0.3333 0.0962 0.0000 (  5275 PWs)   bands (ev):

   -18.9522 -18.9522 -10.0597 -10.0596  -7.4913  -7.4913  -6.6871  -6.6871
     3.3345   3.3345   4.3505   4.3507   4.5397   4.5400   6.0092   6.0097

          k = 0.4167 0.2406 0.0000 (  5290 PWs)   bands (ev):

   -17.0819 -17.0819 -13.2793 -13.2793  -7.8078  -7.8078  -4.7402  -4.7402
     1.2341   1.2342   5.9075   5.9076   6.0741   6.0742   7.1832   7.1835

          k = 0.4167 0.3368 0.0000 (  5302 PWs)   bands (ev):

   -16.2170 -16.2170 -14.1190 -14.1190  -8.4539  -8.4539  -4.0040  -4.0040
     0.4145   0.4146   6.5694   6.5694   7.4276   7.4277   8.4912   8.4915

          k = 0.4167 0.4330 0.0000 (  5264 PWs)   bands (ev):

   -15.4021 -15.4021 -14.3830 -14.3830  -9.7823  -9.7822  -3.3005  -3.3005
    -0.0876  -0.0876   8.3755   8.3755   9.1662   9.1662   9.2196   9.2196

          k = 0.4167 0.5292 0.0000 (  5282 PWs)   bands (ev):

   -15.3598 -15.3597 -13.4995 -13.4995 -11.2092 -11.2091  -2.8920  -2.8920
    -0.2427  -0.2426   8.6885   8.6887   9.3773   9.3774   9.9454   9.9457

          k = 0.4167 0.6255 0.0000 (  5282 PWs)   bands (ev):

   -15.3598 -15.3597 -13.4995 -13.4995 -11.2092 -11.2091  -2.8920  -2.8920
    -0.2427  -0.2426   8.6885   8.6887   9.3773   9.3774   9.9454   9.9457

          k = 0.4167 0.7217 0.0000 (  5264 PWs)   bands (ev):

   -15.4021 -15.4021 -14.3830 -14.3830  -9.7823  -9.7822  -3.3005  -3.3005
    -0.0876  -0.0876   8.3754   8.3755   9.1662   9.1662   9.2196   9.2196

          k = 0.4167-0.3368 0.0000 (  5302 PWs)   bands (ev):

   -16.2171 -16.2170 -14.1190 -14.1190  -8.4539  -8.4539  -4.0040  -4.0040
     0.4145   0.4146   6.5694   6.5694   7.4276   7.4277   8.4912   8.4915

          k = 0.4167-0.2406 0.0000 (  5290 PWs)   bands (ev):

   -17.0819 -17.0819 -13.2793 -13.2793  -7.8078  -7.8078  -4.7402  -4.7402
     1.2341   1.2342   5.9075   5.9076   6.0741   6.0742   7.1832   7.1835

          k = 0.4167-0.1443 0.0000 (  5284 PWs)   bands (ev):

   -17.6935 -17.6935 -12.1806 -12.1806  -8.1257  -8.1257  -5.3103  -5.3103
     2.1783   2.1784   5.1586   5.1586   6.2728   6.2731   6.7469   6.7472

          k = 0.4167-0.0481 0.0000 (  5285 PWs)   bands (ev):

   -18.0057 -18.0057 -11.0445 -11.0445  -9.0215  -9.0215  -5.6150  -5.6149
     2.8855   2.8856   4.7008   4.7008   5.8334   5.8336   7.2992   7.2997

          k = 0.4167 0.0481 0.0000 (  5285 PWs)   bands (ev):

   -18.0057 -18.0057 -11.0445 -11.0445  -9.0215  -9.0215  -5.6150  -5.6149
     2.8855   2.8856   4.7008   4.7008   5.8334   5.8336   7.2992   7.2997

          k = 0.4167 0.1443 0.0000 (  5284 PWs)   bands (ev):

   -17.6935 -17.6935 -12.1806 -12.1806  -8.1257  -8.1257  -5.3103  -5.3103
     2.1783   2.1784   5.1586   5.1586   6.2728   6.2731   6.7469   6.7472

          k =-0.5000-0.2887 0.0000 (  5288 PWs)   bands (ev):

   -15.8232 -15.8232 -14.7806 -14.7806  -7.9701  -7.9701  -3.8977  -3.8977
     0.1394   0.1394   5.8315   5.8315   8.5505   8.5505   8.5717   8.5717

          k =-0.5000-0.1925 0.0000 (  5302 PWs)   bands (ev):

   -16.2170 -16.2170 -14.1190 -14.1190  -8.4539  -8.4539  -4.0040  -4.0040
     0.4145   0.4146   6.5694   6.5694   7.4276   7.4277   8.4912   8.4915

          k =-0.5000-0.0962 0.0000 (  5283 PWs)   bands (ev):

   -16.6320 -16.6319 -12.9528 -12.9528  -9.5974  -9.5974  -4.1911  -4.1911
     0.9778   0.9779   6.7401   6.7402   7.8039   7.8043   8.4632   8.4636

          k =-0.5000 0.0000 0.0000 (  5268 PWs)   bands (ev):

   -16.7793 -16.7793 -12.0807 -12.0807 -10.5018 -10.5018  -4.2749  -4.2749
     1.2744   1.2745   6.5092   6.5093   7.5761   7.5764   8.8739   8.8746

          k =-0.5000 0.0962 0.0000 (  5283 PWs)   bands (ev):

   -16.6320 -16.6319 -12.9528 -12.9528  -9.5974  -9.5974  -4.1911  -4.1911
     0.9778   0.9779   6.7401   6.7402   7.8039   7.8043   8.4632   8.4636

          k =-0.5000 0.1925 0.0000 (  5302 PWs)   bands (ev):

   -16.2171 -16.2170 -14.1190 -14.1190  -8.4539  -8.4539  -4.0040  -4.0040
     0.4145   0.4146   6.5694   6.5694   7.4276   7.4277   8.4912   8.4915

          k =-0.5000-0.8660 0.0000 (  5288 PWs)   bands (ev):

   -15.8232 -15.8232 -14.7806 -14.7806  -7.9701  -7.9701  -3.8977  -3.8977
     0.1394   0.1394   5.8315   5.8315   8.5505   8.5505   8.5717   8.5717

     the Fermi energy is    -1.53854366 ev

!    total energy              =     -36.88809053 Ry
     total all-electron energy =      -152.416363 Ry
     estimated scf accuracy    <          3.2E-09 Ry
     smearing contrib. (-TS)   =      -0.00003134 Ry
     internal energy E=F+TS    =     -36.88805919 Ry

     The total energy is F=E-TS. E is the sum of the following terms:
     one-electron contribution =    -156.61348994 Ry
     hartree contribution      =      79.92328476 Ry
     xc contribution           =      -9.27178221 Ry
     ewald contribution        =      61.40972547 Ry
     electric field correction =      -0.00149320 Ry
     one-center paw contrib.   =     -12.33430407 Ry

     convergence has been achieved in  15 iterations

     negative rho (up, down):  3.525E-05 0.000E+00

     Forces acting on atoms (cartesian axes, Ry/au):

     atom    1 type  1   force =    -0.00000102   -0.00000107    0.00000041
     atom    2 type  1   force =     0.00000102    0.00000107   -0.00000041

     Total force =     0.000002     Total SCF correction =     0.000003
     SCF correction compared to forces is large: reduce conv_thr to get better values

     Writing all to output data dir ../tmp/graphene.save/ :
     XML data file, charge density, pseudopotentials, collected wavefunctions
 
     init_run     :      0.49s CPU      0.54s WALL (       1 calls)
     electrons    :     23.15s CPU     24.18s WALL (       1 calls)
     forces       :      0.07s CPU      0.07s WALL (       1 calls)

     Called by init_run:
     wfcinit      :      0.41s CPU      0.44s WALL (       1 calls)
     potinit      :      0.02s CPU      0.03s WALL (       1 calls)
     hinit0       :      0.01s CPU      0.02s WALL (       1 calls)

     Called by electrons:
     c_bands      :     19.28s CPU     20.06s WALL (      15 calls)
     sum_band     :      3.25s CPU      3.40s WALL (      15 calls)
     v_of_rho     :      0.13s CPU      0.15s WALL (      16 calls)
     newd         :      0.23s CPU      0.23s WALL (      16 calls)
     PAW_pot      :      0.14s CPU      0.14s WALL (      16 calls)
     mix_rho      :      0.09s CPU      0.09s WALL (      15 calls)

     Called by c_bands:
     init_us_2    :      0.15s CPU      0.16s WALL (    2368 calls)
     cegterg      :     18.57s CPU     19.30s WALL (    1110 calls)

     Called by *egterg:
     cdiaghg      :      2.45s CPU      2.50s WALL (    3811 calls)
     h_psi        :     14.46s CPU     15.11s WALL (    3885 calls)
     s_psi        :      0.25s CPU      0.26s WALL (    3885 calls)
     g_psi        :      0.05s CPU      0.05s WALL (    2701 calls)

     Called by h_psi:
     h_psi:calbec :      0.39s CPU      0.41s WALL (    3885 calls)
     vloc_psi     :     13.65s CPU     14.26s WALL (    3885 calls)
     add_vuspsi   :      0.29s CPU      0.30s WALL (    3885 calls)

     General routines
     calbec       :      0.48s CPU      0.50s WALL (    5291 calls)
     fft          :      0.16s CPU      0.17s WALL (     397 calls)
     ffts         :      0.01s CPU      0.01s WALL (     124 calls)
     fftw         :     11.94s CPU     12.49s WALL (  226176 calls)
     interpolate  :      0.02s CPU      0.02s WALL (      64 calls)
 
     Parallel routines
 
     PWSCF        :     23.99s CPU     27.76s WALL

 
   This run was terminated on:   2:24:28  29Jan2026            

=------------------------------------------------------------------------------=
   JOB DONE.
=------------------------------------------------------------------------------=
