
     Program PWSCF v.7.4.1 starts on 29Jan2026 at  2:20:49 

     This program is part of the open-source Quantum ESPRESSO suite
     for quantum simulation of materials; please cite
         "P. Giannozzi et al., J. Phys.:Condens. Matter 21 395502 (2009);
         "P. Giannozzi et al., J. Phys.:Condens. Matter 29 465901 (2017);
         "P. Giannozzi et al., J. Chem. Phys. 152 154105 (2020);
          URL http://www.quantum-espresso.org", 
     in publications or presentations arising from this work. More details at
     http://www.quantum-espresso.org/quote

     Parallel version (MPI), running on    20 processors

     MPI processes distributed on     1 nodes
     114231 MiB available memory on the printing compute node when the environment starts
 
     Reading input from grap_SOC_scf.in

     Current dimensions of program PWSCF are:
     Max number of different atomic species (ntypx) = 10
     Max number of k-points (npk) =  40000
     Max angular momentum in pseudopotentials (lmaxx) =  4
     Presently stress not available with electric field and gates

     file C.rel-pbe-n-kjpaw_psl.1.0.0.UPF: wavefunction(s)  2S 2P 2P renormalized
 
     R & G space division:  proc/nbgrp/npool/nimage =      20
     Subspace diagonalization in iterative solution of the eigenvalue problem:
     a serial algorithm will be used

 
     Parallelization info
     --------------------
     sticks:   dense  smooth     PW     G-vecs:    dense   smooth      PW
     Min          52      21      6                 8339     2113     392
     Max          57      22      7                 8350     2140     425
     Sum        1045     421    139               166859    42343    8205
 
     Using Slab Decomposition
 


     bravais-lattice index     =            0
     lattice parameter (alat)  =       4.6624  a.u.
     unit-cell volume          =     533.6317 (a.u.)^3
     number of atoms/cell      =            2
     number of atomic types    =            1
     number of electrons       =         8.00
     number of Kohn-Sham states=           16
     kinetic-energy cutoff     =      70.0000  Ry
     charge density cutoff     =     700.0000  Ry
     scf convergence threshold =      1.0E-08
     mixing beta               =       0.1000
     number of iterations used =            8  plain     mixing
     Exchange-correlation= SLA  PW   PBX  PBC
                           (   1   4   3   4   0   0   0)
     Non magnetic calculation with spin-orbit


     celldm(1)=   4.662410  celldm(2)=   0.000000  celldm(3)=   0.000000
     celldm(4)=   0.000000  celldm(5)=   0.000000  celldm(6)=   0.000000

     crystal axes: (cart. coord. in units of alat)
               a(1) = (   1.000000   0.000000   0.000000 )  
               a(2) = (  -0.500000   0.866025   0.000000 )  
               a(3) = (   0.000000   0.000000   6.079666 )  

     reciprocal axes: (cart. coord. in units 2 pi/alat)
               b(1) = (  1.000000  0.577350  0.000000 )  
               b(2) = (  0.000000  1.154701  0.000000 )  
               b(3) = (  0.000000  0.000000  0.164483 )  


     PseudoPot. # 1 for C  read from file:
     ../../../PP_C/C.rel-pbe-n-kjpaw_psl.1.0.0.UPF
     MD5 check sum: dd2b8f743de1f3a10095e4114fb28074
     Pseudo is Projector augmented-wave + core cor, Zval =  4.0
     Generated using &quot;atomic&quot; code by A. Dal Corso  v.6.3
     Shape of augmentation charge: PSQ
     Using radial grid of 1073 points,  6 beta functions with: 
                l(1) =   0
                l(2) =   0
                l(3) =   1
                l(4) =   1
                l(5) =   1
                l(6) =   1
     Q(r) pseudized with 0 coefficients 


     atomic species   valence    mass     pseudopotential
     C                 4.00    12.01100     C ( 1.00)

     No symmetry found



   Cartesian axes

     site n.     atom                  positions (alat units)
         1        C      tau(   1) = (   0.0000000   0.0000000   3.0398328  )
         2        C      tau(   2) = (   0.0000000   0.5773503   3.0398328  )

     number of k points=    74  Gaussian smearing, width (Ry)=  0.0020
                       cart. coord. in units 2pi/alat
        k(    1) = (   0.0000000   0.0000000   0.0000000), wk =   0.0069444
        k(    2) = (   0.0000000   0.0962250   0.0000000), wk =   0.0138889
        k(    3) = (   0.0000000   0.1924501   0.0000000), wk =   0.0138889
        k(    4) = (   0.0000000   0.2886751   0.0000000), wk =   0.0138889
        k(    5) = (   0.0000000   0.3849002   0.0000000), wk =   0.0138889
        k(    6) = (   0.0000000   0.4811252   0.0000000), wk =   0.0138889
        k(    7) = (   0.0000000  -0.5773503   0.0000000), wk =   0.0069444
        k(    8) = (   0.0833333   0.0481125   0.0000000), wk =   0.0138889
        k(    9) = (   0.0833333   0.1443376   0.0000000), wk =   0.0138889
        k(   10) = (   0.0833333   0.2405626   0.0000000), wk =   0.0138889
        k(   11) = (   0.0833333   0.3367877   0.0000000), wk =   0.0138889
        k(   12) = (   0.0833333   0.4330127   0.0000000), wk =   0.0138889
        k(   13) = (   0.0833333   0.5292377   0.0000000), wk =   0.0138889
        k(   14) = (   0.0833333  -0.5292377   0.0000000), wk =   0.0138889
        k(   15) = (   0.0833333  -0.4330127   0.0000000), wk =   0.0138889
        k(   16) = (   0.0833333  -0.3367877   0.0000000), wk =   0.0138889
        k(   17) = (   0.0833333  -0.2405626   0.0000000), wk =   0.0138889
        k(   18) = (   0.0833333  -0.1443376   0.0000000), wk =   0.0138889
        k(   19) = (   0.0833333  -0.0481125   0.0000000), wk =   0.0138889
        k(   20) = (   0.1666667   0.0962250   0.0000000), wk =   0.0138889
        k(   21) = (   0.1666667   0.1924501   0.0000000), wk =   0.0138889
        k(   22) = (   0.1666667   0.2886751   0.0000000), wk =   0.0138889
        k(   23) = (   0.1666667   0.3849002   0.0000000), wk =   0.0138889
        k(   24) = (   0.1666667   0.4811252   0.0000000), wk =   0.0138889
        k(   25) = (   0.1666667   0.5773503   0.0000000), wk =   0.0138889
        k(   26) = (   0.1666667  -0.4811252   0.0000000), wk =   0.0138889
        k(   27) = (   0.1666667  -0.3849002   0.0000000), wk =   0.0138889
        k(   28) = (   0.1666667  -0.2886751   0.0000000), wk =   0.0138889
        k(   29) = (   0.1666667  -0.1924501   0.0000000), wk =   0.0138889
        k(   30) = (   0.1666667  -0.0962250   0.0000000), wk =   0.0138889
        k(   31) = (   0.1666667  -0.0000000   0.0000000), wk =   0.0138889
        k(   32) = (   0.2500000   0.1443376   0.0000000), wk =   0.0138889
        k(   33) = (   0.2500000   0.2405626   0.0000000), wk =   0.0138889
        k(   34) = (   0.2500000   0.3367877   0.0000000), wk =   0.0138889
        k(   35) = (   0.2500000   0.4330127   0.0000000), wk =   0.0138889
        k(   36) = (   0.2500000   0.5292377   0.0000000), wk =   0.0138889
        k(   37) = (   0.2500000   0.6254628   0.0000000), wk =   0.0138889
        k(   38) = (   0.2500000  -0.4330127   0.0000000), wk =   0.0138889
        k(   39) = (   0.2500000  -0.3367877   0.0000000), wk =   0.0138889
        k(   40) = (   0.2500000  -0.2405626   0.0000000), wk =   0.0138889
        k(   41) = (   0.2500000  -0.1443376   0.0000000), wk =   0.0138889
        k(   42) = (   0.2500000  -0.0481125   0.0000000), wk =   0.0138889
        k(   43) = (   0.2500000   0.0481125   0.0000000), wk =   0.0138889
        k(   44) = (   0.3333333   0.1924501   0.0000000), wk =   0.0138889
        k(   45) = (   0.3333333   0.2886751   0.0000000), wk =   0.0138889
        k(   46) = (   0.3333333   0.3849002   0.0000000), wk =   0.0138889
        k(   47) = (   0.3333333   0.4811252   0.0000000), wk =   0.0138889
        k(   48) = (   0.3333333   0.5773503   0.0000000), wk =   0.0138889
        k(   49) = (   0.3333333   0.6735753   0.0000000), wk =   0.0138889
        k(   50) = (   0.3333333  -0.3849002   0.0000000), wk =   0.0138889
        k(   51) = (   0.3333333  -0.2886751   0.0000000), wk =   0.0138889
        k(   52) = (   0.3333333  -0.1924501   0.0000000), wk =   0.0138889
        k(   53) = (   0.3333333  -0.0962250   0.0000000), wk =   0.0138889
        k(   54) = (   0.3333333  -0.0000000   0.0000000), wk =   0.0138889
        k(   55) = (   0.3333333   0.0962250   0.0000000), wk =   0.0138889
        k(   56) = (   0.4166667   0.2405626   0.0000000), wk =   0.0138889
        k(   57) = (   0.4166667   0.3367877   0.0000000), wk =   0.0138889
        k(   58) = (   0.4166667   0.4330127   0.0000000), wk =   0.0138889
        k(   59) = (   0.4166667   0.5292377   0.0000000), wk =   0.0138889
        k(   60) = (   0.4166667   0.6254628   0.0000000), wk =   0.0138889
        k(   61) = (   0.4166667   0.7216878   0.0000000), wk =   0.0138889
        k(   62) = (   0.4166667  -0.3367877   0.0000000), wk =   0.0138889
        k(   63) = (   0.4166667  -0.2405626   0.0000000), wk =   0.0138889
        k(   64) = (   0.4166667  -0.1443376   0.0000000), wk =   0.0138889
        k(   65) = (   0.4166667  -0.0481125   0.0000000), wk =   0.0138889
        k(   66) = (   0.4166667   0.0481125   0.0000000), wk =   0.0138889
        k(   67) = (   0.4166667   0.1443376   0.0000000), wk =   0.0138889
        k(   68) = (  -0.5000000  -0.2886751   0.0000000), wk =   0.0069444
        k(   69) = (  -0.5000000  -0.1924501   0.0000000), wk =   0.0138889
        k(   70) = (  -0.5000000  -0.0962250   0.0000000), wk =   0.0138889
        k(   71) = (  -0.5000000   0.0000000   0.0000000), wk =   0.0138889
        k(   72) = (  -0.5000000   0.0962250   0.0000000), wk =   0.0138889
        k(   73) = (  -0.5000000   0.1924501   0.0000000), wk =   0.0138889
        k(   74) = (  -0.5000000  -0.8660254   0.0000000), wk =   0.0069444

     Dense  grid:   166859 G-vectors     FFT dimensions: (  40,  40, 240)

     Smooth grid:    42343 G-vectors     FFT dimensions: (  25,  25, 160)

     Estimated max dynamical RAM per process >      40.42 MB

     Estimated total dynamical RAM >     808.50 MB

     Initial potential from superposition of free atoms

     starting charge       7.9999, renormalised to       8.0000

     negative rho (up, down):  2.223E-05 0.000E+00
 
     Adding external electric field

     Computed dipole along edir(3) : 
        Dipole               -0.0000 Ry au,         -0.0000 Debye
        Dipole field         -0.0000 Ry au, 
 
        E field amplitude [Ha a.u.]:  2.9170E-03
        Potential amp.        0.1571 Ry
        Total length         26.9286 bohr
 
     Starting wfcs are random
     Checking if some PAW data can be deallocated... 

     total cpu time spent up to now is        0.7 secs

     per-process dynamical memory:    53.7 Mb

     Self-consistent Calculation

     iteration #  1     ecut=    70.00 Ry     beta= 0.10
     Davidson diagonalization with overlap
     ethr =  1.00E-02,  avg # of iterations =  8.4

     negative rho (up, down):  2.172E-05 0.000E+00
 
     Adding external electric field

     Computed dipole along edir(3) : 
        Dipole                0.0037 Ry au,          0.0094 Debye
        Dipole field          0.0001 Ry au, 
 
        E field amplitude [Ha a.u.]:  2.9170E-03
        Potential amp.        0.1524 Ry
        Total length         26.9286 bohr
 

     total cpu time spent up to now is        5.9 secs

     total energy              =     -36.95133933 Ry
     estimated scf accuracy    <       0.20307052 Ry

     iteration #  2     ecut=    70.00 Ry     beta= 0.10
     Davidson diagonalization with overlap
     ethr =  2.54E-03,  avg # of iterations =  1.0

     negative rho (up, down):  2.701E-05 0.000E+00
 
     Adding external electric field

     Computed dipole along edir(3) : 
        Dipole                0.0231 Ry au,          0.0588 Debye
        Dipole field          0.0005 Ry au, 
 
        E field amplitude [Ha a.u.]:  2.9170E-03
        Potential amp.        0.1277 Ry
        Total length         26.9286 bohr
 

     total cpu time spent up to now is        7.1 secs

     total energy              =     -36.86218076 Ry
     estimated scf accuracy    <       0.14965540 Ry

     iteration #  3     ecut=    70.00 Ry     beta= 0.10
     Davidson diagonalization with overlap
     ethr =  1.87E-03,  avg # of iterations =  2.6

     negative rho (up, down):  2.684E-05 0.000E+00
 
     Adding external electric field

     Computed dipole along edir(3) : 
        Dipole                0.0177 Ry au,          0.0450 Debye
        Dipole field          0.0004 Ry au, 
 
        E field amplitude [Ha a.u.]:  2.9170E-03
        Potential amp.        0.1346 Ry
        Total length         26.9286 bohr
 

     total cpu time spent up to now is        8.6 secs

     total energy              =     -36.88693822 Ry
     estimated scf accuracy    <       0.00239880 Ry

     iteration #  4     ecut=    70.00 Ry     beta= 0.10
     Davidson diagonalization with overlap
     ethr =  3.00E-05,  avg # of iterations =  6.6

     negative rho (up, down):  2.994E-05 0.000E+00
 
     Adding external electric field

     Computed dipole along edir(3) : 
        Dipole                0.0101 Ry au,          0.0257 Debye
        Dipole field          0.0002 Ry au, 
 
        E field amplitude [Ha a.u.]:  2.9170E-03
        Potential amp.        0.1443 Ry
        Total length         26.9286 bohr
 

     total cpu time spent up to now is       11.1 secs

     total energy              =     -36.88731569 Ry
     estimated scf accuracy    <       0.00147944 Ry

     iteration #  5     ecut=    70.00 Ry     beta= 0.10
     Davidson diagonalization with overlap
     ethr =  1.85E-05,  avg # of iterations =  1.3

     negative rho (up, down):  3.409E-05 0.000E+00
 
     Adding external electric field

     Computed dipole along edir(3) : 
        Dipole                0.0158 Ry au,          0.0402 Debye
        Dipole field          0.0004 Ry au, 
 
        E field amplitude [Ha a.u.]:  2.9170E-03
        Potential amp.        0.1370 Ry
        Total length         26.9286 bohr
 

     total cpu time spent up to now is       12.3 secs

     total energy              =     -36.88741459 Ry
     estimated scf accuracy    <       0.00023153 Ry

     iteration #  6     ecut=    70.00 Ry     beta= 0.10
     Davidson diagonalization with overlap
     ethr =  2.89E-06,  avg # of iterations =  4.6

     negative rho (up, down):  3.261E-05 0.000E+00
 
     Adding external electric field

     Computed dipole along edir(3) : 
        Dipole                0.0167 Ry au,          0.0424 Debye
        Dipole field          0.0004 Ry au, 
 
        E field amplitude [Ha a.u.]:  2.9170E-03
        Potential amp.        0.1359 Ry
        Total length         26.9286 bohr
 

     total cpu time spent up to now is       14.3 secs

     total energy              =     -36.88725676 Ry
     estimated scf accuracy    <       0.00040148 Ry

     iteration #  7     ecut=    70.00 Ry     beta= 0.10
     Davidson diagonalization with overlap
     ethr =  2.89E-06,  avg # of iterations =  3.7

     negative rho (up, down):  3.317E-05 0.000E+00
 
     Adding external electric field

     Computed dipole along edir(3) : 
        Dipole                0.0171 Ry au,          0.0434 Debye
        Dipole field          0.0004 Ry au, 
 
        E field amplitude [Ha a.u.]:  2.9170E-03
        Potential amp.        0.1354 Ry
        Total length         26.9286 bohr
 

     total cpu time spent up to now is       16.1 secs

     total energy              =     -36.88733696 Ry
     estimated scf accuracy    <       0.00001044 Ry

     iteration #  8     ecut=    70.00 Ry     beta= 0.10
     Davidson diagonalization with overlap
     ethr =  1.30E-07,  avg # of iterations =  2.0

     negative rho (up, down):  3.340E-05 0.000E+00
 
     Adding external electric field

     Computed dipole along edir(3) : 
        Dipole                0.0174 Ry au,          0.0442 Debye
        Dipole field          0.0004 Ry au, 
 
        E field amplitude [Ha a.u.]:  2.9170E-03
        Potential amp.        0.1351 Ry
        Total length         26.9286 bohr
 

     total cpu time spent up to now is       17.4 secs

     total energy              =     -36.88733852 Ry
     estimated scf accuracy    <       0.00000071 Ry

     iteration #  9     ecut=    70.00 Ry     beta= 0.10
     Davidson diagonalization with overlap
     ethr =  8.88E-09,  avg # of iterations =  2.0

     negative rho (up, down):  3.379E-05 0.000E+00
 
     Adding external electric field

     Computed dipole along edir(3) : 
        Dipole                0.0170 Ry au,          0.0432 Debye
        Dipole field          0.0004 Ry au, 
 
        E field amplitude [Ha a.u.]:  2.9170E-03
        Potential amp.        0.1355 Ry
        Total length         26.9286 bohr
 

     total cpu time spent up to now is       18.9 secs

     total energy              =     -36.88733865 Ry
     estimated scf accuracy    <       0.00000076 Ry

     iteration # 10     ecut=    70.00 Ry     beta= 0.10
     Davidson diagonalization with overlap
     ethr =  8.88E-09,  avg # of iterations =  2.0

     negative rho (up, down):  3.401E-05 0.000E+00
 
     Adding external electric field

     Computed dipole along edir(3) : 
        Dipole                0.0171 Ry au,          0.0435 Debye
        Dipole field          0.0004 Ry au, 
 
        E field amplitude [Ha a.u.]:  2.9170E-03
        Potential amp.        0.1354 Ry
        Total length         26.9286 bohr
 

     total cpu time spent up to now is       20.1 secs

     total energy              =     -36.88733873 Ry
     estimated scf accuracy    <       0.00000023 Ry

     iteration # 11     ecut=    70.00 Ry     beta= 0.10
     Davidson diagonalization with overlap
     ethr =  2.90E-09,  avg # of iterations =  1.0

     negative rho (up, down):  3.548E-05 0.000E+00
 
     Adding external electric field

     Computed dipole along edir(3) : 
        Dipole                0.0173 Ry au,          0.0439 Debye
        Dipole field          0.0004 Ry au, 
 
        E field amplitude [Ha a.u.]:  2.9170E-03
        Potential amp.        0.1352 Ry
        Total length         26.9286 bohr
 

     total cpu time spent up to now is       21.3 secs

     End of self-consistent calculation

          k = 0.0000 0.0000 0.0000 (  5307 PWs)   bands (ev):

   -21.1914 -21.1914  -9.2880  -9.2880  -4.7342  -4.7342  -4.7250  -4.7250
     1.4555   1.4555   2.4177   2.4177   2.7344   2.7344   4.8482   4.8482

          k = 0.0000 0.0962 0.0000 (  5285 PWs)   bands (ev):

   -21.0277 -21.0277  -9.0922  -9.0922  -5.3803  -5.3803  -5.0675  -5.0675
     1.6792   1.6792   2.6420   2.6420   2.9603   2.9603   5.0713   5.0713

          k = 0.0000 0.1925 0.0000 (  5253 PWs)   bands (ev):

   -20.5382 -20.5381  -8.5103  -8.5103  -7.0177  -7.0177  -5.8591  -5.8591
     2.3503   2.3503   3.3142   3.3143   3.6373   3.6373   5.7378   5.7378

          k = 0.0000 0.2887 0.0000 (  5269 PWs)   bands (ev):

   -19.7287 -19.7287  -9.1152  -9.1152  -7.5614  -7.5614  -6.7381  -6.7381
     3.4660   3.4661   4.4244   4.4246   4.7519   4.7520   5.5785   5.5785

          k = 0.0000 0.3849 0.0000 (  5285 PWs)   bands (ev):

   -18.6114 -18.6114 -11.3171 -11.3171  -7.4709  -7.4709  -6.2957  -6.2957
     3.2287   3.2287   5.0216   5.0217   5.9421   5.9428   6.1009   6.1016

          k = 0.0000 0.4811 0.0000 (  5290 PWs)   bands (ev):

   -17.2177 -17.2177 -13.4151 -13.4151  -7.9435  -7.9435  -4.8762  -4.8761
     1.0992   1.0992   5.7750   5.7750   7.0322   7.0323   8.0082   8.0085

          k = 0.0000-0.5774 0.0000 (  5288 PWs)   bands (ev):

   -15.9590 -15.9590 -14.9165 -14.9165  -8.1057  -8.1057  -4.0338  -4.0338
     0.0044   0.0044   5.6954   5.6954   9.3593   9.3594   9.4834   9.4834

          k = 0.0833 0.0481 0.0000 (  5285 PWs)   bands (ev):

   -21.0277 -21.0277  -9.0922  -9.0922  -5.3803  -5.3803  -5.0675  -5.0675
     1.6792   1.6792   2.6420   2.6420   2.9603   2.9603   5.0713   5.0713

          k = 0.0833 0.1443 0.0000 (  5269 PWs)   bands (ev):

   -20.7010 -20.7010  -8.7033  -8.7033  -6.4141  -6.4141  -5.7441  -5.7441
     2.1268   2.1268   3.0904   3.0905   3.4119   3.4119   5.5168   5.5168

          k = 0.0833 0.2406 0.0000 (  5261 PWs)   bands (ev):

   -20.0515 -20.0515  -8.1235  -8.1235  -7.9367  -7.9367  -6.7412  -6.7412
     3.0210   3.0211   3.9854   3.9855   4.3128   4.3129   6.3437   6.3437

          k = 0.0833 0.3368 0.0000 (  5275 PWs)   bands (ev):

   -19.0880 -19.0880 -10.1954 -10.1954  -7.6269  -7.6269  -6.8229  -6.8229
     4.2277   4.2278   4.3715   4.3717   5.3358   5.3361   5.6727   5.6729

          k = 0.0833 0.4330 0.0000 (  5284 PWs)   bands (ev):

   -17.8293 -17.8293 -12.3164 -12.3164  -8.2614  -8.2614  -5.4462  -5.4462
     2.0434   2.0434   6.1192   6.1195   6.6146   6.6148   7.1210   7.1212

          k = 0.0833 0.5292 0.0000 (  5302 PWs)   bands (ev):

   -16.3528 -16.3528 -14.2548 -14.2548  -8.5896  -8.5896  -4.1401  -4.1401
     0.2794   0.2794   6.4335   6.4335   8.3354   8.3356   9.2832   9.2837

          k = 0.0833-0.5292 0.0000 (  5302 PWs)   bands (ev):

   -16.3528 -16.3528 -14.2548 -14.2548  -8.5896  -8.5896  -4.1401  -4.1401
     0.2794   0.2794   6.4335   6.4335   8.3354   8.3356   9.2832   9.2837

          k = 0.0833-0.4330 0.0000 (  5284 PWs)   bands (ev):

   -17.8293 -17.8293 -12.3164 -12.3164  -8.2614  -8.2614  -5.4462  -5.4462
     2.0434   2.0434   6.1192   6.1195   6.6146   6.6148   7.1210   7.1211

          k = 0.0833-0.3368 0.0000 (  5275 PWs)   bands (ev):

   -19.0880 -19.0880 -10.1954 -10.1954  -7.6269  -7.6269  -6.8229  -6.8229
     4.2277   4.2278   4.3715   4.3717   5.3358   5.3361   5.6727   5.6729

          k = 0.0833-0.2406 0.0000 (  5261 PWs)   bands (ev):

   -20.0515 -20.0515  -8.1235  -8.1235  -7.9367  -7.9367  -6.7412  -6.7412
     3.0210   3.0211   3.9854   3.9855   4.3128   4.3129   6.3437   6.3437

          k = 0.0833-0.1443 0.0000 (  5269 PWs)   bands (ev):

   -20.7010 -20.7010  -8.7033  -8.7033  -6.4141  -6.4141  -5.7441  -5.7441
     2.1268   2.1268   3.0904   3.0905   3.4119   3.4119   5.5168   5.5168

          k = 0.0833-0.0481 0.0000 (  5285 PWs)   bands (ev):

   -21.0277 -21.0277  -9.0922  -9.0922  -5.3803  -5.3803  -5.0675  -5.0675
     1.6792   1.6792   2.6420   2.6420   2.9603   2.9603   5.0713   5.0713

          k = 0.1667 0.0962 0.0000 (  5253 PWs)   bands (ev):

   -20.5382 -20.5381  -8.5103  -8.5103  -7.0177  -7.0176  -5.8591  -5.8591
     2.3503   2.3503   3.3142   3.3143   3.6373   3.6373   5.7378   5.7378

          k = 0.1667 0.1925 0.0000 (  5261 PWs)   bands (ev):

   -20.0515 -20.0515  -8.1235  -8.1235  -7.9367  -7.9367  -6.7412  -6.7412
     3.0210   3.0211   3.9854   3.9855   4.3128   4.3129   6.3437   6.3438

          k = 0.1667 0.2887 0.0000 (  5288 PWs)   bands (ev):

   -19.2480 -19.2480  -9.4542  -9.4542  -8.1015  -8.1015  -7.0013  -7.0013
     4.1368   4.1369   4.6929   4.6929   5.1004   5.1006   5.4360   5.4361

          k = 0.1667 0.3849 0.0000 (  5285 PWs)   bands (ev):

   -18.1415 -18.1415 -11.1802 -11.1802  -9.1572  -9.1572  -5.7508  -5.7508
     2.7498   2.7499   5.6902   5.6904   6.6444   6.6447   6.9974   6.9976

          k = 0.1667 0.4811 0.0000 (  5283 PWs)   bands (ev):

   -16.7678 -16.7678 -13.0885 -13.0885  -9.7331  -9.7331  -4.3271  -4.3271
     0.8422   0.8422   7.6564   7.6566   8.3288   8.3294   8.5667   8.5673

          k = 0.1667 0.5774 0.0000 (  5264 PWs)   bands (ev):

   -15.5378 -15.5378 -14.5188 -14.5188  -9.9180  -9.9180  -3.4366  -3.4366
    -0.2232  -0.2232   8.2401   8.2401   9.8408   9.8409   9.9335   9.9336

          k = 0.1667-0.4811 0.0000 (  5283 PWs)   bands (ev):

   -16.7678 -16.7678 -13.0885 -13.0885  -9.7331  -9.7331  -4.3271  -4.3271
     0.8422   0.8422   7.6564   7.6566   8.3288   8.3293   8.5667   8.5672

          k = 0.1667-0.3849 0.0000 (  5285 PWs)   bands (ev):

   -18.1415 -18.1415 -11.1802 -11.1802  -9.1572  -9.1572  -5.7508  -5.7508
     2.7498   2.7499   5.6902   5.6904   6.6444   6.6447   6.9974   6.9976

          k = 0.1667-0.2887 0.0000 (  5288 PWs)   bands (ev):

   -19.2480 -19.2480  -9.4542  -9.4542  -8.1015  -8.1015  -7.0013  -7.0013
     4.1368   4.1369   4.6929   4.6929   5.1004   5.1006   5.4360   5.4361

          k = 0.1667-0.1925 0.0000 (  5261 PWs)   bands (ev):

   -20.0515 -20.0515  -8.1235  -8.1235  -7.9367  -7.9367  -6.7412  -6.7412
     3.0210   3.0211   3.9854   3.9855   4.3128   4.3129   6.3437   6.3437

          k = 0.1667-0.0962 0.0000 (  5253 PWs)   bands (ev):

   -20.5382 -20.5381  -8.5103  -8.5103  -7.0177  -7.0177  -5.8591  -5.8591
     2.3503   2.3503   3.3142   3.3143   3.6373   3.6373   5.7378   5.7378

          k = 0.1667-0.0000 0.0000 (  5269 PWs)   bands (ev):

   -20.7010 -20.7010  -8.7033  -8.7033  -6.4141  -6.4141  -5.7441  -5.7441
     2.1268   2.1268   3.0904   3.0905   3.4119   3.4119   5.5168   5.5168

          k = 0.2500 0.1443 0.0000 (  5269 PWs)   bands (ev):

   -19.7287 -19.7287  -9.1152  -9.1152  -7.5614  -7.5614  -6.7381  -6.7381
     3.4660   3.4661   4.4244   4.4246   4.7519   4.7520   5.5785   5.5785

          k = 0.2500 0.2406 0.0000 (  5275 PWs)   bands (ev):

   -19.0880 -19.0880 -10.1954 -10.1954  -7.6269  -7.6269  -6.8229  -6.8229
     4.2277   4.2278   4.3715   4.3717   5.3358   5.3361   5.6727   5.6729

          k = 0.2500 0.3368 0.0000 (  5285 PWs)   bands (ev):

   -18.1415 -18.1415 -11.1802 -11.1802  -9.1572  -9.1572  -5.7508  -5.7508
     2.7498   2.7499   5.6902   5.6904   6.6444   6.6447   6.9974   6.9976

          k = 0.2500 0.4330 0.0000 (  5268 PWs)   bands (ev):

   -16.9151 -16.9151 -12.2165 -12.2165 -10.6376 -10.6376  -4.4108  -4.4108
     1.1384   1.1384   7.4394   7.4396   8.2765   8.2769   8.7303   8.7305

          k = 0.2500 0.5292 0.0000 (  5282 PWs)   bands (ev):

   -15.4955 -15.4955 -13.6353 -13.6353 -11.3449 -11.3449  -3.0281  -3.0281
    -0.3786  -0.3786   9.1636   9.1639   9.6194   9.6197  10.4991  10.4992

          k = 0.2500 0.6255 0.0000 (  5282 PWs)   bands (ev):

   -15.4955 -15.4955 -13.6353 -13.6353 -11.3449 -11.3449  -3.0281  -3.0281
    -0.3786  -0.3786   9.1636   9.1639   9.6194   9.6197  10.4991  10.4992

          k = 0.2500-0.4330 0.0000 (  5268 PWs)   bands (ev):

   -16.9151 -16.9151 -12.2165 -12.2165 -10.6376 -10.6376  -4.4108  -4.4108
     1.1384   1.1384   7.4394   7.4396   8.2765   8.2769   8.7303   8.7304

          k = 0.2500-0.3368 0.0000 (  5285 PWs)   bands (ev):

   -18.1415 -18.1415 -11.1802 -11.1802  -9.1572  -9.1572  -5.7508  -5.7508
     2.7498   2.7499   5.6902   5.6904   6.6444   6.6447   6.9974   6.9976

          k = 0.2500-0.2406 0.0000 (  5275 PWs)   bands (ev):

   -19.0880 -19.0880 -10.1954 -10.1954  -7.6269  -7.6269  -6.8229  -6.8229
     4.2277   4.2278   4.3715   4.3717   5.3358   5.3361   5.6727   5.6729

          k = 0.2500-0.1443 0.0000 (  5269 PWs)   bands (ev):

   -19.7287 -19.7287  -9.1152  -9.1152  -7.5614  -7.5613  -6.7381  -6.7381
     3.4660   3.4661   4.4244   4.4246   4.7519   4.7520   5.5785   5.5785

          k = 0.2500-0.0481 0.0000 (  5261 PWs)   bands (ev):

   -20.0515 -20.0515  -8.1235  -8.1235  -7.9367  -7.9367  -6.7412  -6.7412
     3.0210   3.0211   3.9854   3.9855   4.3128   4.3129   6.3436   6.3437

          k = 0.2500 0.0481 0.0000 (  5261 PWs)   bands (ev):

   -20.0515 -20.0515  -8.1235  -8.1235  -7.9367  -7.9367  -6.7412  -6.7412
     3.0210   3.0211   3.9854   3.9855   4.3128   4.3129   6.3437   6.3437

          k = 0.3333 0.1925 0.0000 (  5285 PWs)   bands (ev):

   -18.6114 -18.6114 -11.3171 -11.3171  -7.4709  -7.4709  -6.2957  -6.2957
     3.2287   3.2287   5.0216   5.0217   5.9421   5.9428   6.1009   6.1016

          k = 0.3333 0.2887 0.0000 (  5284 PWs)   bands (ev):

   -17.8293 -17.8293 -12.3164 -12.3164  -8.2614  -8.2614  -5.4462  -5.4462
     2.0434   2.0435   6.1192   6.1195   6.6146   6.6148   7.1209   7.1211

          k = 0.3333 0.3849 0.0000 (  5283 PWs)   bands (ev):

   -16.7678 -16.7678 -13.0885 -13.0885  -9.7331  -9.7331  -4.3271  -4.3271
     0.8422   0.8422   7.6564   7.6566   8.3288   8.3293   8.5667   8.5672

          k = 0.3333 0.4811 0.0000 (  5282 PWs)   bands (ev):

   -15.4955 -15.4955 -13.6353 -13.6353 -11.3449 -11.3449  -3.0281  -3.0281
    -0.3786  -0.3786   9.1636   9.1639   9.6194   9.6197  10.4991  10.4992

          k = 0.3333 0.5774 0.0000 (  5292 PWs)   bands (ev):

   -14.2816 -14.2816 -14.2795 -14.2795 -12.2362 -12.2362  -1.6747  -1.6747
    -1.6746  -1.6746   8.9356   8.9356  11.1797  11.1800  11.1838  11.1838

          k = 0.3333 0.6736 0.0000 (  5282 PWs)   bands (ev):

   -15.4955 -15.4955 -13.6353 -13.6353 -11.3449 -11.3449  -3.0281  -3.0281
    -0.3786  -0.3786   9.1636   9.1639   9.6194   9.6197  10.4991  10.4992

          k = 0.3333-0.3849 0.0000 (  5283 PWs)   bands (ev):

   -16.7678 -16.7678 -13.0885 -13.0885  -9.7331  -9.7331  -4.3271  -4.3271
     0.8422   0.8422   7.6564   7.6566   8.3288   8.3293   8.5667   8.5672

          k = 0.3333-0.2887 0.0000 (  5284 PWs)   bands (ev):

   -17.8293 -17.8293 -12.3164 -12.3164  -8.2614  -8.2614  -5.4462  -5.4462
     2.0434   2.0434   6.1192   6.1195   6.6146   6.6148   7.1210   7.1211

          k = 0.3333-0.1925 0.0000 (  5285 PWs)   bands (ev):

   -18.6114 -18.6114 -11.3171 -11.3171  -7.4709  -7.4709  -6.2957  -6.2957
     3.2287   3.2287   5.0216   5.0217   5.9421   5.9428   6.1009   6.1016

          k = 0.3333-0.0962 0.0000 (  5275 PWs)   bands (ev):

   -19.0880 -19.0880 -10.1954 -10.1954  -7.6269  -7.6269  -6.8229  -6.8229
     4.2277   4.2278   4.3715   4.3717   5.3358   5.3361   5.6727   5.6729

          k = 0.3333-0.0000 0.0000 (  5288 PWs)   bands (ev):

   -19.2480 -19.2480  -9.4542  -9.4542  -8.1015  -8.1015  -7.0013  -7.0013
     4.1368   4.1369   4.6929   4.6929   5.1004   5.1006   5.4360   5.4361

          k = 0.3333 0.0962 0.0000 (  5275 PWs)   bands (ev):

   -19.0880 -19.0880 -10.1954 -10.1954  -7.6269  -7.6269  -6.8229  -6.8229
     4.2277   4.2278   4.3715   4.3717   5.3358   5.3361   5.6727   5.6729

          k = 0.4167 0.2406 0.0000 (  5290 PWs)   bands (ev):

   -17.2177 -17.2177 -13.4151 -13.4151  -7.9435  -7.9435  -4.8762  -4.8761
     1.0992   1.0992   5.7750   5.7750   7.0322   7.0323   8.0082   8.0085

          k = 0.4167 0.3368 0.0000 (  5302 PWs)   bands (ev):

   -16.3528 -16.3528 -14.2548 -14.2548  -8.5896  -8.5896  -4.1401  -4.1401
     0.2794   0.2794   6.4335   6.4335   8.3354   8.3356   9.2832   9.2837

          k = 0.4167 0.4330 0.0000 (  5264 PWs)   bands (ev):

   -15.5378 -15.5378 -14.5188 -14.5188  -9.9180  -9.9180  -3.4366  -3.4366
    -0.2232  -0.2232   8.2401   8.2401   9.8408   9.8409   9.9335   9.9336

          k = 0.4167 0.5292 0.0000 (  5282 PWs)   bands (ev):

   -15.4955 -15.4955 -13.6353 -13.6353 -11.3449 -11.3449  -3.0281  -3.0281
    -0.3786  -0.3786   9.1636   9.1639   9.6194   9.6197  10.4991  10.4992

          k = 0.4167 0.6255 0.0000 (  5282 PWs)   bands (ev):

   -15.4955 -15.4955 -13.6353 -13.6353 -11.3449 -11.3449  -3.0281  -3.0281
    -0.3786  -0.3786   9.1636   9.1639   9.6194   9.6197  10.4991  10.4992

          k = 0.4167 0.7217 0.0000 (  5264 PWs)   bands (ev):

   -15.5378 -15.5378 -14.5188 -14.5188  -9.9180  -9.9180  -3.4366  -3.4366
    -0.2232  -0.2232   8.2401   8.2401   9.8408   9.8410   9.9335   9.9336

          k = 0.4167-0.3368 0.0000 (  5302 PWs)   bands (ev):

   -16.3528 -16.3528 -14.2548 -14.2548  -8.5896  -8.5896  -4.1401  -4.1401
     0.2794   0.2794   6.4335   6.4335   8.3354   8.3356   9.2832   9.2837

          k = 0.4167-0.2406 0.0000 (  5290 PWs)   bands (ev):

   -17.2177 -17.2177 -13.4151 -13.4151  -7.9435  -7.9435  -4.8762  -4.8761
     1.0992   1.0992   5.7750   5.7750   7.0322   7.0323   8.0082   8.0085

          k = 0.4167-0.1443 0.0000 (  5284 PWs)   bands (ev):

   -17.8293 -17.8293 -12.3164 -12.3164  -8.2614  -8.2614  -5.4462  -5.4462
     2.0434   2.0434   6.1192   6.1195   6.6146   6.6148   7.1210   7.1212

          k = 0.4167-0.0481 0.0000 (  5285 PWs)   bands (ev):

   -18.1415 -18.1415 -11.1802 -11.1802  -9.1572  -9.1572  -5.7508  -5.7508
     2.7498   2.7499   5.6902   5.6904   6.6444   6.6447   6.9974   6.9976

          k = 0.4167 0.0481 0.0000 (  5285 PWs)   bands (ev):

   -18.1415 -18.1415 -11.1802 -11.1802  -9.1572  -9.1572  -5.7508  -5.7508
     2.7498   2.7499   5.6902   5.6904   6.6444   6.6447   6.9974   6.9976

          k = 0.4167 0.1443 0.0000 (  5284 PWs)   bands (ev):

   -17.8293 -17.8293 -12.3164 -12.3164  -8.2614  -8.2614  -5.4462  -5.4462
     2.0434   2.0435   6.1192   6.1195   6.6146   6.6148   7.1209   7.1211

          k =-0.5000-0.2887 0.0000 (  5288 PWs)   bands (ev):

   -15.9590 -15.9590 -14.9164 -14.9164  -8.1057  -8.1057  -4.0338  -4.0338
     0.0044   0.0044   5.6954   5.6954   9.3593   9.3594   9.4834   9.4834

          k =-0.5000-0.1925 0.0000 (  5302 PWs)   bands (ev):

   -16.3528 -16.3528 -14.2548 -14.2548  -8.5896  -8.5896  -4.1401  -4.1401
     0.2794   0.2794   6.4335   6.4335   8.3354   8.3356   9.2832   9.2837

          k =-0.5000-0.0962 0.0000 (  5283 PWs)   bands (ev):

   -16.7678 -16.7678 -13.0885 -13.0885  -9.7331  -9.7331  -4.3271  -4.3271
     0.8422   0.8422   7.6564   7.6566   8.3288   8.3293   8.5667   8.5672

          k =-0.5000 0.0000 0.0000 (  5268 PWs)   bands (ev):

   -16.9151 -16.9151 -12.2165 -12.2165 -10.6376 -10.6376  -4.4108  -4.4108
     1.1384   1.1384   7.4394   7.4396   8.2765   8.2769   8.7303   8.7305

          k =-0.5000 0.0962 0.0000 (  5283 PWs)   bands (ev):

   -16.7678 -16.7678 -13.0885 -13.0885  -9.7331  -9.7331  -4.3271  -4.3271
     0.8422   0.8422   7.6564   7.6566   8.3288   8.3293   8.5667   8.5672

          k =-0.5000 0.1925 0.0000 (  5302 PWs)   bands (ev):

   -16.3528 -16.3528 -14.2548 -14.2548  -8.5896  -8.5896  -4.1401  -4.1401
     0.2794   0.2794   6.4335   6.4335   8.3354   8.3356   9.2832   9.2837

          k =-0.5000-0.8660 0.0000 (  5288 PWs)   bands (ev):

   -15.9590 -15.9590 -14.9165 -14.9165  -8.1057  -8.1057  -4.0338  -4.0338
     0.0044   0.0044   5.6954   5.6954   9.3594   9.3594   9.4834   9.4834

     the Fermi energy is    -1.67464884 ev

!    total energy              =     -36.88733877 Ry
     total all-electron energy =      -152.415611 Ry
     estimated scf accuracy    <          5.1E-09 Ry
     smearing contrib. (-TS)   =      -0.00003134 Ry
     internal energy E=F+TS    =     -36.88730743 Ry

     The total energy is F=E-TS. E is the sum of the following terms:
     one-electron contribution =    -156.61831383 Ry
     hartree contribution      =      79.92773221 Ry
     xc contribution           =      -9.27205865 Ry
     ewald contribution        =      61.40972547 Ry
     electric field correction =      -0.00009369 Ry
     one-center paw contrib.   =     -12.33429895 Ry

     convergence has been achieved in  11 iterations

     negative rho (up, down):  3.548E-05 0.000E+00

     Forces acting on atoms (cartesian axes, Ry/au):

     atom    1 type  1   force =     0.00000021    0.00000002    0.00000047
     atom    2 type  1   force =    -0.00000021   -0.00000002   -0.00000047

     Total force =     0.000001     Total SCF correction =     0.000203
     SCF correction compared to forces is large: reduce conv_thr to get better values

     Writing all to output data dir ../tmp/graphene.save/ :
     XML data file, charge density, pseudopotentials, collected wavefunctions
 
     init_run     :      0.49s CPU      0.58s WALL (       1 calls)
     electrons    :     19.82s CPU     20.65s WALL (       1 calls)
     forces       :      0.07s CPU      0.07s WALL (       1 calls)

     Called by init_run:
     wfcinit      :      0.41s CPU      0.45s WALL (       1 calls)
     potinit      :      0.02s CPU      0.05s WALL (       1 calls)
     hinit0       :      0.02s CPU      0.03s WALL (       1 calls)

     Called by electrons:
     c_bands      :     16.95s CPU     17.60s WALL (      11 calls)
     sum_band     :      2.42s CPU      2.51s WALL (      11 calls)
     v_of_rho     :      0.10s CPU      0.12s WALL (      12 calls)
     newd         :      0.17s CPU      0.19s WALL (      12 calls)
     PAW_pot      :      0.11s CPU      0.11s WALL (      12 calls)
     mix_rho      :      0.06s CPU      0.07s WALL (      11 calls)

     Called by c_bands:
     init_us_2    :      0.12s CPU      0.12s WALL (    1776 calls)
     cegterg      :     16.41s CPU     17.04s WALL (     814 calls)

     Called by *egterg:
     cdiaghg      :      2.57s CPU      2.62s WALL (    3422 calls)
     h_psi        :     12.23s CPU     12.77s WALL (    3496 calls)
     s_psi        :      0.21s CPU      0.22s WALL (    3496 calls)
     g_psi        :      0.05s CPU      0.05s WALL (    2608 calls)

     Called by h_psi:
     h_psi:calbec :      0.35s CPU      0.37s WALL (    3496 calls)
     vloc_psi     :     11.50s CPU     12.02s WALL (    3496 calls)
     add_vuspsi   :      0.25s CPU      0.26s WALL (    3496 calls)

     General routines
     calbec       :      0.42s CPU      0.44s WALL (    4606 calls)
     fft          :      0.12s CPU      0.13s WALL (     297 calls)
     ffts         :      0.01s CPU      0.02s WALL (      92 calls)
     fftw         :      9.89s CPU     10.32s WALL (  185924 calls)
     interpolate  :      0.02s CPU      0.03s WALL (      48 calls)
 
     Parallel routines
 
     PWSCF        :     20.67s CPU     23.79s WALL

 
   This run was terminated on:   2:21:12  29Jan2026            

=------------------------------------------------------------------------------=
   JOB DONE.
=------------------------------------------------------------------------------=
