
     Program PWSCF v.7.4.1 starts on  5Nov2025 at  0:15:52 

     This program is part of the open-source Quantum ESPRESSO suite
     for quantum simulation of materials; please cite
         "P. Giannozzi et al., J. Phys.:Condens. Matter 21 395502 (2009);
         "P. Giannozzi et al., J. Phys.:Condens. Matter 29 465901 (2017);
         "P. Giannozzi et al., J. Chem. Phys. 152 154105 (2020);
          URL http://www.quantum-espresso.org", 
     in publications or presentations arising from this work. More details at
     http://www.quantum-espresso.org/quote

     Serial version
     10848 MiB available memory on the printing compute node when the environment starts

     Reading input from grap_SOC_scf.in

     Current dimensions of program PWSCF are:
     Max number of different atomic species (ntypx) = 10
     Max number of k-points (npk) =  40000
     Max angular momentum in pseudopotentials (lmaxx) =  4
     Presently stress not available with electric field and gates

     file C.rel-pbe-n-kjpaw_psl.0.1.UPF: wavefunction(s)  2P 2P renormalized


     G-vector sticks info
     --------------------
     sticks:   dense  smooth     PW     G-vecs:    dense   smooth      PW
     Sum        1045     421    139               166859    42343    8205

     Using Slab Decomposition



     bravais-lattice index     =            0
     lattice parameter (alat)  =       4.6624  a.u.
     unit-cell volume          =     533.6317 (a.u.)^3
     number of atoms/cell      =            2
     number of atomic types    =            1
     number of electrons       =         8.00
     number of Kohn-Sham states=           16
     kinetic-energy cutoff     =      70.0000  Ry
     charge density cutoff     =     700.0000  Ry
     scf convergence threshold =      1.0E-08
     mixing beta               =       0.1000
     number of iterations used =            8  plain     mixing
     Exchange-correlation= SLA  PW   PBX  PBC
                           (   1   4   3   4   0   0   0)
     Non magnetic calculation with spin-orbit


     celldm(1)=   4.662410  celldm(2)=   0.000000  celldm(3)=   0.000000
     celldm(4)=   0.000000  celldm(5)=   0.000000  celldm(6)=   0.000000

     crystal axes: (cart. coord. in units of alat)
               a(1) = (   1.000000   0.000000  -0.000000 )  
               a(2) = (  -0.500000   0.866025   0.000000 )  
               a(3) = (  -0.000000   0.000000   6.079666 )  

     reciprocal axes: (cart. coord. in units 2 pi/alat)
               b(1) = (  1.000000  0.577350  0.000000 )  
               b(2) = ( -0.000000  1.154701 -0.000000 )  
               b(3) = (  0.000000  0.000000  0.164483 )  


     PseudoPot. # 1 for C  read from file:
     ../../../pseudos/C.rel-pbe-n-kjpaw_psl.0.1.UPF
     MD5 check sum: 5ef0b8f55ac4be3c3db5d31256eeff6b
     Pseudo is Projector augmented-wave + core cor, Zval =  4.0
     Generated using &quot;atomic&quot; code by A. Dal Corso  v.6.3
     Shape of augmentation charge: BESSEL
     Using radial grid of 1073 points,  6 beta functions with: 
                l(1) =   0
                l(2) =   0
                l(3) =   1
                l(4) =   1
                l(5) =   1
                l(6) =   1
     Q(r) pseudized with 0 coefficients 


     atomic species   valence    mass     pseudopotential
     C                 4.00    12.01100     C ( 1.00)

     No symmetry found



   Cartesian axes

     site n.     atom                  positions (alat units)
         1        C      tau(   1) = (   0.0000000   0.0000000   3.0398328  )
         2        C      tau(   2) = (   0.0000000   0.5773503   3.0398328  )

     number of k points=    74  Gaussian smearing, width (Ry)=  0.0020
                       cart. coord. in units 2pi/alat
        k(    1) = (   0.0000000   0.0000000   0.0000000), wk =   0.0069444
        k(    2) = (   0.0000000   0.0962250   0.0000000), wk =   0.0138889
        k(    3) = (   0.0000000   0.1924501   0.0000000), wk =   0.0138889
        k(    4) = (   0.0000000   0.2886751   0.0000000), wk =   0.0138889
        k(    5) = (   0.0000000   0.3849002   0.0000000), wk =   0.0138889
        k(    6) = (   0.0000000   0.4811252   0.0000000), wk =   0.0138889
        k(    7) = (   0.0000000  -0.5773503   0.0000000), wk =   0.0069444
        k(    8) = (   0.0833333   0.0481125   0.0000000), wk =   0.0138889
        k(    9) = (   0.0833333   0.1443376   0.0000000), wk =   0.0138889
        k(   10) = (   0.0833333   0.2405626   0.0000000), wk =   0.0138889
        k(   11) = (   0.0833333   0.3367877   0.0000000), wk =   0.0138889
        k(   12) = (   0.0833333   0.4330127   0.0000000), wk =   0.0138889
        k(   13) = (   0.0833333   0.5292377   0.0000000), wk =   0.0138889
        k(   14) = (   0.0833333  -0.5292377   0.0000000), wk =   0.0138889
        k(   15) = (   0.0833333  -0.4330127   0.0000000), wk =   0.0138889
        k(   16) = (   0.0833333  -0.3367877   0.0000000), wk =   0.0138889
        k(   17) = (   0.0833333  -0.2405626   0.0000000), wk =   0.0138889
        k(   18) = (   0.0833333  -0.1443376   0.0000000), wk =   0.0138889
        k(   19) = (   0.0833333  -0.0481125   0.0000000), wk =   0.0138889
        k(   20) = (   0.1666667   0.0962250   0.0000000), wk =   0.0138889
        k(   21) = (   0.1666667   0.1924501   0.0000000), wk =   0.0138889
        k(   22) = (   0.1666667   0.2886751   0.0000000), wk =   0.0138889
        k(   23) = (   0.1666667   0.3849002   0.0000000), wk =   0.0138889
        k(   24) = (   0.1666667   0.4811252   0.0000000), wk =   0.0138889
        k(   25) = (   0.1666667   0.5773503   0.0000000), wk =   0.0138889
        k(   26) = (   0.1666667  -0.4811252   0.0000000), wk =   0.0138889
        k(   27) = (   0.1666667  -0.3849002   0.0000000), wk =   0.0138889
        k(   28) = (   0.1666667  -0.2886751   0.0000000), wk =   0.0138889
        k(   29) = (   0.1666667  -0.1924501   0.0000000), wk =   0.0138889
        k(   30) = (   0.1666667  -0.0962250   0.0000000), wk =   0.0138889
        k(   31) = (   0.1666667  -0.0000000   0.0000000), wk =   0.0138889
        k(   32) = (   0.2500000   0.1443376   0.0000000), wk =   0.0138889
        k(   33) = (   0.2500000   0.2405626   0.0000000), wk =   0.0138889
        k(   34) = (   0.2500000   0.3367877   0.0000000), wk =   0.0138889
        k(   35) = (   0.2500000   0.4330127   0.0000000), wk =   0.0138889
        k(   36) = (   0.2500000   0.5292377   0.0000000), wk =   0.0138889
        k(   37) = (   0.2500000   0.6254628   0.0000000), wk =   0.0138889
        k(   38) = (   0.2500000  -0.4330127   0.0000000), wk =   0.0138889
        k(   39) = (   0.2500000  -0.3367877   0.0000000), wk =   0.0138889
        k(   40) = (   0.2500000  -0.2405626   0.0000000), wk =   0.0138889
        k(   41) = (   0.2500000  -0.1443376   0.0000000), wk =   0.0138889
        k(   42) = (   0.2500000  -0.0481125   0.0000000), wk =   0.0138889
        k(   43) = (   0.2500000   0.0481125   0.0000000), wk =   0.0138889
        k(   44) = (   0.3333333   0.1924501   0.0000000), wk =   0.0138889
        k(   45) = (   0.3333333   0.2886751   0.0000000), wk =   0.0138889
        k(   46) = (   0.3333333   0.3849002   0.0000000), wk =   0.0138889
        k(   47) = (   0.3333333   0.4811252   0.0000000), wk =   0.0138889
        k(   48) = (   0.3333333   0.5773503   0.0000000), wk =   0.0138889
        k(   49) = (   0.3333333   0.6735753   0.0000000), wk =   0.0138889
        k(   50) = (   0.3333333  -0.3849002   0.0000000), wk =   0.0138889
        k(   51) = (   0.3333333  -0.2886751   0.0000000), wk =   0.0138889
        k(   52) = (   0.3333333  -0.1924501   0.0000000), wk =   0.0138889
        k(   53) = (   0.3333333  -0.0962250   0.0000000), wk =   0.0138889
        k(   54) = (   0.3333333   0.0000000   0.0000000), wk =   0.0138889
        k(   55) = (   0.3333333   0.0962250   0.0000000), wk =   0.0138889
        k(   56) = (   0.4166667   0.2405626   0.0000000), wk =   0.0138889
        k(   57) = (   0.4166667   0.3367877   0.0000000), wk =   0.0138889
        k(   58) = (   0.4166667   0.4330127   0.0000000), wk =   0.0138889
        k(   59) = (   0.4166667   0.5292377   0.0000000), wk =   0.0138889
        k(   60) = (   0.4166667   0.6254628   0.0000000), wk =   0.0138889
        k(   61) = (   0.4166667   0.7216878   0.0000000), wk =   0.0138889
        k(   62) = (   0.4166667  -0.3367877   0.0000000), wk =   0.0138889
        k(   63) = (   0.4166667  -0.2405626   0.0000000), wk =   0.0138889
        k(   64) = (   0.4166667  -0.1443376   0.0000000), wk =   0.0138889
        k(   65) = (   0.4166667  -0.0481125   0.0000000), wk =   0.0138889
        k(   66) = (   0.4166667   0.0481125   0.0000000), wk =   0.0138889
        k(   67) = (   0.4166667   0.1443376   0.0000000), wk =   0.0138889
        k(   68) = (  -0.5000000  -0.2886751   0.0000000), wk =   0.0069444
        k(   69) = (  -0.5000000  -0.1924501   0.0000000), wk =   0.0138889
        k(   70) = (  -0.5000000  -0.0962250   0.0000000), wk =   0.0138889
        k(   71) = (  -0.5000000   0.0000000   0.0000000), wk =   0.0138889
        k(   72) = (  -0.5000000   0.0962250   0.0000000), wk =   0.0138889
        k(   73) = (  -0.5000000   0.1924501   0.0000000), wk =   0.0138889
        k(   74) = (  -0.5000000  -0.8660254   0.0000000), wk =   0.0069444

     Dense  grid:   166859 G-vectors     FFT dimensions: (  40,  40, 240)

     Smooth grid:    42343 G-vectors     FFT dimensions: (  25,  25, 160)

     Estimated max dynamical RAM per process >     784.94 MB
 ----2D----2D----2D----2D----2D----2D----2D----2D----2D----2D----2D----2D
  The code is running with the 2D cutoff
  Please refer to:
  Sohier, T., Calandra, M., & Mauri, F. (2017), 
  Density functional perturbation theory for gated two-dimensional heterostructures:
  Theoretical developments and application to flexural phonons in graphene.
  Physical Review B, 96(7), 75448. https://doi.org/10.1103/PhysRevB.96.075448
 ----2D----2D----2D----2D----2D----2D----2D----2D----2D----2D----2D----2D

     Initial potential from superposition of free atoms

     starting charge       7.9999, renormalised to       8.0000

     negative rho (up, down):  2.781E-05 0.000E+00

     Adding external electric field

     Computed dipole along edir(3) : 
        Dipole               -0.0000 Ry au,         -0.0000 Debye
        Dipole field         -0.0000 Ry au, 

        E field amplitude [Ha a.u.]:  1.9447E-03
        Potential amp.        0.1047 Ry
        Total length         26.9286 bohr

     Starting wfcs are random

     total cpu time spent up to now is        8.7 secs

     Self-consistent Calculation

     iteration #  1     ecut=    70.00 Ry     beta= 0.10
     Davidson diagonalization with overlap
     ethr =  1.00E-02,  avg # of iterations =  9.1

     negative rho (up, down):  2.143E-05 0.000E+00

     Adding external electric field

     Computed dipole along edir(3) : 
        Dipole                0.0025 Ry au,          0.0063 Debye
        Dipole field          0.0001 Ry au, 

        E field amplitude [Ha a.u.]:  1.9447E-03
        Potential amp.        0.1016 Ry
        Total length         26.9286 bohr


     total cpu time spent up to now is       99.9 secs

     total energy              =     -36.95338007 Ry
     estimated scf accuracy    <       0.20252362 Ry

     iteration #  2     ecut=    70.00 Ry     beta= 0.10
     Davidson diagonalization with overlap
     ethr =  2.53E-03,  avg # of iterations =  1.0

     negative rho (up, down):  9.697E-05 0.000E+00

     Adding external electric field

     Computed dipole along edir(3) : 
        Dipole                0.0181 Ry au,          0.0459 Debye
        Dipole field          0.0004 Ry au, 

        E field amplitude [Ha a.u.]:  1.9447E-03
        Potential amp.        0.0818 Ry
        Total length         26.9286 bohr


     total cpu time spent up to now is      116.6 secs

     total energy              =     -36.85306240 Ry
     estimated scf accuracy    <       0.15594510 Ry

     iteration #  3     ecut=    70.00 Ry     beta= 0.10
     Davidson diagonalization with overlap
     ethr =  1.95E-03,  avg # of iterations =  3.5

     negative rho (up, down):  5.873E-05 0.000E+00

     Adding external electric field

     Computed dipole along edir(3) : 
        Dipole                0.0147 Ry au,          0.0373 Debye
        Dipole field          0.0003 Ry au, 

        E field amplitude [Ha a.u.]:  1.9447E-03
        Potential amp.        0.0861 Ry
        Total length         26.9286 bohr


     total cpu time spent up to now is      136.3 secs

     total energy              =     -36.87662410 Ry
     estimated scf accuracy    <       0.00216913 Ry

     iteration #  4     ecut=    70.00 Ry     beta= 0.10
     Davidson diagonalization with overlap
     ethr =  2.71E-05,  avg # of iterations =  6.9

     negative rho (up, down):  6.615E-05 0.000E+00

     Adding external electric field

     Computed dipole along edir(3) : 
        Dipole                0.0209 Ry au,          0.0531 Debye
        Dipole field          0.0005 Ry au, 

        E field amplitude [Ha a.u.]:  1.9447E-03
        Potential amp.        0.0782 Ry
        Total length         26.9286 bohr


     total cpu time spent up to now is      185.4 secs

     total energy              =     -36.89814683 Ry
     estimated scf accuracy    <       0.00392860 Ry

     iteration #  5     ecut=    70.00 Ry     beta= 0.10
     Davidson diagonalization with overlap
     ethr =  2.71E-05,  avg # of iterations =  5.4

     negative rho (up, down):  5.539E-05 0.000E+00

     Adding external electric field

     Computed dipole along edir(3) : 
        Dipole                0.0114 Ry au,          0.0290 Debye
        Dipole field          0.0003 Ry au, 

        E field amplitude [Ha a.u.]:  1.9447E-03
        Potential amp.        0.0903 Ry
        Total length         26.9286 bohr


     total cpu time spent up to now is      219.7 secs

     total energy              =     -36.88986469 Ry
     estimated scf accuracy    <       0.02422869 Ry

     iteration #  6     ecut=    70.00 Ry     beta= 0.10
     Davidson diagonalization with overlap
     ethr =  2.71E-05,  avg # of iterations =  4.9

     negative rho (up, down):  5.282E-05 0.000E+00

     Adding external electric field

     Computed dipole along edir(3) : 
        Dipole                0.0076 Ry au,          0.0193 Debye
        Dipole field          0.0002 Ry au, 

        E field amplitude [Ha a.u.]:  1.9447E-03
        Potential amp.        0.0951 Ry
        Total length         26.9286 bohr


     total cpu time spent up to now is      249.0 secs

     total energy              =     -36.88773547 Ry
     estimated scf accuracy    <       0.00528548 Ry

     iteration #  7     ecut=    70.00 Ry     beta= 0.10
     Davidson diagonalization with overlap
     ethr =  2.71E-05,  avg # of iterations =  6.6

     negative rho (up, down):  5.405E-05 0.000E+00

     Adding external electric field

     Computed dipole along edir(3) : 
        Dipole                0.0115 Ry au,          0.0292 Debye
        Dipole field          0.0003 Ry au, 

        E field amplitude [Ha a.u.]:  1.9447E-03
        Potential amp.        0.0902 Ry
        Total length         26.9286 bohr


     total cpu time spent up to now is      280.7 secs

     total energy              =     -36.88890589 Ry
     estimated scf accuracy    <       0.00003027 Ry

     iteration #  8     ecut=    70.00 Ry     beta= 0.10
     Davidson diagonalization with overlap
     ethr =  3.78E-07,  avg # of iterations =  5.9

     negative rho (up, down):  4.919E-05 0.000E+00

     Adding external electric field

     Computed dipole along edir(3) : 
        Dipole                0.0111 Ry au,          0.0283 Debye
        Dipole field          0.0003 Ry au, 

        E field amplitude [Ha a.u.]:  1.9447E-03
        Potential amp.        0.0906 Ry
        Total length         26.9286 bohr


     total cpu time spent up to now is      316.2 secs

     total energy              =     -36.88897635 Ry
     estimated scf accuracy    <       0.00015778 Ry

     iteration #  9     ecut=    70.00 Ry     beta= 0.10
     Davidson diagonalization with overlap
     ethr =  3.78E-07,  avg # of iterations =  1.0

     negative rho (up, down):  5.294E-05 0.000E+00

     Adding external electric field

     Computed dipole along edir(3) : 
        Dipole                0.0105 Ry au,          0.0267 Debye
        Dipole field          0.0002 Ry au, 

        E field amplitude [Ha a.u.]:  1.9447E-03
        Potential amp.        0.0914 Ry
        Total length         26.9286 bohr


     total cpu time spent up to now is      332.9 secs

     total energy              =     -36.88892884 Ry
     estimated scf accuracy    <       0.00012066 Ry

     iteration # 10     ecut=    70.00 Ry     beta= 0.10
     Davidson diagonalization with overlap
     ethr =  3.78E-07,  avg # of iterations =  3.9

     negative rho (up, down):  4.902E-05 0.000E+00

     Adding external electric field

     Computed dipole along edir(3) : 
        Dipole                0.0105 Ry au,          0.0266 Debye
        Dipole field          0.0002 Ry au, 

        E field amplitude [Ha a.u.]:  1.9447E-03
        Potential amp.        0.0915 Ry
        Total length         26.9286 bohr


     total cpu time spent up to now is      353.8 secs

     total energy              =     -36.88892636 Ry
     estimated scf accuracy    <       0.00002507 Ry

     iteration # 11     ecut=    70.00 Ry     beta= 0.10
     Davidson diagonalization with overlap
     ethr =  3.13E-07,  avg # of iterations =  1.9

     negative rho (up, down):  4.703E-05 0.000E+00

     Adding external electric field

     Computed dipole along edir(3) : 
        Dipole                0.0101 Ry au,          0.0256 Debye
        Dipole field          0.0002 Ry au, 

        E field amplitude [Ha a.u.]:  1.9447E-03
        Potential amp.        0.0919 Ry
        Total length         26.9286 bohr


     total cpu time spent up to now is      371.5 secs

     total energy              =     -36.88892432 Ry
     estimated scf accuracy    <       0.00000777 Ry

     iteration # 12     ecut=    70.00 Ry     beta= 0.10
     Davidson diagonalization with overlap
     ethr =  9.71E-08,  avg # of iterations =  5.2

     negative rho (up, down):  4.395E-05 0.000E+00

     Adding external electric field

     Computed dipole along edir(3) : 
        Dipole                0.0100 Ry au,          0.0254 Debye
        Dipole field          0.0002 Ry au, 

        E field amplitude [Ha a.u.]:  1.9447E-03
        Potential amp.        0.0921 Ry
        Total length         26.9286 bohr


     total cpu time spent up to now is      398.2 secs

     total energy              =     -36.88893025 Ry
     estimated scf accuracy    <       0.00000086 Ry

     iteration # 13     ecut=    70.00 Ry     beta= 0.10
     Davidson diagonalization with overlap
     ethr =  1.08E-08,  avg # of iterations =  2.4

     negative rho (up, down):  3.932E-05 0.000E+00

     Adding external electric field

     Computed dipole along edir(3) : 
        Dipole                0.0100 Ry au,          0.0255 Debye
        Dipole field          0.0002 Ry au, 

        E field amplitude [Ha a.u.]:  1.9447E-03
        Potential amp.        0.0920 Ry
        Total length         26.9286 bohr


     total cpu time spent up to now is      417.1 secs

     total energy              =     -36.88893010 Ry
     estimated scf accuracy    <       0.00000096 Ry

     iteration # 14     ecut=    70.00 Ry     beta= 0.10
     Davidson diagonalization with overlap
     ethr =  1.08E-08,  avg # of iterations =  1.0

     negative rho (up, down):  3.349E-05 0.000E+00

     Adding external electric field

     Computed dipole along edir(3) : 
        Dipole                0.0101 Ry au,          0.0257 Debye
        Dipole field          0.0002 Ry au, 

        E field amplitude [Ha a.u.]:  1.9447E-03
        Potential amp.        0.0919 Ry
        Total length         26.9286 bohr


     total cpu time spent up to now is      433.8 secs

     total energy              =     -36.88892997 Ry
     estimated scf accuracy    <       0.00000030 Ry

     iteration # 15     ecut=    70.00 Ry     beta= 0.10
     Davidson diagonalization with overlap
     ethr =  3.77E-09,  avg # of iterations =  3.6

     negative rho (up, down):  2.996E-05 0.000E+00

     Adding external electric field

     Computed dipole along edir(3) : 
        Dipole                0.0101 Ry au,          0.0256 Debye
        Dipole field          0.0002 Ry au, 

        E field amplitude [Ha a.u.]:  1.9447E-03
        Potential amp.        0.0920 Ry
        Total length         26.9286 bohr


     total cpu time spent up to now is      458.5 secs

     total energy              =     -36.88893010 Ry
     estimated scf accuracy    <       0.00000007 Ry

     iteration # 16     ecut=    70.00 Ry     beta= 0.10
     Davidson diagonalization with overlap
     ethr =  8.98E-10,  avg # of iterations =  1.3

     negative rho (up, down):  7.075E-06 0.000E+00

     Adding external electric field

     Computed dipole along edir(3) : 
        Dipole                0.0100 Ry au,          0.0254 Debye
        Dipole field          0.0002 Ry au, 

        E field amplitude [Ha a.u.]:  1.9447E-03
        Potential amp.        0.0921 Ry
        Total length         26.9286 bohr


     total cpu time spent up to now is      475.5 secs

     End of self-consistent calculation

          k = 0.0000 0.0000 0.0000 (  5307 PWs)   bands (ev):

   -23.5952 -23.5952 -11.6906 -11.6906  -7.1451  -7.1451  -7.1359  -7.1359
    -0.8324  -0.8324   0.0844   0.0844   1.6391   1.6391   2.5787   2.5787

          k = 0.0000 0.0962 0.0000 (  5285 PWs)   bands (ev):

   -23.4314 -23.4314 -11.4949 -11.4949  -7.7904  -7.7904  -7.4778  -7.4778
    -0.6099  -0.6099   0.3087   0.3087   1.8631   1.8631   2.8012   2.8013

          k = 0.0000 0.1925 0.0000 (  5253 PWs)   bands (ev):

   -22.9420 -22.9420 -10.9133 -10.9133  -9.4259  -9.4259  -8.2679  -8.2679
     0.0573   0.0573   0.9800   0.9801   2.5345   2.5346   3.4652   3.4653

          k = 0.0000 0.2887 0.0000 (  5269 PWs)   bands (ev):

   -22.1326 -22.1326 -11.5217 -11.5217  -9.9649  -9.9649  -9.1451  -9.1451
     1.1668   1.1669   2.0786   2.0786   3.1659   3.1659   3.6268   3.6270

          k = 0.0000 0.3849 0.0000 (  5285 PWs)   bands (ev):

   -21.0154 -21.0154 -13.7221 -13.7221  -9.8764  -9.8764  -8.6999  -8.6999
     0.8197   0.8197   2.7081   2.7082   3.6002   3.6009   3.6905   3.6911

          k = 0.0000 0.4811 0.0000 (  5290 PWs)   bands (ev):

   -19.6219 -19.6219 -15.8192 -15.8192 -10.3480 -10.3480  -7.2810  -7.2810
    -1.3101  -1.3101   3.3499   3.3499   4.7134   4.7135   5.6603   5.6605

          k = 0.0000-0.5774 0.0000 (  5288 PWs)   bands (ev):

   -18.3641 -18.3641 -17.3194 -17.3194 -10.5099 -10.5099  -6.4388  -6.4388
    -2.4049  -2.4049   3.2705   3.2705   7.0113   7.0114   7.1600   7.1600

          k = 0.0833 0.0481 0.0000 (  5285 PWs)   bands (ev):

   -23.4314 -23.4314 -11.4949 -11.4949  -7.7904  -7.7904  -7.4778  -7.4778
    -0.6099  -0.6099   0.3087   0.3087   1.8631   1.8631   2.8012   2.8012

          k = 0.0833 0.1443 0.0000 (  5269 PWs)   bands (ev):

   -23.1048 -23.1048 -11.1062 -11.1062  -8.8230  -8.8230  -8.1533  -8.1533
    -0.1649  -0.1649   0.7567   0.7567   2.3114   2.3115   3.2452   3.2453

          k = 0.0833 0.2406 0.0000 (  5261 PWs)   bands (ev):

   -22.4554 -22.4554 -10.5307 -10.5307 -10.3400 -10.3400  -9.1487  -9.1487
     0.7244   0.7245   1.6486   1.6487   3.2067   3.2068   3.9719   3.9722

          k = 0.0833 0.3368 0.0000 (  5275 PWs)   bands (ev):

   -21.4919 -21.4919 -12.6010 -12.6010 -10.0329 -10.0329  -9.2269  -9.2269
     1.8275   1.8275   2.0567   2.0568   3.0066   3.0067   4.3980   4.3982

          k = 0.0833 0.4330 0.0000 (  5284 PWs)   bands (ev):

   -20.2334 -20.2334 -14.7209 -14.7209 -10.6662 -10.6662  -7.8508  -7.8508
    -0.3656  -0.3656   3.7932   3.7934   4.2090   4.2091   4.7637   4.7638

          k = 0.0833 0.5292 0.0000 (  5302 PWs)   bands (ev):

   -18.7573 -18.7573 -16.6584 -16.6584 -10.9938 -10.9938  -6.5451  -6.5451
    -2.1297  -2.1297   4.0085   4.0085   6.0074   6.0075   6.9068   6.9070

          k = 0.0833-0.5292 0.0000 (  5302 PWs)   bands (ev):

   -18.7573 -18.7573 -16.6584 -16.6584 -10.9938 -10.9938  -6.5451  -6.5451
    -2.1297  -2.1297   4.0085   4.0085   6.0074   6.0075   6.9068   6.9070

          k = 0.0833-0.4330 0.0000 (  5284 PWs)   bands (ev):

   -20.2334 -20.2334 -14.7209 -14.7209 -10.6662 -10.6662  -7.8508  -7.8508
    -0.3656  -0.3656   3.7932   3.7934   4.2090   4.2091   4.7637   4.7638

          k = 0.0833-0.3368 0.0000 (  5275 PWs)   bands (ev):

   -21.4919 -21.4919 -12.6010 -12.6010 -10.0329 -10.0329  -9.2269  -9.2269
     1.8275   1.8275   2.0567   2.0568   3.0065   3.0067   4.3981   4.3984

          k = 0.0833-0.2406 0.0000 (  5261 PWs)   bands (ev):

   -22.4554 -22.4554 -10.5307 -10.5307 -10.3400 -10.3400  -9.1487  -9.1487
     0.7244   0.7245   1.6486   1.6487   3.2068   3.2068   3.9720   3.9721

          k = 0.0833-0.1443 0.0000 (  5269 PWs)   bands (ev):

   -23.1048 -23.1048 -11.1062 -11.1062  -8.8230  -8.8230  -8.1533  -8.1533
    -0.1649  -0.1649   0.7567   0.7567   2.3114   2.3115   3.2452   3.2453

          k = 0.0833-0.0481 0.0000 (  5285 PWs)   bands (ev):

   -23.4314 -23.4314 -11.4949 -11.4949  -7.7904  -7.7904  -7.4778  -7.4778
    -0.6099  -0.6099   0.3087   0.3087   1.8631   1.8631   2.8012   2.8012

          k = 0.1667 0.0962 0.0000 (  5253 PWs)   bands (ev):

   -22.9420 -22.9420 -10.9133 -10.9133  -9.4259  -9.4259  -8.2679  -8.2679
     0.0573   0.0573   0.9800   0.9801   2.5345   2.5346   3.4652   3.4653

          k = 0.1667 0.1925 0.0000 (  5261 PWs)   bands (ev):

   -22.4554 -22.4554 -10.5307 -10.5306 -10.3400 -10.3400  -9.1487  -9.1487
     0.7244   0.7245   1.6486   1.6487   3.2068   3.2069   3.9721   3.9721

          k = 0.1667 0.2887 0.0000 (  5288 PWs)   bands (ev):

   -21.6519 -21.6519 -11.8602 -11.8602 -10.5074 -10.5074  -9.4052  -9.4052
     1.8343   1.8344   2.2844   2.2844   2.7569   2.7570   4.3279   4.3281

          k = 0.1667 0.3849 0.0000 (  5285 PWs)   bands (ev):

   -20.5455 -20.5455 -13.5852 -13.5852 -11.5619 -11.5619  -8.1553  -8.1553
     0.3412   0.3412   3.3789   3.3790   4.2845   4.2847   5.8575   5.8577

          k = 0.1667 0.4811 0.0000 (  5283 PWs)   bands (ev):

   -19.1719 -19.1719 -15.4927 -15.4927 -12.1372 -12.1372  -6.7323  -6.7323
    -1.5663  -1.5663   5.3294   5.3296   5.9207   5.9210   6.1540   6.1543

          k = 0.1667 0.5774 0.0000 (  5264 PWs)   bands (ev):

   -17.9428 -17.9428 -16.9220 -16.9220 -12.3218 -12.3218  -5.8420  -5.8420
    -2.6316  -2.6316   5.8153   5.8153   7.4896   7.4896   7.5717   7.5718

          k = 0.1667-0.4811 0.0000 (  5283 PWs)   bands (ev):

   -19.1719 -19.1719 -15.4927 -15.4927 -12.1372 -12.1372  -6.7323  -6.7323
    -1.5663  -1.5663   5.3294   5.3296   5.9207   5.9210   6.1540   6.1543

          k = 0.1667-0.3849 0.0000 (  5285 PWs)   bands (ev):

   -20.5455 -20.5455 -13.5852 -13.5852 -11.5619 -11.5619  -8.1553  -8.1553
     0.3412   0.3412   3.3789   3.3790   4.2846   4.2847   5.8575   5.8577

          k = 0.1667-0.2887 0.0000 (  5288 PWs)   bands (ev):

   -21.6519 -21.6519 -11.8602 -11.8602 -10.5074 -10.5074  -9.4052  -9.4052
     1.8343   1.8344   2.2844   2.2844   2.7568   2.7569   4.3279   4.3280

          k = 0.1667-0.1925 0.0000 (  5261 PWs)   bands (ev):

   -22.4554 -22.4554 -10.5307 -10.5307 -10.3400 -10.3400  -9.1487  -9.1487
     0.7244   0.7245   1.6486   1.6487   3.2067   3.2068   3.9723   3.9723

          k = 0.1667-0.0962 0.0000 (  5253 PWs)   bands (ev):

   -22.9420 -22.9420 -10.9133 -10.9133  -9.4260  -9.4260  -8.2678  -8.2678
     0.0573   0.0573   0.9800   0.9801   2.5345   2.5346   3.4653   3.4653

          k = 0.1667-0.0000 0.0000 (  5269 PWs)   bands (ev):

   -23.1048 -23.1048 -11.1062 -11.1062  -8.8230  -8.8230  -8.1533  -8.1533
    -0.1649  -0.1649   0.7567   0.7567   2.3115   2.3115   3.2452   3.2453

          k = 0.2500 0.1443 0.0000 (  5269 PWs)   bands (ev):

   -22.1326 -22.1326 -11.5217 -11.5216  -9.9649  -9.9649  -9.1451  -9.1451
     1.1668   1.1669   2.0785   2.0786   3.1658   3.1659   3.6268   3.6271

          k = 0.2500 0.2406 0.0000 (  5275 PWs)   bands (ev):

   -21.4919 -21.4919 -12.6010 -12.6010 -10.0329 -10.0329  -9.2269  -9.2269
     1.8275   1.8275   2.0567   2.0568   3.0066   3.0067   4.3981   4.4055

          k = 0.2500 0.3368 0.0000 (  5285 PWs)   bands (ev):

   -20.5455 -20.5455 -13.5852 -13.5852 -11.5619 -11.5619  -8.1553  -8.1553
     0.3412   0.3412   3.3789   3.3790   4.2845   4.2847   5.8575   5.8577

          k = 0.2500 0.4330 0.0000 (  5268 PWs)   bands (ev):

   -19.3192 -19.3192 -14.6212 -14.6212 -13.0412 -13.0412  -6.8161  -6.8161
    -1.2697  -1.2697   5.1201   5.1202   5.8610   5.8612   7.5971   7.5975

          k = 0.2500 0.5292 0.0000 (  5282 PWs)   bands (ev):

   -17.8999 -17.8999 -16.0394 -16.0394 -13.7481 -13.7481  -5.4339  -5.4339
    -2.7862  -2.7862   6.7733   6.7734   7.2288   7.2290   8.0855   8.0856

          k = 0.2500 0.6255 0.0000 (  5282 PWs)   bands (ev):

   -17.8999 -17.8999 -16.0395 -16.0395 -13.7481 -13.7481  -5.4339  -5.4339
    -2.7862  -2.7862   6.7733   6.7734   7.2289   7.2290   8.0855   8.0856

          k = 0.2500-0.4330 0.0000 (  5268 PWs)   bands (ev):

   -19.3192 -19.3192 -14.6212 -14.6212 -13.0412 -13.0412  -6.8161  -6.8161
    -1.2697  -1.2697   5.1201   5.1202   5.8610   5.8612   7.5971   7.5975

          k = 0.2500-0.3368 0.0000 (  5285 PWs)   bands (ev):

   -20.5455 -20.5455 -13.5852 -13.5852 -11.5619 -11.5619  -8.1553  -8.1553
     0.3412   0.3412   3.3789   3.3790   4.2845   4.2847   5.8575   5.8577

          k = 0.2500-0.2406 0.0000 (  5275 PWs)   bands (ev):

   -21.4919 -21.4919 -12.6010 -12.6010 -10.0329 -10.0329  -9.2269  -9.2269
     1.8275   1.8275   2.0567   2.0568   3.0065   3.0067   4.3981   4.3984

          k = 0.2500-0.1443 0.0000 (  5269 PWs)   bands (ev):

   -22.1326 -22.1326 -11.5217 -11.5217  -9.9649  -9.9649  -9.1451  -9.1451
     1.1668   1.1669   2.0785   2.0786   3.1659   3.1659   3.6268   3.6270

          k = 0.2500-0.0481 0.0000 (  5261 PWs)   bands (ev):

   -22.4554 -22.4554 -10.5307 -10.5307 -10.3400 -10.3400  -9.1487  -9.1487
     0.7244   0.7245   1.6486   1.6487   3.2067   3.2068   3.9721   3.9721

          k = 0.2500 0.0481 0.0000 (  5261 PWs)   bands (ev):

   -22.4554 -22.4554 -10.5307 -10.5307 -10.3400 -10.3400  -9.1487  -9.1487
     0.7244   0.7245   1.6486   1.6487   3.2067   3.2068   3.9721   3.9805

          k = 0.3333 0.1925 0.0000 (  5285 PWs)   bands (ev):

   -21.0154 -21.0154 -13.7221 -13.7221  -9.8764  -9.8764  -8.6999  -8.6999
     0.8197   0.8197   2.7081   2.7082   3.6002   3.6009   3.6905   3.6911

          k = 0.3333 0.2887 0.0000 (  5284 PWs)   bands (ev):

   -20.2334 -20.2334 -14.7209 -14.7209 -10.6662 -10.6662  -7.8508  -7.8508
    -0.3656  -0.3656   3.7932   3.7934   4.2089   4.2091   4.7637   4.7638

          k = 0.3333 0.3849 0.0000 (  5283 PWs)   bands (ev):

   -19.1719 -19.1719 -15.4927 -15.4927 -12.1372 -12.1372  -6.7323  -6.7323
    -1.5663  -1.5663   5.3294   5.3296   5.9207   5.9210   6.1540   6.1543

          k = 0.3333 0.4811 0.0000 (  5282 PWs)   bands (ev):

   -17.8999 -17.8999 -16.0394 -16.0394 -13.7481 -13.7481  -5.4340  -5.4339
    -2.7862  -2.7862   6.7732   6.7734   7.2289   7.2290   8.0855   8.0856

          k = 0.3333 0.5774 0.0000 (  5292 PWs)   bands (ev):

   -16.6862 -16.6862 -16.6841 -16.6841 -14.6384 -14.6384  -4.0813  -4.0813
    -4.0813  -4.0813   6.5207   6.5207   8.7758   8.7760   8.7799   8.7800

          k = 0.3333 0.6736 0.0000 (  5282 PWs)   bands (ev):

   -17.8999 -17.8999 -16.0395 -16.0395 -13.7481 -13.7481  -5.4339  -5.4339
    -2.7862  -2.7862   6.7733   6.7734   7.2288   7.2290   8.0855   8.0856

          k = 0.3333-0.3849 0.0000 (  5283 PWs)   bands (ev):

   -19.1719 -19.1719 -15.4927 -15.4927 -12.1372 -12.1372  -6.7323  -6.7323
    -1.5663  -1.5663   5.3294   5.3296   5.9207   5.9210   6.1540   6.1543

          k = 0.3333-0.2887 0.0000 (  5284 PWs)   bands (ev):

   -20.2334 -20.2334 -14.7209 -14.7209 -10.6662 -10.6662  -7.8508  -7.8508
    -0.3656  -0.3656   3.7932   3.7934   4.2090   4.2091   4.7637   4.7638

          k = 0.3333-0.1925 0.0000 (  5285 PWs)   bands (ev):

   -21.0154 -21.0154 -13.7221 -13.7221  -9.8764  -9.8764  -8.6999  -8.6999
     0.8197   0.8197   2.7080   2.7082   3.6002   3.6009   3.6906   3.6911

          k = 0.3333-0.0962 0.0000 (  5275 PWs)   bands (ev):

   -21.4919 -21.4919 -12.6010 -12.6010 -10.0329 -10.0329  -9.2269  -9.2269
     1.8275   1.8275   2.0567   2.0568   3.0066   3.0067   4.3981   4.3982

          k = 0.3333 0.0000 0.0000 (  5288 PWs)   bands (ev):

   -21.6519 -21.6519 -11.8602 -11.8602 -10.5074 -10.5074  -9.4052  -9.4052
     1.8343   1.8344   2.2844   2.2844   2.7568   2.7570   4.3279   4.3280

          k = 0.3333 0.0962 0.0000 (  5275 PWs)   bands (ev):

   -21.4919 -21.4919 -12.6010 -12.6010 -10.0329 -10.0329  -9.2269  -9.2269
     1.8275   1.8275   2.0567   2.0568   3.0065   3.0067   4.3981   4.3984

          k = 0.4167 0.2406 0.0000 (  5290 PWs)   bands (ev):

   -19.6219 -19.6219 -15.8192 -15.8192 -10.3480 -10.3480  -7.2810  -7.2810
    -1.3101  -1.3101   3.3499   3.3499   4.7134   4.7135   5.6603   5.6604

          k = 0.4167 0.3368 0.0000 (  5302 PWs)   bands (ev):

   -18.7573 -18.7573 -16.6584 -16.6584 -10.9938 -10.9938  -6.5451  -6.5451
    -2.1297  -2.1297   4.0084   4.0084   6.0074   6.0075   6.9068   6.9070

          k = 0.4167 0.4330 0.0000 (  5264 PWs)   bands (ev):

   -17.9428 -17.9428 -16.9220 -16.9220 -12.3218 -12.3218  -5.8420  -5.8420
    -2.6316  -2.6316   5.8153   5.8153   7.4895   7.4896   7.5717   7.5718

          k = 0.4167 0.5292 0.0000 (  5282 PWs)   bands (ev):

   -17.8999 -17.8999 -16.0394 -16.0394 -13.7481 -13.7481  -5.4340  -5.4339
    -2.7862  -2.7862   6.7733   6.7734   7.2289   7.2290   8.0855   8.0856

          k = 0.4167 0.6255 0.0000 (  5282 PWs)   bands (ev):

   -17.8999 -17.8999 -16.0395 -16.0395 -13.7481 -13.7481  -5.4339  -5.4339
    -2.7862  -2.7862   6.7733   6.7734   7.2289   7.2290   8.0855   8.0856

          k = 0.4167 0.7217 0.0000 (  5264 PWs)   bands (ev):

   -17.9428 -17.9428 -16.9220 -16.9220 -12.3218 -12.3218  -5.8420  -5.8420
    -2.6316  -2.6316   5.8153   5.8153   7.4895   7.4896   7.5717   7.5717

          k = 0.4167-0.3368 0.0000 (  5302 PWs)   bands (ev):

   -18.7573 -18.7573 -16.6584 -16.6584 -10.9938 -10.9938  -6.5451  -6.5451
    -2.1297  -2.1297   4.0085   4.0085   6.0074   6.0075   6.9068   6.9071

          k = 0.4167-0.2406 0.0000 (  5290 PWs)   bands (ev):

   -19.6219 -19.6219 -15.8192 -15.8192 -10.3480 -10.3480  -7.2810  -7.2810
    -1.3101  -1.3101   3.3499   3.3499   4.7134   4.7135   5.6603   5.6604

          k = 0.4167-0.1443 0.0000 (  5284 PWs)   bands (ev):

   -20.2334 -20.2334 -14.7209 -14.7209 -10.6662 -10.6662  -7.8508  -7.8508
    -0.3656  -0.3656   3.7932   3.7934   4.2090   4.2091   4.7637   4.7638

          k = 0.4167-0.0481 0.0000 (  5285 PWs)   bands (ev):

   -20.5455 -20.5455 -13.5852 -13.5852 -11.5619 -11.5619  -8.1553  -8.1553
     0.3412   0.3412   3.3789   3.3790   4.2846   4.2847   5.8575   5.8577

          k = 0.4167 0.0481 0.0000 (  5285 PWs)   bands (ev):

   -20.5455 -20.5455 -13.5852 -13.5852 -11.5619 -11.5619  -8.1553  -8.1553
     0.3412   0.3412   3.3789   3.3790   4.2846   4.2847   5.8575   5.8577

          k = 0.4167 0.1443 0.0000 (  5284 PWs)   bands (ev):

   -20.2334 -20.2334 -14.7209 -14.7209 -10.6662 -10.6662  -7.8508  -7.8508
    -0.3656  -0.3656   3.7932   3.7934   4.2090   4.2091   4.7637   4.7638

          k =-0.5000-0.2887 0.0000 (  5288 PWs)   bands (ev):

   -18.3641 -18.3641 -17.3194 -17.3194 -10.5099 -10.5099  -6.4388  -6.4388
    -2.4049  -2.4049   3.2704   3.2704   7.0113   7.0113   7.1600   7.1600

          k =-0.5000-0.1925 0.0000 (  5302 PWs)   bands (ev):

   -18.7573 -18.7573 -16.6584 -16.6584 -10.9938 -10.9938  -6.5451  -6.5451
    -2.1297  -2.1297   4.0084   4.0084   6.0074   6.0075   6.9068   6.9070

          k =-0.5000-0.0962 0.0000 (  5283 PWs)   bands (ev):

   -19.1719 -19.1719 -15.4927 -15.4927 -12.1372 -12.1372  -6.7323  -6.7323
    -1.5663  -1.5663   5.3294   5.3296   5.9207   5.9210   6.1540   6.1543

          k =-0.5000 0.0000 0.0000 (  5268 PWs)   bands (ev):

   -19.3192 -19.3192 -14.6212 -14.6212 -13.0412 -13.0412  -6.8161  -6.8161
    -1.2697  -1.2697   5.1201   5.1202   5.8610   5.8612   7.5971   7.5975

          k =-0.5000 0.0962 0.0000 (  5283 PWs)   bands (ev):

   -19.1719 -19.1719 -15.4927 -15.4927 -12.1372 -12.1372  -6.7323  -6.7323
    -1.5663  -1.5663   5.3294   5.3296   5.9207   5.9210   6.1540   6.1543

          k =-0.5000 0.1925 0.0000 (  5302 PWs)   bands (ev):

   -18.7573 -18.7573 -16.6584 -16.6584 -10.9938 -10.9938  -6.5451  -6.5451
    -2.1297  -2.1297   4.0085   4.0085   6.0074   6.0075   6.9068   6.9070

          k =-0.5000-0.8660 0.0000 (  5288 PWs)   bands (ev):

   -18.3641 -18.3641 -17.3194 -17.3194 -10.5099 -10.5099  -6.4388  -6.4388
    -2.4049  -2.4049   3.2705   3.2705   7.0113   7.0113   7.1600   7.1600

     the Fermi energy is  -4.081294 ev

!    total energy              =     -36.88893023 Ry
     total all-electron energy =      -152.417220 Ry
     estimated scf accuracy    <          5.4E-09 Ry
     smearing contrib. (-TS)   =      -0.00003134 Ry
     internal energy E=F+TS    =     -36.88889888 Ry

     The total energy is F=E-TS. E is the sum of the following terms:
     one-electron contribution =    -256.05290538 Ry
     hartree contribution      =     128.89152824 Ry
     xc contribution           =      -8.28621203 Ry
     ewald contribution        =     111.86623661 Ry
     electric field correction =      -0.00003654 Ry
     one-center paw contrib.   =     -13.30750978 Ry

     convergence has been achieved in  16 iterations

     negative rho (up, down):  7.075E-06 0.000E+00

     Forces acting on atoms (cartesian axes, Ry/au):

     atom    1 type  1   force =     0.00000245   -0.00000064   -0.00000062
     atom    2 type  1   force =    -0.00000245    0.00000064    0.00000062

     Total force =     0.000004     Total SCF correction =     0.000123
     SCF correction compared to forces is large: reduce conv_thr to get better values

     Writing all to output data dir ./tmp/graphene.save/ :
     XML data file, charge density, pseudopotentials, collected wavefunctions

     init_run     :      8.21s CPU      8.45s WALL (       1 calls)
     electrons    :    462.49s CPU    466.84s WALL (       1 calls)
     forces       :      2.59s CPU      2.66s WALL (       1 calls)

     Called by init_run:
     wfcinit      :      6.68s CPU      6.76s WALL (       1 calls)
     potinit      :      0.53s CPU      0.57s WALL (       1 calls)
     hinit0       :      0.73s CPU      0.75s WALL (       1 calls)

     Called by electrons:
     c_bands      :    415.25s CPU    416.85s WALL (      16 calls)
     sum_band     :     40.00s CPU     41.48s WALL (      16 calls)
     v_of_rho     :      1.71s CPU      1.74s WALL (      17 calls)
     newd         :      3.63s CPU      4.93s WALL (      17 calls)
     PAW_pot      :      0.96s CPU      0.96s WALL (      17 calls)
     mix_rho      :      0.91s CPU      0.93s WALL (      16 calls)

     Called by c_bands:
     init_us_2    :      2.06s CPU      2.08s WALL (    2516 calls)
     cegterg      :    407.17s CPU    408.75s WALL (    1184 calls)

     Called by *egterg:
     cdiaghg      :      5.36s CPU      5.38s WALL (    5889 calls)
     h_psi        :    239.88s CPU    240.82s WALL (    5963 calls)
     s_psi        :     25.68s CPU     25.73s WALL (    5963 calls)
     g_psi        :      1.24s CPU      1.24s WALL (    4705 calls)

     Called by h_psi:
     h_psi:calbec :     25.30s CPU     25.33s WALL (    5963 calls)
     vloc_psi     :    187.92s CPU    188.41s WALL (    5963 calls)
     add_vuspsi   :     25.70s CPU     25.72s WALL (    5963 calls)

     General routines
     calbec       :     34.85s CPU     34.88s WALL (    7443 calls)
     fft          :      1.67s CPU      1.68s WALL (     422 calls)
     ffts         :      0.38s CPU      0.38s WALL (     132 calls)
     fftw         :    113.65s CPU    113.89s WALL (  285372 calls)
     interpolate  :      0.58s CPU      0.58s WALL (      68 calls)


     PWSCF        :   7m53.52s CPU   7m58.33s WALL


   This run was terminated on:   0:23:51   5Nov2025            

=------------------------------------------------------------------------------=
   JOB DONE.
=------------------------------------------------------------------------------=
