
     Program PWSCF v.7.4.1 starts on  1Oct2025 at  7: 4:23 

     This program is part of the open-source Quantum ESPRESSO suite
     for quantum simulation of materials; please cite
         "P. Giannozzi et al., J. Phys.:Condens. Matter 21 395502 (2009);
         "P. Giannozzi et al., J. Phys.:Condens. Matter 29 465901 (2017);
         "P. Giannozzi et al., J. Chem. Phys. 152 154105 (2020);
          URL http://www.quantum-espresso.org", 
     in publications or presentations arising from this work. More details at
     http://www.quantum-espresso.org/quote

     Serial version
     16945 MiB available memory on the printing compute node when the environment starts

     Reading input from graphene_scf.in

     Current dimensions of program PWSCF are:
     Max number of different atomic species (ntypx) = 10
     Max number of k-points (npk) =  40000
     Max angular momentum in pseudopotentials (lmaxx) =  4
     file C.pbe-n-kjpaw_psl.1.0.0.UPF: wavefunction(s)  2S 2P renormalized
     Message from routine setup:
     using ibrav=0 with symmetry is DISCOURAGED, use correct ibrav instead


     G-vector sticks info
     --------------------
     sticks:   dense  smooth     PW     G-vecs:    dense   smooth      PW
     Sum         151      61     19                 9061     2289     535

     Using Slab Decomposition



     bravais-lattice index     =            0
     lattice parameter (alat)  =       4.6540  a.u.
     unit-cell volume          =     531.7080 (a.u.)^3
     number of atoms/cell      =            2
     number of atomic types    =            1
     number of electrons       =         8.00
     number of Kohn-Sham states=            8
     kinetic-energy cutoff     =      10.0000  Ry
     charge density cutoff     =     100.0000  Ry
     scf convergence threshold =      1.0E-08
     mixing beta               =       0.7000
     number of iterations used =            8  plain     mixing
     Exchange-correlation= SLA  PW   PBX  PBC
                           (   1   4   3   4   0   0   0)

     celldm(1)=   4.653998  celldm(2)=   0.000000  celldm(3)=   0.000000
     celldm(4)=   0.000000  celldm(5)=   0.000000  celldm(6)=   0.000000

     crystal axes: (cart. coord. in units of alat)
               a(1) = (   1.000000   0.000000   0.000000 )  
               a(2) = (  -0.500000   0.866025   0.000000 )  
               a(3) = (   0.000000   0.000000   6.090654 )  

     reciprocal axes: (cart. coord. in units 2 pi/alat)
               b(1) = (  1.000000  0.577350 -0.000000 )  
               b(2) = (  0.000000  1.154701  0.000000 )  
               b(3) = (  0.000000 -0.000000  0.164186 )  


     PseudoPot. # 1 for C  read from file:
     ../../../../pseudos/C.pbe-n-kjpaw_psl.1.0.0.UPF
     MD5 check sum: 5d2aebdfa2cae82b50a7e79e9516da0f
     Pseudo is Projector augmented-wave + core cor, Zval =  4.0
     Generated using "atomic" code by A. Dal Corso  v.5.1
     Shape of augmentation charge: PSQ
     Using radial grid of 1073 points,  4 beta functions with: 
                l(1) =   0
                l(2) =   0
                l(3) =   1
                l(4) =   1
     Q(r) pseudized with 0 coefficients 


     atomic species   valence    mass     pseudopotential
     C                 4.00    12.01070     C ( 1.00)

     24 Sym. Ops., with inversion, found (12 have fractional translation)



   Cartesian axes

     site n.     atom                  positions (alat units)
         1        C      tau(   1) = (   0.0000000   0.0000000   0.0000000  )
         2        C      tau(   2) = (   0.0000000   0.5773503   0.0000000  )

     number of k points=    12  Gaussian smearing, width (Ry)=  0.0100
                       cart. coord. in units 2pi/alat
        k(    1) = (   0.0000000   0.0000000   0.0000000), wk =   0.0246914
        k(    2) = (   0.0000000   0.1283001   0.0000000), wk =   0.1481481
        k(    3) = (   0.0000000   0.2566001   0.0000000), wk =   0.1481481
        k(    4) = (   0.0000000   0.3849002   0.0000000), wk =   0.1481481
        k(    5) = (   0.0000000   0.5132002   0.0000000), wk =   0.1481481
        k(    6) = (   0.1111111   0.1924501   0.0000000), wk =   0.1481481
        k(    7) = (   0.1111111   0.3207501   0.0000000), wk =   0.2962963
        k(    8) = (   0.1111111   0.4490502   0.0000000), wk =   0.2962963
        k(    9) = (   0.1111111   0.5773503   0.0000000), wk =   0.1481481
        k(   10) = (   0.2222222   0.3849002   0.0000000), wk =   0.1481481
        k(   11) = (   0.2222222   0.5132002   0.0000000), wk =   0.2962963
        k(   12) = (   0.3333333   0.5773503   0.0000000), wk =   0.0493827

     Dense  grid:     9061 G-vectors     FFT dimensions: (  15,  15,  96)

     Smooth grid:     2289 G-vectors     FFT dimensions: (   9,   9,  60)

     Estimated max dynamical RAM per process >      12.86 MB

     Check: negative core charge=   -0.000430

     Initial potential from superposition of free atoms

     starting charge       7.9999, renormalised to       8.0000

     negative rho (up, down):  7.516E-05 0.000E+00
     Starting wfcs are    8 randomized atomic wfcs

     total cpu time spent up to now is        0.7 secs

     Self-consistent Calculation

     iteration #  1     ecut=    10.00 Ry     beta= 0.70
     Davidson diagonalization with overlap
     ethr =  1.00E-02,  avg # of iterations =  7.7

     negative rho (up, down):  3.869E-03 0.000E+00

     total cpu time spent up to now is        0.9 secs

     total energy              =     -35.87849879 Ry
     estimated scf accuracy    <       0.11895674 Ry

     iteration #  2     ecut=    10.00 Ry     beta= 0.70
     Davidson diagonalization with overlap
     ethr =  1.49E-03,  avg # of iterations =  1.8

     negative rho (up, down):  5.223E-03 0.000E+00

     total cpu time spent up to now is        1.1 secs

     total energy              =     -35.88061483 Ry
     estimated scf accuracy    <       0.00837910 Ry

     iteration #  3     ecut=    10.00 Ry     beta= 0.70
     Davidson diagonalization with overlap
     ethr =  1.05E-04,  avg # of iterations =  4.8

     negative rho (up, down):  5.524E-03 0.000E+00

     total cpu time spent up to now is        1.2 secs

     total energy              =     -35.88073950 Ry
     estimated scf accuracy    <       0.00005951 Ry

     iteration #  4     ecut=    10.00 Ry     beta= 0.70
     Davidson diagonalization with overlap
     ethr =  7.44E-07,  avg # of iterations =  5.6

     negative rho (up, down):  5.624E-03 0.000E+00

     total cpu time spent up to now is        1.4 secs

     total energy              =     -35.88074934 Ry
     estimated scf accuracy    <       0.00000049 Ry

     iteration #  5     ecut=    10.00 Ry     beta= 0.70
     Davidson diagonalization with overlap
     ethr =  6.17E-09,  avg # of iterations =  2.7

     negative rho (up, down):  5.671E-03 0.000E+00

     total cpu time spent up to now is        1.6 secs

     End of self-consistent calculation

          k = 0.0000 0.0000 0.0000 (   299 PWs)   bands (ev):

   -23.4611  -9.2666  -3.6080  -3.6080  -0.3136   0.3680   0.7380   2.8314

          k = 0.0000 0.1283 0.0000 (   296 PWs)   bands (ev):

   -23.1510  -8.9005  -5.2913  -4.2345   0.0923   0.7737   1.1422   3.2332

          k = 0.0000 0.2566 0.0000 (   296 PWs)   bands (ev):

   -22.2137  -8.7108  -7.8272  -5.6913   1.3098   1.9880   2.3553   4.4275

          k = 0.0000 0.3849 0.0000 (   282 PWs)   bands (ev):

   -20.6226 -12.1562  -6.8386  -6.0846   3.3380   3.8766   4.3463   4.3743

          k = 0.0000 0.5132 0.0000 (   284 PWs)   bands (ev):

   -18.6524 -15.1725  -7.5067  -4.0308   1.0696   4.5176   6.1778   6.8670

          k = 0.1111 0.1925 0.0000 (   295 PWs)   bands (ev):

   -22.5280  -8.1778  -7.5146  -5.6022   0.9040   1.5841   1.9509   4.0333

          k = 0.1111 0.3208 0.0000 (   294 PWs)   bands (ev):

   -21.2733 -10.5767  -7.3218  -6.8373   2.5268   3.1943   3.5675   5.4597

          k = 0.1111 0.4491 0.0000 (   278 PWs)   bands (ev):

   -19.4268 -13.6326  -8.3796  -4.6858   2.3691   4.9593   5.6416   5.9870

          k = 0.1111 0.5774 0.0000 (   284 PWs)   bands (ev):

   -17.8156 -15.7559  -8.7829  -3.2935   0.3897   6.1323   8.1850   8.2028

          k = 0.2222 0.3849 0.0000 (   278 PWs)   bands (ev):

   -19.7373 -12.5011  -9.3999  -5.0850   3.1073   4.5538   5.2028   5.5864

          k = 0.2222 0.5132 0.0000 (   276 PWs)   bands (ev):

   -17.7791 -14.7704 -10.6887  -2.9792   0.6796   7.3823   7.8540   8.4006

          k = 0.3333 0.5774 0.0000 (   264 PWs)   bands (ev):

   -16.0052 -16.0052 -11.7496  -1.0501  -1.0501   8.1025  10.5213  10.5241

     the Fermi energy is    -1.0501 ev

!    total energy              =     -35.88075096 Ry
     total all-electron energy =      -151.408947 Ry
     estimated scf accuracy    <          7.0E-09 Ry
     smearing contrib. (-TS)   =      -0.00027861 Ry
     internal energy E=F+TS    =     -35.88047235 Ry

     The total energy is F=E-TS. E is the sum of the following terms:
     one-electron contribution =    -155.06022397 Ry
     hartree contribution      =      78.89726480 Ry
     xc contribution           =      -9.07172406 Ry
     ewald contribution        =      61.70343445 Ry
     one-center paw contrib.   =     -12.34922356 Ry

     convergence has been achieved in   5 iterations

     negative rho (up, down):  5.671E-03 0.000E+00

     Forces acting on atoms (cartesian axes, Ry/au):

     atom    1 type  1   force =     0.00000000    0.00000000    0.00000000
     atom    2 type  1   force =     0.00000000   -0.00000000    0.00000000

     Total force =     0.000000     Total SCF correction =     0.000000


     Computing stress (Cartesian axis) and pressure


     negative rho (up, down):  5.671E-03 0.000E+00
          total   stress  (Ry/bohr**3)                   (kbar)     P=     -214.08
  -0.00118211  -0.00000000   0.00000000         -173.89       -0.00        0.00
  -0.00000000  -0.00118211   0.00000000           -0.00     -173.89        0.00
   0.00000000   0.00000000  -0.00200169            0.00        0.00     -294.46


     Writing all to output data dir ./tmp/graphene.save/ :
     XML data file, charge density, pseudopotentials, collected wavefunctions

     init_run     :      0.60s CPU      0.62s WALL (       1 calls)
     electrons    :      1.49s CPU      0.82s WALL (       1 calls)
     forces       :      0.02s CPU      0.01s WALL (       1 calls)
     stress       :      0.05s CPU      0.05s WALL (       1 calls)

     Called by init_run:
     wfcinit      :      0.09s CPU      0.07s WALL (       1 calls)
     potinit      :      0.22s CPU      0.23s WALL (       1 calls)
     hinit0       :      0.29s CPU      0.29s WALL (       1 calls)

     Called by electrons:
     c_bands      :      0.37s CPU      0.21s WALL (       5 calls)
     sum_band     :      0.12s CPU      0.05s WALL (       5 calls)
     v_of_rho     :      0.07s CPU      0.05s WALL (       6 calls)
     newd         :      0.04s CPU      0.03s WALL (       6 calls)
     PAW_pot      :      0.94s CPU      0.54s WALL (       6 calls)
     mix_rho      :      0.00s CPU      0.01s WALL (       5 calls)

     Called by c_bands:
     init_us_2    :      0.02s CPU      0.01s WALL (     156 calls)
     cegterg      :      0.35s CPU      0.20s WALL (      60 calls)

     Called by *egterg:
     cdiaghg      :      0.07s CPU      0.05s WALL (     331 calls)
     h_psi        :      0.31s CPU      0.19s WALL (     343 calls)
     s_psi        :      0.01s CPU      0.01s WALL (     343 calls)
     g_psi        :      0.00s CPU      0.00s WALL (     271 calls)

     Called by h_psi:
     h_psi:calbec :      0.01s CPU      0.01s WALL (     343 calls)
     vloc_psi     :      0.27s CPU      0.16s WALL (     343 calls)
     add_vuspsi   :      0.02s CPU      0.01s WALL (     343 calls)

     General routines
     calbec       :      0.02s CPU      0.02s WALL (     607 calls)
     fft          :      0.25s CPU      0.24s WALL (     101 calls)
     ffts         :      0.16s CPU      0.16s WALL (      11 calls)
     fftw         :      0.22s CPU      0.13s WALL (    3590 calls)
     interpolate  :      0.16s CPU      0.16s WALL (       6 calls)


     PWSCF        :      2.33s CPU      1.62s WALL


   This run was terminated on:   7: 4:25   1Oct2025            

=------------------------------------------------------------------------------=
   JOB DONE.
=------------------------------------------------------------------------------=
