
     Program PWSCF v.7.4.1 starts on 29Jan2026 at  6:27:17 

     This program is part of the open-source Quantum ESPRESSO suite
     for quantum simulation of materials; please cite
         "P. Giannozzi et al., J. Phys.:Condens. Matter 21 395502 (2009);
         "P. Giannozzi et al., J. Phys.:Condens. Matter 29 465901 (2017);
         "P. Giannozzi et al., J. Chem. Phys. 152 154105 (2020);
          URL http://www.quantum-espresso.org", 
     in publications or presentations arising from this work. More details at
     http://www.quantum-espresso.org/quote

     Parallel version (MPI), running on    32 processors

     MPI processes distributed on     1 nodes
     439129 MiB available memory on the printing compute node when the environment starts
 
     Reading input from grap_SOC_bands.in

     Current dimensions of program PWSCF are:
     Max number of different atomic species (ntypx) = 10
     Max number of k-points (npk) =  40000
     Max angular momentum in pseudopotentials (lmaxx) =  4
     Presently stress not available with electric field and gates

     Message from routine input:
     WARNING: "startingwfc" set to random may spoil restart
     file C.rel-pbe-n-kjpaw_psl.1.0.0.UPF: wavefunction(s)  2S 2P 2P renormalized
 
     R & G space division:  proc/nbgrp/npool/nimage =      32
     Subspace diagonalization in iterative solution of the eigenvalue problem:
     a serial algorithm will be used

 
     Parallelization info
     --------------------
     sticks:   dense  smooth     PW     G-vecs:    dense   smooth      PW
     Min          32      13      3                 5199     1317     199
     Max          33      14      4                 5237     1342     234
     Sum        1045     421    121               166859    42343    7091
 
     Using Slab Decomposition
 


     bravais-lattice index     =            0
     lattice parameter (alat)  =       4.6624  a.u.
     unit-cell volume          =     533.6317 (a.u.)^3
     number of atoms/cell      =            2
     number of atomic types    =            1
     number of electrons       =         8.00
     number of Kohn-Sham states=           16
     kinetic-energy cutoff     =      70.0000  Ry
     charge density cutoff     =     700.0000  Ry
     Exchange-correlation= SLA  PW   PBX  PBC
                           (   1   4   3   4   0   0   0)
     Non magnetic calculation with spin-orbit


     celldm(1)=   4.662410  celldm(2)=   0.000000  celldm(3)=   0.000000
     celldm(4)=   0.000000  celldm(5)=   0.000000  celldm(6)=   0.000000

     crystal axes: (cart. coord. in units of alat)
               a(1) = (   1.000000   0.000000   0.000000 )  
               a(2) = (  -0.500000   0.866025   0.000000 )  
               a(3) = (   0.000000   0.000000   6.079666 )  

     reciprocal axes: (cart. coord. in units 2 pi/alat)
               b(1) = (  1.000000  0.577350  0.000000 )  
               b(2) = (  0.000000  1.154701  0.000000 )  
               b(3) = (  0.000000  0.000000  0.164483 )  


     PseudoPot. # 1 for C  read from file:
     ../../../PP_C/C.rel-pbe-n-kjpaw_psl.1.0.0.UPF
     MD5 check sum: dd2b8f743de1f3a10095e4114fb28074
     Pseudo is Projector augmented-wave + core cor, Zval =  4.0
     Generated using &quot;atomic&quot; code by A. Dal Corso  v.6.3
     Shape of augmentation charge: PSQ
     Using radial grid of 1073 points,  6 beta functions with: 
                l(1) =   0
                l(2) =   0
                l(3) =   1
                l(4) =   1
                l(5) =   1
                l(6) =   1
     Q(r) pseudized with 0 coefficients 


     atomic species   valence    mass     pseudopotential
     C                 4.00    12.01100     C ( 1.00)

     No symmetry found


                                    s                        frac. trans.

      isym =  1     identity                                     

 cryst.   s( 1) = (     1          0          0      )
                  (     0          1          0      )
                  (     0          0          1      )

 cart.    s( 1) = (  1.0000000  0.0000000  0.0000000 )
                  (  0.0000000  1.0000000  0.0000000 )
                  (  0.0000000  0.0000000  1.0000000 )


   Cartesian axes

     site n.     atom                  positions (alat units)
         1        C      tau(   1) = (   0.0000000   0.0000000   3.0398328  )
         2        C      tau(   2) = (   0.0000000   0.5773503   3.0398328  )

   Crystallographic axes

     site n.     atom                  positions (cryst. coord.)
         1        C      tau(   1) = (  0.0000000  0.0000000  0.5000000  )
         2        C      tau(   2) = (  0.3333334  0.6666667  0.5000000  )

     number of k points=  1501  Gaussian smearing, width (Ry)=  0.0020
                       cart. coord. in units 2pi/alat
        k(    1) = (   0.0000000   0.0000000   0.0000000), wk =   0.0006662
        k(    2) = (   0.0006667   0.0011547   0.0000000), wk =   0.0006662
        k(    3) = (   0.0013333   0.0023094   0.0000000), wk =   0.0006662
        k(    4) = (   0.0020000   0.0034641   0.0000000), wk =   0.0006662
        k(    5) = (   0.0026667   0.0046188   0.0000000), wk =   0.0006662
        k(    6) = (   0.0033333   0.0057735   0.0000000), wk =   0.0006662
        k(    7) = (   0.0040000   0.0069282   0.0000000), wk =   0.0006662
        k(    8) = (   0.0046667   0.0080829   0.0000000), wk =   0.0006662
        k(    9) = (   0.0053333   0.0092376   0.0000000), wk =   0.0006662
        k(   10) = (   0.0060000   0.0103923   0.0000000), wk =   0.0006662
        k(   11) = (   0.0066667   0.0115470   0.0000000), wk =   0.0006662
        k(   12) = (   0.0073333   0.0127017   0.0000000), wk =   0.0006662
        k(   13) = (   0.0080000   0.0138564   0.0000000), wk =   0.0006662
        k(   14) = (   0.0086667   0.0150111   0.0000000), wk =   0.0006662
        k(   15) = (   0.0093333   0.0161658   0.0000000), wk =   0.0006662
        k(   16) = (   0.0100000   0.0173205   0.0000000), wk =   0.0006662
        k(   17) = (   0.0106667   0.0184752   0.0000000), wk =   0.0006662
        k(   18) = (   0.0113333   0.0196299   0.0000000), wk =   0.0006662
        k(   19) = (   0.0120000   0.0207846   0.0000000), wk =   0.0006662
        k(   20) = (   0.0126667   0.0219393   0.0000000), wk =   0.0006662
        k(   21) = (   0.0133333   0.0230940   0.0000000), wk =   0.0006662
        k(   22) = (   0.0140000   0.0242487   0.0000000), wk =   0.0006662
        k(   23) = (   0.0146667   0.0254034   0.0000000), wk =   0.0006662
        k(   24) = (   0.0153333   0.0265581   0.0000000), wk =   0.0006662
        k(   25) = (   0.0160000   0.0277128   0.0000000), wk =   0.0006662
        k(   26) = (   0.0166667   0.0288675   0.0000000), wk =   0.0006662
        k(   27) = (   0.0173333   0.0300222   0.0000000), wk =   0.0006662
        k(   28) = (   0.0180000   0.0311769   0.0000000), wk =   0.0006662
        k(   29) = (   0.0186667   0.0323316   0.0000000), wk =   0.0006662
        k(   30) = (   0.0193333   0.0334863   0.0000000), wk =   0.0006662
        k(   31) = (   0.0200000   0.0346410   0.0000000), wk =   0.0006662
        k(   32) = (   0.0206667   0.0357957   0.0000000), wk =   0.0006662
        k(   33) = (   0.0213333   0.0369504   0.0000000), wk =   0.0006662
        k(   34) = (   0.0220000   0.0381051   0.0000000), wk =   0.0006662
        k(   35) = (   0.0226667   0.0392598   0.0000000), wk =   0.0006662
        k(   36) = (   0.0233333   0.0404145   0.0000000), wk =   0.0006662
        k(   37) = (   0.0240000   0.0415692   0.0000000), wk =   0.0006662
        k(   38) = (   0.0246667   0.0427239   0.0000000), wk =   0.0006662
        k(   39) = (   0.0253333   0.0438786   0.0000000), wk =   0.0006662
        k(   40) = (   0.0260000   0.0450333   0.0000000), wk =   0.0006662
        k(   41) = (   0.0266667   0.0461880   0.0000000), wk =   0.0006662
        k(   42) = (   0.0273333   0.0473427   0.0000000), wk =   0.0006662
        k(   43) = (   0.0280000   0.0484974   0.0000000), wk =   0.0006662
        k(   44) = (   0.0286667   0.0496521   0.0000000), wk =   0.0006662
        k(   45) = (   0.0293333   0.0508068   0.0000000), wk =   0.0006662
        k(   46) = (   0.0300000   0.0519615   0.0000000), wk =   0.0006662
        k(   47) = (   0.0306667   0.0531162   0.0000000), wk =   0.0006662
        k(   48) = (   0.0313333   0.0542709   0.0000000), wk =   0.0006662
        k(   49) = (   0.0320000   0.0554256   0.0000000), wk =   0.0006662
        k(   50) = (   0.0326667   0.0565803   0.0000000), wk =   0.0006662
        k(   51) = (   0.0333333   0.0577350   0.0000000), wk =   0.0006662
        k(   52) = (   0.0340000   0.0588897   0.0000000), wk =   0.0006662
        k(   53) = (   0.0346667   0.0600444   0.0000000), wk =   0.0006662
        k(   54) = (   0.0353333   0.0611991   0.0000000), wk =   0.0006662
        k(   55) = (   0.0360000   0.0623538   0.0000000), wk =   0.0006662
        k(   56) = (   0.0366667   0.0635085   0.0000000), wk =   0.0006662
        k(   57) = (   0.0373333   0.0646632   0.0000000), wk =   0.0006662
        k(   58) = (   0.0380000   0.0658179   0.0000000), wk =   0.0006662
        k(   59) = (   0.0386667   0.0669726   0.0000000), wk =   0.0006662
        k(   60) = (   0.0393333   0.0681273   0.0000000), wk =   0.0006662
        k(   61) = (   0.0400000   0.0692820   0.0000000), wk =   0.0006662
        k(   62) = (   0.0406667   0.0704367   0.0000000), wk =   0.0006662
        k(   63) = (   0.0413333   0.0715914   0.0000000), wk =   0.0006662
        k(   64) = (   0.0420000   0.0727461   0.0000000), wk =   0.0006662
        k(   65) = (   0.0426667   0.0739008   0.0000000), wk =   0.0006662
        k(   66) = (   0.0433333   0.0750555   0.0000000), wk =   0.0006662
        k(   67) = (   0.0440000   0.0762102   0.0000000), wk =   0.0006662
        k(   68) = (   0.0446667   0.0773649   0.0000000), wk =   0.0006662
        k(   69) = (   0.0453333   0.0785196   0.0000000), wk =   0.0006662
        k(   70) = (   0.0460000   0.0796743   0.0000000), wk =   0.0006662
        k(   71) = (   0.0466667   0.0808290   0.0000000), wk =   0.0006662
        k(   72) = (   0.0473333   0.0819837   0.0000000), wk =   0.0006662
        k(   73) = (   0.0480000   0.0831384   0.0000000), wk =   0.0006662
        k(   74) = (   0.0486667   0.0842931   0.0000000), wk =   0.0006662
        k(   75) = (   0.0493333   0.0854478   0.0000000), wk =   0.0006662
        k(   76) = (   0.0500000   0.0866025   0.0000000), wk =   0.0006662
        k(   77) = (   0.0506667   0.0877572   0.0000000), wk =   0.0006662
        k(   78) = (   0.0513333   0.0889119   0.0000000), wk =   0.0006662
        k(   79) = (   0.0520000   0.0900666   0.0000000), wk =   0.0006662
        k(   80) = (   0.0526667   0.0912213   0.0000000), wk =   0.0006662
        k(   81) = (   0.0533333   0.0923760   0.0000000), wk =   0.0006662
        k(   82) = (   0.0540000   0.0935307   0.0000000), wk =   0.0006662
        k(   83) = (   0.0546667   0.0946854   0.0000000), wk =   0.0006662
        k(   84) = (   0.0553333   0.0958401   0.0000000), wk =   0.0006662
        k(   85) = (   0.0560000   0.0969948   0.0000000), wk =   0.0006662
        k(   86) = (   0.0566667   0.0981495   0.0000000), wk =   0.0006662
        k(   87) = (   0.0573333   0.0993042   0.0000000), wk =   0.0006662
        k(   88) = (   0.0580000   0.1004589   0.0000000), wk =   0.0006662
        k(   89) = (   0.0586667   0.1016136   0.0000000), wk =   0.0006662
        k(   90) = (   0.0593333   0.1027683   0.0000000), wk =   0.0006662
        k(   91) = (   0.0600000   0.1039230   0.0000000), wk =   0.0006662
        k(   92) = (   0.0606667   0.1050777   0.0000000), wk =   0.0006662
        k(   93) = (   0.0613333   0.1062324   0.0000000), wk =   0.0006662
        k(   94) = (   0.0620000   0.1073872   0.0000000), wk =   0.0006662
        k(   95) = (   0.0626667   0.1085419   0.0000000), wk =   0.0006662
        k(   96) = (   0.0633333   0.1096966   0.0000000), wk =   0.0006662
        k(   97) = (   0.0640000   0.1108513   0.0000000), wk =   0.0006662
        k(   98) = (   0.0646667   0.1120060   0.0000000), wk =   0.0006662
        k(   99) = (   0.0653333   0.1131607   0.0000000), wk =   0.0006662
        k(  100) = (   0.0660000   0.1143154   0.0000000), wk =   0.0006662
        k(  101) = (   0.0666667   0.1154701   0.0000000), wk =   0.0006662
        k(  102) = (   0.0673333   0.1166248   0.0000000), wk =   0.0006662
        k(  103) = (   0.0680000   0.1177795   0.0000000), wk =   0.0006662
        k(  104) = (   0.0686667   0.1189342   0.0000000), wk =   0.0006662
        k(  105) = (   0.0693333   0.1200889   0.0000000), wk =   0.0006662
        k(  106) = (   0.0700000   0.1212436   0.0000000), wk =   0.0006662
        k(  107) = (   0.0706667   0.1223983   0.0000000), wk =   0.0006662
        k(  108) = (   0.0713333   0.1235530   0.0000000), wk =   0.0006662
        k(  109) = (   0.0720000   0.1247077   0.0000000), wk =   0.0006662
        k(  110) = (   0.0726667   0.1258624   0.0000000), wk =   0.0006662
        k(  111) = (   0.0733333   0.1270171   0.0000000), wk =   0.0006662
        k(  112) = (   0.0740000   0.1281718   0.0000000), wk =   0.0006662
        k(  113) = (   0.0746667   0.1293265   0.0000000), wk =   0.0006662
        k(  114) = (   0.0753333   0.1304812   0.0000000), wk =   0.0006662
        k(  115) = (   0.0760000   0.1316359   0.0000000), wk =   0.0006662
        k(  116) = (   0.0766667   0.1327906   0.0000000), wk =   0.0006662
        k(  117) = (   0.0773333   0.1339453   0.0000000), wk =   0.0006662
        k(  118) = (   0.0780000   0.1351000   0.0000000), wk =   0.0006662
        k(  119) = (   0.0786667   0.1362547   0.0000000), wk =   0.0006662
        k(  120) = (   0.0793333   0.1374094   0.0000000), wk =   0.0006662
        k(  121) = (   0.0800000   0.1385641   0.0000000), wk =   0.0006662
        k(  122) = (   0.0806667   0.1397188   0.0000000), wk =   0.0006662
        k(  123) = (   0.0813333   0.1408735   0.0000000), wk =   0.0006662
        k(  124) = (   0.0820000   0.1420282   0.0000000), wk =   0.0006662
        k(  125) = (   0.0826667   0.1431829   0.0000000), wk =   0.0006662
        k(  126) = (   0.0833333   0.1443376   0.0000000), wk =   0.0006662
        k(  127) = (   0.0840000   0.1454923   0.0000000), wk =   0.0006662
        k(  128) = (   0.0846667   0.1466470   0.0000000), wk =   0.0006662
        k(  129) = (   0.0853333   0.1478017   0.0000000), wk =   0.0006662
        k(  130) = (   0.0860000   0.1489564   0.0000000), wk =   0.0006662
        k(  131) = (   0.0866667   0.1501111   0.0000000), wk =   0.0006662
        k(  132) = (   0.0873333   0.1512658   0.0000000), wk =   0.0006662
        k(  133) = (   0.0880000   0.1524205   0.0000000), wk =   0.0006662
        k(  134) = (   0.0886667   0.1535752   0.0000000), wk =   0.0006662
        k(  135) = (   0.0893333   0.1547299   0.0000000), wk =   0.0006662
        k(  136) = (   0.0900000   0.1558846   0.0000000), wk =   0.0006662
        k(  137) = (   0.0906667   0.1570393   0.0000000), wk =   0.0006662
        k(  138) = (   0.0913333   0.1581940   0.0000000), wk =   0.0006662
        k(  139) = (   0.0920000   0.1593487   0.0000000), wk =   0.0006662
        k(  140) = (   0.0926667   0.1605034   0.0000000), wk =   0.0006662
        k(  141) = (   0.0933333   0.1616581   0.0000000), wk =   0.0006662
        k(  142) = (   0.0940000   0.1628128   0.0000000), wk =   0.0006662
        k(  143) = (   0.0946667   0.1639675   0.0000000), wk =   0.0006662
        k(  144) = (   0.0953333   0.1651222   0.0000000), wk =   0.0006662
        k(  145) = (   0.0960000   0.1662769   0.0000000), wk =   0.0006662
        k(  146) = (   0.0966667   0.1674316   0.0000000), wk =   0.0006662
        k(  147) = (   0.0973333   0.1685863   0.0000000), wk =   0.0006662
        k(  148) = (   0.0980000   0.1697410   0.0000000), wk =   0.0006662
        k(  149) = (   0.0986667   0.1708957   0.0000000), wk =   0.0006662
        k(  150) = (   0.0993333   0.1720504   0.0000000), wk =   0.0006662
        k(  151) = (   0.1000000   0.1732051   0.0000000), wk =   0.0006662
        k(  152) = (   0.1006667   0.1743598   0.0000000), wk =   0.0006662
        k(  153) = (   0.1013333   0.1755145   0.0000000), wk =   0.0006662
        k(  154) = (   0.1020000   0.1766692   0.0000000), wk =   0.0006662
        k(  155) = (   0.1026667   0.1778239   0.0000000), wk =   0.0006662
        k(  156) = (   0.1033333   0.1789786   0.0000000), wk =   0.0006662
        k(  157) = (   0.1040000   0.1801333   0.0000000), wk =   0.0006662
        k(  158) = (   0.1046667   0.1812880   0.0000000), wk =   0.0006662
        k(  159) = (   0.1053333   0.1824427   0.0000000), wk =   0.0006662
        k(  160) = (   0.1060000   0.1835974   0.0000000), wk =   0.0006662
        k(  161) = (   0.1066667   0.1847521   0.0000000), wk =   0.0006662
        k(  162) = (   0.1073333   0.1859068   0.0000000), wk =   0.0006662
        k(  163) = (   0.1080000   0.1870615   0.0000000), wk =   0.0006662
        k(  164) = (   0.1086667   0.1882162   0.0000000), wk =   0.0006662
        k(  165) = (   0.1093333   0.1893709   0.0000000), wk =   0.0006662
        k(  166) = (   0.1100000   0.1905256   0.0000000), wk =   0.0006662
        k(  167) = (   0.1106667   0.1916803   0.0000000), wk =   0.0006662
        k(  168) = (   0.1113333   0.1928350   0.0000000), wk =   0.0006662
        k(  169) = (   0.1120000   0.1939897   0.0000000), wk =   0.0006662
        k(  170) = (   0.1126667   0.1951444   0.0000000), wk =   0.0006662
        k(  171) = (   0.1133333   0.1962991   0.0000000), wk =   0.0006662
        k(  172) = (   0.1140000   0.1974538   0.0000000), wk =   0.0006662
        k(  173) = (   0.1146667   0.1986085   0.0000000), wk =   0.0006662
        k(  174) = (   0.1153333   0.1997632   0.0000000), wk =   0.0006662
        k(  175) = (   0.1160000   0.2009179   0.0000000), wk =   0.0006662
        k(  176) = (   0.1166667   0.2020726   0.0000000), wk =   0.0006662
        k(  177) = (   0.1173333   0.2032273   0.0000000), wk =   0.0006662
        k(  178) = (   0.1180000   0.2043820   0.0000000), wk =   0.0006662
        k(  179) = (   0.1186667   0.2055367   0.0000000), wk =   0.0006662
        k(  180) = (   0.1193333   0.2066914   0.0000000), wk =   0.0006662
        k(  181) = (   0.1200000   0.2078461   0.0000000), wk =   0.0006662
        k(  182) = (   0.1206667   0.2090008   0.0000000), wk =   0.0006662
        k(  183) = (   0.1213333   0.2101555   0.0000000), wk =   0.0006662
        k(  184) = (   0.1220000   0.2113102   0.0000000), wk =   0.0006662
        k(  185) = (   0.1226667   0.2124649   0.0000000), wk =   0.0006662
        k(  186) = (   0.1233333   0.2136196   0.0000000), wk =   0.0006662
        k(  187) = (   0.1240000   0.2147743   0.0000000), wk =   0.0006662
        k(  188) = (   0.1246667   0.2159290   0.0000000), wk =   0.0006662
        k(  189) = (   0.1253333   0.2170837   0.0000000), wk =   0.0006662
        k(  190) = (   0.1260000   0.2182384   0.0000000), wk =   0.0006662
        k(  191) = (   0.1266667   0.2193931   0.0000000), wk =   0.0006662
        k(  192) = (   0.1273333   0.2205478   0.0000000), wk =   0.0006662
        k(  193) = (   0.1280000   0.2217025   0.0000000), wk =   0.0006662
        k(  194) = (   0.1286667   0.2228572   0.0000000), wk =   0.0006662
        k(  195) = (   0.1293333   0.2240119   0.0000000), wk =   0.0006662
        k(  196) = (   0.1300000   0.2251666   0.0000000), wk =   0.0006662
        k(  197) = (   0.1306667   0.2263213   0.0000000), wk =   0.0006662
        k(  198) = (   0.1313333   0.2274760   0.0000000), wk =   0.0006662
        k(  199) = (   0.1320000   0.2286307   0.0000000), wk =   0.0006662
        k(  200) = (   0.1326667   0.2297854   0.0000000), wk =   0.0006662
        k(  201) = (   0.1333333   0.2309401   0.0000000), wk =   0.0006662
        k(  202) = (   0.1340000   0.2320948   0.0000000), wk =   0.0006662
        k(  203) = (   0.1346667   0.2332495   0.0000000), wk =   0.0006662
        k(  204) = (   0.1353333   0.2344042   0.0000000), wk =   0.0006662
        k(  205) = (   0.1360000   0.2355589   0.0000000), wk =   0.0006662
        k(  206) = (   0.1366667   0.2367136   0.0000000), wk =   0.0006662
        k(  207) = (   0.1373333   0.2378683   0.0000000), wk =   0.0006662
        k(  208) = (   0.1380000   0.2390230   0.0000000), wk =   0.0006662
        k(  209) = (   0.1386667   0.2401777   0.0000000), wk =   0.0006662
        k(  210) = (   0.1393333   0.2413324   0.0000000), wk =   0.0006662
        k(  211) = (   0.1400000   0.2424871   0.0000000), wk =   0.0006662
        k(  212) = (   0.1406667   0.2436418   0.0000000), wk =   0.0006662
        k(  213) = (   0.1413333   0.2447965   0.0000000), wk =   0.0006662
        k(  214) = (   0.1420000   0.2459512   0.0000000), wk =   0.0006662
        k(  215) = (   0.1426667   0.2471059   0.0000000), wk =   0.0006662
        k(  216) = (   0.1433333   0.2482606   0.0000000), wk =   0.0006662
        k(  217) = (   0.1440000   0.2494153   0.0000000), wk =   0.0006662
        k(  218) = (   0.1446667   0.2505700   0.0000000), wk =   0.0006662
        k(  219) = (   0.1453333   0.2517247   0.0000000), wk =   0.0006662
        k(  220) = (   0.1460000   0.2528794   0.0000000), wk =   0.0006662
        k(  221) = (   0.1466667   0.2540341   0.0000000), wk =   0.0006662
        k(  222) = (   0.1473333   0.2551888   0.0000000), wk =   0.0006662
        k(  223) = (   0.1480000   0.2563435   0.0000000), wk =   0.0006662
        k(  224) = (   0.1486667   0.2574982   0.0000000), wk =   0.0006662
        k(  225) = (   0.1493333   0.2586529   0.0000000), wk =   0.0006662
        k(  226) = (   0.1500000   0.2598076   0.0000000), wk =   0.0006662
        k(  227) = (   0.1506667   0.2609623   0.0000000), wk =   0.0006662
        k(  228) = (   0.1513333   0.2621170   0.0000000), wk =   0.0006662
        k(  229) = (   0.1520000   0.2632717   0.0000000), wk =   0.0006662
        k(  230) = (   0.1526667   0.2644264   0.0000000), wk =   0.0006662
        k(  231) = (   0.1533333   0.2655811   0.0000000), wk =   0.0006662
        k(  232) = (   0.1540000   0.2667358   0.0000000), wk =   0.0006662
        k(  233) = (   0.1546667   0.2678905   0.0000000), wk =   0.0006662
        k(  234) = (   0.1553333   0.2690452   0.0000000), wk =   0.0006662
        k(  235) = (   0.1560000   0.2701999   0.0000000), wk =   0.0006662
        k(  236) = (   0.1566667   0.2713546   0.0000000), wk =   0.0006662
        k(  237) = (   0.1573333   0.2725093   0.0000000), wk =   0.0006662
        k(  238) = (   0.1580000   0.2736640   0.0000000), wk =   0.0006662
        k(  239) = (   0.1586667   0.2748187   0.0000000), wk =   0.0006662
        k(  240) = (   0.1593333   0.2759734   0.0000000), wk =   0.0006662
        k(  241) = (   0.1600000   0.2771281   0.0000000), wk =   0.0006662
        k(  242) = (   0.1606667   0.2782828   0.0000000), wk =   0.0006662
        k(  243) = (   0.1613333   0.2794375   0.0000000), wk =   0.0006662
        k(  244) = (   0.1620000   0.2805922   0.0000000), wk =   0.0006662
        k(  245) = (   0.1626667   0.2817469   0.0000000), wk =   0.0006662
        k(  246) = (   0.1633333   0.2829016   0.0000000), wk =   0.0006662
        k(  247) = (   0.1640000   0.2840563   0.0000000), wk =   0.0006662
        k(  248) = (   0.1646667   0.2852110   0.0000000), wk =   0.0006662
        k(  249) = (   0.1653333   0.2863657   0.0000000), wk =   0.0006662
        k(  250) = (   0.1660000   0.2875204   0.0000000), wk =   0.0006662
        k(  251) = (   0.1666667   0.2886751   0.0000000), wk =   0.0006662
        k(  252) = (   0.1673333   0.2898298   0.0000000), wk =   0.0006662
        k(  253) = (   0.1680000   0.2909845   0.0000000), wk =   0.0006662
        k(  254) = (   0.1686667   0.2921392   0.0000000), wk =   0.0006662
        k(  255) = (   0.1693333   0.2932939   0.0000000), wk =   0.0006662
        k(  256) = (   0.1700000   0.2944486   0.0000000), wk =   0.0006662
        k(  257) = (   0.1706667   0.2956033   0.0000000), wk =   0.0006662
        k(  258) = (   0.1713333   0.2967580   0.0000000), wk =   0.0006662
        k(  259) = (   0.1720000   0.2979127   0.0000000), wk =   0.0006662
        k(  260) = (   0.1726667   0.2990674   0.0000000), wk =   0.0006662
        k(  261) = (   0.1733333   0.3002221   0.0000000), wk =   0.0006662
        k(  262) = (   0.1740000   0.3013768   0.0000000), wk =   0.0006662
        k(  263) = (   0.1746667   0.3025315   0.0000000), wk =   0.0006662
        k(  264) = (   0.1753333   0.3036862   0.0000000), wk =   0.0006662
        k(  265) = (   0.1760000   0.3048409   0.0000000), wk =   0.0006662
        k(  266) = (   0.1766667   0.3059956   0.0000000), wk =   0.0006662
        k(  267) = (   0.1773333   0.3071503   0.0000000), wk =   0.0006662
        k(  268) = (   0.1780000   0.3083050   0.0000000), wk =   0.0006662
        k(  269) = (   0.1786667   0.3094597   0.0000000), wk =   0.0006662
        k(  270) = (   0.1793333   0.3106144   0.0000000), wk =   0.0006662
        k(  271) = (   0.1800000   0.3117691   0.0000000), wk =   0.0006662
        k(  272) = (   0.1806667   0.3129238   0.0000000), wk =   0.0006662
        k(  273) = (   0.1813333   0.3140785   0.0000000), wk =   0.0006662
        k(  274) = (   0.1820000   0.3152332   0.0000000), wk =   0.0006662
        k(  275) = (   0.1826667   0.3163879   0.0000000), wk =   0.0006662
        k(  276) = (   0.1833333   0.3175426   0.0000000), wk =   0.0006662
        k(  277) = (   0.1840000   0.3186973   0.0000000), wk =   0.0006662
        k(  278) = (   0.1846667   0.3198520   0.0000000), wk =   0.0006662
        k(  279) = (   0.1853333   0.3210067   0.0000000), wk =   0.0006662
        k(  280) = (   0.1860000   0.3221615   0.0000000), wk =   0.0006662
        k(  281) = (   0.1866667   0.3233162   0.0000000), wk =   0.0006662
        k(  282) = (   0.1873333   0.3244709   0.0000000), wk =   0.0006662
        k(  283) = (   0.1880000   0.3256256   0.0000000), wk =   0.0006662
        k(  284) = (   0.1886667   0.3267803   0.0000000), wk =   0.0006662
        k(  285) = (   0.1893333   0.3279350   0.0000000), wk =   0.0006662
        k(  286) = (   0.1900000   0.3290897   0.0000000), wk =   0.0006662
        k(  287) = (   0.1906667   0.3302444   0.0000000), wk =   0.0006662
        k(  288) = (   0.1913333   0.3313991   0.0000000), wk =   0.0006662
        k(  289) = (   0.1920000   0.3325538   0.0000000), wk =   0.0006662
        k(  290) = (   0.1926667   0.3337085   0.0000000), wk =   0.0006662
        k(  291) = (   0.1933333   0.3348632   0.0000000), wk =   0.0006662
        k(  292) = (   0.1940000   0.3360179   0.0000000), wk =   0.0006662
        k(  293) = (   0.1946667   0.3371726   0.0000000), wk =   0.0006662
        k(  294) = (   0.1953333   0.3383273   0.0000000), wk =   0.0006662
        k(  295) = (   0.1960000   0.3394820   0.0000000), wk =   0.0006662
        k(  296) = (   0.1966667   0.3406367   0.0000000), wk =   0.0006662
        k(  297) = (   0.1973333   0.3417914   0.0000000), wk =   0.0006662
        k(  298) = (   0.1980000   0.3429461   0.0000000), wk =   0.0006662
        k(  299) = (   0.1986667   0.3441008   0.0000000), wk =   0.0006662
        k(  300) = (   0.1993333   0.3452555   0.0000000), wk =   0.0006662
        k(  301) = (   0.2000000   0.3464102   0.0000000), wk =   0.0006662
        k(  302) = (   0.2006667   0.3475649   0.0000000), wk =   0.0006662
        k(  303) = (   0.2013333   0.3487196   0.0000000), wk =   0.0006662
        k(  304) = (   0.2020000   0.3498743   0.0000000), wk =   0.0006662
        k(  305) = (   0.2026667   0.3510290   0.0000000), wk =   0.0006662
        k(  306) = (   0.2033333   0.3521837   0.0000000), wk =   0.0006662
        k(  307) = (   0.2040000   0.3533384   0.0000000), wk =   0.0006662
        k(  308) = (   0.2046667   0.3544931   0.0000000), wk =   0.0006662
        k(  309) = (   0.2053333   0.3556478   0.0000000), wk =   0.0006662
        k(  310) = (   0.2060000   0.3568025   0.0000000), wk =   0.0006662
        k(  311) = (   0.2066667   0.3579572   0.0000000), wk =   0.0006662
        k(  312) = (   0.2073333   0.3591119   0.0000000), wk =   0.0006662
        k(  313) = (   0.2080000   0.3602666   0.0000000), wk =   0.0006662
        k(  314) = (   0.2086667   0.3614213   0.0000000), wk =   0.0006662
        k(  315) = (   0.2093333   0.3625760   0.0000000), wk =   0.0006662
        k(  316) = (   0.2100000   0.3637307   0.0000000), wk =   0.0006662
        k(  317) = (   0.2106667   0.3648854   0.0000000), wk =   0.0006662
        k(  318) = (   0.2113333   0.3660401   0.0000000), wk =   0.0006662
        k(  319) = (   0.2120000   0.3671948   0.0000000), wk =   0.0006662
        k(  320) = (   0.2126667   0.3683495   0.0000000), wk =   0.0006662
        k(  321) = (   0.2133333   0.3695042   0.0000000), wk =   0.0006662
        k(  322) = (   0.2140000   0.3706589   0.0000000), wk =   0.0006662
        k(  323) = (   0.2146667   0.3718136   0.0000000), wk =   0.0006662
        k(  324) = (   0.2153333   0.3729683   0.0000000), wk =   0.0006662
        k(  325) = (   0.2160000   0.3741230   0.0000000), wk =   0.0006662
        k(  326) = (   0.2166667   0.3752777   0.0000000), wk =   0.0006662
        k(  327) = (   0.2173333   0.3764324   0.0000000), wk =   0.0006662
        k(  328) = (   0.2180000   0.3775871   0.0000000), wk =   0.0006662
        k(  329) = (   0.2186667   0.3787418   0.0000000), wk =   0.0006662
        k(  330) = (   0.2193333   0.3798965   0.0000000), wk =   0.0006662
        k(  331) = (   0.2200000   0.3810512   0.0000000), wk =   0.0006662
        k(  332) = (   0.2206667   0.3822059   0.0000000), wk =   0.0006662
        k(  333) = (   0.2213333   0.3833606   0.0000000), wk =   0.0006662
        k(  334) = (   0.2220000   0.3845153   0.0000000), wk =   0.0006662
        k(  335) = (   0.2226667   0.3856700   0.0000000), wk =   0.0006662
        k(  336) = (   0.2233333   0.3868247   0.0000000), wk =   0.0006662
        k(  337) = (   0.2240000   0.3879794   0.0000000), wk =   0.0006662
        k(  338) = (   0.2246667   0.3891341   0.0000000), wk =   0.0006662
        k(  339) = (   0.2253333   0.3902888   0.0000000), wk =   0.0006662
        k(  340) = (   0.2260000   0.3914435   0.0000000), wk =   0.0006662
        k(  341) = (   0.2266667   0.3925982   0.0000000), wk =   0.0006662
        k(  342) = (   0.2273333   0.3937529   0.0000000), wk =   0.0006662
        k(  343) = (   0.2280000   0.3949076   0.0000000), wk =   0.0006662
        k(  344) = (   0.2286667   0.3960623   0.0000000), wk =   0.0006662
        k(  345) = (   0.2293333   0.3972170   0.0000000), wk =   0.0006662
        k(  346) = (   0.2300000   0.3983717   0.0000000), wk =   0.0006662
        k(  347) = (   0.2306667   0.3995264   0.0000000), wk =   0.0006662
        k(  348) = (   0.2313333   0.4006811   0.0000000), wk =   0.0006662
        k(  349) = (   0.2320000   0.4018358   0.0000000), wk =   0.0006662
        k(  350) = (   0.2326667   0.4029905   0.0000000), wk =   0.0006662
        k(  351) = (   0.2333333   0.4041452   0.0000000), wk =   0.0006662
        k(  352) = (   0.2340000   0.4052999   0.0000000), wk =   0.0006662
        k(  353) = (   0.2346667   0.4064546   0.0000000), wk =   0.0006662
        k(  354) = (   0.2353333   0.4076093   0.0000000), wk =   0.0006662
        k(  355) = (   0.2360000   0.4087640   0.0000000), wk =   0.0006662
        k(  356) = (   0.2366667   0.4099187   0.0000000), wk =   0.0006662
        k(  357) = (   0.2373333   0.4110734   0.0000000), wk =   0.0006662
        k(  358) = (   0.2380000   0.4122281   0.0000000), wk =   0.0006662
        k(  359) = (   0.2386667   0.4133828   0.0000000), wk =   0.0006662
        k(  360) = (   0.2393333   0.4145375   0.0000000), wk =   0.0006662
        k(  361) = (   0.2400000   0.4156922   0.0000000), wk =   0.0006662
        k(  362) = (   0.2406667   0.4168469   0.0000000), wk =   0.0006662
        k(  363) = (   0.2413333   0.4180016   0.0000000), wk =   0.0006662
        k(  364) = (   0.2420000   0.4191563   0.0000000), wk =   0.0006662
        k(  365) = (   0.2426667   0.4203110   0.0000000), wk =   0.0006662
        k(  366) = (   0.2433333   0.4214657   0.0000000), wk =   0.0006662
        k(  367) = (   0.2440000   0.4226204   0.0000000), wk =   0.0006662
        k(  368) = (   0.2446667   0.4237751   0.0000000), wk =   0.0006662
        k(  369) = (   0.2453333   0.4249298   0.0000000), wk =   0.0006662
        k(  370) = (   0.2460000   0.4260845   0.0000000), wk =   0.0006662
        k(  371) = (   0.2466667   0.4272392   0.0000000), wk =   0.0006662
        k(  372) = (   0.2473333   0.4283939   0.0000000), wk =   0.0006662
        k(  373) = (   0.2480000   0.4295486   0.0000000), wk =   0.0006662
        k(  374) = (   0.2486667   0.4307033   0.0000000), wk =   0.0006662
        k(  375) = (   0.2493333   0.4318580   0.0000000), wk =   0.0006662
        k(  376) = (   0.2500000   0.4330127   0.0000000), wk =   0.0006662
        k(  377) = (   0.2506667   0.4341674   0.0000000), wk =   0.0006662
        k(  378) = (   0.2513333   0.4353221   0.0000000), wk =   0.0006662
        k(  379) = (   0.2520000   0.4364768   0.0000000), wk =   0.0006662
        k(  380) = (   0.2526667   0.4376315   0.0000000), wk =   0.0006662
        k(  381) = (   0.2533333   0.4387862   0.0000000), wk =   0.0006662
        k(  382) = (   0.2540000   0.4399409   0.0000000), wk =   0.0006662
        k(  383) = (   0.2546667   0.4410956   0.0000000), wk =   0.0006662
        k(  384) = (   0.2553333   0.4422503   0.0000000), wk =   0.0006662
        k(  385) = (   0.2560000   0.4434050   0.0000000), wk =   0.0006662
        k(  386) = (   0.2566667   0.4445597   0.0000000), wk =   0.0006662
        k(  387) = (   0.2573333   0.4457144   0.0000000), wk =   0.0006662
        k(  388) = (   0.2580000   0.4468691   0.0000000), wk =   0.0006662
        k(  389) = (   0.2586667   0.4480238   0.0000000), wk =   0.0006662
        k(  390) = (   0.2593333   0.4491785   0.0000000), wk =   0.0006662
        k(  391) = (   0.2600000   0.4503332   0.0000000), wk =   0.0006662
        k(  392) = (   0.2606667   0.4514879   0.0000000), wk =   0.0006662
        k(  393) = (   0.2613333   0.4526426   0.0000000), wk =   0.0006662
        k(  394) = (   0.2620000   0.4537973   0.0000000), wk =   0.0006662
        k(  395) = (   0.2626667   0.4549520   0.0000000), wk =   0.0006662
        k(  396) = (   0.2633333   0.4561067   0.0000000), wk =   0.0006662
        k(  397) = (   0.2640000   0.4572614   0.0000000), wk =   0.0006662
        k(  398) = (   0.2646667   0.4584161   0.0000000), wk =   0.0006662
        k(  399) = (   0.2653333   0.4595708   0.0000000), wk =   0.0006662
        k(  400) = (   0.2660000   0.4607255   0.0000000), wk =   0.0006662
        k(  401) = (   0.2666667   0.4618802   0.0000000), wk =   0.0006662
        k(  402) = (   0.2673333   0.4630349   0.0000000), wk =   0.0006662
        k(  403) = (   0.2680000   0.4641896   0.0000000), wk =   0.0006662
        k(  404) = (   0.2686667   0.4653443   0.0000000), wk =   0.0006662
        k(  405) = (   0.2693333   0.4664990   0.0000000), wk =   0.0006662
        k(  406) = (   0.2700000   0.4676537   0.0000000), wk =   0.0006662
        k(  407) = (   0.2706667   0.4688084   0.0000000), wk =   0.0006662
        k(  408) = (   0.2713333   0.4699631   0.0000000), wk =   0.0006662
        k(  409) = (   0.2720000   0.4711178   0.0000000), wk =   0.0006662
        k(  410) = (   0.2726667   0.4722725   0.0000000), wk =   0.0006662
        k(  411) = (   0.2733333   0.4734272   0.0000000), wk =   0.0006662
        k(  412) = (   0.2740000   0.4745819   0.0000000), wk =   0.0006662
        k(  413) = (   0.2746667   0.4757366   0.0000000), wk =   0.0006662
        k(  414) = (   0.2753333   0.4768913   0.0000000), wk =   0.0006662
        k(  415) = (   0.2760000   0.4780460   0.0000000), wk =   0.0006662
        k(  416) = (   0.2766667   0.4792007   0.0000000), wk =   0.0006662
        k(  417) = (   0.2773333   0.4803554   0.0000000), wk =   0.0006662
        k(  418) = (   0.2780000   0.4815101   0.0000000), wk =   0.0006662
        k(  419) = (   0.2786667   0.4826648   0.0000000), wk =   0.0006662
        k(  420) = (   0.2793333   0.4838195   0.0000000), wk =   0.0006662
        k(  421) = (   0.2800000   0.4849742   0.0000000), wk =   0.0006662
        k(  422) = (   0.2806667   0.4861289   0.0000000), wk =   0.0006662
        k(  423) = (   0.2813333   0.4872836   0.0000000), wk =   0.0006662
        k(  424) = (   0.2820000   0.4884383   0.0000000), wk =   0.0006662
        k(  425) = (   0.2826667   0.4895930   0.0000000), wk =   0.0006662
        k(  426) = (   0.2833333   0.4907477   0.0000000), wk =   0.0006662
        k(  427) = (   0.2840000   0.4919024   0.0000000), wk =   0.0006662
        k(  428) = (   0.2846667   0.4930571   0.0000000), wk =   0.0006662
        k(  429) = (   0.2853333   0.4942118   0.0000000), wk =   0.0006662
        k(  430) = (   0.2860000   0.4953665   0.0000000), wk =   0.0006662
        k(  431) = (   0.2866667   0.4965212   0.0000000), wk =   0.0006662
        k(  432) = (   0.2873333   0.4976759   0.0000000), wk =   0.0006662
        k(  433) = (   0.2880000   0.4988306   0.0000000), wk =   0.0006662
        k(  434) = (   0.2886667   0.4999853   0.0000000), wk =   0.0006662
        k(  435) = (   0.2893333   0.5011400   0.0000000), wk =   0.0006662
        k(  436) = (   0.2900000   0.5022947   0.0000000), wk =   0.0006662
        k(  437) = (   0.2906667   0.5034494   0.0000000), wk =   0.0006662
        k(  438) = (   0.2913333   0.5046041   0.0000000), wk =   0.0006662
        k(  439) = (   0.2920000   0.5057588   0.0000000), wk =   0.0006662
        k(  440) = (   0.2926667   0.5069135   0.0000000), wk =   0.0006662
        k(  441) = (   0.2933333   0.5080682   0.0000000), wk =   0.0006662
        k(  442) = (   0.2940000   0.5092229   0.0000000), wk =   0.0006662
        k(  443) = (   0.2946667   0.5103776   0.0000000), wk =   0.0006662
        k(  444) = (   0.2953333   0.5115323   0.0000000), wk =   0.0006662
        k(  445) = (   0.2960000   0.5126870   0.0000000), wk =   0.0006662
        k(  446) = (   0.2966667   0.5138417   0.0000000), wk =   0.0006662
        k(  447) = (   0.2973333   0.5149964   0.0000000), wk =   0.0006662
        k(  448) = (   0.2980000   0.5161511   0.0000000), wk =   0.0006662
        k(  449) = (   0.2986667   0.5173058   0.0000000), wk =   0.0006662
        k(  450) = (   0.2993333   0.5184605   0.0000000), wk =   0.0006662
        k(  451) = (   0.3000000   0.5196152   0.0000000), wk =   0.0006662
        k(  452) = (   0.3006667   0.5207699   0.0000000), wk =   0.0006662
        k(  453) = (   0.3013333   0.5219246   0.0000000), wk =   0.0006662
        k(  454) = (   0.3020000   0.5230793   0.0000000), wk =   0.0006662
        k(  455) = (   0.3026667   0.5242340   0.0000000), wk =   0.0006662
        k(  456) = (   0.3033333   0.5253887   0.0000000), wk =   0.0006662
        k(  457) = (   0.3040000   0.5265434   0.0000000), wk =   0.0006662
        k(  458) = (   0.3046667   0.5276981   0.0000000), wk =   0.0006662
        k(  459) = (   0.3053333   0.5288528   0.0000000), wk =   0.0006662
        k(  460) = (   0.3060000   0.5300075   0.0000000), wk =   0.0006662
        k(  461) = (   0.3066667   0.5311622   0.0000000), wk =   0.0006662
        k(  462) = (   0.3073333   0.5323169   0.0000000), wk =   0.0006662
        k(  463) = (   0.3080000   0.5334716   0.0000000), wk =   0.0006662
        k(  464) = (   0.3086667   0.5346263   0.0000000), wk =   0.0006662
        k(  465) = (   0.3093333   0.5357810   0.0000000), wk =   0.0006662
        k(  466) = (   0.3100000   0.5369358   0.0000000), wk =   0.0006662
        k(  467) = (   0.3106667   0.5380905   0.0000000), wk =   0.0006662
        k(  468) = (   0.3113333   0.5392452   0.0000000), wk =   0.0006662
        k(  469) = (   0.3120000   0.5403999   0.0000000), wk =   0.0006662
        k(  470) = (   0.3126667   0.5415546   0.0000000), wk =   0.0006662
        k(  471) = (   0.3133333   0.5427093   0.0000000), wk =   0.0006662
        k(  472) = (   0.3140000   0.5438640   0.0000000), wk =   0.0006662
        k(  473) = (   0.3146667   0.5450187   0.0000000), wk =   0.0006662
        k(  474) = (   0.3153333   0.5461734   0.0000000), wk =   0.0006662
        k(  475) = (   0.3160000   0.5473281   0.0000000), wk =   0.0006662
        k(  476) = (   0.3166667   0.5484828   0.0000000), wk =   0.0006662
        k(  477) = (   0.3173333   0.5496375   0.0000000), wk =   0.0006662
        k(  478) = (   0.3180000   0.5507922   0.0000000), wk =   0.0006662
        k(  479) = (   0.3186667   0.5519469   0.0000000), wk =   0.0006662
        k(  480) = (   0.3193333   0.5531016   0.0000000), wk =   0.0006662
        k(  481) = (   0.3200000   0.5542563   0.0000000), wk =   0.0006662
        k(  482) = (   0.3206667   0.5554110   0.0000000), wk =   0.0006662
        k(  483) = (   0.3213333   0.5565657   0.0000000), wk =   0.0006662
        k(  484) = (   0.3220000   0.5577204   0.0000000), wk =   0.0006662
        k(  485) = (   0.3226667   0.5588751   0.0000000), wk =   0.0006662
        k(  486) = (   0.3233333   0.5600298   0.0000000), wk =   0.0006662
        k(  487) = (   0.3240000   0.5611845   0.0000000), wk =   0.0006662
        k(  488) = (   0.3246667   0.5623392   0.0000000), wk =   0.0006662
        k(  489) = (   0.3253333   0.5634939   0.0000000), wk =   0.0006662
        k(  490) = (   0.3260000   0.5646486   0.0000000), wk =   0.0006662
        k(  491) = (   0.3266667   0.5658033   0.0000000), wk =   0.0006662
        k(  492) = (   0.3273333   0.5669580   0.0000000), wk =   0.0006662
        k(  493) = (   0.3280000   0.5681127   0.0000000), wk =   0.0006662
        k(  494) = (   0.3286667   0.5692674   0.0000000), wk =   0.0006662
        k(  495) = (   0.3293333   0.5704221   0.0000000), wk =   0.0006662
        k(  496) = (   0.3300000   0.5715768   0.0000000), wk =   0.0006662
        k(  497) = (   0.3306667   0.5727315   0.0000000), wk =   0.0006662
        k(  498) = (   0.3313333   0.5738862   0.0000000), wk =   0.0006662
        k(  499) = (   0.3320000   0.5750409   0.0000000), wk =   0.0006662
        k(  500) = (   0.3326667   0.5761956   0.0000000), wk =   0.0006662
        k(  501) = (   0.3333333   0.5773503   0.0000000), wk =   0.0006662
        k(  502) = (   0.3336667   0.5767729   0.0000000), wk =   0.0006662
        k(  503) = (   0.3340000   0.5761956   0.0000000), wk =   0.0006662
        k(  504) = (   0.3343333   0.5756182   0.0000000), wk =   0.0006662
        k(  505) = (   0.3346667   0.5750409   0.0000000), wk =   0.0006662
        k(  506) = (   0.3350000   0.5744635   0.0000000), wk =   0.0006662
        k(  507) = (   0.3353333   0.5738862   0.0000000), wk =   0.0006662
        k(  508) = (   0.3356667   0.5733088   0.0000000), wk =   0.0006662
        k(  509) = (   0.3360000   0.5727315   0.0000000), wk =   0.0006662
        k(  510) = (   0.3363333   0.5721541   0.0000000), wk =   0.0006662
        k(  511) = (   0.3366667   0.5715768   0.0000000), wk =   0.0006662
        k(  512) = (   0.3370000   0.5709994   0.0000000), wk =   0.0006662
        k(  513) = (   0.3373333   0.5704221   0.0000000), wk =   0.0006662
        k(  514) = (   0.3376667   0.5698447   0.0000000), wk =   0.0006662
        k(  515) = (   0.3380000   0.5692674   0.0000000), wk =   0.0006662
        k(  516) = (   0.3383333   0.5686900   0.0000000), wk =   0.0006662
        k(  517) = (   0.3386667   0.5681127   0.0000000), wk =   0.0006662
        k(  518) = (   0.3390000   0.5675353   0.0000000), wk =   0.0006662
        k(  519) = (   0.3393333   0.5669580   0.0000000), wk =   0.0006662
        k(  520) = (   0.3396667   0.5663806   0.0000000), wk =   0.0006662
        k(  521) = (   0.3400000   0.5658033   0.0000000), wk =   0.0006662
        k(  522) = (   0.3403333   0.5652259   0.0000000), wk =   0.0006662
        k(  523) = (   0.3406667   0.5646486   0.0000000), wk =   0.0006662
        k(  524) = (   0.3410000   0.5640712   0.0000000), wk =   0.0006662
        k(  525) = (   0.3413333   0.5634939   0.0000000), wk =   0.0006662
        k(  526) = (   0.3416667   0.5629165   0.0000000), wk =   0.0006662
        k(  527) = (   0.3420000   0.5623392   0.0000000), wk =   0.0006662
        k(  528) = (   0.3423333   0.5617618   0.0000000), wk =   0.0006662
        k(  529) = (   0.3426667   0.5611845   0.0000000), wk =   0.0006662
        k(  530) = (   0.3430000   0.5606071   0.0000000), wk =   0.0006662
        k(  531) = (   0.3433333   0.5600298   0.0000000), wk =   0.0006662
        k(  532) = (   0.3436667   0.5594524   0.0000000), wk =   0.0006662
        k(  533) = (   0.3440000   0.5588751   0.0000000), wk =   0.0006662
        k(  534) = (   0.3443333   0.5582977   0.0000000), wk =   0.0006662
        k(  535) = (   0.3446667   0.5577204   0.0000000), wk =   0.0006662
        k(  536) = (   0.3450000   0.5571430   0.0000000), wk =   0.0006662
        k(  537) = (   0.3453333   0.5565657   0.0000000), wk =   0.0006662
        k(  538) = (   0.3456667   0.5559883   0.0000000), wk =   0.0006662
        k(  539) = (   0.3460000   0.5554110   0.0000000), wk =   0.0006662
        k(  540) = (   0.3463333   0.5548336   0.0000000), wk =   0.0006662
        k(  541) = (   0.3466667   0.5542563   0.0000000), wk =   0.0006662
        k(  542) = (   0.3470000   0.5536789   0.0000000), wk =   0.0006662
        k(  543) = (   0.3473333   0.5531016   0.0000000), wk =   0.0006662
        k(  544) = (   0.3476667   0.5525242   0.0000000), wk =   0.0006662
        k(  545) = (   0.3480000   0.5519469   0.0000000), wk =   0.0006662
        k(  546) = (   0.3483333   0.5513695   0.0000000), wk =   0.0006662
        k(  547) = (   0.3486667   0.5507922   0.0000000), wk =   0.0006662
        k(  548) = (   0.3490000   0.5502148   0.0000000), wk =   0.0006662
        k(  549) = (   0.3493333   0.5496375   0.0000000), wk =   0.0006662
        k(  550) = (   0.3496667   0.5490601   0.0000000), wk =   0.0006662
        k(  551) = (   0.3500000   0.5484828   0.0000000), wk =   0.0006662
        k(  552) = (   0.3503333   0.5479054   0.0000000), wk =   0.0006662
        k(  553) = (   0.3506667   0.5473281   0.0000000), wk =   0.0006662
        k(  554) = (   0.3510000   0.5467507   0.0000000), wk =   0.0006662
        k(  555) = (   0.3513333   0.5461734   0.0000000), wk =   0.0006662
        k(  556) = (   0.3516667   0.5455960   0.0000000), wk =   0.0006662
        k(  557) = (   0.3520000   0.5450187   0.0000000), wk =   0.0006662
        k(  558) = (   0.3523333   0.5444413   0.0000000), wk =   0.0006662
        k(  559) = (   0.3526667   0.5438640   0.0000000), wk =   0.0006662
        k(  560) = (   0.3530000   0.5432866   0.0000000), wk =   0.0006662
        k(  561) = (   0.3533333   0.5427093   0.0000000), wk =   0.0006662
        k(  562) = (   0.3536667   0.5421319   0.0000000), wk =   0.0006662
        k(  563) = (   0.3540000   0.5415546   0.0000000), wk =   0.0006662
        k(  564) = (   0.3543333   0.5409772   0.0000000), wk =   0.0006662
        k(  565) = (   0.3546667   0.5403999   0.0000000), wk =   0.0006662
        k(  566) = (   0.3550000   0.5398225   0.0000000), wk =   0.0006662
        k(  567) = (   0.3553333   0.5392452   0.0000000), wk =   0.0006662
        k(  568) = (   0.3556667   0.5386678   0.0000000), wk =   0.0006662
        k(  569) = (   0.3560000   0.5380905   0.0000000), wk =   0.0006662
        k(  570) = (   0.3563333   0.5375131   0.0000000), wk =   0.0006662
        k(  571) = (   0.3566667   0.5369358   0.0000000), wk =   0.0006662
        k(  572) = (   0.3570000   0.5363584   0.0000000), wk =   0.0006662
        k(  573) = (   0.3573333   0.5357810   0.0000000), wk =   0.0006662
        k(  574) = (   0.3576667   0.5352037   0.0000000), wk =   0.0006662
        k(  575) = (   0.3580000   0.5346263   0.0000000), wk =   0.0006662
        k(  576) = (   0.3583333   0.5340490   0.0000000), wk =   0.0006662
        k(  577) = (   0.3586667   0.5334716   0.0000000), wk =   0.0006662
        k(  578) = (   0.3590000   0.5328943   0.0000000), wk =   0.0006662
        k(  579) = (   0.3593333   0.5323169   0.0000000), wk =   0.0006662
        k(  580) = (   0.3596667   0.5317396   0.0000000), wk =   0.0006662
        k(  581) = (   0.3600000   0.5311622   0.0000000), wk =   0.0006662
        k(  582) = (   0.3603333   0.5305849   0.0000000), wk =   0.0006662
        k(  583) = (   0.3606667   0.5300075   0.0000000), wk =   0.0006662
        k(  584) = (   0.3610000   0.5294302   0.0000000), wk =   0.0006662
        k(  585) = (   0.3613333   0.5288528   0.0000000), wk =   0.0006662
        k(  586) = (   0.3616667   0.5282755   0.0000000), wk =   0.0006662
        k(  587) = (   0.3620000   0.5276981   0.0000000), wk =   0.0006662
        k(  588) = (   0.3623333   0.5271208   0.0000000), wk =   0.0006662
        k(  589) = (   0.3626667   0.5265434   0.0000000), wk =   0.0006662
        k(  590) = (   0.3630000   0.5259661   0.0000000), wk =   0.0006662
        k(  591) = (   0.3633333   0.5253887   0.0000000), wk =   0.0006662
        k(  592) = (   0.3636667   0.5248114   0.0000000), wk =   0.0006662
        k(  593) = (   0.3640000   0.5242340   0.0000000), wk =   0.0006662
        k(  594) = (   0.3643333   0.5236567   0.0000000), wk =   0.0006662
        k(  595) = (   0.3646667   0.5230793   0.0000000), wk =   0.0006662
        k(  596) = (   0.3650000   0.5225020   0.0000000), wk =   0.0006662
        k(  597) = (   0.3653333   0.5219246   0.0000000), wk =   0.0006662
        k(  598) = (   0.3656667   0.5213473   0.0000000), wk =   0.0006662
        k(  599) = (   0.3660000   0.5207699   0.0000000), wk =   0.0006662
        k(  600) = (   0.3663333   0.5201926   0.0000000), wk =   0.0006662
        k(  601) = (   0.3666667   0.5196152   0.0000000), wk =   0.0006662
        k(  602) = (   0.3670000   0.5190379   0.0000000), wk =   0.0006662
        k(  603) = (   0.3673333   0.5184605   0.0000000), wk =   0.0006662
        k(  604) = (   0.3676667   0.5178832   0.0000000), wk =   0.0006662
        k(  605) = (   0.3680000   0.5173058   0.0000000), wk =   0.0006662
        k(  606) = (   0.3683333   0.5167285   0.0000000), wk =   0.0006662
        k(  607) = (   0.3686667   0.5161511   0.0000000), wk =   0.0006662
        k(  608) = (   0.3690000   0.5155738   0.0000000), wk =   0.0006662
        k(  609) = (   0.3693333   0.5149964   0.0000000), wk =   0.0006662
        k(  610) = (   0.3696667   0.5144191   0.0000000), wk =   0.0006662
        k(  611) = (   0.3700000   0.5138417   0.0000000), wk =   0.0006662
        k(  612) = (   0.3703333   0.5132644   0.0000000), wk =   0.0006662
        k(  613) = (   0.3706667   0.5126870   0.0000000), wk =   0.0006662
        k(  614) = (   0.3710000   0.5121097   0.0000000), wk =   0.0006662
        k(  615) = (   0.3713333   0.5115323   0.0000000), wk =   0.0006662
        k(  616) = (   0.3716667   0.5109550   0.0000000), wk =   0.0006662
        k(  617) = (   0.3720000   0.5103776   0.0000000), wk =   0.0006662
        k(  618) = (   0.3723333   0.5098003   0.0000000), wk =   0.0006662
        k(  619) = (   0.3726667   0.5092229   0.0000000), wk =   0.0006662
        k(  620) = (   0.3730000   0.5086456   0.0000000), wk =   0.0006662
        k(  621) = (   0.3733333   0.5080682   0.0000000), wk =   0.0006662
        k(  622) = (   0.3736667   0.5074909   0.0000000), wk =   0.0006662
        k(  623) = (   0.3740000   0.5069135   0.0000000), wk =   0.0006662
        k(  624) = (   0.3743333   0.5063362   0.0000000), wk =   0.0006662
        k(  625) = (   0.3746667   0.5057588   0.0000000), wk =   0.0006662
        k(  626) = (   0.3750000   0.5051815   0.0000000), wk =   0.0006662
        k(  627) = (   0.3753333   0.5046041   0.0000000), wk =   0.0006662
        k(  628) = (   0.3756667   0.5040268   0.0000000), wk =   0.0006662
        k(  629) = (   0.3760000   0.5034494   0.0000000), wk =   0.0006662
        k(  630) = (   0.3763333   0.5028721   0.0000000), wk =   0.0006662
        k(  631) = (   0.3766667   0.5022947   0.0000000), wk =   0.0006662
        k(  632) = (   0.3770000   0.5017174   0.0000000), wk =   0.0006662
        k(  633) = (   0.3773333   0.5011400   0.0000000), wk =   0.0006662
        k(  634) = (   0.3776667   0.5005627   0.0000000), wk =   0.0006662
        k(  635) = (   0.3780000   0.4999853   0.0000000), wk =   0.0006662
        k(  636) = (   0.3783333   0.4994080   0.0000000), wk =   0.0006662
        k(  637) = (   0.3786667   0.4988306   0.0000000), wk =   0.0006662
        k(  638) = (   0.3790000   0.4982533   0.0000000), wk =   0.0006662
        k(  639) = (   0.3793333   0.4976759   0.0000000), wk =   0.0006662
        k(  640) = (   0.3796667   0.4970986   0.0000000), wk =   0.0006662
        k(  641) = (   0.3800000   0.4965212   0.0000000), wk =   0.0006662
        k(  642) = (   0.3803333   0.4959439   0.0000000), wk =   0.0006662
        k(  643) = (   0.3806667   0.4953665   0.0000000), wk =   0.0006662
        k(  644) = (   0.3810000   0.4947892   0.0000000), wk =   0.0006662
        k(  645) = (   0.3813333   0.4942118   0.0000000), wk =   0.0006662
        k(  646) = (   0.3816667   0.4936345   0.0000000), wk =   0.0006662
        k(  647) = (   0.3820000   0.4930571   0.0000000), wk =   0.0006662
        k(  648) = (   0.3823333   0.4924798   0.0000000), wk =   0.0006662
        k(  649) = (   0.3826667   0.4919024   0.0000000), wk =   0.0006662
        k(  650) = (   0.3830000   0.4913251   0.0000000), wk =   0.0006662
        k(  651) = (   0.3833333   0.4907477   0.0000000), wk =   0.0006662
        k(  652) = (   0.3836667   0.4901704   0.0000000), wk =   0.0006662
        k(  653) = (   0.3840000   0.4895930   0.0000000), wk =   0.0006662
        k(  654) = (   0.3843333   0.4890157   0.0000000), wk =   0.0006662
        k(  655) = (   0.3846667   0.4884383   0.0000000), wk =   0.0006662
        k(  656) = (   0.3850000   0.4878610   0.0000000), wk =   0.0006662
        k(  657) = (   0.3853333   0.4872836   0.0000000), wk =   0.0006662
        k(  658) = (   0.3856667   0.4867063   0.0000000), wk =   0.0006662
        k(  659) = (   0.3860000   0.4861289   0.0000000), wk =   0.0006662
        k(  660) = (   0.3863333   0.4855516   0.0000000), wk =   0.0006662
        k(  661) = (   0.3866667   0.4849742   0.0000000), wk =   0.0006662
        k(  662) = (   0.3870000   0.4843969   0.0000000), wk =   0.0006662
        k(  663) = (   0.3873333   0.4838195   0.0000000), wk =   0.0006662
        k(  664) = (   0.3876667   0.4832422   0.0000000), wk =   0.0006662
        k(  665) = (   0.3880000   0.4826648   0.0000000), wk =   0.0006662
        k(  666) = (   0.3883333   0.4820875   0.0000000), wk =   0.0006662
        k(  667) = (   0.3886667   0.4815101   0.0000000), wk =   0.0006662
        k(  668) = (   0.3890000   0.4809328   0.0000000), wk =   0.0006662
        k(  669) = (   0.3893333   0.4803554   0.0000000), wk =   0.0006662
        k(  670) = (   0.3896667   0.4797781   0.0000000), wk =   0.0006662
        k(  671) = (   0.3900000   0.4792007   0.0000000), wk =   0.0006662
        k(  672) = (   0.3903333   0.4786234   0.0000000), wk =   0.0006662
        k(  673) = (   0.3906667   0.4780460   0.0000000), wk =   0.0006662
        k(  674) = (   0.3910000   0.4774687   0.0000000), wk =   0.0006662
        k(  675) = (   0.3913333   0.4768913   0.0000000), wk =   0.0006662
        k(  676) = (   0.3916667   0.4763140   0.0000000), wk =   0.0006662
        k(  677) = (   0.3920000   0.4757366   0.0000000), wk =   0.0006662
        k(  678) = (   0.3923333   0.4751593   0.0000000), wk =   0.0006662
        k(  679) = (   0.3926667   0.4745819   0.0000000), wk =   0.0006662
        k(  680) = (   0.3930000   0.4740046   0.0000000), wk =   0.0006662
        k(  681) = (   0.3933333   0.4734272   0.0000000), wk =   0.0006662
        k(  682) = (   0.3936667   0.4728499   0.0000000), wk =   0.0006662
        k(  683) = (   0.3940000   0.4722725   0.0000000), wk =   0.0006662
        k(  684) = (   0.3943333   0.4716952   0.0000000), wk =   0.0006662
        k(  685) = (   0.3946667   0.4711178   0.0000000), wk =   0.0006662
        k(  686) = (   0.3950000   0.4705405   0.0000000), wk =   0.0006662
        k(  687) = (   0.3953333   0.4699631   0.0000000), wk =   0.0006662
        k(  688) = (   0.3956667   0.4693858   0.0000000), wk =   0.0006662
        k(  689) = (   0.3960000   0.4688084   0.0000000), wk =   0.0006662
        k(  690) = (   0.3963333   0.4682311   0.0000000), wk =   0.0006662
        k(  691) = (   0.3966667   0.4676537   0.0000000), wk =   0.0006662
        k(  692) = (   0.3970000   0.4670764   0.0000000), wk =   0.0006662
        k(  693) = (   0.3973333   0.4664990   0.0000000), wk =   0.0006662
        k(  694) = (   0.3976667   0.4659217   0.0000000), wk =   0.0006662
        k(  695) = (   0.3980000   0.4653443   0.0000000), wk =   0.0006662
        k(  696) = (   0.3983333   0.4647670   0.0000000), wk =   0.0006662
        k(  697) = (   0.3986667   0.4641896   0.0000000), wk =   0.0006662
        k(  698) = (   0.3990000   0.4636123   0.0000000), wk =   0.0006662
        k(  699) = (   0.3993333   0.4630349   0.0000000), wk =   0.0006662
        k(  700) = (   0.3996667   0.4624576   0.0000000), wk =   0.0006662
        k(  701) = (   0.4000000   0.4618802   0.0000000), wk =   0.0006662
        k(  702) = (   0.4003333   0.4613029   0.0000000), wk =   0.0006662
        k(  703) = (   0.4006667   0.4607255   0.0000000), wk =   0.0006662
        k(  704) = (   0.4010000   0.4601482   0.0000000), wk =   0.0006662
        k(  705) = (   0.4013333   0.4595708   0.0000000), wk =   0.0006662
        k(  706) = (   0.4016667   0.4589935   0.0000000), wk =   0.0006662
        k(  707) = (   0.4020000   0.4584161   0.0000000), wk =   0.0006662
        k(  708) = (   0.4023333   0.4578388   0.0000000), wk =   0.0006662
        k(  709) = (   0.4026667   0.4572614   0.0000000), wk =   0.0006662
        k(  710) = (   0.4030000   0.4566841   0.0000000), wk =   0.0006662
        k(  711) = (   0.4033333   0.4561067   0.0000000), wk =   0.0006662
        k(  712) = (   0.4036667   0.4555294   0.0000000), wk =   0.0006662
        k(  713) = (   0.4040000   0.4549520   0.0000000), wk =   0.0006662
        k(  714) = (   0.4043333   0.4543747   0.0000000), wk =   0.0006662
        k(  715) = (   0.4046667   0.4537973   0.0000000), wk =   0.0006662
        k(  716) = (   0.4050000   0.4532200   0.0000000), wk =   0.0006662
        k(  717) = (   0.4053333   0.4526426   0.0000000), wk =   0.0006662
        k(  718) = (   0.4056667   0.4520653   0.0000000), wk =   0.0006662
        k(  719) = (   0.4060000   0.4514879   0.0000000), wk =   0.0006662
        k(  720) = (   0.4063333   0.4509106   0.0000000), wk =   0.0006662
        k(  721) = (   0.4066667   0.4503332   0.0000000), wk =   0.0006662
        k(  722) = (   0.4070000   0.4497559   0.0000000), wk =   0.0006662
        k(  723) = (   0.4073333   0.4491785   0.0000000), wk =   0.0006662
        k(  724) = (   0.4076667   0.4486012   0.0000000), wk =   0.0006662
        k(  725) = (   0.4080000   0.4480238   0.0000000), wk =   0.0006662
        k(  726) = (   0.4083333   0.4474465   0.0000000), wk =   0.0006662
        k(  727) = (   0.4086667   0.4468691   0.0000000), wk =   0.0006662
        k(  728) = (   0.4090000   0.4462918   0.0000000), wk =   0.0006662
        k(  729) = (   0.4093333   0.4457144   0.0000000), wk =   0.0006662
        k(  730) = (   0.4096667   0.4451371   0.0000000), wk =   0.0006662
        k(  731) = (   0.4100000   0.4445597   0.0000000), wk =   0.0006662
        k(  732) = (   0.4103333   0.4439824   0.0000000), wk =   0.0006662
        k(  733) = (   0.4106667   0.4434050   0.0000000), wk =   0.0006662
        k(  734) = (   0.4110000   0.4428277   0.0000000), wk =   0.0006662
        k(  735) = (   0.4113333   0.4422503   0.0000000), wk =   0.0006662
        k(  736) = (   0.4116667   0.4416730   0.0000000), wk =   0.0006662
        k(  737) = (   0.4120000   0.4410956   0.0000000), wk =   0.0006662
        k(  738) = (   0.4123333   0.4405183   0.0000000), wk =   0.0006662
        k(  739) = (   0.4126667   0.4399409   0.0000000), wk =   0.0006662
        k(  740) = (   0.4130000   0.4393636   0.0000000), wk =   0.0006662
        k(  741) = (   0.4133333   0.4387862   0.0000000), wk =   0.0006662
        k(  742) = (   0.4136667   0.4382089   0.0000000), wk =   0.0006662
        k(  743) = (   0.4140000   0.4376315   0.0000000), wk =   0.0006662
        k(  744) = (   0.4143333   0.4370542   0.0000000), wk =   0.0006662
        k(  745) = (   0.4146667   0.4364768   0.0000000), wk =   0.0006662
        k(  746) = (   0.4150000   0.4358995   0.0000000), wk =   0.0006662
        k(  747) = (   0.4153333   0.4353221   0.0000000), wk =   0.0006662
        k(  748) = (   0.4156667   0.4347448   0.0000000), wk =   0.0006662
        k(  749) = (   0.4160000   0.4341674   0.0000000), wk =   0.0006662
        k(  750) = (   0.4163333   0.4335901   0.0000000), wk =   0.0006662
        k(  751) = (   0.4166667   0.4330127   0.0000000), wk =   0.0006662
        k(  752) = (   0.4170000   0.4324354   0.0000000), wk =   0.0006662
        k(  753) = (   0.4173333   0.4318580   0.0000000), wk =   0.0006662
        k(  754) = (   0.4176667   0.4312807   0.0000000), wk =   0.0006662
        k(  755) = (   0.4180000   0.4307033   0.0000000), wk =   0.0006662
        k(  756) = (   0.4183333   0.4301260   0.0000000), wk =   0.0006662
        k(  757) = (   0.4186667   0.4295486   0.0000000), wk =   0.0006662
        k(  758) = (   0.4190000   0.4289713   0.0000000), wk =   0.0006662
        k(  759) = (   0.4193333   0.4283939   0.0000000), wk =   0.0006662
        k(  760) = (   0.4196667   0.4278165   0.0000000), wk =   0.0006662
        k(  761) = (   0.4200000   0.4272392   0.0000000), wk =   0.0006662
        k(  762) = (   0.4203333   0.4266618   0.0000000), wk =   0.0006662
        k(  763) = (   0.4206667   0.4260845   0.0000000), wk =   0.0006662
        k(  764) = (   0.4210000   0.4255071   0.0000000), wk =   0.0006662
        k(  765) = (   0.4213333   0.4249298   0.0000000), wk =   0.0006662
        k(  766) = (   0.4216667   0.4243524   0.0000000), wk =   0.0006662
        k(  767) = (   0.4220000   0.4237751   0.0000000), wk =   0.0006662
        k(  768) = (   0.4223333   0.4231977   0.0000000), wk =   0.0006662
        k(  769) = (   0.4226667   0.4226204   0.0000000), wk =   0.0006662
        k(  770) = (   0.4230000   0.4220430   0.0000000), wk =   0.0006662
        k(  771) = (   0.4233333   0.4214657   0.0000000), wk =   0.0006662
        k(  772) = (   0.4236667   0.4208883   0.0000000), wk =   0.0006662
        k(  773) = (   0.4240000   0.4203110   0.0000000), wk =   0.0006662
        k(  774) = (   0.4243333   0.4197336   0.0000000), wk =   0.0006662
        k(  775) = (   0.4246667   0.4191563   0.0000000), wk =   0.0006662
        k(  776) = (   0.4250000   0.4185789   0.0000000), wk =   0.0006662
        k(  777) = (   0.4253333   0.4180016   0.0000000), wk =   0.0006662
        k(  778) = (   0.4256667   0.4174242   0.0000000), wk =   0.0006662
        k(  779) = (   0.4260000   0.4168469   0.0000000), wk =   0.0006662
        k(  780) = (   0.4263333   0.4162695   0.0000000), wk =   0.0006662
        k(  781) = (   0.4266667   0.4156922   0.0000000), wk =   0.0006662
        k(  782) = (   0.4270000   0.4151148   0.0000000), wk =   0.0006662
        k(  783) = (   0.4273333   0.4145375   0.0000000), wk =   0.0006662
        k(  784) = (   0.4276667   0.4139601   0.0000000), wk =   0.0006662
        k(  785) = (   0.4280000   0.4133828   0.0000000), wk =   0.0006662
        k(  786) = (   0.4283333   0.4128054   0.0000000), wk =   0.0006662
        k(  787) = (   0.4286667   0.4122281   0.0000000), wk =   0.0006662
        k(  788) = (   0.4290000   0.4116507   0.0000000), wk =   0.0006662
        k(  789) = (   0.4293333   0.4110734   0.0000000), wk =   0.0006662
        k(  790) = (   0.4296667   0.4104960   0.0000000), wk =   0.0006662
        k(  791) = (   0.4300000   0.4099187   0.0000000), wk =   0.0006662
        k(  792) = (   0.4303333   0.4093413   0.0000000), wk =   0.0006662
        k(  793) = (   0.4306667   0.4087640   0.0000000), wk =   0.0006662
        k(  794) = (   0.4310000   0.4081866   0.0000000), wk =   0.0006662
        k(  795) = (   0.4313333   0.4076093   0.0000000), wk =   0.0006662
        k(  796) = (   0.4316667   0.4070319   0.0000000), wk =   0.0006662
        k(  797) = (   0.4320000   0.4064546   0.0000000), wk =   0.0006662
        k(  798) = (   0.4323333   0.4058772   0.0000000), wk =   0.0006662
        k(  799) = (   0.4326667   0.4052999   0.0000000), wk =   0.0006662
        k(  800) = (   0.4330000   0.4047225   0.0000000), wk =   0.0006662
        k(  801) = (   0.4333333   0.4041452   0.0000000), wk =   0.0006662
        k(  802) = (   0.4336667   0.4035678   0.0000000), wk =   0.0006662
        k(  803) = (   0.4340000   0.4029905   0.0000000), wk =   0.0006662
        k(  804) = (   0.4343333   0.4024131   0.0000000), wk =   0.0006662
        k(  805) = (   0.4346667   0.4018358   0.0000000), wk =   0.0006662
        k(  806) = (   0.4350000   0.4012584   0.0000000), wk =   0.0006662
        k(  807) = (   0.4353333   0.4006811   0.0000000), wk =   0.0006662
        k(  808) = (   0.4356667   0.4001037   0.0000000), wk =   0.0006662
        k(  809) = (   0.4360000   0.3995264   0.0000000), wk =   0.0006662
        k(  810) = (   0.4363333   0.3989490   0.0000000), wk =   0.0006662
        k(  811) = (   0.4366667   0.3983717   0.0000000), wk =   0.0006662
        k(  812) = (   0.4370000   0.3977943   0.0000000), wk =   0.0006662
        k(  813) = (   0.4373333   0.3972170   0.0000000), wk =   0.0006662
        k(  814) = (   0.4376667   0.3966396   0.0000000), wk =   0.0006662
        k(  815) = (   0.4380000   0.3960623   0.0000000), wk =   0.0006662
        k(  816) = (   0.4383333   0.3954849   0.0000000), wk =   0.0006662
        k(  817) = (   0.4386667   0.3949076   0.0000000), wk =   0.0006662
        k(  818) = (   0.4390000   0.3943302   0.0000000), wk =   0.0006662
        k(  819) = (   0.4393333   0.3937529   0.0000000), wk =   0.0006662
        k(  820) = (   0.4396667   0.3931755   0.0000000), wk =   0.0006662
        k(  821) = (   0.4400000   0.3925982   0.0000000), wk =   0.0006662
        k(  822) = (   0.4403333   0.3920208   0.0000000), wk =   0.0006662
        k(  823) = (   0.4406667   0.3914435   0.0000000), wk =   0.0006662
        k(  824) = (   0.4410000   0.3908661   0.0000000), wk =   0.0006662
        k(  825) = (   0.4413333   0.3902888   0.0000000), wk =   0.0006662
        k(  826) = (   0.4416667   0.3897114   0.0000000), wk =   0.0006662
        k(  827) = (   0.4420000   0.3891341   0.0000000), wk =   0.0006662
        k(  828) = (   0.4423333   0.3885567   0.0000000), wk =   0.0006662
        k(  829) = (   0.4426667   0.3879794   0.0000000), wk =   0.0006662
        k(  830) = (   0.4430000   0.3874020   0.0000000), wk =   0.0006662
        k(  831) = (   0.4433333   0.3868247   0.0000000), wk =   0.0006662
        k(  832) = (   0.4436667   0.3862473   0.0000000), wk =   0.0006662
        k(  833) = (   0.4440000   0.3856700   0.0000000), wk =   0.0006662
        k(  834) = (   0.4443333   0.3850926   0.0000000), wk =   0.0006662
        k(  835) = (   0.4446667   0.3845153   0.0000000), wk =   0.0006662
        k(  836) = (   0.4450000   0.3839379   0.0000000), wk =   0.0006662
        k(  837) = (   0.4453333   0.3833606   0.0000000), wk =   0.0006662
        k(  838) = (   0.4456667   0.3827832   0.0000000), wk =   0.0006662
        k(  839) = (   0.4460000   0.3822059   0.0000000), wk =   0.0006662
        k(  840) = (   0.4463333   0.3816285   0.0000000), wk =   0.0006662
        k(  841) = (   0.4466667   0.3810512   0.0000000), wk =   0.0006662
        k(  842) = (   0.4470000   0.3804738   0.0000000), wk =   0.0006662
        k(  843) = (   0.4473333   0.3798965   0.0000000), wk =   0.0006662
        k(  844) = (   0.4476667   0.3793191   0.0000000), wk =   0.0006662
        k(  845) = (   0.4480000   0.3787418   0.0000000), wk =   0.0006662
        k(  846) = (   0.4483333   0.3781644   0.0000000), wk =   0.0006662
        k(  847) = (   0.4486667   0.3775871   0.0000000), wk =   0.0006662
        k(  848) = (   0.4490000   0.3770097   0.0000000), wk =   0.0006662
        k(  849) = (   0.4493333   0.3764324   0.0000000), wk =   0.0006662
        k(  850) = (   0.4496667   0.3758550   0.0000000), wk =   0.0006662
        k(  851) = (   0.4500000   0.3752777   0.0000000), wk =   0.0006662
        k(  852) = (   0.4503333   0.3747003   0.0000000), wk =   0.0006662
        k(  853) = (   0.4506667   0.3741230   0.0000000), wk =   0.0006662
        k(  854) = (   0.4510000   0.3735456   0.0000000), wk =   0.0006662
        k(  855) = (   0.4513333   0.3729683   0.0000000), wk =   0.0006662
        k(  856) = (   0.4516667   0.3723909   0.0000000), wk =   0.0006662
        k(  857) = (   0.4520000   0.3718136   0.0000000), wk =   0.0006662
        k(  858) = (   0.4523333   0.3712362   0.0000000), wk =   0.0006662
        k(  859) = (   0.4526667   0.3706589   0.0000000), wk =   0.0006662
        k(  860) = (   0.4530000   0.3700815   0.0000000), wk =   0.0006662
        k(  861) = (   0.4533333   0.3695042   0.0000000), wk =   0.0006662
        k(  862) = (   0.4536667   0.3689268   0.0000000), wk =   0.0006662
        k(  863) = (   0.4540000   0.3683495   0.0000000), wk =   0.0006662
        k(  864) = (   0.4543333   0.3677721   0.0000000), wk =   0.0006662
        k(  865) = (   0.4546667   0.3671948   0.0000000), wk =   0.0006662
        k(  866) = (   0.4550000   0.3666174   0.0000000), wk =   0.0006662
        k(  867) = (   0.4553333   0.3660401   0.0000000), wk =   0.0006662
        k(  868) = (   0.4556667   0.3654627   0.0000000), wk =   0.0006662
        k(  869) = (   0.4560000   0.3648854   0.0000000), wk =   0.0006662
        k(  870) = (   0.4563333   0.3643080   0.0000000), wk =   0.0006662
        k(  871) = (   0.4566667   0.3637307   0.0000000), wk =   0.0006662
        k(  872) = (   0.4570000   0.3631533   0.0000000), wk =   0.0006662
        k(  873) = (   0.4573333   0.3625760   0.0000000), wk =   0.0006662
        k(  874) = (   0.4576667   0.3619986   0.0000000), wk =   0.0006662
        k(  875) = (   0.4580000   0.3614213   0.0000000), wk =   0.0006662
        k(  876) = (   0.4583333   0.3608439   0.0000000), wk =   0.0006662
        k(  877) = (   0.4586667   0.3602666   0.0000000), wk =   0.0006662
        k(  878) = (   0.4590000   0.3596892   0.0000000), wk =   0.0006662
        k(  879) = (   0.4593333   0.3591119   0.0000000), wk =   0.0006662
        k(  880) = (   0.4596667   0.3585345   0.0000000), wk =   0.0006662
        k(  881) = (   0.4600000   0.3579572   0.0000000), wk =   0.0006662
        k(  882) = (   0.4603333   0.3573798   0.0000000), wk =   0.0006662
        k(  883) = (   0.4606667   0.3568025   0.0000000), wk =   0.0006662
        k(  884) = (   0.4610000   0.3562251   0.0000000), wk =   0.0006662
        k(  885) = (   0.4613333   0.3556478   0.0000000), wk =   0.0006662
        k(  886) = (   0.4616667   0.3550704   0.0000000), wk =   0.0006662
        k(  887) = (   0.4620000   0.3544931   0.0000000), wk =   0.0006662
        k(  888) = (   0.4623333   0.3539157   0.0000000), wk =   0.0006662
        k(  889) = (   0.4626667   0.3533384   0.0000000), wk =   0.0006662
        k(  890) = (   0.4630000   0.3527610   0.0000000), wk =   0.0006662
        k(  891) = (   0.4633333   0.3521837   0.0000000), wk =   0.0006662
        k(  892) = (   0.4636667   0.3516063   0.0000000), wk =   0.0006662
        k(  893) = (   0.4640000   0.3510290   0.0000000), wk =   0.0006662
        k(  894) = (   0.4643333   0.3504516   0.0000000), wk =   0.0006662
        k(  895) = (   0.4646667   0.3498743   0.0000000), wk =   0.0006662
        k(  896) = (   0.4650000   0.3492969   0.0000000), wk =   0.0006662
        k(  897) = (   0.4653333   0.3487196   0.0000000), wk =   0.0006662
        k(  898) = (   0.4656667   0.3481422   0.0000000), wk =   0.0006662
        k(  899) = (   0.4660000   0.3475649   0.0000000), wk =   0.0006662
        k(  900) = (   0.4663333   0.3469875   0.0000000), wk =   0.0006662
        k(  901) = (   0.4666667   0.3464102   0.0000000), wk =   0.0006662
        k(  902) = (   0.4670000   0.3458328   0.0000000), wk =   0.0006662
        k(  903) = (   0.4673333   0.3452555   0.0000000), wk =   0.0006662
        k(  904) = (   0.4676667   0.3446781   0.0000000), wk =   0.0006662
        k(  905) = (   0.4680000   0.3441008   0.0000000), wk =   0.0006662
        k(  906) = (   0.4683333   0.3435234   0.0000000), wk =   0.0006662
        k(  907) = (   0.4686667   0.3429461   0.0000000), wk =   0.0006662
        k(  908) = (   0.4690000   0.3423687   0.0000000), wk =   0.0006662
        k(  909) = (   0.4693333   0.3417914   0.0000000), wk =   0.0006662
        k(  910) = (   0.4696667   0.3412140   0.0000000), wk =   0.0006662
        k(  911) = (   0.4700000   0.3406367   0.0000000), wk =   0.0006662
        k(  912) = (   0.4703333   0.3400593   0.0000000), wk =   0.0006662
        k(  913) = (   0.4706667   0.3394820   0.0000000), wk =   0.0006662
        k(  914) = (   0.4710000   0.3389046   0.0000000), wk =   0.0006662
        k(  915) = (   0.4713333   0.3383273   0.0000000), wk =   0.0006662
        k(  916) = (   0.4716667   0.3377499   0.0000000), wk =   0.0006662
        k(  917) = (   0.4720000   0.3371726   0.0000000), wk =   0.0006662
        k(  918) = (   0.4723333   0.3365952   0.0000000), wk =   0.0006662
        k(  919) = (   0.4726667   0.3360179   0.0000000), wk =   0.0006662
        k(  920) = (   0.4730000   0.3354405   0.0000000), wk =   0.0006662
        k(  921) = (   0.4733333   0.3348632   0.0000000), wk =   0.0006662
        k(  922) = (   0.4736667   0.3342858   0.0000000), wk =   0.0006662
        k(  923) = (   0.4740000   0.3337085   0.0000000), wk =   0.0006662
        k(  924) = (   0.4743333   0.3331311   0.0000000), wk =   0.0006662
        k(  925) = (   0.4746667   0.3325538   0.0000000), wk =   0.0006662
        k(  926) = (   0.4750000   0.3319764   0.0000000), wk =   0.0006662
        k(  927) = (   0.4753333   0.3313991   0.0000000), wk =   0.0006662
        k(  928) = (   0.4756667   0.3308217   0.0000000), wk =   0.0006662
        k(  929) = (   0.4760000   0.3302444   0.0000000), wk =   0.0006662
        k(  930) = (   0.4763333   0.3296670   0.0000000), wk =   0.0006662
        k(  931) = (   0.4766667   0.3290897   0.0000000), wk =   0.0006662
        k(  932) = (   0.4770000   0.3285123   0.0000000), wk =   0.0006662
        k(  933) = (   0.4773333   0.3279350   0.0000000), wk =   0.0006662
        k(  934) = (   0.4776667   0.3273576   0.0000000), wk =   0.0006662
        k(  935) = (   0.4780000   0.3267803   0.0000000), wk =   0.0006662
        k(  936) = (   0.4783333   0.3262029   0.0000000), wk =   0.0006662
        k(  937) = (   0.4786667   0.3256256   0.0000000), wk =   0.0006662
        k(  938) = (   0.4790000   0.3250482   0.0000000), wk =   0.0006662
        k(  939) = (   0.4793333   0.3244709   0.0000000), wk =   0.0006662
        k(  940) = (   0.4796667   0.3238935   0.0000000), wk =   0.0006662
        k(  941) = (   0.4800000   0.3233162   0.0000000), wk =   0.0006662
        k(  942) = (   0.4803333   0.3227388   0.0000000), wk =   0.0006662
        k(  943) = (   0.4806667   0.3221615   0.0000000), wk =   0.0006662
        k(  944) = (   0.4810000   0.3215841   0.0000000), wk =   0.0006662
        k(  945) = (   0.4813333   0.3210067   0.0000000), wk =   0.0006662
        k(  946) = (   0.4816667   0.3204294   0.0000000), wk =   0.0006662
        k(  947) = (   0.4820000   0.3198520   0.0000000), wk =   0.0006662
        k(  948) = (   0.4823333   0.3192747   0.0000000), wk =   0.0006662
        k(  949) = (   0.4826667   0.3186973   0.0000000), wk =   0.0006662
        k(  950) = (   0.4830000   0.3181200   0.0000000), wk =   0.0006662
        k(  951) = (   0.4833333   0.3175426   0.0000000), wk =   0.0006662
        k(  952) = (   0.4836667   0.3169653   0.0000000), wk =   0.0006662
        k(  953) = (   0.4840000   0.3163879   0.0000000), wk =   0.0006662
        k(  954) = (   0.4843333   0.3158106   0.0000000), wk =   0.0006662
        k(  955) = (   0.4846667   0.3152332   0.0000000), wk =   0.0006662
        k(  956) = (   0.4850000   0.3146559   0.0000000), wk =   0.0006662
        k(  957) = (   0.4853333   0.3140785   0.0000000), wk =   0.0006662
        k(  958) = (   0.4856667   0.3135012   0.0000000), wk =   0.0006662
        k(  959) = (   0.4860000   0.3129238   0.0000000), wk =   0.0006662
        k(  960) = (   0.4863333   0.3123465   0.0000000), wk =   0.0006662
        k(  961) = (   0.4866667   0.3117691   0.0000000), wk =   0.0006662
        k(  962) = (   0.4870000   0.3111918   0.0000000), wk =   0.0006662
        k(  963) = (   0.4873333   0.3106144   0.0000000), wk =   0.0006662
        k(  964) = (   0.4876667   0.3100371   0.0000000), wk =   0.0006662
        k(  965) = (   0.4880000   0.3094597   0.0000000), wk =   0.0006662
        k(  966) = (   0.4883333   0.3088824   0.0000000), wk =   0.0006662
        k(  967) = (   0.4886667   0.3083050   0.0000000), wk =   0.0006662
        k(  968) = (   0.4890000   0.3077277   0.0000000), wk =   0.0006662
        k(  969) = (   0.4893333   0.3071503   0.0000000), wk =   0.0006662
        k(  970) = (   0.4896667   0.3065730   0.0000000), wk =   0.0006662
        k(  971) = (   0.4900000   0.3059956   0.0000000), wk =   0.0006662
        k(  972) = (   0.4903333   0.3054183   0.0000000), wk =   0.0006662
        k(  973) = (   0.4906667   0.3048409   0.0000000), wk =   0.0006662
        k(  974) = (   0.4910000   0.3042636   0.0000000), wk =   0.0006662
        k(  975) = (   0.4913333   0.3036862   0.0000000), wk =   0.0006662
        k(  976) = (   0.4916667   0.3031089   0.0000000), wk =   0.0006662
        k(  977) = (   0.4920000   0.3025315   0.0000000), wk =   0.0006662
        k(  978) = (   0.4923333   0.3019542   0.0000000), wk =   0.0006662
        k(  979) = (   0.4926667   0.3013768   0.0000000), wk =   0.0006662
        k(  980) = (   0.4930000   0.3007995   0.0000000), wk =   0.0006662
        k(  981) = (   0.4933333   0.3002221   0.0000000), wk =   0.0006662
        k(  982) = (   0.4936667   0.2996448   0.0000000), wk =   0.0006662
        k(  983) = (   0.4940000   0.2990674   0.0000000), wk =   0.0006662
        k(  984) = (   0.4943333   0.2984901   0.0000000), wk =   0.0006662
        k(  985) = (   0.4946667   0.2979127   0.0000000), wk =   0.0006662
        k(  986) = (   0.4950000   0.2973354   0.0000000), wk =   0.0006662
        k(  987) = (   0.4953333   0.2967580   0.0000000), wk =   0.0006662
        k(  988) = (   0.4956667   0.2961807   0.0000000), wk =   0.0006662
        k(  989) = (   0.4960000   0.2956033   0.0000000), wk =   0.0006662
        k(  990) = (   0.4963333   0.2950260   0.0000000), wk =   0.0006662
        k(  991) = (   0.4966667   0.2944486   0.0000000), wk =   0.0006662
        k(  992) = (   0.4970000   0.2938713   0.0000000), wk =   0.0006662
        k(  993) = (   0.4973333   0.2932939   0.0000000), wk =   0.0006662
        k(  994) = (   0.4976667   0.2927166   0.0000000), wk =   0.0006662
        k(  995) = (   0.4980000   0.2921392   0.0000000), wk =   0.0006662
        k(  996) = (   0.4983333   0.2915619   0.0000000), wk =   0.0006662
        k(  997) = (   0.4986667   0.2909845   0.0000000), wk =   0.0006662
        k(  998) = (   0.4990000   0.2904072   0.0000000), wk =   0.0006662
        k(  999) = (   0.4993333   0.2898298   0.0000000), wk =   0.0006662
        k( 1000) = (   0.4996667   0.2892525   0.0000000), wk =   0.0006662
        k( 1001) = (   0.5000000   0.2886751   0.0000000), wk =   0.0006662
        k( 1002) = (   0.4990000   0.2880978   0.0000000), wk =   0.0006662
        k( 1003) = (   0.4980000   0.2875204   0.0000000), wk =   0.0006662
        k( 1004) = (   0.4970000   0.2869431   0.0000000), wk =   0.0006662
        k( 1005) = (   0.4960000   0.2863657   0.0000000), wk =   0.0006662
        k( 1006) = (   0.4950000   0.2857884   0.0000000), wk =   0.0006662
        k( 1007) = (   0.4940000   0.2852110   0.0000000), wk =   0.0006662
        k( 1008) = (   0.4930000   0.2846337   0.0000000), wk =   0.0006662
        k( 1009) = (   0.4920000   0.2840563   0.0000000), wk =   0.0006662
        k( 1010) = (   0.4910000   0.2834790   0.0000000), wk =   0.0006662
        k( 1011) = (   0.4900000   0.2829016   0.0000000), wk =   0.0006662
        k( 1012) = (   0.4890000   0.2823243   0.0000000), wk =   0.0006662
        k( 1013) = (   0.4880000   0.2817469   0.0000000), wk =   0.0006662
        k( 1014) = (   0.4870000   0.2811696   0.0000000), wk =   0.0006662
        k( 1015) = (   0.4860000   0.2805922   0.0000000), wk =   0.0006662
        k( 1016) = (   0.4850000   0.2800149   0.0000000), wk =   0.0006662
        k( 1017) = (   0.4840000   0.2794375   0.0000000), wk =   0.0006662
        k( 1018) = (   0.4830000   0.2788602   0.0000000), wk =   0.0006662
        k( 1019) = (   0.4820000   0.2782828   0.0000000), wk =   0.0006662
        k( 1020) = (   0.4810000   0.2777055   0.0000000), wk =   0.0006662
        k( 1021) = (   0.4800000   0.2771281   0.0000000), wk =   0.0006662
        k( 1022) = (   0.4790000   0.2765508   0.0000000), wk =   0.0006662
        k( 1023) = (   0.4780000   0.2759734   0.0000000), wk =   0.0006662
        k( 1024) = (   0.4770000   0.2753961   0.0000000), wk =   0.0006662
        k( 1025) = (   0.4760000   0.2748187   0.0000000), wk =   0.0006662
        k( 1026) = (   0.4750000   0.2742414   0.0000000), wk =   0.0006662
        k( 1027) = (   0.4740000   0.2736640   0.0000000), wk =   0.0006662
        k( 1028) = (   0.4730000   0.2730867   0.0000000), wk =   0.0006662
        k( 1029) = (   0.4720000   0.2725093   0.0000000), wk =   0.0006662
        k( 1030) = (   0.4710000   0.2719320   0.0000000), wk =   0.0006662
        k( 1031) = (   0.4700000   0.2713546   0.0000000), wk =   0.0006662
        k( 1032) = (   0.4690000   0.2707773   0.0000000), wk =   0.0006662
        k( 1033) = (   0.4680000   0.2701999   0.0000000), wk =   0.0006662
        k( 1034) = (   0.4670000   0.2696226   0.0000000), wk =   0.0006662
        k( 1035) = (   0.4660000   0.2690452   0.0000000), wk =   0.0006662
        k( 1036) = (   0.4650000   0.2684679   0.0000000), wk =   0.0006662
        k( 1037) = (   0.4640000   0.2678905   0.0000000), wk =   0.0006662
        k( 1038) = (   0.4630000   0.2673132   0.0000000), wk =   0.0006662
        k( 1039) = (   0.4620000   0.2667358   0.0000000), wk =   0.0006662
        k( 1040) = (   0.4610000   0.2661585   0.0000000), wk =   0.0006662
        k( 1041) = (   0.4600000   0.2655811   0.0000000), wk =   0.0006662
        k( 1042) = (   0.4590000   0.2650038   0.0000000), wk =   0.0006662
        k( 1043) = (   0.4580000   0.2644264   0.0000000), wk =   0.0006662
        k( 1044) = (   0.4570000   0.2638491   0.0000000), wk =   0.0006662
        k( 1045) = (   0.4560000   0.2632717   0.0000000), wk =   0.0006662
        k( 1046) = (   0.4550000   0.2626944   0.0000000), wk =   0.0006662
        k( 1047) = (   0.4540000   0.2621170   0.0000000), wk =   0.0006662
        k( 1048) = (   0.4530000   0.2615397   0.0000000), wk =   0.0006662
        k( 1049) = (   0.4520000   0.2609623   0.0000000), wk =   0.0006662
        k( 1050) = (   0.4510000   0.2603850   0.0000000), wk =   0.0006662
        k( 1051) = (   0.4500000   0.2598076   0.0000000), wk =   0.0006662
        k( 1052) = (   0.4490000   0.2592303   0.0000000), wk =   0.0006662
        k( 1053) = (   0.4480000   0.2586529   0.0000000), wk =   0.0006662
        k( 1054) = (   0.4470000   0.2580756   0.0000000), wk =   0.0006662
        k( 1055) = (   0.4460000   0.2574982   0.0000000), wk =   0.0006662
        k( 1056) = (   0.4450000   0.2569209   0.0000000), wk =   0.0006662
        k( 1057) = (   0.4440000   0.2563435   0.0000000), wk =   0.0006662
        k( 1058) = (   0.4430000   0.2557662   0.0000000), wk =   0.0006662
        k( 1059) = (   0.4420000   0.2551888   0.0000000), wk =   0.0006662
        k( 1060) = (   0.4410000   0.2546115   0.0000000), wk =   0.0006662
        k( 1061) = (   0.4400000   0.2540341   0.0000000), wk =   0.0006662
        k( 1062) = (   0.4390000   0.2534568   0.0000000), wk =   0.0006662
        k( 1063) = (   0.4380000   0.2528794   0.0000000), wk =   0.0006662
        k( 1064) = (   0.4370000   0.2523021   0.0000000), wk =   0.0006662
        k( 1065) = (   0.4360000   0.2517247   0.0000000), wk =   0.0006662
        k( 1066) = (   0.4350000   0.2511474   0.0000000), wk =   0.0006662
        k( 1067) = (   0.4340000   0.2505700   0.0000000), wk =   0.0006662
        k( 1068) = (   0.4330000   0.2499927   0.0000000), wk =   0.0006662
        k( 1069) = (   0.4320000   0.2494153   0.0000000), wk =   0.0006662
        k( 1070) = (   0.4310000   0.2488380   0.0000000), wk =   0.0006662
        k( 1071) = (   0.4300000   0.2482606   0.0000000), wk =   0.0006662
        k( 1072) = (   0.4290000   0.2476833   0.0000000), wk =   0.0006662
        k( 1073) = (   0.4280000   0.2471059   0.0000000), wk =   0.0006662
        k( 1074) = (   0.4270000   0.2465286   0.0000000), wk =   0.0006662
        k( 1075) = (   0.4260000   0.2459512   0.0000000), wk =   0.0006662
        k( 1076) = (   0.4250000   0.2453739   0.0000000), wk =   0.0006662
        k( 1077) = (   0.4240000   0.2447965   0.0000000), wk =   0.0006662
        k( 1078) = (   0.4230000   0.2442192   0.0000000), wk =   0.0006662
        k( 1079) = (   0.4220000   0.2436418   0.0000000), wk =   0.0006662
        k( 1080) = (   0.4210000   0.2430645   0.0000000), wk =   0.0006662
        k( 1081) = (   0.4200000   0.2424871   0.0000000), wk =   0.0006662
        k( 1082) = (   0.4190000   0.2419098   0.0000000), wk =   0.0006662
        k( 1083) = (   0.4180000   0.2413324   0.0000000), wk =   0.0006662
        k( 1084) = (   0.4170000   0.2407551   0.0000000), wk =   0.0006662
        k( 1085) = (   0.4160000   0.2401777   0.0000000), wk =   0.0006662
        k( 1086) = (   0.4150000   0.2396004   0.0000000), wk =   0.0006662
        k( 1087) = (   0.4140000   0.2390230   0.0000000), wk =   0.0006662
        k( 1088) = (   0.4130000   0.2384457   0.0000000), wk =   0.0006662
        k( 1089) = (   0.4120000   0.2378683   0.0000000), wk =   0.0006662
        k( 1090) = (   0.4110000   0.2372910   0.0000000), wk =   0.0006662
        k( 1091) = (   0.4100000   0.2367136   0.0000000), wk =   0.0006662
        k( 1092) = (   0.4090000   0.2361363   0.0000000), wk =   0.0006662
        k( 1093) = (   0.4080000   0.2355589   0.0000000), wk =   0.0006662
        k( 1094) = (   0.4070000   0.2349816   0.0000000), wk =   0.0006662
        k( 1095) = (   0.4060000   0.2344042   0.0000000), wk =   0.0006662
        k( 1096) = (   0.4050000   0.2338269   0.0000000), wk =   0.0006662
        k( 1097) = (   0.4040000   0.2332495   0.0000000), wk =   0.0006662
        k( 1098) = (   0.4030000   0.2326722   0.0000000), wk =   0.0006662
        k( 1099) = (   0.4020000   0.2320948   0.0000000), wk =   0.0006662
        k( 1100) = (   0.4010000   0.2315175   0.0000000), wk =   0.0006662
        k( 1101) = (   0.4000000   0.2309401   0.0000000), wk =   0.0006662
        k( 1102) = (   0.3990000   0.2303628   0.0000000), wk =   0.0006662
        k( 1103) = (   0.3980000   0.2297854   0.0000000), wk =   0.0006662
        k( 1104) = (   0.3970000   0.2292081   0.0000000), wk =   0.0006662
        k( 1105) = (   0.3960000   0.2286307   0.0000000), wk =   0.0006662
        k( 1106) = (   0.3950000   0.2280534   0.0000000), wk =   0.0006662
        k( 1107) = (   0.3940000   0.2274760   0.0000000), wk =   0.0006662
        k( 1108) = (   0.3930000   0.2268987   0.0000000), wk =   0.0006662
        k( 1109) = (   0.3920000   0.2263213   0.0000000), wk =   0.0006662
        k( 1110) = (   0.3910000   0.2257440   0.0000000), wk =   0.0006662
        k( 1111) = (   0.3900000   0.2251666   0.0000000), wk =   0.0006662
        k( 1112) = (   0.3890000   0.2245893   0.0000000), wk =   0.0006662
        k( 1113) = (   0.3880000   0.2240119   0.0000000), wk =   0.0006662
        k( 1114) = (   0.3870000   0.2234346   0.0000000), wk =   0.0006662
        k( 1115) = (   0.3860000   0.2228572   0.0000000), wk =   0.0006662
        k( 1116) = (   0.3850000   0.2222799   0.0000000), wk =   0.0006662
        k( 1117) = (   0.3840000   0.2217025   0.0000000), wk =   0.0006662
        k( 1118) = (   0.3830000   0.2211252   0.0000000), wk =   0.0006662
        k( 1119) = (   0.3820000   0.2205478   0.0000000), wk =   0.0006662
        k( 1120) = (   0.3810000   0.2199705   0.0000000), wk =   0.0006662
        k( 1121) = (   0.3800000   0.2193931   0.0000000), wk =   0.0006662
        k( 1122) = (   0.3790000   0.2188158   0.0000000), wk =   0.0006662
        k( 1123) = (   0.3780000   0.2182384   0.0000000), wk =   0.0006662
        k( 1124) = (   0.3770000   0.2176611   0.0000000), wk =   0.0006662
        k( 1125) = (   0.3760000   0.2170837   0.0000000), wk =   0.0006662
        k( 1126) = (   0.3750000   0.2165064   0.0000000), wk =   0.0006662
        k( 1127) = (   0.3740000   0.2159290   0.0000000), wk =   0.0006662
        k( 1128) = (   0.3730000   0.2153517   0.0000000), wk =   0.0006662
        k( 1129) = (   0.3720000   0.2147743   0.0000000), wk =   0.0006662
        k( 1130) = (   0.3710000   0.2141969   0.0000000), wk =   0.0006662
        k( 1131) = (   0.3700000   0.2136196   0.0000000), wk =   0.0006662
        k( 1132) = (   0.3690000   0.2130422   0.0000000), wk =   0.0006662
        k( 1133) = (   0.3680000   0.2124649   0.0000000), wk =   0.0006662
        k( 1134) = (   0.3670000   0.2118875   0.0000000), wk =   0.0006662
        k( 1135) = (   0.3660000   0.2113102   0.0000000), wk =   0.0006662
        k( 1136) = (   0.3650000   0.2107328   0.0000000), wk =   0.0006662
        k( 1137) = (   0.3640000   0.2101555   0.0000000), wk =   0.0006662
        k( 1138) = (   0.3630000   0.2095781   0.0000000), wk =   0.0006662
        k( 1139) = (   0.3620000   0.2090008   0.0000000), wk =   0.0006662
        k( 1140) = (   0.3610000   0.2084234   0.0000000), wk =   0.0006662
        k( 1141) = (   0.3600000   0.2078461   0.0000000), wk =   0.0006662
        k( 1142) = (   0.3590000   0.2072687   0.0000000), wk =   0.0006662
        k( 1143) = (   0.3580000   0.2066914   0.0000000), wk =   0.0006662
        k( 1144) = (   0.3570000   0.2061140   0.0000000), wk =   0.0006662
        k( 1145) = (   0.3560000   0.2055367   0.0000000), wk =   0.0006662
        k( 1146) = (   0.3550000   0.2049593   0.0000000), wk =   0.0006662
        k( 1147) = (   0.3540000   0.2043820   0.0000000), wk =   0.0006662
        k( 1148) = (   0.3530000   0.2038046   0.0000000), wk =   0.0006662
        k( 1149) = (   0.3520000   0.2032273   0.0000000), wk =   0.0006662
        k( 1150) = (   0.3510000   0.2026499   0.0000000), wk =   0.0006662
        k( 1151) = (   0.3500000   0.2020726   0.0000000), wk =   0.0006662
        k( 1152) = (   0.3490000   0.2014952   0.0000000), wk =   0.0006662
        k( 1153) = (   0.3480000   0.2009179   0.0000000), wk =   0.0006662
        k( 1154) = (   0.3470000   0.2003405   0.0000000), wk =   0.0006662
        k( 1155) = (   0.3460000   0.1997632   0.0000000), wk =   0.0006662
        k( 1156) = (   0.3450000   0.1991858   0.0000000), wk =   0.0006662
        k( 1157) = (   0.3440000   0.1986085   0.0000000), wk =   0.0006662
        k( 1158) = (   0.3430000   0.1980311   0.0000000), wk =   0.0006662
        k( 1159) = (   0.3420000   0.1974538   0.0000000), wk =   0.0006662
        k( 1160) = (   0.3410000   0.1968764   0.0000000), wk =   0.0006662
        k( 1161) = (   0.3400000   0.1962991   0.0000000), wk =   0.0006662
        k( 1162) = (   0.3390000   0.1957217   0.0000000), wk =   0.0006662
        k( 1163) = (   0.3380000   0.1951444   0.0000000), wk =   0.0006662
        k( 1164) = (   0.3370000   0.1945670   0.0000000), wk =   0.0006662
        k( 1165) = (   0.3360000   0.1939897   0.0000000), wk =   0.0006662
        k( 1166) = (   0.3350000   0.1934123   0.0000000), wk =   0.0006662
        k( 1167) = (   0.3340000   0.1928350   0.0000000), wk =   0.0006662
        k( 1168) = (   0.3330000   0.1922576   0.0000000), wk =   0.0006662
        k( 1169) = (   0.3320000   0.1916803   0.0000000), wk =   0.0006662
        k( 1170) = (   0.3310000   0.1911029   0.0000000), wk =   0.0006662
        k( 1171) = (   0.3300000   0.1905256   0.0000000), wk =   0.0006662
        k( 1172) = (   0.3290000   0.1899482   0.0000000), wk =   0.0006662
        k( 1173) = (   0.3280000   0.1893709   0.0000000), wk =   0.0006662
        k( 1174) = (   0.3270000   0.1887935   0.0000000), wk =   0.0006662
        k( 1175) = (   0.3260000   0.1882162   0.0000000), wk =   0.0006662
        k( 1176) = (   0.3250000   0.1876388   0.0000000), wk =   0.0006662
        k( 1177) = (   0.3240000   0.1870615   0.0000000), wk =   0.0006662
        k( 1178) = (   0.3230000   0.1864841   0.0000000), wk =   0.0006662
        k( 1179) = (   0.3220000   0.1859068   0.0000000), wk =   0.0006662
        k( 1180) = (   0.3210000   0.1853294   0.0000000), wk =   0.0006662
        k( 1181) = (   0.3200000   0.1847521   0.0000000), wk =   0.0006662
        k( 1182) = (   0.3190000   0.1841747   0.0000000), wk =   0.0006662
        k( 1183) = (   0.3180000   0.1835974   0.0000000), wk =   0.0006662
        k( 1184) = (   0.3170000   0.1830200   0.0000000), wk =   0.0006662
        k( 1185) = (   0.3160000   0.1824427   0.0000000), wk =   0.0006662
        k( 1186) = (   0.3150000   0.1818653   0.0000000), wk =   0.0006662
        k( 1187) = (   0.3140000   0.1812880   0.0000000), wk =   0.0006662
        k( 1188) = (   0.3130000   0.1807106   0.0000000), wk =   0.0006662
        k( 1189) = (   0.3120000   0.1801333   0.0000000), wk =   0.0006662
        k( 1190) = (   0.3110000   0.1795559   0.0000000), wk =   0.0006662
        k( 1191) = (   0.3100000   0.1789786   0.0000000), wk =   0.0006662
        k( 1192) = (   0.3090000   0.1784012   0.0000000), wk =   0.0006662
        k( 1193) = (   0.3080000   0.1778239   0.0000000), wk =   0.0006662
        k( 1194) = (   0.3070000   0.1772465   0.0000000), wk =   0.0006662
        k( 1195) = (   0.3060000   0.1766692   0.0000000), wk =   0.0006662
        k( 1196) = (   0.3050000   0.1760918   0.0000000), wk =   0.0006662
        k( 1197) = (   0.3040000   0.1755145   0.0000000), wk =   0.0006662
        k( 1198) = (   0.3030000   0.1749371   0.0000000), wk =   0.0006662
        k( 1199) = (   0.3020000   0.1743598   0.0000000), wk =   0.0006662
        k( 1200) = (   0.3010000   0.1737824   0.0000000), wk =   0.0006662
        k( 1201) = (   0.3000000   0.1732051   0.0000000), wk =   0.0006662
        k( 1202) = (   0.2990000   0.1726277   0.0000000), wk =   0.0006662
        k( 1203) = (   0.2980000   0.1720504   0.0000000), wk =   0.0006662
        k( 1204) = (   0.2970000   0.1714730   0.0000000), wk =   0.0006662
        k( 1205) = (   0.2960000   0.1708957   0.0000000), wk =   0.0006662
        k( 1206) = (   0.2950000   0.1703183   0.0000000), wk =   0.0006662
        k( 1207) = (   0.2940000   0.1697410   0.0000000), wk =   0.0006662
        k( 1208) = (   0.2930000   0.1691636   0.0000000), wk =   0.0006662
        k( 1209) = (   0.2920000   0.1685863   0.0000000), wk =   0.0006662
        k( 1210) = (   0.2910000   0.1680089   0.0000000), wk =   0.0006662
        k( 1211) = (   0.2900000   0.1674316   0.0000000), wk =   0.0006662
        k( 1212) = (   0.2890000   0.1668542   0.0000000), wk =   0.0006662
        k( 1213) = (   0.2880000   0.1662769   0.0000000), wk =   0.0006662
        k( 1214) = (   0.2870000   0.1656995   0.0000000), wk =   0.0006662
        k( 1215) = (   0.2860000   0.1651222   0.0000000), wk =   0.0006662
        k( 1216) = (   0.2850000   0.1645448   0.0000000), wk =   0.0006662
        k( 1217) = (   0.2840000   0.1639675   0.0000000), wk =   0.0006662
        k( 1218) = (   0.2830000   0.1633901   0.0000000), wk =   0.0006662
        k( 1219) = (   0.2820000   0.1628128   0.0000000), wk =   0.0006662
        k( 1220) = (   0.2810000   0.1622354   0.0000000), wk =   0.0006662
        k( 1221) = (   0.2800000   0.1616581   0.0000000), wk =   0.0006662
        k( 1222) = (   0.2790000   0.1610807   0.0000000), wk =   0.0006662
        k( 1223) = (   0.2780000   0.1605034   0.0000000), wk =   0.0006662
        k( 1224) = (   0.2770000   0.1599260   0.0000000), wk =   0.0006662
        k( 1225) = (   0.2760000   0.1593487   0.0000000), wk =   0.0006662
        k( 1226) = (   0.2750000   0.1587713   0.0000000), wk =   0.0006662
        k( 1227) = (   0.2740000   0.1581940   0.0000000), wk =   0.0006662
        k( 1228) = (   0.2730000   0.1576166   0.0000000), wk =   0.0006662
        k( 1229) = (   0.2720000   0.1570393   0.0000000), wk =   0.0006662
        k( 1230) = (   0.2710000   0.1564619   0.0000000), wk =   0.0006662
        k( 1231) = (   0.2700000   0.1558846   0.0000000), wk =   0.0006662
        k( 1232) = (   0.2690000   0.1553072   0.0000000), wk =   0.0006662
        k( 1233) = (   0.2680000   0.1547299   0.0000000), wk =   0.0006662
        k( 1234) = (   0.2670000   0.1541525   0.0000000), wk =   0.0006662
        k( 1235) = (   0.2660000   0.1535752   0.0000000), wk =   0.0006662
        k( 1236) = (   0.2650000   0.1529978   0.0000000), wk =   0.0006662
        k( 1237) = (   0.2640000   0.1524205   0.0000000), wk =   0.0006662
        k( 1238) = (   0.2630000   0.1518431   0.0000000), wk =   0.0006662
        k( 1239) = (   0.2620000   0.1512658   0.0000000), wk =   0.0006662
        k( 1240) = (   0.2610000   0.1506884   0.0000000), wk =   0.0006662
        k( 1241) = (   0.2600000   0.1501111   0.0000000), wk =   0.0006662
        k( 1242) = (   0.2590000   0.1495337   0.0000000), wk =   0.0006662
        k( 1243) = (   0.2580000   0.1489564   0.0000000), wk =   0.0006662
        k( 1244) = (   0.2570000   0.1483790   0.0000000), wk =   0.0006662
        k( 1245) = (   0.2560000   0.1478017   0.0000000), wk =   0.0006662
        k( 1246) = (   0.2550000   0.1472243   0.0000000), wk =   0.0006662
        k( 1247) = (   0.2540000   0.1466470   0.0000000), wk =   0.0006662
        k( 1248) = (   0.2530000   0.1460696   0.0000000), wk =   0.0006662
        k( 1249) = (   0.2520000   0.1454923   0.0000000), wk =   0.0006662
        k( 1250) = (   0.2510000   0.1449149   0.0000000), wk =   0.0006662
        k( 1251) = (   0.2500000   0.1443376   0.0000000), wk =   0.0006662
        k( 1252) = (   0.2490000   0.1437602   0.0000000), wk =   0.0006662
        k( 1253) = (   0.2480000   0.1431829   0.0000000), wk =   0.0006662
        k( 1254) = (   0.2470000   0.1426055   0.0000000), wk =   0.0006662
        k( 1255) = (   0.2460000   0.1420282   0.0000000), wk =   0.0006662
        k( 1256) = (   0.2450000   0.1414508   0.0000000), wk =   0.0006662
        k( 1257) = (   0.2440000   0.1408735   0.0000000), wk =   0.0006662
        k( 1258) = (   0.2430000   0.1402961   0.0000000), wk =   0.0006662
        k( 1259) = (   0.2420000   0.1397188   0.0000000), wk =   0.0006662
        k( 1260) = (   0.2410000   0.1391414   0.0000000), wk =   0.0006662
        k( 1261) = (   0.2400000   0.1385641   0.0000000), wk =   0.0006662
        k( 1262) = (   0.2390000   0.1379867   0.0000000), wk =   0.0006662
        k( 1263) = (   0.2380000   0.1374094   0.0000000), wk =   0.0006662
        k( 1264) = (   0.2370000   0.1368320   0.0000000), wk =   0.0006662
        k( 1265) = (   0.2360000   0.1362547   0.0000000), wk =   0.0006662
        k( 1266) = (   0.2350000   0.1356773   0.0000000), wk =   0.0006662
        k( 1267) = (   0.2340000   0.1351000   0.0000000), wk =   0.0006662
        k( 1268) = (   0.2330000   0.1345226   0.0000000), wk =   0.0006662
        k( 1269) = (   0.2320000   0.1339453   0.0000000), wk =   0.0006662
        k( 1270) = (   0.2310000   0.1333679   0.0000000), wk =   0.0006662
        k( 1271) = (   0.2300000   0.1327906   0.0000000), wk =   0.0006662
        k( 1272) = (   0.2290000   0.1322132   0.0000000), wk =   0.0006662
        k( 1273) = (   0.2280000   0.1316359   0.0000000), wk =   0.0006662
        k( 1274) = (   0.2270000   0.1310585   0.0000000), wk =   0.0006662
        k( 1275) = (   0.2260000   0.1304812   0.0000000), wk =   0.0006662
        k( 1276) = (   0.2250000   0.1299038   0.0000000), wk =   0.0006662
        k( 1277) = (   0.2240000   0.1293265   0.0000000), wk =   0.0006662
        k( 1278) = (   0.2230000   0.1287491   0.0000000), wk =   0.0006662
        k( 1279) = (   0.2220000   0.1281718   0.0000000), wk =   0.0006662
        k( 1280) = (   0.2210000   0.1275944   0.0000000), wk =   0.0006662
        k( 1281) = (   0.2200000   0.1270171   0.0000000), wk =   0.0006662
        k( 1282) = (   0.2190000   0.1264397   0.0000000), wk =   0.0006662
        k( 1283) = (   0.2180000   0.1258624   0.0000000), wk =   0.0006662
        k( 1284) = (   0.2170000   0.1252850   0.0000000), wk =   0.0006662
        k( 1285) = (   0.2160000   0.1247077   0.0000000), wk =   0.0006662
        k( 1286) = (   0.2150000   0.1241303   0.0000000), wk =   0.0006662
        k( 1287) = (   0.2140000   0.1235530   0.0000000), wk =   0.0006662
        k( 1288) = (   0.2130000   0.1229756   0.0000000), wk =   0.0006662
        k( 1289) = (   0.2120000   0.1223983   0.0000000), wk =   0.0006662
        k( 1290) = (   0.2110000   0.1218209   0.0000000), wk =   0.0006662
        k( 1291) = (   0.2100000   0.1212436   0.0000000), wk =   0.0006662
        k( 1292) = (   0.2090000   0.1206662   0.0000000), wk =   0.0006662
        k( 1293) = (   0.2080000   0.1200889   0.0000000), wk =   0.0006662
        k( 1294) = (   0.2070000   0.1195115   0.0000000), wk =   0.0006662
        k( 1295) = (   0.2060000   0.1189342   0.0000000), wk =   0.0006662
        k( 1296) = (   0.2050000   0.1183568   0.0000000), wk =   0.0006662
        k( 1297) = (   0.2040000   0.1177795   0.0000000), wk =   0.0006662
        k( 1298) = (   0.2030000   0.1172021   0.0000000), wk =   0.0006662
        k( 1299) = (   0.2020000   0.1166248   0.0000000), wk =   0.0006662
        k( 1300) = (   0.2010000   0.1160474   0.0000000), wk =   0.0006662
        k( 1301) = (   0.2000000   0.1154701   0.0000000), wk =   0.0006662
        k( 1302) = (   0.1990000   0.1148927   0.0000000), wk =   0.0006662
        k( 1303) = (   0.1980000   0.1143154   0.0000000), wk =   0.0006662
        k( 1304) = (   0.1970000   0.1137380   0.0000000), wk =   0.0006662
        k( 1305) = (   0.1960000   0.1131607   0.0000000), wk =   0.0006662
        k( 1306) = (   0.1950000   0.1125833   0.0000000), wk =   0.0006662
        k( 1307) = (   0.1940000   0.1120060   0.0000000), wk =   0.0006662
        k( 1308) = (   0.1930000   0.1114286   0.0000000), wk =   0.0006662
        k( 1309) = (   0.1920000   0.1108513   0.0000000), wk =   0.0006662
        k( 1310) = (   0.1910000   0.1102739   0.0000000), wk =   0.0006662
        k( 1311) = (   0.1900000   0.1096966   0.0000000), wk =   0.0006662
        k( 1312) = (   0.1890000   0.1091192   0.0000000), wk =   0.0006662
        k( 1313) = (   0.1880000   0.1085419   0.0000000), wk =   0.0006662
        k( 1314) = (   0.1870000   0.1079645   0.0000000), wk =   0.0006662
        k( 1315) = (   0.1860000   0.1073872   0.0000000), wk =   0.0006662
        k( 1316) = (   0.1850000   0.1068098   0.0000000), wk =   0.0006662
        k( 1317) = (   0.1840000   0.1062324   0.0000000), wk =   0.0006662
        k( 1318) = (   0.1830000   0.1056551   0.0000000), wk =   0.0006662
        k( 1319) = (   0.1820000   0.1050777   0.0000000), wk =   0.0006662
        k( 1320) = (   0.1810000   0.1045004   0.0000000), wk =   0.0006662
        k( 1321) = (   0.1800000   0.1039230   0.0000000), wk =   0.0006662
        k( 1322) = (   0.1790000   0.1033457   0.0000000), wk =   0.0006662
        k( 1323) = (   0.1780000   0.1027683   0.0000000), wk =   0.0006662
        k( 1324) = (   0.1770000   0.1021910   0.0000000), wk =   0.0006662
        k( 1325) = (   0.1760000   0.1016136   0.0000000), wk =   0.0006662
        k( 1326) = (   0.1750000   0.1010363   0.0000000), wk =   0.0006662
        k( 1327) = (   0.1740000   0.1004589   0.0000000), wk =   0.0006662
        k( 1328) = (   0.1730000   0.0998816   0.0000000), wk =   0.0006662
        k( 1329) = (   0.1720000   0.0993042   0.0000000), wk =   0.0006662
        k( 1330) = (   0.1710000   0.0987269   0.0000000), wk =   0.0006662
        k( 1331) = (   0.1700000   0.0981495   0.0000000), wk =   0.0006662
        k( 1332) = (   0.1690000   0.0975722   0.0000000), wk =   0.0006662
        k( 1333) = (   0.1680000   0.0969948   0.0000000), wk =   0.0006662
        k( 1334) = (   0.1670000   0.0964175   0.0000000), wk =   0.0006662
        k( 1335) = (   0.1660000   0.0958401   0.0000000), wk =   0.0006662
        k( 1336) = (   0.1650000   0.0952628   0.0000000), wk =   0.0006662
        k( 1337) = (   0.1640000   0.0946854   0.0000000), wk =   0.0006662
        k( 1338) = (   0.1630000   0.0941081   0.0000000), wk =   0.0006662
        k( 1339) = (   0.1620000   0.0935307   0.0000000), wk =   0.0006662
        k( 1340) = (   0.1610000   0.0929534   0.0000000), wk =   0.0006662
        k( 1341) = (   0.1600000   0.0923760   0.0000000), wk =   0.0006662
        k( 1342) = (   0.1590000   0.0917987   0.0000000), wk =   0.0006662
        k( 1343) = (   0.1580000   0.0912213   0.0000000), wk =   0.0006662
        k( 1344) = (   0.1570000   0.0906440   0.0000000), wk =   0.0006662
        k( 1345) = (   0.1560000   0.0900666   0.0000000), wk =   0.0006662
        k( 1346) = (   0.1550000   0.0894893   0.0000000), wk =   0.0006662
        k( 1347) = (   0.1540000   0.0889119   0.0000000), wk =   0.0006662
        k( 1348) = (   0.1530000   0.0883346   0.0000000), wk =   0.0006662
        k( 1349) = (   0.1520000   0.0877572   0.0000000), wk =   0.0006662
        k( 1350) = (   0.1510000   0.0871799   0.0000000), wk =   0.0006662
        k( 1351) = (   0.1500000   0.0866025   0.0000000), wk =   0.0006662
        k( 1352) = (   0.1490000   0.0860252   0.0000000), wk =   0.0006662
        k( 1353) = (   0.1480000   0.0854478   0.0000000), wk =   0.0006662
        k( 1354) = (   0.1470000   0.0848705   0.0000000), wk =   0.0006662
        k( 1355) = (   0.1460000   0.0842931   0.0000000), wk =   0.0006662
        k( 1356) = (   0.1450000   0.0837158   0.0000000), wk =   0.0006662
        k( 1357) = (   0.1440000   0.0831384   0.0000000), wk =   0.0006662
        k( 1358) = (   0.1430000   0.0825611   0.0000000), wk =   0.0006662
        k( 1359) = (   0.1420000   0.0819837   0.0000000), wk =   0.0006662
        k( 1360) = (   0.1410000   0.0814064   0.0000000), wk =   0.0006662
        k( 1361) = (   0.1400000   0.0808290   0.0000000), wk =   0.0006662
        k( 1362) = (   0.1390000   0.0802517   0.0000000), wk =   0.0006662
        k( 1363) = (   0.1380000   0.0796743   0.0000000), wk =   0.0006662
        k( 1364) = (   0.1370000   0.0790970   0.0000000), wk =   0.0006662
        k( 1365) = (   0.1360000   0.0785196   0.0000000), wk =   0.0006662
        k( 1366) = (   0.1350000   0.0779423   0.0000000), wk =   0.0006662
        k( 1367) = (   0.1340000   0.0773649   0.0000000), wk =   0.0006662
        k( 1368) = (   0.1330000   0.0767876   0.0000000), wk =   0.0006662
        k( 1369) = (   0.1320000   0.0762102   0.0000000), wk =   0.0006662
        k( 1370) = (   0.1310000   0.0756329   0.0000000), wk =   0.0006662
        k( 1371) = (   0.1300000   0.0750555   0.0000000), wk =   0.0006662
        k( 1372) = (   0.1290000   0.0744782   0.0000000), wk =   0.0006662
        k( 1373) = (   0.1280000   0.0739008   0.0000000), wk =   0.0006662
        k( 1374) = (   0.1270000   0.0733235   0.0000000), wk =   0.0006662
        k( 1375) = (   0.1260000   0.0727461   0.0000000), wk =   0.0006662
        k( 1376) = (   0.1250000   0.0721688   0.0000000), wk =   0.0006662
        k( 1377) = (   0.1240000   0.0715914   0.0000000), wk =   0.0006662
        k( 1378) = (   0.1230000   0.0710141   0.0000000), wk =   0.0006662
        k( 1379) = (   0.1220000   0.0704367   0.0000000), wk =   0.0006662
        k( 1380) = (   0.1210000   0.0698594   0.0000000), wk =   0.0006662
        k( 1381) = (   0.1200000   0.0692820   0.0000000), wk =   0.0006662
        k( 1382) = (   0.1190000   0.0687047   0.0000000), wk =   0.0006662
        k( 1383) = (   0.1180000   0.0681273   0.0000000), wk =   0.0006662
        k( 1384) = (   0.1170000   0.0675500   0.0000000), wk =   0.0006662
        k( 1385) = (   0.1160000   0.0669726   0.0000000), wk =   0.0006662
        k( 1386) = (   0.1150000   0.0663953   0.0000000), wk =   0.0006662
        k( 1387) = (   0.1140000   0.0658179   0.0000000), wk =   0.0006662
        k( 1388) = (   0.1130000   0.0652406   0.0000000), wk =   0.0006662
        k( 1389) = (   0.1120000   0.0646632   0.0000000), wk =   0.0006662
        k( 1390) = (   0.1110000   0.0640859   0.0000000), wk =   0.0006662
        k( 1391) = (   0.1100000   0.0635085   0.0000000), wk =   0.0006662
        k( 1392) = (   0.1090000   0.0629312   0.0000000), wk =   0.0006662
        k( 1393) = (   0.1080000   0.0623538   0.0000000), wk =   0.0006662
        k( 1394) = (   0.1070000   0.0617765   0.0000000), wk =   0.0006662
        k( 1395) = (   0.1060000   0.0611991   0.0000000), wk =   0.0006662
        k( 1396) = (   0.1050000   0.0606218   0.0000000), wk =   0.0006662
        k( 1397) = (   0.1040000   0.0600444   0.0000000), wk =   0.0006662
        k( 1398) = (   0.1030000   0.0594671   0.0000000), wk =   0.0006662
        k( 1399) = (   0.1020000   0.0588897   0.0000000), wk =   0.0006662
        k( 1400) = (   0.1010000   0.0583124   0.0000000), wk =   0.0006662
        k( 1401) = (   0.1000000   0.0577350   0.0000000), wk =   0.0006662
        k( 1402) = (   0.0990000   0.0571577   0.0000000), wk =   0.0006662
        k( 1403) = (   0.0980000   0.0565803   0.0000000), wk =   0.0006662
        k( 1404) = (   0.0970000   0.0560030   0.0000000), wk =   0.0006662
        k( 1405) = (   0.0960000   0.0554256   0.0000000), wk =   0.0006662
        k( 1406) = (   0.0950000   0.0548483   0.0000000), wk =   0.0006662
        k( 1407) = (   0.0940000   0.0542709   0.0000000), wk =   0.0006662
        k( 1408) = (   0.0930000   0.0536936   0.0000000), wk =   0.0006662
        k( 1409) = (   0.0920000   0.0531162   0.0000000), wk =   0.0006662
        k( 1410) = (   0.0910000   0.0525389   0.0000000), wk =   0.0006662
        k( 1411) = (   0.0900000   0.0519615   0.0000000), wk =   0.0006662
        k( 1412) = (   0.0890000   0.0513842   0.0000000), wk =   0.0006662
        k( 1413) = (   0.0880000   0.0508068   0.0000000), wk =   0.0006662
        k( 1414) = (   0.0870000   0.0502295   0.0000000), wk =   0.0006662
        k( 1415) = (   0.0860000   0.0496521   0.0000000), wk =   0.0006662
        k( 1416) = (   0.0850000   0.0490748   0.0000000), wk =   0.0006662
        k( 1417) = (   0.0840000   0.0484974   0.0000000), wk =   0.0006662
        k( 1418) = (   0.0830000   0.0479201   0.0000000), wk =   0.0006662
        k( 1419) = (   0.0820000   0.0473427   0.0000000), wk =   0.0006662
        k( 1420) = (   0.0810000   0.0467654   0.0000000), wk =   0.0006662
        k( 1421) = (   0.0800000   0.0461880   0.0000000), wk =   0.0006662
        k( 1422) = (   0.0790000   0.0456107   0.0000000), wk =   0.0006662
        k( 1423) = (   0.0780000   0.0450333   0.0000000), wk =   0.0006662
        k( 1424) = (   0.0770000   0.0444560   0.0000000), wk =   0.0006662
        k( 1425) = (   0.0760000   0.0438786   0.0000000), wk =   0.0006662
        k( 1426) = (   0.0750000   0.0433013   0.0000000), wk =   0.0006662
        k( 1427) = (   0.0740000   0.0427239   0.0000000), wk =   0.0006662
        k( 1428) = (   0.0730000   0.0421466   0.0000000), wk =   0.0006662
        k( 1429) = (   0.0720000   0.0415692   0.0000000), wk =   0.0006662
        k( 1430) = (   0.0710000   0.0409919   0.0000000), wk =   0.0006662
        k( 1431) = (   0.0700000   0.0404145   0.0000000), wk =   0.0006662
        k( 1432) = (   0.0690000   0.0398372   0.0000000), wk =   0.0006662
        k( 1433) = (   0.0680000   0.0392598   0.0000000), wk =   0.0006662
        k( 1434) = (   0.0670000   0.0386825   0.0000000), wk =   0.0006662
        k( 1435) = (   0.0660000   0.0381051   0.0000000), wk =   0.0006662
        k( 1436) = (   0.0650000   0.0375278   0.0000000), wk =   0.0006662
        k( 1437) = (   0.0640000   0.0369504   0.0000000), wk =   0.0006662
        k( 1438) = (   0.0630000   0.0363731   0.0000000), wk =   0.0006662
        k( 1439) = (   0.0620000   0.0357957   0.0000000), wk =   0.0006662
        k( 1440) = (   0.0610000   0.0352184   0.0000000), wk =   0.0006662
        k( 1441) = (   0.0600000   0.0346410   0.0000000), wk =   0.0006662
        k( 1442) = (   0.0590000   0.0340637   0.0000000), wk =   0.0006662
        k( 1443) = (   0.0580000   0.0334863   0.0000000), wk =   0.0006662
        k( 1444) = (   0.0570000   0.0329090   0.0000000), wk =   0.0006662
        k( 1445) = (   0.0560000   0.0323316   0.0000000), wk =   0.0006662
        k( 1446) = (   0.0550000   0.0317543   0.0000000), wk =   0.0006662
        k( 1447) = (   0.0540000   0.0311769   0.0000000), wk =   0.0006662
        k( 1448) = (   0.0530000   0.0305996   0.0000000), wk =   0.0006662
        k( 1449) = (   0.0520000   0.0300222   0.0000000), wk =   0.0006662
        k( 1450) = (   0.0510000   0.0294449   0.0000000), wk =   0.0006662
        k( 1451) = (   0.0500000   0.0288675   0.0000000), wk =   0.0006662
        k( 1452) = (   0.0490000   0.0282902   0.0000000), wk =   0.0006662
        k( 1453) = (   0.0480000   0.0277128   0.0000000), wk =   0.0006662
        k( 1454) = (   0.0470000   0.0271355   0.0000000), wk =   0.0006662
        k( 1455) = (   0.0460000   0.0265581   0.0000000), wk =   0.0006662
        k( 1456) = (   0.0450000   0.0259808   0.0000000), wk =   0.0006662
        k( 1457) = (   0.0440000   0.0254034   0.0000000), wk =   0.0006662
        k( 1458) = (   0.0430000   0.0248261   0.0000000), wk =   0.0006662
        k( 1459) = (   0.0420000   0.0242487   0.0000000), wk =   0.0006662
        k( 1460) = (   0.0410000   0.0236714   0.0000000), wk =   0.0006662
        k( 1461) = (   0.0400000   0.0230940   0.0000000), wk =   0.0006662
        k( 1462) = (   0.0390000   0.0225167   0.0000000), wk =   0.0006662
        k( 1463) = (   0.0380000   0.0219393   0.0000000), wk =   0.0006662
        k( 1464) = (   0.0370000   0.0213620   0.0000000), wk =   0.0006662
        k( 1465) = (   0.0360000   0.0207846   0.0000000), wk =   0.0006662
        k( 1466) = (   0.0350000   0.0202073   0.0000000), wk =   0.0006662
        k( 1467) = (   0.0340000   0.0196299   0.0000000), wk =   0.0006662
        k( 1468) = (   0.0330000   0.0190526   0.0000000), wk =   0.0006662
        k( 1469) = (   0.0320000   0.0184752   0.0000000), wk =   0.0006662
        k( 1470) = (   0.0310000   0.0178979   0.0000000), wk =   0.0006662
        k( 1471) = (   0.0300000   0.0173205   0.0000000), wk =   0.0006662
        k( 1472) = (   0.0290000   0.0167432   0.0000000), wk =   0.0006662
        k( 1473) = (   0.0280000   0.0161658   0.0000000), wk =   0.0006662
        k( 1474) = (   0.0270000   0.0155885   0.0000000), wk =   0.0006662
        k( 1475) = (   0.0260000   0.0150111   0.0000000), wk =   0.0006662
        k( 1476) = (   0.0250000   0.0144338   0.0000000), wk =   0.0006662
        k( 1477) = (   0.0240000   0.0138564   0.0000000), wk =   0.0006662
        k( 1478) = (   0.0230000   0.0132791   0.0000000), wk =   0.0006662
        k( 1479) = (   0.0220000   0.0127017   0.0000000), wk =   0.0006662
        k( 1480) = (   0.0210000   0.0121244   0.0000000), wk =   0.0006662
        k( 1481) = (   0.0200000   0.0115470   0.0000000), wk =   0.0006662
        k( 1482) = (   0.0190000   0.0109697   0.0000000), wk =   0.0006662
        k( 1483) = (   0.0180000   0.0103923   0.0000000), wk =   0.0006662
        k( 1484) = (   0.0170000   0.0098150   0.0000000), wk =   0.0006662
        k( 1485) = (   0.0160000   0.0092376   0.0000000), wk =   0.0006662
        k( 1486) = (   0.0150000   0.0086603   0.0000000), wk =   0.0006662
        k( 1487) = (   0.0140000   0.0080829   0.0000000), wk =   0.0006662
        k( 1488) = (   0.0130000   0.0075056   0.0000000), wk =   0.0006662
        k( 1489) = (   0.0120000   0.0069282   0.0000000), wk =   0.0006662
        k( 1490) = (   0.0110000   0.0063509   0.0000000), wk =   0.0006662
        k( 1491) = (   0.0100000   0.0057735   0.0000000), wk =   0.0006662
        k( 1492) = (   0.0090000   0.0051962   0.0000000), wk =   0.0006662
        k( 1493) = (   0.0080000   0.0046188   0.0000000), wk =   0.0006662
        k( 1494) = (   0.0070000   0.0040415   0.0000000), wk =   0.0006662
        k( 1495) = (   0.0060000   0.0034641   0.0000000), wk =   0.0006662
        k( 1496) = (   0.0050000   0.0028868   0.0000000), wk =   0.0006662
        k( 1497) = (   0.0040000   0.0023094   0.0000000), wk =   0.0006662
        k( 1498) = (   0.0030000   0.0017321   0.0000000), wk =   0.0006662
        k( 1499) = (   0.0020000   0.0011547   0.0000000), wk =   0.0006662
        k( 1500) = (   0.0010000   0.0005774   0.0000000), wk =   0.0006662
        k( 1501) = (   0.0000000   0.0000000   0.0000000), wk =   0.0006662

                       cryst. coord.
        k(    1) = (   0.0000000   0.0000000   0.0000000), wk =   0.0006662
        k(    2) = (   0.0006667   0.0006667   0.0000000), wk =   0.0006662
        k(    3) = (   0.0013333   0.0013333   0.0000000), wk =   0.0006662
        k(    4) = (   0.0020000   0.0020000   0.0000000), wk =   0.0006662
        k(    5) = (   0.0026667   0.0026667   0.0000000), wk =   0.0006662
        k(    6) = (   0.0033333   0.0033333   0.0000000), wk =   0.0006662
        k(    7) = (   0.0040000   0.0040000   0.0000000), wk =   0.0006662
        k(    8) = (   0.0046667   0.0046667   0.0000000), wk =   0.0006662
        k(    9) = (   0.0053333   0.0053333   0.0000000), wk =   0.0006662
        k(   10) = (   0.0060000   0.0060000   0.0000000), wk =   0.0006662
        k(   11) = (   0.0066667   0.0066667   0.0000000), wk =   0.0006662
        k(   12) = (   0.0073333   0.0073333   0.0000000), wk =   0.0006662
        k(   13) = (   0.0080000   0.0080000   0.0000000), wk =   0.0006662
        k(   14) = (   0.0086667   0.0086667   0.0000000), wk =   0.0006662
        k(   15) = (   0.0093333   0.0093333   0.0000000), wk =   0.0006662
        k(   16) = (   0.0100000   0.0100000   0.0000000), wk =   0.0006662
        k(   17) = (   0.0106667   0.0106667   0.0000000), wk =   0.0006662
        k(   18) = (   0.0113333   0.0113333   0.0000000), wk =   0.0006662
        k(   19) = (   0.0120000   0.0120000   0.0000000), wk =   0.0006662
        k(   20) = (   0.0126667   0.0126667   0.0000000), wk =   0.0006662
        k(   21) = (   0.0133333   0.0133333   0.0000000), wk =   0.0006662
        k(   22) = (   0.0140000   0.0140000   0.0000000), wk =   0.0006662
        k(   23) = (   0.0146667   0.0146667   0.0000000), wk =   0.0006662
        k(   24) = (   0.0153333   0.0153333   0.0000000), wk =   0.0006662
        k(   25) = (   0.0160000   0.0160000   0.0000000), wk =   0.0006662
        k(   26) = (   0.0166667   0.0166667   0.0000000), wk =   0.0006662
        k(   27) = (   0.0173333   0.0173333   0.0000000), wk =   0.0006662
        k(   28) = (   0.0180000   0.0180000   0.0000000), wk =   0.0006662
        k(   29) = (   0.0186667   0.0186667   0.0000000), wk =   0.0006662
        k(   30) = (   0.0193333   0.0193333   0.0000000), wk =   0.0006662
        k(   31) = (   0.0200000   0.0200000   0.0000000), wk =   0.0006662
        k(   32) = (   0.0206667   0.0206667   0.0000000), wk =   0.0006662
        k(   33) = (   0.0213333   0.0213333   0.0000000), wk =   0.0006662
        k(   34) = (   0.0220000   0.0220000   0.0000000), wk =   0.0006662
        k(   35) = (   0.0226667   0.0226667   0.0000000), wk =   0.0006662
        k(   36) = (   0.0233333   0.0233333   0.0000000), wk =   0.0006662
        k(   37) = (   0.0240000   0.0240000   0.0000000), wk =   0.0006662
        k(   38) = (   0.0246667   0.0246667   0.0000000), wk =   0.0006662
        k(   39) = (   0.0253333   0.0253333   0.0000000), wk =   0.0006662
        k(   40) = (   0.0260000   0.0260000   0.0000000), wk =   0.0006662
        k(   41) = (   0.0266667   0.0266667   0.0000000), wk =   0.0006662
        k(   42) = (   0.0273333   0.0273333   0.0000000), wk =   0.0006662
        k(   43) = (   0.0280000   0.0280000   0.0000000), wk =   0.0006662
        k(   44) = (   0.0286667   0.0286667   0.0000000), wk =   0.0006662
        k(   45) = (   0.0293333   0.0293333   0.0000000), wk =   0.0006662
        k(   46) = (   0.0300000   0.0300000   0.0000000), wk =   0.0006662
        k(   47) = (   0.0306667   0.0306667   0.0000000), wk =   0.0006662
        k(   48) = (   0.0313333   0.0313333   0.0000000), wk =   0.0006662
        k(   49) = (   0.0320000   0.0320000   0.0000000), wk =   0.0006662
        k(   50) = (   0.0326667   0.0326667   0.0000000), wk =   0.0006662
        k(   51) = (   0.0333333   0.0333333   0.0000000), wk =   0.0006662
        k(   52) = (   0.0340000   0.0340000   0.0000000), wk =   0.0006662
        k(   53) = (   0.0346667   0.0346667   0.0000000), wk =   0.0006662
        k(   54) = (   0.0353333   0.0353333   0.0000000), wk =   0.0006662
        k(   55) = (   0.0360000   0.0360000   0.0000000), wk =   0.0006662
        k(   56) = (   0.0366667   0.0366667   0.0000000), wk =   0.0006662
        k(   57) = (   0.0373333   0.0373333   0.0000000), wk =   0.0006662
        k(   58) = (   0.0380000   0.0380000   0.0000000), wk =   0.0006662
        k(   59) = (   0.0386667   0.0386667   0.0000000), wk =   0.0006662
        k(   60) = (   0.0393333   0.0393333   0.0000000), wk =   0.0006662
        k(   61) = (   0.0400000   0.0400000   0.0000000), wk =   0.0006662
        k(   62) = (   0.0406667   0.0406667   0.0000000), wk =   0.0006662
        k(   63) = (   0.0413333   0.0413333   0.0000000), wk =   0.0006662
        k(   64) = (   0.0420000   0.0420000   0.0000000), wk =   0.0006662
        k(   65) = (   0.0426667   0.0426667   0.0000000), wk =   0.0006662
        k(   66) = (   0.0433333   0.0433333   0.0000000), wk =   0.0006662
        k(   67) = (   0.0440000   0.0440000   0.0000000), wk =   0.0006662
        k(   68) = (   0.0446667   0.0446667   0.0000000), wk =   0.0006662
        k(   69) = (   0.0453333   0.0453333   0.0000000), wk =   0.0006662
        k(   70) = (   0.0460000   0.0460000   0.0000000), wk =   0.0006662
        k(   71) = (   0.0466667   0.0466667   0.0000000), wk =   0.0006662
        k(   72) = (   0.0473333   0.0473333   0.0000000), wk =   0.0006662
        k(   73) = (   0.0480000   0.0480000   0.0000000), wk =   0.0006662
        k(   74) = (   0.0486667   0.0486667   0.0000000), wk =   0.0006662
        k(   75) = (   0.0493333   0.0493333   0.0000000), wk =   0.0006662
        k(   76) = (   0.0500000   0.0500000   0.0000000), wk =   0.0006662
        k(   77) = (   0.0506667   0.0506667   0.0000000), wk =   0.0006662
        k(   78) = (   0.0513333   0.0513333   0.0000000), wk =   0.0006662
        k(   79) = (   0.0520000   0.0520000   0.0000000), wk =   0.0006662
        k(   80) = (   0.0526667   0.0526667   0.0000000), wk =   0.0006662
        k(   81) = (   0.0533333   0.0533333   0.0000000), wk =   0.0006662
        k(   82) = (   0.0540000   0.0540000   0.0000000), wk =   0.0006662
        k(   83) = (   0.0546667   0.0546667   0.0000000), wk =   0.0006662
        k(   84) = (   0.0553333   0.0553333   0.0000000), wk =   0.0006662
        k(   85) = (   0.0560000   0.0560000   0.0000000), wk =   0.0006662
        k(   86) = (   0.0566667   0.0566667   0.0000000), wk =   0.0006662
        k(   87) = (   0.0573333   0.0573333   0.0000000), wk =   0.0006662
        k(   88) = (   0.0580000   0.0580000   0.0000000), wk =   0.0006662
        k(   89) = (   0.0586667   0.0586667   0.0000000), wk =   0.0006662
        k(   90) = (   0.0593333   0.0593333   0.0000000), wk =   0.0006662
        k(   91) = (   0.0600000   0.0600000   0.0000000), wk =   0.0006662
        k(   92) = (   0.0606667   0.0606667   0.0000000), wk =   0.0006662
        k(   93) = (   0.0613333   0.0613333   0.0000000), wk =   0.0006662
        k(   94) = (   0.0620000   0.0620000   0.0000000), wk =   0.0006662
        k(   95) = (   0.0626667   0.0626667   0.0000000), wk =   0.0006662
        k(   96) = (   0.0633333   0.0633333   0.0000000), wk =   0.0006662
        k(   97) = (   0.0640000   0.0640000   0.0000000), wk =   0.0006662
        k(   98) = (   0.0646667   0.0646667   0.0000000), wk =   0.0006662
        k(   99) = (   0.0653333   0.0653333   0.0000000), wk =   0.0006662
        k(  100) = (   0.0660000   0.0660000   0.0000000), wk =   0.0006662
        k(  101) = (   0.0666667   0.0666667   0.0000000), wk =   0.0006662
        k(  102) = (   0.0673333   0.0673333   0.0000000), wk =   0.0006662
        k(  103) = (   0.0680000   0.0680000   0.0000000), wk =   0.0006662
        k(  104) = (   0.0686667   0.0686667   0.0000000), wk =   0.0006662
        k(  105) = (   0.0693333   0.0693333   0.0000000), wk =   0.0006662
        k(  106) = (   0.0700000   0.0700000   0.0000000), wk =   0.0006662
        k(  107) = (   0.0706667   0.0706667   0.0000000), wk =   0.0006662
        k(  108) = (   0.0713333   0.0713333   0.0000000), wk =   0.0006662
        k(  109) = (   0.0720000   0.0720000   0.0000000), wk =   0.0006662
        k(  110) = (   0.0726667   0.0726667   0.0000000), wk =   0.0006662
        k(  111) = (   0.0733333   0.0733333   0.0000000), wk =   0.0006662
        k(  112) = (   0.0740000   0.0740000   0.0000000), wk =   0.0006662
        k(  113) = (   0.0746667   0.0746667   0.0000000), wk =   0.0006662
        k(  114) = (   0.0753333   0.0753333   0.0000000), wk =   0.0006662
        k(  115) = (   0.0760000   0.0760000   0.0000000), wk =   0.0006662
        k(  116) = (   0.0766667   0.0766667   0.0000000), wk =   0.0006662
        k(  117) = (   0.0773333   0.0773333   0.0000000), wk =   0.0006662
        k(  118) = (   0.0780000   0.0780000   0.0000000), wk =   0.0006662
        k(  119) = (   0.0786667   0.0786667   0.0000000), wk =   0.0006662
        k(  120) = (   0.0793333   0.0793333   0.0000000), wk =   0.0006662
        k(  121) = (   0.0800000   0.0800000   0.0000000), wk =   0.0006662
        k(  122) = (   0.0806667   0.0806667   0.0000000), wk =   0.0006662
        k(  123) = (   0.0813333   0.0813333   0.0000000), wk =   0.0006662
        k(  124) = (   0.0820000   0.0820000   0.0000000), wk =   0.0006662
        k(  125) = (   0.0826667   0.0826667   0.0000000), wk =   0.0006662
        k(  126) = (   0.0833333   0.0833333   0.0000000), wk =   0.0006662
        k(  127) = (   0.0840000   0.0840000   0.0000000), wk =   0.0006662
        k(  128) = (   0.0846667   0.0846667   0.0000000), wk =   0.0006662
        k(  129) = (   0.0853333   0.0853333   0.0000000), wk =   0.0006662
        k(  130) = (   0.0860000   0.0860000   0.0000000), wk =   0.0006662
        k(  131) = (   0.0866667   0.0866667   0.0000000), wk =   0.0006662
        k(  132) = (   0.0873333   0.0873333   0.0000000), wk =   0.0006662
        k(  133) = (   0.0880000   0.0880000   0.0000000), wk =   0.0006662
        k(  134) = (   0.0886667   0.0886667   0.0000000), wk =   0.0006662
        k(  135) = (   0.0893333   0.0893333   0.0000000), wk =   0.0006662
        k(  136) = (   0.0900000   0.0900000   0.0000000), wk =   0.0006662
        k(  137) = (   0.0906667   0.0906667   0.0000000), wk =   0.0006662
        k(  138) = (   0.0913333   0.0913333   0.0000000), wk =   0.0006662
        k(  139) = (   0.0920000   0.0920000   0.0000000), wk =   0.0006662
        k(  140) = (   0.0926667   0.0926667   0.0000000), wk =   0.0006662
        k(  141) = (   0.0933333   0.0933333   0.0000000), wk =   0.0006662
        k(  142) = (   0.0940000   0.0940000   0.0000000), wk =   0.0006662
        k(  143) = (   0.0946667   0.0946667   0.0000000), wk =   0.0006662
        k(  144) = (   0.0953333   0.0953333   0.0000000), wk =   0.0006662
        k(  145) = (   0.0960000   0.0960000   0.0000000), wk =   0.0006662
        k(  146) = (   0.0966667   0.0966667   0.0000000), wk =   0.0006662
        k(  147) = (   0.0973333   0.0973333   0.0000000), wk =   0.0006662
        k(  148) = (   0.0980000   0.0980000   0.0000000), wk =   0.0006662
        k(  149) = (   0.0986667   0.0986667   0.0000000), wk =   0.0006662
        k(  150) = (   0.0993333   0.0993333   0.0000000), wk =   0.0006662
        k(  151) = (   0.1000000   0.1000000   0.0000000), wk =   0.0006662
        k(  152) = (   0.1006667   0.1006667   0.0000000), wk =   0.0006662
        k(  153) = (   0.1013333   0.1013333   0.0000000), wk =   0.0006662
        k(  154) = (   0.1020000   0.1020000   0.0000000), wk =   0.0006662
        k(  155) = (   0.1026667   0.1026667   0.0000000), wk =   0.0006662
        k(  156) = (   0.1033333   0.1033333   0.0000000), wk =   0.0006662
        k(  157) = (   0.1040000   0.1040000   0.0000000), wk =   0.0006662
        k(  158) = (   0.1046667   0.1046667   0.0000000), wk =   0.0006662
        k(  159) = (   0.1053333   0.1053333   0.0000000), wk =   0.0006662
        k(  160) = (   0.1060000   0.1060000   0.0000000), wk =   0.0006662
        k(  161) = (   0.1066667   0.1066667   0.0000000), wk =   0.0006662
        k(  162) = (   0.1073333   0.1073333   0.0000000), wk =   0.0006662
        k(  163) = (   0.1080000   0.1080000   0.0000000), wk =   0.0006662
        k(  164) = (   0.1086667   0.1086667   0.0000000), wk =   0.0006662
        k(  165) = (   0.1093333   0.1093333   0.0000000), wk =   0.0006662
        k(  166) = (   0.1100000   0.1100000   0.0000000), wk =   0.0006662
        k(  167) = (   0.1106667   0.1106667   0.0000000), wk =   0.0006662
        k(  168) = (   0.1113333   0.1113333   0.0000000), wk =   0.0006662
        k(  169) = (   0.1120000   0.1120000   0.0000000), wk =   0.0006662
        k(  170) = (   0.1126667   0.1126667   0.0000000), wk =   0.0006662
        k(  171) = (   0.1133333   0.1133333   0.0000000), wk =   0.0006662
        k(  172) = (   0.1140000   0.1140000   0.0000000), wk =   0.0006662
        k(  173) = (   0.1146667   0.1146667   0.0000000), wk =   0.0006662
        k(  174) = (   0.1153333   0.1153333   0.0000000), wk =   0.0006662
        k(  175) = (   0.1160000   0.1160000   0.0000000), wk =   0.0006662
        k(  176) = (   0.1166667   0.1166667   0.0000000), wk =   0.0006662
        k(  177) = (   0.1173333   0.1173333   0.0000000), wk =   0.0006662
        k(  178) = (   0.1180000   0.1180000   0.0000000), wk =   0.0006662
        k(  179) = (   0.1186667   0.1186667   0.0000000), wk =   0.0006662
        k(  180) = (   0.1193333   0.1193333   0.0000000), wk =   0.0006662
        k(  181) = (   0.1200000   0.1200000   0.0000000), wk =   0.0006662
        k(  182) = (   0.1206667   0.1206667   0.0000000), wk =   0.0006662
        k(  183) = (   0.1213333   0.1213333   0.0000000), wk =   0.0006662
        k(  184) = (   0.1220000   0.1220000   0.0000000), wk =   0.0006662
        k(  185) = (   0.1226667   0.1226667   0.0000000), wk =   0.0006662
        k(  186) = (   0.1233333   0.1233333   0.0000000), wk =   0.0006662
        k(  187) = (   0.1240000   0.1240000   0.0000000), wk =   0.0006662
        k(  188) = (   0.1246667   0.1246667   0.0000000), wk =   0.0006662
        k(  189) = (   0.1253333   0.1253333   0.0000000), wk =   0.0006662
        k(  190) = (   0.1260000   0.1260000   0.0000000), wk =   0.0006662
        k(  191) = (   0.1266667   0.1266667   0.0000000), wk =   0.0006662
        k(  192) = (   0.1273333   0.1273333   0.0000000), wk =   0.0006662
        k(  193) = (   0.1280000   0.1280000   0.0000000), wk =   0.0006662
        k(  194) = (   0.1286667   0.1286667   0.0000000), wk =   0.0006662
        k(  195) = (   0.1293333   0.1293333   0.0000000), wk =   0.0006662
        k(  196) = (   0.1300000   0.1300000   0.0000000), wk =   0.0006662
        k(  197) = (   0.1306667   0.1306667   0.0000000), wk =   0.0006662
        k(  198) = (   0.1313333   0.1313333   0.0000000), wk =   0.0006662
        k(  199) = (   0.1320000   0.1320000   0.0000000), wk =   0.0006662
        k(  200) = (   0.1326667   0.1326667   0.0000000), wk =   0.0006662
        k(  201) = (   0.1333333   0.1333333   0.0000000), wk =   0.0006662
        k(  202) = (   0.1340000   0.1340000   0.0000000), wk =   0.0006662
        k(  203) = (   0.1346667   0.1346667   0.0000000), wk =   0.0006662
        k(  204) = (   0.1353333   0.1353333   0.0000000), wk =   0.0006662
        k(  205) = (   0.1360000   0.1360000   0.0000000), wk =   0.0006662
        k(  206) = (   0.1366667   0.1366667   0.0000000), wk =   0.0006662
        k(  207) = (   0.1373333   0.1373333   0.0000000), wk =   0.0006662
        k(  208) = (   0.1380000   0.1380000   0.0000000), wk =   0.0006662
        k(  209) = (   0.1386667   0.1386667   0.0000000), wk =   0.0006662
        k(  210) = (   0.1393333   0.1393333   0.0000000), wk =   0.0006662
        k(  211) = (   0.1400000   0.1400000   0.0000000), wk =   0.0006662
        k(  212) = (   0.1406667   0.1406667   0.0000000), wk =   0.0006662
        k(  213) = (   0.1413333   0.1413333   0.0000000), wk =   0.0006662
        k(  214) = (   0.1420000   0.1420000   0.0000000), wk =   0.0006662
        k(  215) = (   0.1426667   0.1426667   0.0000000), wk =   0.0006662
        k(  216) = (   0.1433333   0.1433333   0.0000000), wk =   0.0006662
        k(  217) = (   0.1440000   0.1440000   0.0000000), wk =   0.0006662
        k(  218) = (   0.1446667   0.1446667   0.0000000), wk =   0.0006662
        k(  219) = (   0.1453333   0.1453333   0.0000000), wk =   0.0006662
        k(  220) = (   0.1460000   0.1460000   0.0000000), wk =   0.0006662
        k(  221) = (   0.1466667   0.1466667   0.0000000), wk =   0.0006662
        k(  222) = (   0.1473333   0.1473333   0.0000000), wk =   0.0006662
        k(  223) = (   0.1480000   0.1480000   0.0000000), wk =   0.0006662
        k(  224) = (   0.1486667   0.1486667   0.0000000), wk =   0.0006662
        k(  225) = (   0.1493333   0.1493333   0.0000000), wk =   0.0006662
        k(  226) = (   0.1500000   0.1500000   0.0000000), wk =   0.0006662
        k(  227) = (   0.1506667   0.1506667   0.0000000), wk =   0.0006662
        k(  228) = (   0.1513333   0.1513333   0.0000000), wk =   0.0006662
        k(  229) = (   0.1520000   0.1520000   0.0000000), wk =   0.0006662
        k(  230) = (   0.1526667   0.1526667   0.0000000), wk =   0.0006662
        k(  231) = (   0.1533333   0.1533333   0.0000000), wk =   0.0006662
        k(  232) = (   0.1540000   0.1540000   0.0000000), wk =   0.0006662
        k(  233) = (   0.1546667   0.1546667   0.0000000), wk =   0.0006662
        k(  234) = (   0.1553333   0.1553333   0.0000000), wk =   0.0006662
        k(  235) = (   0.1560000   0.1560000   0.0000000), wk =   0.0006662
        k(  236) = (   0.1566667   0.1566667   0.0000000), wk =   0.0006662
        k(  237) = (   0.1573333   0.1573333   0.0000000), wk =   0.0006662
        k(  238) = (   0.1580000   0.1580000   0.0000000), wk =   0.0006662
        k(  239) = (   0.1586667   0.1586667   0.0000000), wk =   0.0006662
        k(  240) = (   0.1593333   0.1593333   0.0000000), wk =   0.0006662
        k(  241) = (   0.1600000   0.1600000   0.0000000), wk =   0.0006662
        k(  242) = (   0.1606667   0.1606667   0.0000000), wk =   0.0006662
        k(  243) = (   0.1613333   0.1613333   0.0000000), wk =   0.0006662
        k(  244) = (   0.1620000   0.1620000   0.0000000), wk =   0.0006662
        k(  245) = (   0.1626667   0.1626667   0.0000000), wk =   0.0006662
        k(  246) = (   0.1633333   0.1633333   0.0000000), wk =   0.0006662
        k(  247) = (   0.1640000   0.1640000   0.0000000), wk =   0.0006662
        k(  248) = (   0.1646667   0.1646667   0.0000000), wk =   0.0006662
        k(  249) = (   0.1653333   0.1653333   0.0000000), wk =   0.0006662
        k(  250) = (   0.1660000   0.1660000   0.0000000), wk =   0.0006662
        k(  251) = (   0.1666667   0.1666667   0.0000000), wk =   0.0006662
        k(  252) = (   0.1673333   0.1673333   0.0000000), wk =   0.0006662
        k(  253) = (   0.1680000   0.1680000   0.0000000), wk =   0.0006662
        k(  254) = (   0.1686667   0.1686667   0.0000000), wk =   0.0006662
        k(  255) = (   0.1693333   0.1693333   0.0000000), wk =   0.0006662
        k(  256) = (   0.1700000   0.1700000   0.0000000), wk =   0.0006662
        k(  257) = (   0.1706667   0.1706667   0.0000000), wk =   0.0006662
        k(  258) = (   0.1713333   0.1713333   0.0000000), wk =   0.0006662
        k(  259) = (   0.1720000   0.1720000   0.0000000), wk =   0.0006662
        k(  260) = (   0.1726667   0.1726667   0.0000000), wk =   0.0006662
        k(  261) = (   0.1733333   0.1733333   0.0000000), wk =   0.0006662
        k(  262) = (   0.1740000   0.1740000   0.0000000), wk =   0.0006662
        k(  263) = (   0.1746667   0.1746667   0.0000000), wk =   0.0006662
        k(  264) = (   0.1753333   0.1753333   0.0000000), wk =   0.0006662
        k(  265) = (   0.1760000   0.1760000   0.0000000), wk =   0.0006662
        k(  266) = (   0.1766667   0.1766667   0.0000000), wk =   0.0006662
        k(  267) = (   0.1773333   0.1773333   0.0000000), wk =   0.0006662
        k(  268) = (   0.1780000   0.1780000   0.0000000), wk =   0.0006662
        k(  269) = (   0.1786667   0.1786667   0.0000000), wk =   0.0006662
        k(  270) = (   0.1793333   0.1793333   0.0000000), wk =   0.0006662
        k(  271) = (   0.1800000   0.1800000   0.0000000), wk =   0.0006662
        k(  272) = (   0.1806667   0.1806667   0.0000000), wk =   0.0006662
        k(  273) = (   0.1813333   0.1813333   0.0000000), wk =   0.0006662
        k(  274) = (   0.1820000   0.1820000   0.0000000), wk =   0.0006662
        k(  275) = (   0.1826667   0.1826667   0.0000000), wk =   0.0006662
        k(  276) = (   0.1833333   0.1833333   0.0000000), wk =   0.0006662
        k(  277) = (   0.1840000   0.1840000   0.0000000), wk =   0.0006662
        k(  278) = (   0.1846667   0.1846667   0.0000000), wk =   0.0006662
        k(  279) = (   0.1853333   0.1853333   0.0000000), wk =   0.0006662
        k(  280) = (   0.1860000   0.1860000   0.0000000), wk =   0.0006662
        k(  281) = (   0.1866667   0.1866667   0.0000000), wk =   0.0006662
        k(  282) = (   0.1873333   0.1873333   0.0000000), wk =   0.0006662
        k(  283) = (   0.1880000   0.1880000   0.0000000), wk =   0.0006662
        k(  284) = (   0.1886667   0.1886667   0.0000000), wk =   0.0006662
        k(  285) = (   0.1893333   0.1893333   0.0000000), wk =   0.0006662
        k(  286) = (   0.1900000   0.1900000   0.0000000), wk =   0.0006662
        k(  287) = (   0.1906667   0.1906667   0.0000000), wk =   0.0006662
        k(  288) = (   0.1913333   0.1913333   0.0000000), wk =   0.0006662
        k(  289) = (   0.1920000   0.1920000   0.0000000), wk =   0.0006662
        k(  290) = (   0.1926667   0.1926667   0.0000000), wk =   0.0006662
        k(  291) = (   0.1933333   0.1933333   0.0000000), wk =   0.0006662
        k(  292) = (   0.1940000   0.1940000   0.0000000), wk =   0.0006662
        k(  293) = (   0.1946667   0.1946667   0.0000000), wk =   0.0006662
        k(  294) = (   0.1953333   0.1953333   0.0000000), wk =   0.0006662
        k(  295) = (   0.1960000   0.1960000   0.0000000), wk =   0.0006662
        k(  296) = (   0.1966667   0.1966667   0.0000000), wk =   0.0006662
        k(  297) = (   0.1973333   0.1973333   0.0000000), wk =   0.0006662
        k(  298) = (   0.1980000   0.1980000   0.0000000), wk =   0.0006662
        k(  299) = (   0.1986667   0.1986667   0.0000000), wk =   0.0006662
        k(  300) = (   0.1993333   0.1993333   0.0000000), wk =   0.0006662
        k(  301) = (   0.2000000   0.2000000   0.0000000), wk =   0.0006662
        k(  302) = (   0.2006667   0.2006667   0.0000000), wk =   0.0006662
        k(  303) = (   0.2013333   0.2013333   0.0000000), wk =   0.0006662
        k(  304) = (   0.2020000   0.2020000   0.0000000), wk =   0.0006662
        k(  305) = (   0.2026667   0.2026667   0.0000000), wk =   0.0006662
        k(  306) = (   0.2033333   0.2033333   0.0000000), wk =   0.0006662
        k(  307) = (   0.2040000   0.2040000   0.0000000), wk =   0.0006662
        k(  308) = (   0.2046667   0.2046667   0.0000000), wk =   0.0006662
        k(  309) = (   0.2053333   0.2053333   0.0000000), wk =   0.0006662
        k(  310) = (   0.2060000   0.2060000   0.0000000), wk =   0.0006662
        k(  311) = (   0.2066667   0.2066667   0.0000000), wk =   0.0006662
        k(  312) = (   0.2073333   0.2073333   0.0000000), wk =   0.0006662
        k(  313) = (   0.2080000   0.2080000   0.0000000), wk =   0.0006662
        k(  314) = (   0.2086667   0.2086667   0.0000000), wk =   0.0006662
        k(  315) = (   0.2093333   0.2093333   0.0000000), wk =   0.0006662
        k(  316) = (   0.2100000   0.2100000   0.0000000), wk =   0.0006662
        k(  317) = (   0.2106667   0.2106667   0.0000000), wk =   0.0006662
        k(  318) = (   0.2113333   0.2113333   0.0000000), wk =   0.0006662
        k(  319) = (   0.2120000   0.2120000   0.0000000), wk =   0.0006662
        k(  320) = (   0.2126667   0.2126667   0.0000000), wk =   0.0006662
        k(  321) = (   0.2133333   0.2133333   0.0000000), wk =   0.0006662
        k(  322) = (   0.2140000   0.2140000   0.0000000), wk =   0.0006662
        k(  323) = (   0.2146667   0.2146667   0.0000000), wk =   0.0006662
        k(  324) = (   0.2153333   0.2153333   0.0000000), wk =   0.0006662
        k(  325) = (   0.2160000   0.2160000   0.0000000), wk =   0.0006662
        k(  326) = (   0.2166667   0.2166667   0.0000000), wk =   0.0006662
        k(  327) = (   0.2173333   0.2173333   0.0000000), wk =   0.0006662
        k(  328) = (   0.2180000   0.2180000   0.0000000), wk =   0.0006662
        k(  329) = (   0.2186667   0.2186667   0.0000000), wk =   0.0006662
        k(  330) = (   0.2193333   0.2193333   0.0000000), wk =   0.0006662
        k(  331) = (   0.2200000   0.2200000   0.0000000), wk =   0.0006662
        k(  332) = (   0.2206667   0.2206667   0.0000000), wk =   0.0006662
        k(  333) = (   0.2213333   0.2213333   0.0000000), wk =   0.0006662
        k(  334) = (   0.2220000   0.2220000   0.0000000), wk =   0.0006662
        k(  335) = (   0.2226667   0.2226667   0.0000000), wk =   0.0006662
        k(  336) = (   0.2233333   0.2233333   0.0000000), wk =   0.0006662
        k(  337) = (   0.2240000   0.2240000   0.0000000), wk =   0.0006662
        k(  338) = (   0.2246667   0.2246667   0.0000000), wk =   0.0006662
        k(  339) = (   0.2253333   0.2253333   0.0000000), wk =   0.0006662
        k(  340) = (   0.2260000   0.2260000   0.0000000), wk =   0.0006662
        k(  341) = (   0.2266667   0.2266667   0.0000000), wk =   0.0006662
        k(  342) = (   0.2273333   0.2273333   0.0000000), wk =   0.0006662
        k(  343) = (   0.2280000   0.2280000   0.0000000), wk =   0.0006662
        k(  344) = (   0.2286667   0.2286667   0.0000000), wk =   0.0006662
        k(  345) = (   0.2293333   0.2293333   0.0000000), wk =   0.0006662
        k(  346) = (   0.2300000   0.2300000   0.0000000), wk =   0.0006662
        k(  347) = (   0.2306667   0.2306667   0.0000000), wk =   0.0006662
        k(  348) = (   0.2313333   0.2313333   0.0000000), wk =   0.0006662
        k(  349) = (   0.2320000   0.2320000   0.0000000), wk =   0.0006662
        k(  350) = (   0.2326667   0.2326667   0.0000000), wk =   0.0006662
        k(  351) = (   0.2333333   0.2333333   0.0000000), wk =   0.0006662
        k(  352) = (   0.2340000   0.2340000   0.0000000), wk =   0.0006662
        k(  353) = (   0.2346667   0.2346667   0.0000000), wk =   0.0006662
        k(  354) = (   0.2353333   0.2353333   0.0000000), wk =   0.0006662
        k(  355) = (   0.2360000   0.2360000   0.0000000), wk =   0.0006662
        k(  356) = (   0.2366667   0.2366667   0.0000000), wk =   0.0006662
        k(  357) = (   0.2373333   0.2373333   0.0000000), wk =   0.0006662
        k(  358) = (   0.2380000   0.2380000   0.0000000), wk =   0.0006662
        k(  359) = (   0.2386667   0.2386667   0.0000000), wk =   0.0006662
        k(  360) = (   0.2393333   0.2393333   0.0000000), wk =   0.0006662
        k(  361) = (   0.2400000   0.2400000   0.0000000), wk =   0.0006662
        k(  362) = (   0.2406667   0.2406667   0.0000000), wk =   0.0006662
        k(  363) = (   0.2413333   0.2413333   0.0000000), wk =   0.0006662
        k(  364) = (   0.2420000   0.2420000   0.0000000), wk =   0.0006662
        k(  365) = (   0.2426667   0.2426667   0.0000000), wk =   0.0006662
        k(  366) = (   0.2433333   0.2433333   0.0000000), wk =   0.0006662
        k(  367) = (   0.2440000   0.2440000   0.0000000), wk =   0.0006662
        k(  368) = (   0.2446667   0.2446667   0.0000000), wk =   0.0006662
        k(  369) = (   0.2453333   0.2453333   0.0000000), wk =   0.0006662
        k(  370) = (   0.2460000   0.2460000   0.0000000), wk =   0.0006662
        k(  371) = (   0.2466667   0.2466667   0.0000000), wk =   0.0006662
        k(  372) = (   0.2473333   0.2473333   0.0000000), wk =   0.0006662
        k(  373) = (   0.2480000   0.2480000   0.0000000), wk =   0.0006662
        k(  374) = (   0.2486667   0.2486667   0.0000000), wk =   0.0006662
        k(  375) = (   0.2493333   0.2493333   0.0000000), wk =   0.0006662
        k(  376) = (   0.2500000   0.2500000   0.0000000), wk =   0.0006662
        k(  377) = (   0.2506667   0.2506667   0.0000000), wk =   0.0006662
        k(  378) = (   0.2513333   0.2513333   0.0000000), wk =   0.0006662
        k(  379) = (   0.2520000   0.2520000   0.0000000), wk =   0.0006662
        k(  380) = (   0.2526667   0.2526667   0.0000000), wk =   0.0006662
        k(  381) = (   0.2533333   0.2533333   0.0000000), wk =   0.0006662
        k(  382) = (   0.2540000   0.2540000   0.0000000), wk =   0.0006662
        k(  383) = (   0.2546667   0.2546667   0.0000000), wk =   0.0006662
        k(  384) = (   0.2553333   0.2553333   0.0000000), wk =   0.0006662
        k(  385) = (   0.2560000   0.2560000   0.0000000), wk =   0.0006662
        k(  386) = (   0.2566667   0.2566667   0.0000000), wk =   0.0006662
        k(  387) = (   0.2573333   0.2573333   0.0000000), wk =   0.0006662
        k(  388) = (   0.2580000   0.2580000   0.0000000), wk =   0.0006662
        k(  389) = (   0.2586667   0.2586667   0.0000000), wk =   0.0006662
        k(  390) = (   0.2593333   0.2593333   0.0000000), wk =   0.0006662
        k(  391) = (   0.2600000   0.2600000   0.0000000), wk =   0.0006662
        k(  392) = (   0.2606667   0.2606667   0.0000000), wk =   0.0006662
        k(  393) = (   0.2613333   0.2613333   0.0000000), wk =   0.0006662
        k(  394) = (   0.2620000   0.2620000   0.0000000), wk =   0.0006662
        k(  395) = (   0.2626667   0.2626667   0.0000000), wk =   0.0006662
        k(  396) = (   0.2633333   0.2633333   0.0000000), wk =   0.0006662
        k(  397) = (   0.2640000   0.2640000   0.0000000), wk =   0.0006662
        k(  398) = (   0.2646667   0.2646667   0.0000000), wk =   0.0006662
        k(  399) = (   0.2653333   0.2653333   0.0000000), wk =   0.0006662
        k(  400) = (   0.2660000   0.2660000   0.0000000), wk =   0.0006662
        k(  401) = (   0.2666667   0.2666667   0.0000000), wk =   0.0006662
        k(  402) = (   0.2673333   0.2673333   0.0000000), wk =   0.0006662
        k(  403) = (   0.2680000   0.2680000   0.0000000), wk =   0.0006662
        k(  404) = (   0.2686667   0.2686667   0.0000000), wk =   0.0006662
        k(  405) = (   0.2693333   0.2693333   0.0000000), wk =   0.0006662
        k(  406) = (   0.2700000   0.2700000   0.0000000), wk =   0.0006662
        k(  407) = (   0.2706667   0.2706667   0.0000000), wk =   0.0006662
        k(  408) = (   0.2713333   0.2713333   0.0000000), wk =   0.0006662
        k(  409) = (   0.2720000   0.2720000   0.0000000), wk =   0.0006662
        k(  410) = (   0.2726667   0.2726667   0.0000000), wk =   0.0006662
        k(  411) = (   0.2733333   0.2733333   0.0000000), wk =   0.0006662
        k(  412) = (   0.2740000   0.2740000   0.0000000), wk =   0.0006662
        k(  413) = (   0.2746667   0.2746667   0.0000000), wk =   0.0006662
        k(  414) = (   0.2753333   0.2753333   0.0000000), wk =   0.0006662
        k(  415) = (   0.2760000   0.2760000   0.0000000), wk =   0.0006662
        k(  416) = (   0.2766667   0.2766667   0.0000000), wk =   0.0006662
        k(  417) = (   0.2773333   0.2773333   0.0000000), wk =   0.0006662
        k(  418) = (   0.2780000   0.2780000   0.0000000), wk =   0.0006662
        k(  419) = (   0.2786667   0.2786667   0.0000000), wk =   0.0006662
        k(  420) = (   0.2793333   0.2793333   0.0000000), wk =   0.0006662
        k(  421) = (   0.2800000   0.2800000   0.0000000), wk =   0.0006662
        k(  422) = (   0.2806667   0.2806667   0.0000000), wk =   0.0006662
        k(  423) = (   0.2813333   0.2813333   0.0000000), wk =   0.0006662
        k(  424) = (   0.2820000   0.2820000   0.0000000), wk =   0.0006662
        k(  425) = (   0.2826667   0.2826667   0.0000000), wk =   0.0006662
        k(  426) = (   0.2833333   0.2833333   0.0000000), wk =   0.0006662
        k(  427) = (   0.2840000   0.2840000   0.0000000), wk =   0.0006662
        k(  428) = (   0.2846667   0.2846667   0.0000000), wk =   0.0006662
        k(  429) = (   0.2853333   0.2853333   0.0000000), wk =   0.0006662
        k(  430) = (   0.2860000   0.2860000   0.0000000), wk =   0.0006662
        k(  431) = (   0.2866667   0.2866667   0.0000000), wk =   0.0006662
        k(  432) = (   0.2873333   0.2873333   0.0000000), wk =   0.0006662
        k(  433) = (   0.2880000   0.2880000   0.0000000), wk =   0.0006662
        k(  434) = (   0.2886667   0.2886667   0.0000000), wk =   0.0006662
        k(  435) = (   0.2893333   0.2893333   0.0000000), wk =   0.0006662
        k(  436) = (   0.2900000   0.2900000   0.0000000), wk =   0.0006662
        k(  437) = (   0.2906667   0.2906667   0.0000000), wk =   0.0006662
        k(  438) = (   0.2913333   0.2913333   0.0000000), wk =   0.0006662
        k(  439) = (   0.2920000   0.2920000   0.0000000), wk =   0.0006662
        k(  440) = (   0.2926667   0.2926667   0.0000000), wk =   0.0006662
        k(  441) = (   0.2933333   0.2933333   0.0000000), wk =   0.0006662
        k(  442) = (   0.2940000   0.2940000   0.0000000), wk =   0.0006662
        k(  443) = (   0.2946667   0.2946667   0.0000000), wk =   0.0006662
        k(  444) = (   0.2953333   0.2953333   0.0000000), wk =   0.0006662
        k(  445) = (   0.2960000   0.2960000   0.0000000), wk =   0.0006662
        k(  446) = (   0.2966667   0.2966667   0.0000000), wk =   0.0006662
        k(  447) = (   0.2973333   0.2973333   0.0000000), wk =   0.0006662
        k(  448) = (   0.2980000   0.2980000   0.0000000), wk =   0.0006662
        k(  449) = (   0.2986667   0.2986667   0.0000000), wk =   0.0006662
        k(  450) = (   0.2993333   0.2993333   0.0000000), wk =   0.0006662
        k(  451) = (   0.3000000   0.3000000   0.0000000), wk =   0.0006662
        k(  452) = (   0.3006667   0.3006667   0.0000000), wk =   0.0006662
        k(  453) = (   0.3013333   0.3013333   0.0000000), wk =   0.0006662
        k(  454) = (   0.3020000   0.3020000   0.0000000), wk =   0.0006662
        k(  455) = (   0.3026667   0.3026667   0.0000000), wk =   0.0006662
        k(  456) = (   0.3033333   0.3033333   0.0000000), wk =   0.0006662
        k(  457) = (   0.3040000   0.3040000   0.0000000), wk =   0.0006662
        k(  458) = (   0.3046667   0.3046667   0.0000000), wk =   0.0006662
        k(  459) = (   0.3053333   0.3053333   0.0000000), wk =   0.0006662
        k(  460) = (   0.3060000   0.3060000   0.0000000), wk =   0.0006662
        k(  461) = (   0.3066667   0.3066667   0.0000000), wk =   0.0006662
        k(  462) = (   0.3073333   0.3073333   0.0000000), wk =   0.0006662
        k(  463) = (   0.3080000   0.3080000   0.0000000), wk =   0.0006662
        k(  464) = (   0.3086667   0.3086667   0.0000000), wk =   0.0006662
        k(  465) = (   0.3093333   0.3093333   0.0000000), wk =   0.0006662
        k(  466) = (   0.3100000   0.3100000   0.0000000), wk =   0.0006662
        k(  467) = (   0.3106667   0.3106667   0.0000000), wk =   0.0006662
        k(  468) = (   0.3113333   0.3113333   0.0000000), wk =   0.0006662
        k(  469) = (   0.3120000   0.3120000   0.0000000), wk =   0.0006662
        k(  470) = (   0.3126667   0.3126667   0.0000000), wk =   0.0006662
        k(  471) = (   0.3133333   0.3133333   0.0000000), wk =   0.0006662
        k(  472) = (   0.3140000   0.3140000   0.0000000), wk =   0.0006662
        k(  473) = (   0.3146667   0.3146667   0.0000000), wk =   0.0006662
        k(  474) = (   0.3153333   0.3153333   0.0000000), wk =   0.0006662
        k(  475) = (   0.3160000   0.3160000   0.0000000), wk =   0.0006662
        k(  476) = (   0.3166667   0.3166667   0.0000000), wk =   0.0006662
        k(  477) = (   0.3173333   0.3173333   0.0000000), wk =   0.0006662
        k(  478) = (   0.3180000   0.3180000   0.0000000), wk =   0.0006662
        k(  479) = (   0.3186667   0.3186667   0.0000000), wk =   0.0006662
        k(  480) = (   0.3193333   0.3193333   0.0000000), wk =   0.0006662
        k(  481) = (   0.3200000   0.3200000   0.0000000), wk =   0.0006662
        k(  482) = (   0.3206667   0.3206667   0.0000000), wk =   0.0006662
        k(  483) = (   0.3213333   0.3213333   0.0000000), wk =   0.0006662
        k(  484) = (   0.3220000   0.3220000   0.0000000), wk =   0.0006662
        k(  485) = (   0.3226667   0.3226667   0.0000000), wk =   0.0006662
        k(  486) = (   0.3233333   0.3233333   0.0000000), wk =   0.0006662
        k(  487) = (   0.3240000   0.3240000   0.0000000), wk =   0.0006662
        k(  488) = (   0.3246667   0.3246667   0.0000000), wk =   0.0006662
        k(  489) = (   0.3253333   0.3253333   0.0000000), wk =   0.0006662
        k(  490) = (   0.3260000   0.3260000   0.0000000), wk =   0.0006662
        k(  491) = (   0.3266667   0.3266667   0.0000000), wk =   0.0006662
        k(  492) = (   0.3273333   0.3273333   0.0000000), wk =   0.0006662
        k(  493) = (   0.3280000   0.3280000   0.0000000), wk =   0.0006662
        k(  494) = (   0.3286667   0.3286667   0.0000000), wk =   0.0006662
        k(  495) = (   0.3293333   0.3293333   0.0000000), wk =   0.0006662
        k(  496) = (   0.3300000   0.3300000   0.0000000), wk =   0.0006662
        k(  497) = (   0.3306667   0.3306667   0.0000000), wk =   0.0006662
        k(  498) = (   0.3313333   0.3313333   0.0000000), wk =   0.0006662
        k(  499) = (   0.3320000   0.3320000   0.0000000), wk =   0.0006662
        k(  500) = (   0.3326667   0.3326667   0.0000000), wk =   0.0006662
        k(  501) = (   0.3333333   0.3333333   0.0000000), wk =   0.0006662
        k(  502) = (   0.3336667   0.3326667   0.0000000), wk =   0.0006662
        k(  503) = (   0.3340000   0.3320000   0.0000000), wk =   0.0006662
        k(  504) = (   0.3343333   0.3313333   0.0000000), wk =   0.0006662
        k(  505) = (   0.3346667   0.3306667   0.0000000), wk =   0.0006662
        k(  506) = (   0.3350000   0.3300000   0.0000000), wk =   0.0006662
        k(  507) = (   0.3353333   0.3293333   0.0000000), wk =   0.0006662
        k(  508) = (   0.3356667   0.3286667   0.0000000), wk =   0.0006662
        k(  509) = (   0.3360000   0.3280000   0.0000000), wk =   0.0006662
        k(  510) = (   0.3363333   0.3273333   0.0000000), wk =   0.0006662
        k(  511) = (   0.3366667   0.3266667   0.0000000), wk =   0.0006662
        k(  512) = (   0.3370000   0.3260000   0.0000000), wk =   0.0006662
        k(  513) = (   0.3373333   0.3253333   0.0000000), wk =   0.0006662
        k(  514) = (   0.3376667   0.3246667   0.0000000), wk =   0.0006662
        k(  515) = (   0.3380000   0.3240000   0.0000000), wk =   0.0006662
        k(  516) = (   0.3383333   0.3233333   0.0000000), wk =   0.0006662
        k(  517) = (   0.3386667   0.3226667   0.0000000), wk =   0.0006662
        k(  518) = (   0.3390000   0.3220000   0.0000000), wk =   0.0006662
        k(  519) = (   0.3393333   0.3213333   0.0000000), wk =   0.0006662
        k(  520) = (   0.3396667   0.3206667   0.0000000), wk =   0.0006662
        k(  521) = (   0.3400000   0.3200000   0.0000000), wk =   0.0006662
        k(  522) = (   0.3403333   0.3193333   0.0000000), wk =   0.0006662
        k(  523) = (   0.3406667   0.3186667   0.0000000), wk =   0.0006662
        k(  524) = (   0.3410000   0.3180000   0.0000000), wk =   0.0006662
        k(  525) = (   0.3413333   0.3173333   0.0000000), wk =   0.0006662
        k(  526) = (   0.3416667   0.3166667   0.0000000), wk =   0.0006662
        k(  527) = (   0.3420000   0.3160000   0.0000000), wk =   0.0006662
        k(  528) = (   0.3423333   0.3153333   0.0000000), wk =   0.0006662
        k(  529) = (   0.3426667   0.3146667   0.0000000), wk =   0.0006662
        k(  530) = (   0.3430000   0.3140000   0.0000000), wk =   0.0006662
        k(  531) = (   0.3433333   0.3133333   0.0000000), wk =   0.0006662
        k(  532) = (   0.3436667   0.3126667   0.0000000), wk =   0.0006662
        k(  533) = (   0.3440000   0.3120000   0.0000000), wk =   0.0006662
        k(  534) = (   0.3443333   0.3113333   0.0000000), wk =   0.0006662
        k(  535) = (   0.3446667   0.3106667   0.0000000), wk =   0.0006662
        k(  536) = (   0.3450000   0.3100000   0.0000000), wk =   0.0006662
        k(  537) = (   0.3453333   0.3093333   0.0000000), wk =   0.0006662
        k(  538) = (   0.3456667   0.3086667   0.0000000), wk =   0.0006662
        k(  539) = (   0.3460000   0.3080000   0.0000000), wk =   0.0006662
        k(  540) = (   0.3463333   0.3073333   0.0000000), wk =   0.0006662
        k(  541) = (   0.3466667   0.3066667   0.0000000), wk =   0.0006662
        k(  542) = (   0.3470000   0.3060000   0.0000000), wk =   0.0006662
        k(  543) = (   0.3473333   0.3053333   0.0000000), wk =   0.0006662
        k(  544) = (   0.3476667   0.3046667   0.0000000), wk =   0.0006662
        k(  545) = (   0.3480000   0.3040000   0.0000000), wk =   0.0006662
        k(  546) = (   0.3483333   0.3033333   0.0000000), wk =   0.0006662
        k(  547) = (   0.3486667   0.3026667   0.0000000), wk =   0.0006662
        k(  548) = (   0.3490000   0.3020000   0.0000000), wk =   0.0006662
        k(  549) = (   0.3493333   0.3013333   0.0000000), wk =   0.0006662
        k(  550) = (   0.3496667   0.3006667   0.0000000), wk =   0.0006662
        k(  551) = (   0.3500000   0.3000000   0.0000000), wk =   0.0006662
        k(  552) = (   0.3503333   0.2993333   0.0000000), wk =   0.0006662
        k(  553) = (   0.3506667   0.2986667   0.0000000), wk =   0.0006662
        k(  554) = (   0.3510000   0.2980000   0.0000000), wk =   0.0006662
        k(  555) = (   0.3513333   0.2973333   0.0000000), wk =   0.0006662
        k(  556) = (   0.3516667   0.2966667   0.0000000), wk =   0.0006662
        k(  557) = (   0.3520000   0.2960000   0.0000000), wk =   0.0006662
        k(  558) = (   0.3523333   0.2953333   0.0000000), wk =   0.0006662
        k(  559) = (   0.3526667   0.2946667   0.0000000), wk =   0.0006662
        k(  560) = (   0.3530000   0.2940000   0.0000000), wk =   0.0006662
        k(  561) = (   0.3533333   0.2933333   0.0000000), wk =   0.0006662
        k(  562) = (   0.3536667   0.2926667   0.0000000), wk =   0.0006662
        k(  563) = (   0.3540000   0.2920000   0.0000000), wk =   0.0006662
        k(  564) = (   0.3543333   0.2913333   0.0000000), wk =   0.0006662
        k(  565) = (   0.3546667   0.2906667   0.0000000), wk =   0.0006662
        k(  566) = (   0.3550000   0.2900000   0.0000000), wk =   0.0006662
        k(  567) = (   0.3553333   0.2893333   0.0000000), wk =   0.0006662
        k(  568) = (   0.3556667   0.2886667   0.0000000), wk =   0.0006662
        k(  569) = (   0.3560000   0.2880000   0.0000000), wk =   0.0006662
        k(  570) = (   0.3563333   0.2873333   0.0000000), wk =   0.0006662
        k(  571) = (   0.3566667   0.2866667   0.0000000), wk =   0.0006662
        k(  572) = (   0.3570000   0.2860000   0.0000000), wk =   0.0006662
        k(  573) = (   0.3573333   0.2853333   0.0000000), wk =   0.0006662
        k(  574) = (   0.3576667   0.2846667   0.0000000), wk =   0.0006662
        k(  575) = (   0.3580000   0.2840000   0.0000000), wk =   0.0006662
        k(  576) = (   0.3583333   0.2833333   0.0000000), wk =   0.0006662
        k(  577) = (   0.3586667   0.2826667   0.0000000), wk =   0.0006662
        k(  578) = (   0.3590000   0.2820000   0.0000000), wk =   0.0006662
        k(  579) = (   0.3593333   0.2813333   0.0000000), wk =   0.0006662
        k(  580) = (   0.3596667   0.2806667   0.0000000), wk =   0.0006662
        k(  581) = (   0.3600000   0.2800000   0.0000000), wk =   0.0006662
        k(  582) = (   0.3603333   0.2793333   0.0000000), wk =   0.0006662
        k(  583) = (   0.3606667   0.2786667   0.0000000), wk =   0.0006662
        k(  584) = (   0.3610000   0.2780000   0.0000000), wk =   0.0006662
        k(  585) = (   0.3613333   0.2773333   0.0000000), wk =   0.0006662
        k(  586) = (   0.3616667   0.2766667   0.0000000), wk =   0.0006662
        k(  587) = (   0.3620000   0.2760000   0.0000000), wk =   0.0006662
        k(  588) = (   0.3623333   0.2753333   0.0000000), wk =   0.0006662
        k(  589) = (   0.3626667   0.2746667   0.0000000), wk =   0.0006662
        k(  590) = (   0.3630000   0.2740000   0.0000000), wk =   0.0006662
        k(  591) = (   0.3633333   0.2733333   0.0000000), wk =   0.0006662
        k(  592) = (   0.3636667   0.2726667   0.0000000), wk =   0.0006662
        k(  593) = (   0.3640000   0.2720000   0.0000000), wk =   0.0006662
        k(  594) = (   0.3643333   0.2713333   0.0000000), wk =   0.0006662
        k(  595) = (   0.3646667   0.2706667   0.0000000), wk =   0.0006662
        k(  596) = (   0.3650000   0.2700000   0.0000000), wk =   0.0006662
        k(  597) = (   0.3653333   0.2693333   0.0000000), wk =   0.0006662
        k(  598) = (   0.3656667   0.2686667   0.0000000), wk =   0.0006662
        k(  599) = (   0.3660000   0.2680000   0.0000000), wk =   0.0006662
        k(  600) = (   0.3663333   0.2673333   0.0000000), wk =   0.0006662
        k(  601) = (   0.3666667   0.2666667   0.0000000), wk =   0.0006662
        k(  602) = (   0.3670000   0.2660000   0.0000000), wk =   0.0006662
        k(  603) = (   0.3673333   0.2653333   0.0000000), wk =   0.0006662
        k(  604) = (   0.3676667   0.2646667   0.0000000), wk =   0.0006662
        k(  605) = (   0.3680000   0.2640000   0.0000000), wk =   0.0006662
        k(  606) = (   0.3683333   0.2633333   0.0000000), wk =   0.0006662
        k(  607) = (   0.3686667   0.2626667   0.0000000), wk =   0.0006662
        k(  608) = (   0.3690000   0.2620000   0.0000000), wk =   0.0006662
        k(  609) = (   0.3693333   0.2613333   0.0000000), wk =   0.0006662
        k(  610) = (   0.3696667   0.2606667   0.0000000), wk =   0.0006662
        k(  611) = (   0.3700000   0.2600000   0.0000000), wk =   0.0006662
        k(  612) = (   0.3703333   0.2593333   0.0000000), wk =   0.0006662
        k(  613) = (   0.3706667   0.2586667   0.0000000), wk =   0.0006662
        k(  614) = (   0.3710000   0.2580000   0.0000000), wk =   0.0006662
        k(  615) = (   0.3713333   0.2573333   0.0000000), wk =   0.0006662
        k(  616) = (   0.3716667   0.2566667   0.0000000), wk =   0.0006662
        k(  617) = (   0.3720000   0.2560000   0.0000000), wk =   0.0006662
        k(  618) = (   0.3723333   0.2553333   0.0000000), wk =   0.0006662
        k(  619) = (   0.3726667   0.2546667   0.0000000), wk =   0.0006662
        k(  620) = (   0.3730000   0.2540000   0.0000000), wk =   0.0006662
        k(  621) = (   0.3733333   0.2533333   0.0000000), wk =   0.0006662
        k(  622) = (   0.3736667   0.2526667   0.0000000), wk =   0.0006662
        k(  623) = (   0.3740000   0.2520000   0.0000000), wk =   0.0006662
        k(  624) = (   0.3743333   0.2513333   0.0000000), wk =   0.0006662
        k(  625) = (   0.3746667   0.2506667   0.0000000), wk =   0.0006662
        k(  626) = (   0.3750000   0.2500000   0.0000000), wk =   0.0006662
        k(  627) = (   0.3753333   0.2493333   0.0000000), wk =   0.0006662
        k(  628) = (   0.3756667   0.2486667   0.0000000), wk =   0.0006662
        k(  629) = (   0.3760000   0.2480000   0.0000000), wk =   0.0006662
        k(  630) = (   0.3763333   0.2473333   0.0000000), wk =   0.0006662
        k(  631) = (   0.3766667   0.2466667   0.0000000), wk =   0.0006662
        k(  632) = (   0.3770000   0.2460000   0.0000000), wk =   0.0006662
        k(  633) = (   0.3773333   0.2453333   0.0000000), wk =   0.0006662
        k(  634) = (   0.3776667   0.2446667   0.0000000), wk =   0.0006662
        k(  635) = (   0.3780000   0.2440000   0.0000000), wk =   0.0006662
        k(  636) = (   0.3783333   0.2433333   0.0000000), wk =   0.0006662
        k(  637) = (   0.3786667   0.2426667   0.0000000), wk =   0.0006662
        k(  638) = (   0.3790000   0.2420000   0.0000000), wk =   0.0006662
        k(  639) = (   0.3793333   0.2413333   0.0000000), wk =   0.0006662
        k(  640) = (   0.3796667   0.2406667   0.0000000), wk =   0.0006662
        k(  641) = (   0.3800000   0.2400000   0.0000000), wk =   0.0006662
        k(  642) = (   0.3803333   0.2393333   0.0000000), wk =   0.0006662
        k(  643) = (   0.3806667   0.2386667   0.0000000), wk =   0.0006662
        k(  644) = (   0.3810000   0.2380000   0.0000000), wk =   0.0006662
        k(  645) = (   0.3813333   0.2373333   0.0000000), wk =   0.0006662
        k(  646) = (   0.3816667   0.2366667   0.0000000), wk =   0.0006662
        k(  647) = (   0.3820000   0.2360000   0.0000000), wk =   0.0006662
        k(  648) = (   0.3823333   0.2353333   0.0000000), wk =   0.0006662
        k(  649) = (   0.3826667   0.2346667   0.0000000), wk =   0.0006662
        k(  650) = (   0.3830000   0.2340000   0.0000000), wk =   0.0006662
        k(  651) = (   0.3833333   0.2333333   0.0000000), wk =   0.0006662
        k(  652) = (   0.3836667   0.2326667   0.0000000), wk =   0.0006662
        k(  653) = (   0.3840000   0.2320000   0.0000000), wk =   0.0006662
        k(  654) = (   0.3843333   0.2313333   0.0000000), wk =   0.0006662
        k(  655) = (   0.3846667   0.2306667   0.0000000), wk =   0.0006662
        k(  656) = (   0.3850000   0.2300000   0.0000000), wk =   0.0006662
        k(  657) = (   0.3853333   0.2293333   0.0000000), wk =   0.0006662
        k(  658) = (   0.3856667   0.2286667   0.0000000), wk =   0.0006662
        k(  659) = (   0.3860000   0.2280000   0.0000000), wk =   0.0006662
        k(  660) = (   0.3863333   0.2273333   0.0000000), wk =   0.0006662
        k(  661) = (   0.3866667   0.2266667   0.0000000), wk =   0.0006662
        k(  662) = (   0.3870000   0.2260000   0.0000000), wk =   0.0006662
        k(  663) = (   0.3873333   0.2253333   0.0000000), wk =   0.0006662
        k(  664) = (   0.3876667   0.2246667   0.0000000), wk =   0.0006662
        k(  665) = (   0.3880000   0.2240000   0.0000000), wk =   0.0006662
        k(  666) = (   0.3883333   0.2233333   0.0000000), wk =   0.0006662
        k(  667) = (   0.3886667   0.2226667   0.0000000), wk =   0.0006662
        k(  668) = (   0.3890000   0.2220000   0.0000000), wk =   0.0006662
        k(  669) = (   0.3893333   0.2213333   0.0000000), wk =   0.0006662
        k(  670) = (   0.3896667   0.2206667   0.0000000), wk =   0.0006662
        k(  671) = (   0.3900000   0.2200000   0.0000000), wk =   0.0006662
        k(  672) = (   0.3903333   0.2193333   0.0000000), wk =   0.0006662
        k(  673) = (   0.3906667   0.2186667   0.0000000), wk =   0.0006662
        k(  674) = (   0.3910000   0.2180000   0.0000000), wk =   0.0006662
        k(  675) = (   0.3913333   0.2173333   0.0000000), wk =   0.0006662
        k(  676) = (   0.3916667   0.2166667   0.0000000), wk =   0.0006662
        k(  677) = (   0.3920000   0.2160000   0.0000000), wk =   0.0006662
        k(  678) = (   0.3923333   0.2153333   0.0000000), wk =   0.0006662
        k(  679) = (   0.3926667   0.2146667   0.0000000), wk =   0.0006662
        k(  680) = (   0.3930000   0.2140000   0.0000000), wk =   0.0006662
        k(  681) = (   0.3933333   0.2133333   0.0000000), wk =   0.0006662
        k(  682) = (   0.3936667   0.2126667   0.0000000), wk =   0.0006662
        k(  683) = (   0.3940000   0.2120000   0.0000000), wk =   0.0006662
        k(  684) = (   0.3943333   0.2113333   0.0000000), wk =   0.0006662
        k(  685) = (   0.3946667   0.2106667   0.0000000), wk =   0.0006662
        k(  686) = (   0.3950000   0.2100000   0.0000000), wk =   0.0006662
        k(  687) = (   0.3953333   0.2093333   0.0000000), wk =   0.0006662
        k(  688) = (   0.3956667   0.2086667   0.0000000), wk =   0.0006662
        k(  689) = (   0.3960000   0.2080000   0.0000000), wk =   0.0006662
        k(  690) = (   0.3963333   0.2073333   0.0000000), wk =   0.0006662
        k(  691) = (   0.3966667   0.2066667   0.0000000), wk =   0.0006662
        k(  692) = (   0.3970000   0.2060000   0.0000000), wk =   0.0006662
        k(  693) = (   0.3973333   0.2053333   0.0000000), wk =   0.0006662
        k(  694) = (   0.3976667   0.2046667   0.0000000), wk =   0.0006662
        k(  695) = (   0.3980000   0.2040000   0.0000000), wk =   0.0006662
        k(  696) = (   0.3983333   0.2033333   0.0000000), wk =   0.0006662
        k(  697) = (   0.3986667   0.2026667   0.0000000), wk =   0.0006662
        k(  698) = (   0.3990000   0.2020000   0.0000000), wk =   0.0006662
        k(  699) = (   0.3993333   0.2013333   0.0000000), wk =   0.0006662
        k(  700) = (   0.3996667   0.2006667   0.0000000), wk =   0.0006662
        k(  701) = (   0.4000000   0.2000000   0.0000000), wk =   0.0006662
        k(  702) = (   0.4003333   0.1993333   0.0000000), wk =   0.0006662
        k(  703) = (   0.4006667   0.1986667   0.0000000), wk =   0.0006662
        k(  704) = (   0.4010000   0.1980000   0.0000000), wk =   0.0006662
        k(  705) = (   0.4013333   0.1973333   0.0000000), wk =   0.0006662
        k(  706) = (   0.4016667   0.1966667   0.0000000), wk =   0.0006662
        k(  707) = (   0.4020000   0.1960000   0.0000000), wk =   0.0006662
        k(  708) = (   0.4023333   0.1953333   0.0000000), wk =   0.0006662
        k(  709) = (   0.4026667   0.1946667   0.0000000), wk =   0.0006662
        k(  710) = (   0.4030000   0.1940000   0.0000000), wk =   0.0006662
        k(  711) = (   0.4033333   0.1933333   0.0000000), wk =   0.0006662
        k(  712) = (   0.4036667   0.1926667   0.0000000), wk =   0.0006662
        k(  713) = (   0.4040000   0.1920000   0.0000000), wk =   0.0006662
        k(  714) = (   0.4043333   0.1913333   0.0000000), wk =   0.0006662
        k(  715) = (   0.4046667   0.1906667   0.0000000), wk =   0.0006662
        k(  716) = (   0.4050000   0.1900000   0.0000000), wk =   0.0006662
        k(  717) = (   0.4053333   0.1893333   0.0000000), wk =   0.0006662
        k(  718) = (   0.4056667   0.1886667   0.0000000), wk =   0.0006662
        k(  719) = (   0.4060000   0.1880000   0.0000000), wk =   0.0006662
        k(  720) = (   0.4063333   0.1873333   0.0000000), wk =   0.0006662
        k(  721) = (   0.4066667   0.1866667   0.0000000), wk =   0.0006662
        k(  722) = (   0.4070000   0.1860000   0.0000000), wk =   0.0006662
        k(  723) = (   0.4073333   0.1853333   0.0000000), wk =   0.0006662
        k(  724) = (   0.4076667   0.1846667   0.0000000), wk =   0.0006662
        k(  725) = (   0.4080000   0.1840000   0.0000000), wk =   0.0006662
        k(  726) = (   0.4083333   0.1833333   0.0000000), wk =   0.0006662
        k(  727) = (   0.4086667   0.1826667   0.0000000), wk =   0.0006662
        k(  728) = (   0.4090000   0.1820000   0.0000000), wk =   0.0006662
        k(  729) = (   0.4093333   0.1813333   0.0000000), wk =   0.0006662
        k(  730) = (   0.4096667   0.1806667   0.0000000), wk =   0.0006662
        k(  731) = (   0.4100000   0.1800000   0.0000000), wk =   0.0006662
        k(  732) = (   0.4103333   0.1793333   0.0000000), wk =   0.0006662
        k(  733) = (   0.4106667   0.1786667   0.0000000), wk =   0.0006662
        k(  734) = (   0.4110000   0.1780000   0.0000000), wk =   0.0006662
        k(  735) = (   0.4113333   0.1773333   0.0000000), wk =   0.0006662
        k(  736) = (   0.4116667   0.1766667   0.0000000), wk =   0.0006662
        k(  737) = (   0.4120000   0.1760000   0.0000000), wk =   0.0006662
        k(  738) = (   0.4123333   0.1753333   0.0000000), wk =   0.0006662
        k(  739) = (   0.4126667   0.1746667   0.0000000), wk =   0.0006662
        k(  740) = (   0.4130000   0.1740000   0.0000000), wk =   0.0006662
        k(  741) = (   0.4133333   0.1733333   0.0000000), wk =   0.0006662
        k(  742) = (   0.4136667   0.1726667   0.0000000), wk =   0.0006662
        k(  743) = (   0.4140000   0.1720000   0.0000000), wk =   0.0006662
        k(  744) = (   0.4143333   0.1713333   0.0000000), wk =   0.0006662
        k(  745) = (   0.4146667   0.1706667   0.0000000), wk =   0.0006662
        k(  746) = (   0.4150000   0.1700000   0.0000000), wk =   0.0006662
        k(  747) = (   0.4153333   0.1693333   0.0000000), wk =   0.0006662
        k(  748) = (   0.4156667   0.1686667   0.0000000), wk =   0.0006662
        k(  749) = (   0.4160000   0.1680000   0.0000000), wk =   0.0006662
        k(  750) = (   0.4163333   0.1673333   0.0000000), wk =   0.0006662
        k(  751) = (   0.4166667   0.1666667   0.0000000), wk =   0.0006662
        k(  752) = (   0.4170000   0.1660000   0.0000000), wk =   0.0006662
        k(  753) = (   0.4173333   0.1653333   0.0000000), wk =   0.0006662
        k(  754) = (   0.4176667   0.1646667   0.0000000), wk =   0.0006662
        k(  755) = (   0.4180000   0.1640000   0.0000000), wk =   0.0006662
        k(  756) = (   0.4183333   0.1633333   0.0000000), wk =   0.0006662
        k(  757) = (   0.4186667   0.1626667   0.0000000), wk =   0.0006662
        k(  758) = (   0.4190000   0.1620000   0.0000000), wk =   0.0006662
        k(  759) = (   0.4193333   0.1613333   0.0000000), wk =   0.0006662
        k(  760) = (   0.4196667   0.1606667   0.0000000), wk =   0.0006662
        k(  761) = (   0.4200000   0.1600000   0.0000000), wk =   0.0006662
        k(  762) = (   0.4203333   0.1593333   0.0000000), wk =   0.0006662
        k(  763) = (   0.4206667   0.1586667   0.0000000), wk =   0.0006662
        k(  764) = (   0.4210000   0.1580000   0.0000000), wk =   0.0006662
        k(  765) = (   0.4213333   0.1573333   0.0000000), wk =   0.0006662
        k(  766) = (   0.4216667   0.1566667   0.0000000), wk =   0.0006662
        k(  767) = (   0.4220000   0.1560000   0.0000000), wk =   0.0006662
        k(  768) = (   0.4223333   0.1553333   0.0000000), wk =   0.0006662
        k(  769) = (   0.4226667   0.1546667   0.0000000), wk =   0.0006662
        k(  770) = (   0.4230000   0.1540000   0.0000000), wk =   0.0006662
        k(  771) = (   0.4233333   0.1533333   0.0000000), wk =   0.0006662
        k(  772) = (   0.4236667   0.1526667   0.0000000), wk =   0.0006662
        k(  773) = (   0.4240000   0.1520000   0.0000000), wk =   0.0006662
        k(  774) = (   0.4243333   0.1513333   0.0000000), wk =   0.0006662
        k(  775) = (   0.4246667   0.1506667   0.0000000), wk =   0.0006662
        k(  776) = (   0.4250000   0.1500000   0.0000000), wk =   0.0006662
        k(  777) = (   0.4253333   0.1493333   0.0000000), wk =   0.0006662
        k(  778) = (   0.4256667   0.1486667   0.0000000), wk =   0.0006662
        k(  779) = (   0.4260000   0.1480000   0.0000000), wk =   0.0006662
        k(  780) = (   0.4263333   0.1473333   0.0000000), wk =   0.0006662
        k(  781) = (   0.4266667   0.1466667   0.0000000), wk =   0.0006662
        k(  782) = (   0.4270000   0.1460000   0.0000000), wk =   0.0006662
        k(  783) = (   0.4273333   0.1453333   0.0000000), wk =   0.0006662
        k(  784) = (   0.4276667   0.1446667   0.0000000), wk =   0.0006662
        k(  785) = (   0.4280000   0.1440000   0.0000000), wk =   0.0006662
        k(  786) = (   0.4283333   0.1433333   0.0000000), wk =   0.0006662
        k(  787) = (   0.4286667   0.1426667   0.0000000), wk =   0.0006662
        k(  788) = (   0.4290000   0.1420000   0.0000000), wk =   0.0006662
        k(  789) = (   0.4293333   0.1413333   0.0000000), wk =   0.0006662
        k(  790) = (   0.4296667   0.1406667   0.0000000), wk =   0.0006662
        k(  791) = (   0.4300000   0.1400000   0.0000000), wk =   0.0006662
        k(  792) = (   0.4303333   0.1393333   0.0000000), wk =   0.0006662
        k(  793) = (   0.4306667   0.1386667   0.0000000), wk =   0.0006662
        k(  794) = (   0.4310000   0.1380000   0.0000000), wk =   0.0006662
        k(  795) = (   0.4313333   0.1373333   0.0000000), wk =   0.0006662
        k(  796) = (   0.4316667   0.1366667   0.0000000), wk =   0.0006662
        k(  797) = (   0.4320000   0.1360000   0.0000000), wk =   0.0006662
        k(  798) = (   0.4323333   0.1353333   0.0000000), wk =   0.0006662
        k(  799) = (   0.4326667   0.1346667   0.0000000), wk =   0.0006662
        k(  800) = (   0.4330000   0.1340000   0.0000000), wk =   0.0006662
        k(  801) = (   0.4333333   0.1333333   0.0000000), wk =   0.0006662
        k(  802) = (   0.4336667   0.1326667   0.0000000), wk =   0.0006662
        k(  803) = (   0.4340000   0.1320000   0.0000000), wk =   0.0006662
        k(  804) = (   0.4343333   0.1313333   0.0000000), wk =   0.0006662
        k(  805) = (   0.4346667   0.1306667   0.0000000), wk =   0.0006662
        k(  806) = (   0.4350000   0.1300000   0.0000000), wk =   0.0006662
        k(  807) = (   0.4353333   0.1293333   0.0000000), wk =   0.0006662
        k(  808) = (   0.4356667   0.1286667   0.0000000), wk =   0.0006662
        k(  809) = (   0.4360000   0.1280000   0.0000000), wk =   0.0006662
        k(  810) = (   0.4363333   0.1273333   0.0000000), wk =   0.0006662
        k(  811) = (   0.4366667   0.1266667   0.0000000), wk =   0.0006662
        k(  812) = (   0.4370000   0.1260000   0.0000000), wk =   0.0006662
        k(  813) = (   0.4373333   0.1253333   0.0000000), wk =   0.0006662
        k(  814) = (   0.4376667   0.1246667   0.0000000), wk =   0.0006662
        k(  815) = (   0.4380000   0.1240000   0.0000000), wk =   0.0006662
        k(  816) = (   0.4383333   0.1233333   0.0000000), wk =   0.0006662
        k(  817) = (   0.4386667   0.1226667   0.0000000), wk =   0.0006662
        k(  818) = (   0.4390000   0.1220000   0.0000000), wk =   0.0006662
        k(  819) = (   0.4393333   0.1213333   0.0000000), wk =   0.0006662
        k(  820) = (   0.4396667   0.1206667   0.0000000), wk =   0.0006662
        k(  821) = (   0.4400000   0.1200000   0.0000000), wk =   0.0006662
        k(  822) = (   0.4403333   0.1193333   0.0000000), wk =   0.0006662
        k(  823) = (   0.4406667   0.1186667   0.0000000), wk =   0.0006662
        k(  824) = (   0.4410000   0.1180000   0.0000000), wk =   0.0006662
        k(  825) = (   0.4413333   0.1173333   0.0000000), wk =   0.0006662
        k(  826) = (   0.4416667   0.1166667   0.0000000), wk =   0.0006662
        k(  827) = (   0.4420000   0.1160000   0.0000000), wk =   0.0006662
        k(  828) = (   0.4423333   0.1153333   0.0000000), wk =   0.0006662
        k(  829) = (   0.4426667   0.1146667   0.0000000), wk =   0.0006662
        k(  830) = (   0.4430000   0.1140000   0.0000000), wk =   0.0006662
        k(  831) = (   0.4433333   0.1133333   0.0000000), wk =   0.0006662
        k(  832) = (   0.4436667   0.1126667   0.0000000), wk =   0.0006662
        k(  833) = (   0.4440000   0.1120000   0.0000000), wk =   0.0006662
        k(  834) = (   0.4443333   0.1113333   0.0000000), wk =   0.0006662
        k(  835) = (   0.4446667   0.1106667   0.0000000), wk =   0.0006662
        k(  836) = (   0.4450000   0.1100000   0.0000000), wk =   0.0006662
        k(  837) = (   0.4453333   0.1093333   0.0000000), wk =   0.0006662
        k(  838) = (   0.4456667   0.1086667   0.0000000), wk =   0.0006662
        k(  839) = (   0.4460000   0.1080000   0.0000000), wk =   0.0006662
        k(  840) = (   0.4463333   0.1073333   0.0000000), wk =   0.0006662
        k(  841) = (   0.4466667   0.1066667   0.0000000), wk =   0.0006662
        k(  842) = (   0.4470000   0.1060000   0.0000000), wk =   0.0006662
        k(  843) = (   0.4473333   0.1053333   0.0000000), wk =   0.0006662
        k(  844) = (   0.4476667   0.1046667   0.0000000), wk =   0.0006662
        k(  845) = (   0.4480000   0.1040000   0.0000000), wk =   0.0006662
        k(  846) = (   0.4483333   0.1033333   0.0000000), wk =   0.0006662
        k(  847) = (   0.4486667   0.1026667   0.0000000), wk =   0.0006662
        k(  848) = (   0.4490000   0.1020000   0.0000000), wk =   0.0006662
        k(  849) = (   0.4493333   0.1013333   0.0000000), wk =   0.0006662
        k(  850) = (   0.4496667   0.1006667   0.0000000), wk =   0.0006662
        k(  851) = (   0.4500000   0.1000000   0.0000000), wk =   0.0006662
        k(  852) = (   0.4503333   0.0993333   0.0000000), wk =   0.0006662
        k(  853) = (   0.4506667   0.0986667   0.0000000), wk =   0.0006662
        k(  854) = (   0.4510000   0.0980000   0.0000000), wk =   0.0006662
        k(  855) = (   0.4513333   0.0973333   0.0000000), wk =   0.0006662
        k(  856) = (   0.4516667   0.0966667   0.0000000), wk =   0.0006662
        k(  857) = (   0.4520000   0.0960000   0.0000000), wk =   0.0006662
        k(  858) = (   0.4523333   0.0953333   0.0000000), wk =   0.0006662
        k(  859) = (   0.4526667   0.0946667   0.0000000), wk =   0.0006662
        k(  860) = (   0.4530000   0.0940000   0.0000000), wk =   0.0006662
        k(  861) = (   0.4533333   0.0933333   0.0000000), wk =   0.0006662
        k(  862) = (   0.4536667   0.0926667   0.0000000), wk =   0.0006662
        k(  863) = (   0.4540000   0.0920000   0.0000000), wk =   0.0006662
        k(  864) = (   0.4543333   0.0913333   0.0000000), wk =   0.0006662
        k(  865) = (   0.4546667   0.0906667   0.0000000), wk =   0.0006662
        k(  866) = (   0.4550000   0.0900000   0.0000000), wk =   0.0006662
        k(  867) = (   0.4553333   0.0893333   0.0000000), wk =   0.0006662
        k(  868) = (   0.4556667   0.0886667   0.0000000), wk =   0.0006662
        k(  869) = (   0.4560000   0.0880000   0.0000000), wk =   0.0006662
        k(  870) = (   0.4563333   0.0873333   0.0000000), wk =   0.0006662
        k(  871) = (   0.4566667   0.0866667   0.0000000), wk =   0.0006662
        k(  872) = (   0.4570000   0.0860000   0.0000000), wk =   0.0006662
        k(  873) = (   0.4573333   0.0853333   0.0000000), wk =   0.0006662
        k(  874) = (   0.4576667   0.0846667   0.0000000), wk =   0.0006662
        k(  875) = (   0.4580000   0.0840000   0.0000000), wk =   0.0006662
        k(  876) = (   0.4583333   0.0833333   0.0000000), wk =   0.0006662
        k(  877) = (   0.4586667   0.0826667   0.0000000), wk =   0.0006662
        k(  878) = (   0.4590000   0.0820000   0.0000000), wk =   0.0006662
        k(  879) = (   0.4593333   0.0813333   0.0000000), wk =   0.0006662
        k(  880) = (   0.4596667   0.0806667   0.0000000), wk =   0.0006662
        k(  881) = (   0.4600000   0.0800000   0.0000000), wk =   0.0006662
        k(  882) = (   0.4603333   0.0793333   0.0000000), wk =   0.0006662
        k(  883) = (   0.4606667   0.0786667   0.0000000), wk =   0.0006662
        k(  884) = (   0.4610000   0.0780000   0.0000000), wk =   0.0006662
        k(  885) = (   0.4613333   0.0773333   0.0000000), wk =   0.0006662
        k(  886) = (   0.4616667   0.0766667   0.0000000), wk =   0.0006662
        k(  887) = (   0.4620000   0.0760000   0.0000000), wk =   0.0006662
        k(  888) = (   0.4623333   0.0753333   0.0000000), wk =   0.0006662
        k(  889) = (   0.4626667   0.0746667   0.0000000), wk =   0.0006662
        k(  890) = (   0.4630000   0.0740000   0.0000000), wk =   0.0006662
        k(  891) = (   0.4633333   0.0733333   0.0000000), wk =   0.0006662
        k(  892) = (   0.4636667   0.0726667   0.0000000), wk =   0.0006662
        k(  893) = (   0.4640000   0.0720000   0.0000000), wk =   0.0006662
        k(  894) = (   0.4643333   0.0713333   0.0000000), wk =   0.0006662
        k(  895) = (   0.4646667   0.0706667   0.0000000), wk =   0.0006662
        k(  896) = (   0.4650000   0.0700000   0.0000000), wk =   0.0006662
        k(  897) = (   0.4653333   0.0693333   0.0000000), wk =   0.0006662
        k(  898) = (   0.4656667   0.0686667   0.0000000), wk =   0.0006662
        k(  899) = (   0.4660000   0.0680000   0.0000000), wk =   0.0006662
        k(  900) = (   0.4663333   0.0673333   0.0000000), wk =   0.0006662
        k(  901) = (   0.4666667   0.0666667   0.0000000), wk =   0.0006662
        k(  902) = (   0.4670000   0.0660000   0.0000000), wk =   0.0006662
        k(  903) = (   0.4673333   0.0653333   0.0000000), wk =   0.0006662
        k(  904) = (   0.4676667   0.0646667   0.0000000), wk =   0.0006662
        k(  905) = (   0.4680000   0.0640000   0.0000000), wk =   0.0006662
        k(  906) = (   0.4683333   0.0633333   0.0000000), wk =   0.0006662
        k(  907) = (   0.4686667   0.0626667   0.0000000), wk =   0.0006662
        k(  908) = (   0.4690000   0.0620000   0.0000000), wk =   0.0006662
        k(  909) = (   0.4693333   0.0613333   0.0000000), wk =   0.0006662
        k(  910) = (   0.4696667   0.0606667   0.0000000), wk =   0.0006662
        k(  911) = (   0.4700000   0.0600000   0.0000000), wk =   0.0006662
        k(  912) = (   0.4703333   0.0593333   0.0000000), wk =   0.0006662
        k(  913) = (   0.4706667   0.0586667   0.0000000), wk =   0.0006662
        k(  914) = (   0.4710000   0.0580000   0.0000000), wk =   0.0006662
        k(  915) = (   0.4713333   0.0573333   0.0000000), wk =   0.0006662
        k(  916) = (   0.4716667   0.0566667   0.0000000), wk =   0.0006662
        k(  917) = (   0.4720000   0.0560000   0.0000000), wk =   0.0006662
        k(  918) = (   0.4723333   0.0553333   0.0000000), wk =   0.0006662
        k(  919) = (   0.4726667   0.0546667   0.0000000), wk =   0.0006662
        k(  920) = (   0.4730000   0.0540000   0.0000000), wk =   0.0006662
        k(  921) = (   0.4733333   0.0533333   0.0000000), wk =   0.0006662
        k(  922) = (   0.4736667   0.0526667   0.0000000), wk =   0.0006662
        k(  923) = (   0.4740000   0.0520000   0.0000000), wk =   0.0006662
        k(  924) = (   0.4743333   0.0513333   0.0000000), wk =   0.0006662
        k(  925) = (   0.4746667   0.0506667   0.0000000), wk =   0.0006662
        k(  926) = (   0.4750000   0.0500000   0.0000000), wk =   0.0006662
        k(  927) = (   0.4753333   0.0493333   0.0000000), wk =   0.0006662
        k(  928) = (   0.4756667   0.0486667   0.0000000), wk =   0.0006662
        k(  929) = (   0.4760000   0.0480000   0.0000000), wk =   0.0006662
        k(  930) = (   0.4763333   0.0473333   0.0000000), wk =   0.0006662
        k(  931) = (   0.4766667   0.0466667   0.0000000), wk =   0.0006662
        k(  932) = (   0.4770000   0.0460000   0.0000000), wk =   0.0006662
        k(  933) = (   0.4773333   0.0453333   0.0000000), wk =   0.0006662
        k(  934) = (   0.4776667   0.0446667   0.0000000), wk =   0.0006662
        k(  935) = (   0.4780000   0.0440000   0.0000000), wk =   0.0006662
        k(  936) = (   0.4783333   0.0433333   0.0000000), wk =   0.0006662
        k(  937) = (   0.4786667   0.0426667   0.0000000), wk =   0.0006662
        k(  938) = (   0.4790000   0.0420000   0.0000000), wk =   0.0006662
        k(  939) = (   0.4793333   0.0413333   0.0000000), wk =   0.0006662
        k(  940) = (   0.4796667   0.0406667   0.0000000), wk =   0.0006662
        k(  941) = (   0.4800000   0.0400000   0.0000000), wk =   0.0006662
        k(  942) = (   0.4803333   0.0393333   0.0000000), wk =   0.0006662
        k(  943) = (   0.4806667   0.0386667   0.0000000), wk =   0.0006662
        k(  944) = (   0.4810000   0.0380000   0.0000000), wk =   0.0006662
        k(  945) = (   0.4813333   0.0373333   0.0000000), wk =   0.0006662
        k(  946) = (   0.4816667   0.0366667   0.0000000), wk =   0.0006662
        k(  947) = (   0.4820000   0.0360000   0.0000000), wk =   0.0006662
        k(  948) = (   0.4823333   0.0353333   0.0000000), wk =   0.0006662
        k(  949) = (   0.4826667   0.0346667   0.0000000), wk =   0.0006662
        k(  950) = (   0.4830000   0.0340000   0.0000000), wk =   0.0006662
        k(  951) = (   0.4833333   0.0333333   0.0000000), wk =   0.0006662
        k(  952) = (   0.4836667   0.0326667   0.0000000), wk =   0.0006662
        k(  953) = (   0.4840000   0.0320000   0.0000000), wk =   0.0006662
        k(  954) = (   0.4843333   0.0313333   0.0000000), wk =   0.0006662
        k(  955) = (   0.4846667   0.0306667   0.0000000), wk =   0.0006662
        k(  956) = (   0.4850000   0.0300000   0.0000000), wk =   0.0006662
        k(  957) = (   0.4853333   0.0293333   0.0000000), wk =   0.0006662
        k(  958) = (   0.4856667   0.0286667   0.0000000), wk =   0.0006662
        k(  959) = (   0.4860000   0.0280000   0.0000000), wk =   0.0006662
        k(  960) = (   0.4863333   0.0273333   0.0000000), wk =   0.0006662
        k(  961) = (   0.4866667   0.0266667   0.0000000), wk =   0.0006662
        k(  962) = (   0.4870000   0.0260000   0.0000000), wk =   0.0006662
        k(  963) = (   0.4873333   0.0253333   0.0000000), wk =   0.0006662
        k(  964) = (   0.4876667   0.0246667   0.0000000), wk =   0.0006662
        k(  965) = (   0.4880000   0.0240000   0.0000000), wk =   0.0006662
        k(  966) = (   0.4883333   0.0233333   0.0000000), wk =   0.0006662
        k(  967) = (   0.4886667   0.0226667   0.0000000), wk =   0.0006662
        k(  968) = (   0.4890000   0.0220000   0.0000000), wk =   0.0006662
        k(  969) = (   0.4893333   0.0213333   0.0000000), wk =   0.0006662
        k(  970) = (   0.4896667   0.0206667   0.0000000), wk =   0.0006662
        k(  971) = (   0.4900000   0.0200000   0.0000000), wk =   0.0006662
        k(  972) = (   0.4903333   0.0193333   0.0000000), wk =   0.0006662
        k(  973) = (   0.4906667   0.0186667   0.0000000), wk =   0.0006662
        k(  974) = (   0.4910000   0.0180000   0.0000000), wk =   0.0006662
        k(  975) = (   0.4913333   0.0173333   0.0000000), wk =   0.0006662
        k(  976) = (   0.4916667   0.0166667   0.0000000), wk =   0.0006662
        k(  977) = (   0.4920000   0.0160000   0.0000000), wk =   0.0006662
        k(  978) = (   0.4923333   0.0153333   0.0000000), wk =   0.0006662
        k(  979) = (   0.4926667   0.0146667   0.0000000), wk =   0.0006662
        k(  980) = (   0.4930000   0.0140000   0.0000000), wk =   0.0006662
        k(  981) = (   0.4933333   0.0133333   0.0000000), wk =   0.0006662
        k(  982) = (   0.4936667   0.0126667   0.0000000), wk =   0.0006662
        k(  983) = (   0.4940000   0.0120000   0.0000000), wk =   0.0006662
        k(  984) = (   0.4943333   0.0113333   0.0000000), wk =   0.0006662
        k(  985) = (   0.4946667   0.0106667   0.0000000), wk =   0.0006662
        k(  986) = (   0.4950000   0.0100000   0.0000000), wk =   0.0006662
        k(  987) = (   0.4953333   0.0093333   0.0000000), wk =   0.0006662
        k(  988) = (   0.4956667   0.0086667   0.0000000), wk =   0.0006662
        k(  989) = (   0.4960000   0.0080000   0.0000000), wk =   0.0006662
        k(  990) = (   0.4963333   0.0073333   0.0000000), wk =   0.0006662
        k(  991) = (   0.4966667   0.0066667   0.0000000), wk =   0.0006662
        k(  992) = (   0.4970000   0.0060000   0.0000000), wk =   0.0006662
        k(  993) = (   0.4973333   0.0053333   0.0000000), wk =   0.0006662
        k(  994) = (   0.4976667   0.0046667   0.0000000), wk =   0.0006662
        k(  995) = (   0.4980000   0.0040000   0.0000000), wk =   0.0006662
        k(  996) = (   0.4983333   0.0033333   0.0000000), wk =   0.0006662
        k(  997) = (   0.4986667   0.0026667   0.0000000), wk =   0.0006662
        k(  998) = (   0.4990000   0.0020000   0.0000000), wk =   0.0006662
        k(  999) = (   0.4993333   0.0013333   0.0000000), wk =   0.0006662
        k( 1000) = (   0.4996667   0.0006667   0.0000000), wk =   0.0006662
        k( 1001) = (   0.5000000   0.0000000   0.0000000), wk =   0.0006662
        k( 1002) = (   0.4990000   0.0000000   0.0000000), wk =   0.0006662
        k( 1003) = (   0.4980000   0.0000000   0.0000000), wk =   0.0006662
        k( 1004) = (   0.4970000   0.0000000   0.0000000), wk =   0.0006662
        k( 1005) = (   0.4960000   0.0000000   0.0000000), wk =   0.0006662
        k( 1006) = (   0.4950000   0.0000000   0.0000000), wk =   0.0006662
        k( 1007) = (   0.4940000   0.0000000   0.0000000), wk =   0.0006662
        k( 1008) = (   0.4930000   0.0000000   0.0000000), wk =   0.0006662
        k( 1009) = (   0.4920000   0.0000000   0.0000000), wk =   0.0006662
        k( 1010) = (   0.4910000   0.0000000   0.0000000), wk =   0.0006662
        k( 1011) = (   0.4900000   0.0000000   0.0000000), wk =   0.0006662
        k( 1012) = (   0.4890000   0.0000000   0.0000000), wk =   0.0006662
        k( 1013) = (   0.4880000   0.0000000   0.0000000), wk =   0.0006662
        k( 1014) = (   0.4870000   0.0000000   0.0000000), wk =   0.0006662
        k( 1015) = (   0.4860000   0.0000000   0.0000000), wk =   0.0006662
        k( 1016) = (   0.4850000   0.0000000   0.0000000), wk =   0.0006662
        k( 1017) = (   0.4840000   0.0000000   0.0000000), wk =   0.0006662
        k( 1018) = (   0.4830000   0.0000000   0.0000000), wk =   0.0006662
        k( 1019) = (   0.4820000   0.0000000   0.0000000), wk =   0.0006662
        k( 1020) = (   0.4810000   0.0000000   0.0000000), wk =   0.0006662
        k( 1021) = (   0.4800000   0.0000000   0.0000000), wk =   0.0006662
        k( 1022) = (   0.4790000   0.0000000   0.0000000), wk =   0.0006662
        k( 1023) = (   0.4780000   0.0000000   0.0000000), wk =   0.0006662
        k( 1024) = (   0.4770000   0.0000000   0.0000000), wk =   0.0006662
        k( 1025) = (   0.4760000   0.0000000   0.0000000), wk =   0.0006662
        k( 1026) = (   0.4750000   0.0000000   0.0000000), wk =   0.0006662
        k( 1027) = (   0.4740000   0.0000000   0.0000000), wk =   0.0006662
        k( 1028) = (   0.4730000   0.0000000   0.0000000), wk =   0.0006662
        k( 1029) = (   0.4720000   0.0000000   0.0000000), wk =   0.0006662
        k( 1030) = (   0.4710000   0.0000000   0.0000000), wk =   0.0006662
        k( 1031) = (   0.4700000   0.0000000   0.0000000), wk =   0.0006662
        k( 1032) = (   0.4690000   0.0000000   0.0000000), wk =   0.0006662
        k( 1033) = (   0.4680000   0.0000000   0.0000000), wk =   0.0006662
        k( 1034) = (   0.4670000   0.0000000   0.0000000), wk =   0.0006662
        k( 1035) = (   0.4660000   0.0000000   0.0000000), wk =   0.0006662
        k( 1036) = (   0.4650000   0.0000000   0.0000000), wk =   0.0006662
        k( 1037) = (   0.4640000   0.0000000   0.0000000), wk =   0.0006662
        k( 1038) = (   0.4630000   0.0000000   0.0000000), wk =   0.0006662
        k( 1039) = (   0.4620000   0.0000000   0.0000000), wk =   0.0006662
        k( 1040) = (   0.4610000   0.0000000   0.0000000), wk =   0.0006662
        k( 1041) = (   0.4600000   0.0000000   0.0000000), wk =   0.0006662
        k( 1042) = (   0.4590000   0.0000000   0.0000000), wk =   0.0006662
        k( 1043) = (   0.4580000   0.0000000   0.0000000), wk =   0.0006662
        k( 1044) = (   0.4570000   0.0000000   0.0000000), wk =   0.0006662
        k( 1045) = (   0.4560000   0.0000000   0.0000000), wk =   0.0006662
        k( 1046) = (   0.4550000   0.0000000   0.0000000), wk =   0.0006662
        k( 1047) = (   0.4540000   0.0000000   0.0000000), wk =   0.0006662
        k( 1048) = (   0.4530000   0.0000000   0.0000000), wk =   0.0006662
        k( 1049) = (   0.4520000   0.0000000   0.0000000), wk =   0.0006662
        k( 1050) = (   0.4510000   0.0000000   0.0000000), wk =   0.0006662
        k( 1051) = (   0.4500000   0.0000000   0.0000000), wk =   0.0006662
        k( 1052) = (   0.4490000   0.0000000   0.0000000), wk =   0.0006662
        k( 1053) = (   0.4480000   0.0000000   0.0000000), wk =   0.0006662
        k( 1054) = (   0.4470000   0.0000000   0.0000000), wk =   0.0006662
        k( 1055) = (   0.4460000   0.0000000   0.0000000), wk =   0.0006662
        k( 1056) = (   0.4450000   0.0000000   0.0000000), wk =   0.0006662
        k( 1057) = (   0.4440000   0.0000000   0.0000000), wk =   0.0006662
        k( 1058) = (   0.4430000   0.0000000   0.0000000), wk =   0.0006662
        k( 1059) = (   0.4420000   0.0000000   0.0000000), wk =   0.0006662
        k( 1060) = (   0.4410000   0.0000000   0.0000000), wk =   0.0006662
        k( 1061) = (   0.4400000   0.0000000   0.0000000), wk =   0.0006662
        k( 1062) = (   0.4390000   0.0000000   0.0000000), wk =   0.0006662
        k( 1063) = (   0.4380000   0.0000000   0.0000000), wk =   0.0006662
        k( 1064) = (   0.4370000   0.0000000   0.0000000), wk =   0.0006662
        k( 1065) = (   0.4360000   0.0000000   0.0000000), wk =   0.0006662
        k( 1066) = (   0.4350000   0.0000000   0.0000000), wk =   0.0006662
        k( 1067) = (   0.4340000   0.0000000   0.0000000), wk =   0.0006662
        k( 1068) = (   0.4330000   0.0000000   0.0000000), wk =   0.0006662
        k( 1069) = (   0.4320000   0.0000000   0.0000000), wk =   0.0006662
        k( 1070) = (   0.4310000   0.0000000   0.0000000), wk =   0.0006662
        k( 1071) = (   0.4300000   0.0000000   0.0000000), wk =   0.0006662
        k( 1072) = (   0.4290000   0.0000000   0.0000000), wk =   0.0006662
        k( 1073) = (   0.4280000   0.0000000   0.0000000), wk =   0.0006662
        k( 1074) = (   0.4270000   0.0000000   0.0000000), wk =   0.0006662
        k( 1075) = (   0.4260000   0.0000000   0.0000000), wk =   0.0006662
        k( 1076) = (   0.4250000   0.0000000   0.0000000), wk =   0.0006662
        k( 1077) = (   0.4240000   0.0000000   0.0000000), wk =   0.0006662
        k( 1078) = (   0.4230000   0.0000000   0.0000000), wk =   0.0006662
        k( 1079) = (   0.4220000   0.0000000   0.0000000), wk =   0.0006662
        k( 1080) = (   0.4210000   0.0000000   0.0000000), wk =   0.0006662
        k( 1081) = (   0.4200000   0.0000000   0.0000000), wk =   0.0006662
        k( 1082) = (   0.4190000   0.0000000   0.0000000), wk =   0.0006662
        k( 1083) = (   0.4180000   0.0000000   0.0000000), wk =   0.0006662
        k( 1084) = (   0.4170000   0.0000000   0.0000000), wk =   0.0006662
        k( 1085) = (   0.4160000   0.0000000   0.0000000), wk =   0.0006662
        k( 1086) = (   0.4150000   0.0000000   0.0000000), wk =   0.0006662
        k( 1087) = (   0.4140000   0.0000000   0.0000000), wk =   0.0006662
        k( 1088) = (   0.4130000   0.0000000   0.0000000), wk =   0.0006662
        k( 1089) = (   0.4120000   0.0000000   0.0000000), wk =   0.0006662
        k( 1090) = (   0.4110000   0.0000000   0.0000000), wk =   0.0006662
        k( 1091) = (   0.4100000   0.0000000   0.0000000), wk =   0.0006662
        k( 1092) = (   0.4090000   0.0000000   0.0000000), wk =   0.0006662
        k( 1093) = (   0.4080000   0.0000000   0.0000000), wk =   0.0006662
        k( 1094) = (   0.4070000   0.0000000   0.0000000), wk =   0.0006662
        k( 1095) = (   0.4060000   0.0000000   0.0000000), wk =   0.0006662
        k( 1096) = (   0.4050000   0.0000000   0.0000000), wk =   0.0006662
        k( 1097) = (   0.4040000   0.0000000   0.0000000), wk =   0.0006662
        k( 1098) = (   0.4030000   0.0000000   0.0000000), wk =   0.0006662
        k( 1099) = (   0.4020000   0.0000000   0.0000000), wk =   0.0006662
        k( 1100) = (   0.4010000   0.0000000   0.0000000), wk =   0.0006662
        k( 1101) = (   0.4000000   0.0000000   0.0000000), wk =   0.0006662
        k( 1102) = (   0.3990000   0.0000000   0.0000000), wk =   0.0006662
        k( 1103) = (   0.3980000   0.0000000   0.0000000), wk =   0.0006662
        k( 1104) = (   0.3970000   0.0000000   0.0000000), wk =   0.0006662
        k( 1105) = (   0.3960000   0.0000000   0.0000000), wk =   0.0006662
        k( 1106) = (   0.3950000   0.0000000   0.0000000), wk =   0.0006662
        k( 1107) = (   0.3940000   0.0000000   0.0000000), wk =   0.0006662
        k( 1108) = (   0.3930000   0.0000000   0.0000000), wk =   0.0006662
        k( 1109) = (   0.3920000   0.0000000   0.0000000), wk =   0.0006662
        k( 1110) = (   0.3910000   0.0000000   0.0000000), wk =   0.0006662
        k( 1111) = (   0.3900000   0.0000000   0.0000000), wk =   0.0006662
        k( 1112) = (   0.3890000   0.0000000   0.0000000), wk =   0.0006662
        k( 1113) = (   0.3880000   0.0000000   0.0000000), wk =   0.0006662
        k( 1114) = (   0.3870000   0.0000000   0.0000000), wk =   0.0006662
        k( 1115) = (   0.3860000   0.0000000   0.0000000), wk =   0.0006662
        k( 1116) = (   0.3850000   0.0000000   0.0000000), wk =   0.0006662
        k( 1117) = (   0.3840000   0.0000000   0.0000000), wk =   0.0006662
        k( 1118) = (   0.3830000   0.0000000   0.0000000), wk =   0.0006662
        k( 1119) = (   0.3820000   0.0000000   0.0000000), wk =   0.0006662
        k( 1120) = (   0.3810000   0.0000000   0.0000000), wk =   0.0006662
        k( 1121) = (   0.3800000   0.0000000   0.0000000), wk =   0.0006662
        k( 1122) = (   0.3790000   0.0000000   0.0000000), wk =   0.0006662
        k( 1123) = (   0.3780000   0.0000000   0.0000000), wk =   0.0006662
        k( 1124) = (   0.3770000   0.0000000   0.0000000), wk =   0.0006662
        k( 1125) = (   0.3760000   0.0000000   0.0000000), wk =   0.0006662
        k( 1126) = (   0.3750000   0.0000000   0.0000000), wk =   0.0006662
        k( 1127) = (   0.3740000   0.0000000   0.0000000), wk =   0.0006662
        k( 1128) = (   0.3730000   0.0000000   0.0000000), wk =   0.0006662
        k( 1129) = (   0.3720000   0.0000000   0.0000000), wk =   0.0006662
        k( 1130) = (   0.3710000   0.0000000   0.0000000), wk =   0.0006662
        k( 1131) = (   0.3700000   0.0000000   0.0000000), wk =   0.0006662
        k( 1132) = (   0.3690000   0.0000000   0.0000000), wk =   0.0006662
        k( 1133) = (   0.3680000   0.0000000   0.0000000), wk =   0.0006662
        k( 1134) = (   0.3670000   0.0000000   0.0000000), wk =   0.0006662
        k( 1135) = (   0.3660000   0.0000000   0.0000000), wk =   0.0006662
        k( 1136) = (   0.3650000   0.0000000   0.0000000), wk =   0.0006662
        k( 1137) = (   0.3640000   0.0000000   0.0000000), wk =   0.0006662
        k( 1138) = (   0.3630000   0.0000000   0.0000000), wk =   0.0006662
        k( 1139) = (   0.3620000   0.0000000   0.0000000), wk =   0.0006662
        k( 1140) = (   0.3610000   0.0000000   0.0000000), wk =   0.0006662
        k( 1141) = (   0.3600000   0.0000000   0.0000000), wk =   0.0006662
        k( 1142) = (   0.3590000   0.0000000   0.0000000), wk =   0.0006662
        k( 1143) = (   0.3580000   0.0000000   0.0000000), wk =   0.0006662
        k( 1144) = (   0.3570000   0.0000000   0.0000000), wk =   0.0006662
        k( 1145) = (   0.3560000   0.0000000   0.0000000), wk =   0.0006662
        k( 1146) = (   0.3550000   0.0000000   0.0000000), wk =   0.0006662
        k( 1147) = (   0.3540000   0.0000000   0.0000000), wk =   0.0006662
        k( 1148) = (   0.3530000   0.0000000   0.0000000), wk =   0.0006662
        k( 1149) = (   0.3520000   0.0000000   0.0000000), wk =   0.0006662
        k( 1150) = (   0.3510000   0.0000000   0.0000000), wk =   0.0006662
        k( 1151) = (   0.3500000   0.0000000   0.0000000), wk =   0.0006662
        k( 1152) = (   0.3490000   0.0000000   0.0000000), wk =   0.0006662
        k( 1153) = (   0.3480000   0.0000000   0.0000000), wk =   0.0006662
        k( 1154) = (   0.3470000   0.0000000   0.0000000), wk =   0.0006662
        k( 1155) = (   0.3460000   0.0000000   0.0000000), wk =   0.0006662
        k( 1156) = (   0.3450000   0.0000000   0.0000000), wk =   0.0006662
        k( 1157) = (   0.3440000   0.0000000   0.0000000), wk =   0.0006662
        k( 1158) = (   0.3430000   0.0000000   0.0000000), wk =   0.0006662
        k( 1159) = (   0.3420000   0.0000000   0.0000000), wk =   0.0006662
        k( 1160) = (   0.3410000   0.0000000   0.0000000), wk =   0.0006662
        k( 1161) = (   0.3400000   0.0000000   0.0000000), wk =   0.0006662
        k( 1162) = (   0.3390000   0.0000000   0.0000000), wk =   0.0006662
        k( 1163) = (   0.3380000   0.0000000   0.0000000), wk =   0.0006662
        k( 1164) = (   0.3370000   0.0000000   0.0000000), wk =   0.0006662
        k( 1165) = (   0.3360000   0.0000000   0.0000000), wk =   0.0006662
        k( 1166) = (   0.3350000   0.0000000   0.0000000), wk =   0.0006662
        k( 1167) = (   0.3340000   0.0000000   0.0000000), wk =   0.0006662
        k( 1168) = (   0.3330000   0.0000000   0.0000000), wk =   0.0006662
        k( 1169) = (   0.3320000   0.0000000   0.0000000), wk =   0.0006662
        k( 1170) = (   0.3310000   0.0000000   0.0000000), wk =   0.0006662
        k( 1171) = (   0.3300000   0.0000000   0.0000000), wk =   0.0006662
        k( 1172) = (   0.3290000   0.0000000   0.0000000), wk =   0.0006662
        k( 1173) = (   0.3280000   0.0000000   0.0000000), wk =   0.0006662
        k( 1174) = (   0.3270000   0.0000000   0.0000000), wk =   0.0006662
        k( 1175) = (   0.3260000   0.0000000   0.0000000), wk =   0.0006662
        k( 1176) = (   0.3250000   0.0000000   0.0000000), wk =   0.0006662
        k( 1177) = (   0.3240000   0.0000000   0.0000000), wk =   0.0006662
        k( 1178) = (   0.3230000   0.0000000   0.0000000), wk =   0.0006662
        k( 1179) = (   0.3220000   0.0000000   0.0000000), wk =   0.0006662
        k( 1180) = (   0.3210000   0.0000000   0.0000000), wk =   0.0006662
        k( 1181) = (   0.3200000   0.0000000   0.0000000), wk =   0.0006662
        k( 1182) = (   0.3190000   0.0000000   0.0000000), wk =   0.0006662
        k( 1183) = (   0.3180000   0.0000000   0.0000000), wk =   0.0006662
        k( 1184) = (   0.3170000   0.0000000   0.0000000), wk =   0.0006662
        k( 1185) = (   0.3160000   0.0000000   0.0000000), wk =   0.0006662
        k( 1186) = (   0.3150000   0.0000000   0.0000000), wk =   0.0006662
        k( 1187) = (   0.3140000   0.0000000   0.0000000), wk =   0.0006662
        k( 1188) = (   0.3130000   0.0000000   0.0000000), wk =   0.0006662
        k( 1189) = (   0.3120000   0.0000000   0.0000000), wk =   0.0006662
        k( 1190) = (   0.3110000   0.0000000   0.0000000), wk =   0.0006662
        k( 1191) = (   0.3100000   0.0000000   0.0000000), wk =   0.0006662
        k( 1192) = (   0.3090000   0.0000000   0.0000000), wk =   0.0006662
        k( 1193) = (   0.3080000   0.0000000   0.0000000), wk =   0.0006662
        k( 1194) = (   0.3070000   0.0000000   0.0000000), wk =   0.0006662
        k( 1195) = (   0.3060000   0.0000000   0.0000000), wk =   0.0006662
        k( 1196) = (   0.3050000   0.0000000   0.0000000), wk =   0.0006662
        k( 1197) = (   0.3040000   0.0000000   0.0000000), wk =   0.0006662
        k( 1198) = (   0.3030000   0.0000000   0.0000000), wk =   0.0006662
        k( 1199) = (   0.3020000   0.0000000   0.0000000), wk =   0.0006662
        k( 1200) = (   0.3010000   0.0000000   0.0000000), wk =   0.0006662
        k( 1201) = (   0.3000000   0.0000000   0.0000000), wk =   0.0006662
        k( 1202) = (   0.2990000   0.0000000   0.0000000), wk =   0.0006662
        k( 1203) = (   0.2980000   0.0000000   0.0000000), wk =   0.0006662
        k( 1204) = (   0.2970000   0.0000000   0.0000000), wk =   0.0006662
        k( 1205) = (   0.2960000   0.0000000   0.0000000), wk =   0.0006662
        k( 1206) = (   0.2950000   0.0000000   0.0000000), wk =   0.0006662
        k( 1207) = (   0.2940000   0.0000000   0.0000000), wk =   0.0006662
        k( 1208) = (   0.2930000   0.0000000   0.0000000), wk =   0.0006662
        k( 1209) = (   0.2920000   0.0000000   0.0000000), wk =   0.0006662
        k( 1210) = (   0.2910000   0.0000000   0.0000000), wk =   0.0006662
        k( 1211) = (   0.2900000   0.0000000   0.0000000), wk =   0.0006662
        k( 1212) = (   0.2890000   0.0000000   0.0000000), wk =   0.0006662
        k( 1213) = (   0.2880000   0.0000000   0.0000000), wk =   0.0006662
        k( 1214) = (   0.2870000   0.0000000   0.0000000), wk =   0.0006662
        k( 1215) = (   0.2860000   0.0000000   0.0000000), wk =   0.0006662
        k( 1216) = (   0.2850000   0.0000000   0.0000000), wk =   0.0006662
        k( 1217) = (   0.2840000   0.0000000   0.0000000), wk =   0.0006662
        k( 1218) = (   0.2830000   0.0000000   0.0000000), wk =   0.0006662
        k( 1219) = (   0.2820000   0.0000000   0.0000000), wk =   0.0006662
        k( 1220) = (   0.2810000   0.0000000   0.0000000), wk =   0.0006662
        k( 1221) = (   0.2800000   0.0000000   0.0000000), wk =   0.0006662
        k( 1222) = (   0.2790000   0.0000000   0.0000000), wk =   0.0006662
        k( 1223) = (   0.2780000   0.0000000   0.0000000), wk =   0.0006662
        k( 1224) = (   0.2770000   0.0000000   0.0000000), wk =   0.0006662
        k( 1225) = (   0.2760000   0.0000000   0.0000000), wk =   0.0006662
        k( 1226) = (   0.2750000   0.0000000   0.0000000), wk =   0.0006662
        k( 1227) = (   0.2740000   0.0000000   0.0000000), wk =   0.0006662
        k( 1228) = (   0.2730000   0.0000000   0.0000000), wk =   0.0006662
        k( 1229) = (   0.2720000   0.0000000   0.0000000), wk =   0.0006662
        k( 1230) = (   0.2710000   0.0000000   0.0000000), wk =   0.0006662
        k( 1231) = (   0.2700000   0.0000000   0.0000000), wk =   0.0006662
        k( 1232) = (   0.2690000   0.0000000   0.0000000), wk =   0.0006662
        k( 1233) = (   0.2680000   0.0000000   0.0000000), wk =   0.0006662
        k( 1234) = (   0.2670000   0.0000000   0.0000000), wk =   0.0006662
        k( 1235) = (   0.2660000   0.0000000   0.0000000), wk =   0.0006662
        k( 1236) = (   0.2650000   0.0000000   0.0000000), wk =   0.0006662
        k( 1237) = (   0.2640000   0.0000000   0.0000000), wk =   0.0006662
        k( 1238) = (   0.2630000   0.0000000   0.0000000), wk =   0.0006662
        k( 1239) = (   0.2620000   0.0000000   0.0000000), wk =   0.0006662
        k( 1240) = (   0.2610000   0.0000000   0.0000000), wk =   0.0006662
        k( 1241) = (   0.2600000   0.0000000   0.0000000), wk =   0.0006662
        k( 1242) = (   0.2590000   0.0000000   0.0000000), wk =   0.0006662
        k( 1243) = (   0.2580000   0.0000000   0.0000000), wk =   0.0006662
        k( 1244) = (   0.2570000   0.0000000   0.0000000), wk =   0.0006662
        k( 1245) = (   0.2560000   0.0000000   0.0000000), wk =   0.0006662
        k( 1246) = (   0.2550000   0.0000000   0.0000000), wk =   0.0006662
        k( 1247) = (   0.2540000   0.0000000   0.0000000), wk =   0.0006662
        k( 1248) = (   0.2530000   0.0000000   0.0000000), wk =   0.0006662
        k( 1249) = (   0.2520000   0.0000000   0.0000000), wk =   0.0006662
        k( 1250) = (   0.2510000   0.0000000   0.0000000), wk =   0.0006662
        k( 1251) = (   0.2500000   0.0000000   0.0000000), wk =   0.0006662
        k( 1252) = (   0.2490000   0.0000000   0.0000000), wk =   0.0006662
        k( 1253) = (   0.2480000   0.0000000   0.0000000), wk =   0.0006662
        k( 1254) = (   0.2470000   0.0000000   0.0000000), wk =   0.0006662
        k( 1255) = (   0.2460000   0.0000000   0.0000000), wk =   0.0006662
        k( 1256) = (   0.2450000   0.0000000   0.0000000), wk =   0.0006662
        k( 1257) = (   0.2440000   0.0000000   0.0000000), wk =   0.0006662
        k( 1258) = (   0.2430000   0.0000000   0.0000000), wk =   0.0006662
        k( 1259) = (   0.2420000   0.0000000   0.0000000), wk =   0.0006662
        k( 1260) = (   0.2410000   0.0000000   0.0000000), wk =   0.0006662
        k( 1261) = (   0.2400000   0.0000000   0.0000000), wk =   0.0006662
        k( 1262) = (   0.2390000   0.0000000   0.0000000), wk =   0.0006662
        k( 1263) = (   0.2380000   0.0000000   0.0000000), wk =   0.0006662
        k( 1264) = (   0.2370000   0.0000000   0.0000000), wk =   0.0006662
        k( 1265) = (   0.2360000   0.0000000   0.0000000), wk =   0.0006662
        k( 1266) = (   0.2350000   0.0000000   0.0000000), wk =   0.0006662
        k( 1267) = (   0.2340000   0.0000000   0.0000000), wk =   0.0006662
        k( 1268) = (   0.2330000   0.0000000   0.0000000), wk =   0.0006662
        k( 1269) = (   0.2320000   0.0000000   0.0000000), wk =   0.0006662
        k( 1270) = (   0.2310000   0.0000000   0.0000000), wk =   0.0006662
        k( 1271) = (   0.2300000   0.0000000   0.0000000), wk =   0.0006662
        k( 1272) = (   0.2290000   0.0000000   0.0000000), wk =   0.0006662
        k( 1273) = (   0.2280000   0.0000000   0.0000000), wk =   0.0006662
        k( 1274) = (   0.2270000   0.0000000   0.0000000), wk =   0.0006662
        k( 1275) = (   0.2260000   0.0000000   0.0000000), wk =   0.0006662
        k( 1276) = (   0.2250000   0.0000000   0.0000000), wk =   0.0006662
        k( 1277) = (   0.2240000   0.0000000   0.0000000), wk =   0.0006662
        k( 1278) = (   0.2230000   0.0000000   0.0000000), wk =   0.0006662
        k( 1279) = (   0.2220000   0.0000000   0.0000000), wk =   0.0006662
        k( 1280) = (   0.2210000   0.0000000   0.0000000), wk =   0.0006662
        k( 1281) = (   0.2200000   0.0000000   0.0000000), wk =   0.0006662
        k( 1282) = (   0.2190000   0.0000000   0.0000000), wk =   0.0006662
        k( 1283) = (   0.2180000   0.0000000   0.0000000), wk =   0.0006662
        k( 1284) = (   0.2170000   0.0000000   0.0000000), wk =   0.0006662
        k( 1285) = (   0.2160000   0.0000000   0.0000000), wk =   0.0006662
        k( 1286) = (   0.2150000   0.0000000   0.0000000), wk =   0.0006662
        k( 1287) = (   0.2140000   0.0000000   0.0000000), wk =   0.0006662
        k( 1288) = (   0.2130000   0.0000000   0.0000000), wk =   0.0006662
        k( 1289) = (   0.2120000   0.0000000   0.0000000), wk =   0.0006662
        k( 1290) = (   0.2110000   0.0000000   0.0000000), wk =   0.0006662
        k( 1291) = (   0.2100000   0.0000000   0.0000000), wk =   0.0006662
        k( 1292) = (   0.2090000   0.0000000   0.0000000), wk =   0.0006662
        k( 1293) = (   0.2080000   0.0000000   0.0000000), wk =   0.0006662
        k( 1294) = (   0.2070000   0.0000000   0.0000000), wk =   0.0006662
        k( 1295) = (   0.2060000   0.0000000   0.0000000), wk =   0.0006662
        k( 1296) = (   0.2050000   0.0000000   0.0000000), wk =   0.0006662
        k( 1297) = (   0.2040000   0.0000000   0.0000000), wk =   0.0006662
        k( 1298) = (   0.2030000   0.0000000   0.0000000), wk =   0.0006662
        k( 1299) = (   0.2020000   0.0000000   0.0000000), wk =   0.0006662
        k( 1300) = (   0.2010000   0.0000000   0.0000000), wk =   0.0006662
        k( 1301) = (   0.2000000   0.0000000   0.0000000), wk =   0.0006662
        k( 1302) = (   0.1990000   0.0000000   0.0000000), wk =   0.0006662
        k( 1303) = (   0.1980000   0.0000000   0.0000000), wk =   0.0006662
        k( 1304) = (   0.1970000   0.0000000   0.0000000), wk =   0.0006662
        k( 1305) = (   0.1960000   0.0000000   0.0000000), wk =   0.0006662
        k( 1306) = (   0.1950000   0.0000000   0.0000000), wk =   0.0006662
        k( 1307) = (   0.1940000   0.0000000   0.0000000), wk =   0.0006662
        k( 1308) = (   0.1930000   0.0000000   0.0000000), wk =   0.0006662
        k( 1309) = (   0.1920000   0.0000000   0.0000000), wk =   0.0006662
        k( 1310) = (   0.1910000   0.0000000   0.0000000), wk =   0.0006662
        k( 1311) = (   0.1900000   0.0000000   0.0000000), wk =   0.0006662
        k( 1312) = (   0.1890000   0.0000000   0.0000000), wk =   0.0006662
        k( 1313) = (   0.1880000   0.0000000   0.0000000), wk =   0.0006662
        k( 1314) = (   0.1870000   0.0000000   0.0000000), wk =   0.0006662
        k( 1315) = (   0.1860000   0.0000000   0.0000000), wk =   0.0006662
        k( 1316) = (   0.1850000   0.0000000   0.0000000), wk =   0.0006662
        k( 1317) = (   0.1840000   0.0000000   0.0000000), wk =   0.0006662
        k( 1318) = (   0.1830000   0.0000000   0.0000000), wk =   0.0006662
        k( 1319) = (   0.1820000   0.0000000   0.0000000), wk =   0.0006662
        k( 1320) = (   0.1810000   0.0000000   0.0000000), wk =   0.0006662
        k( 1321) = (   0.1800000   0.0000000   0.0000000), wk =   0.0006662
        k( 1322) = (   0.1790000   0.0000000   0.0000000), wk =   0.0006662
        k( 1323) = (   0.1780000   0.0000000   0.0000000), wk =   0.0006662
        k( 1324) = (   0.1770000   0.0000000   0.0000000), wk =   0.0006662
        k( 1325) = (   0.1760000   0.0000000   0.0000000), wk =   0.0006662
        k( 1326) = (   0.1750000   0.0000000   0.0000000), wk =   0.0006662
        k( 1327) = (   0.1740000   0.0000000   0.0000000), wk =   0.0006662
        k( 1328) = (   0.1730000   0.0000000   0.0000000), wk =   0.0006662
        k( 1329) = (   0.1720000   0.0000000   0.0000000), wk =   0.0006662
        k( 1330) = (   0.1710000   0.0000000   0.0000000), wk =   0.0006662
        k( 1331) = (   0.1700000   0.0000000   0.0000000), wk =   0.0006662
        k( 1332) = (   0.1690000   0.0000000   0.0000000), wk =   0.0006662
        k( 1333) = (   0.1680000   0.0000000   0.0000000), wk =   0.0006662
        k( 1334) = (   0.1670000   0.0000000   0.0000000), wk =   0.0006662
        k( 1335) = (   0.1660000   0.0000000   0.0000000), wk =   0.0006662
        k( 1336) = (   0.1650000   0.0000000   0.0000000), wk =   0.0006662
        k( 1337) = (   0.1640000   0.0000000   0.0000000), wk =   0.0006662
        k( 1338) = (   0.1630000   0.0000000   0.0000000), wk =   0.0006662
        k( 1339) = (   0.1620000   0.0000000   0.0000000), wk =   0.0006662
        k( 1340) = (   0.1610000   0.0000000   0.0000000), wk =   0.0006662
        k( 1341) = (   0.1600000   0.0000000   0.0000000), wk =   0.0006662
        k( 1342) = (   0.1590000   0.0000000   0.0000000), wk =   0.0006662
        k( 1343) = (   0.1580000   0.0000000   0.0000000), wk =   0.0006662
        k( 1344) = (   0.1570000   0.0000000   0.0000000), wk =   0.0006662
        k( 1345) = (   0.1560000   0.0000000   0.0000000), wk =   0.0006662
        k( 1346) = (   0.1550000   0.0000000   0.0000000), wk =   0.0006662
        k( 1347) = (   0.1540000   0.0000000   0.0000000), wk =   0.0006662
        k( 1348) = (   0.1530000   0.0000000   0.0000000), wk =   0.0006662
        k( 1349) = (   0.1520000   0.0000000   0.0000000), wk =   0.0006662
        k( 1350) = (   0.1510000   0.0000000   0.0000000), wk =   0.0006662
        k( 1351) = (   0.1500000   0.0000000   0.0000000), wk =   0.0006662
        k( 1352) = (   0.1490000   0.0000000   0.0000000), wk =   0.0006662
        k( 1353) = (   0.1480000   0.0000000   0.0000000), wk =   0.0006662
        k( 1354) = (   0.1470000   0.0000000   0.0000000), wk =   0.0006662
        k( 1355) = (   0.1460000   0.0000000   0.0000000), wk =   0.0006662
        k( 1356) = (   0.1450000   0.0000000   0.0000000), wk =   0.0006662
        k( 1357) = (   0.1440000   0.0000000   0.0000000), wk =   0.0006662
        k( 1358) = (   0.1430000   0.0000000   0.0000000), wk =   0.0006662
        k( 1359) = (   0.1420000   0.0000000   0.0000000), wk =   0.0006662
        k( 1360) = (   0.1410000   0.0000000   0.0000000), wk =   0.0006662
        k( 1361) = (   0.1400000   0.0000000   0.0000000), wk =   0.0006662
        k( 1362) = (   0.1390000   0.0000000   0.0000000), wk =   0.0006662
        k( 1363) = (   0.1380000   0.0000000   0.0000000), wk =   0.0006662
        k( 1364) = (   0.1370000   0.0000000   0.0000000), wk =   0.0006662
        k( 1365) = (   0.1360000   0.0000000   0.0000000), wk =   0.0006662
        k( 1366) = (   0.1350000   0.0000000   0.0000000), wk =   0.0006662
        k( 1367) = (   0.1340000   0.0000000   0.0000000), wk =   0.0006662
        k( 1368) = (   0.1330000   0.0000000   0.0000000), wk =   0.0006662
        k( 1369) = (   0.1320000   0.0000000   0.0000000), wk =   0.0006662
        k( 1370) = (   0.1310000   0.0000000   0.0000000), wk =   0.0006662
        k( 1371) = (   0.1300000   0.0000000   0.0000000), wk =   0.0006662
        k( 1372) = (   0.1290000   0.0000000   0.0000000), wk =   0.0006662
        k( 1373) = (   0.1280000   0.0000000   0.0000000), wk =   0.0006662
        k( 1374) = (   0.1270000   0.0000000   0.0000000), wk =   0.0006662
        k( 1375) = (   0.1260000   0.0000000   0.0000000), wk =   0.0006662
        k( 1376) = (   0.1250000   0.0000000   0.0000000), wk =   0.0006662
        k( 1377) = (   0.1240000   0.0000000   0.0000000), wk =   0.0006662
        k( 1378) = (   0.1230000   0.0000000   0.0000000), wk =   0.0006662
        k( 1379) = (   0.1220000   0.0000000   0.0000000), wk =   0.0006662
        k( 1380) = (   0.1210000   0.0000000   0.0000000), wk =   0.0006662
        k( 1381) = (   0.1200000   0.0000000   0.0000000), wk =   0.0006662
        k( 1382) = (   0.1190000   0.0000000   0.0000000), wk =   0.0006662
        k( 1383) = (   0.1180000   0.0000000   0.0000000), wk =   0.0006662
        k( 1384) = (   0.1170000   0.0000000   0.0000000), wk =   0.0006662
        k( 1385) = (   0.1160000   0.0000000   0.0000000), wk =   0.0006662
        k( 1386) = (   0.1150000   0.0000000   0.0000000), wk =   0.0006662
        k( 1387) = (   0.1140000   0.0000000   0.0000000), wk =   0.0006662
        k( 1388) = (   0.1130000   0.0000000   0.0000000), wk =   0.0006662
        k( 1389) = (   0.1120000   0.0000000   0.0000000), wk =   0.0006662
        k( 1390) = (   0.1110000   0.0000000   0.0000000), wk =   0.0006662
        k( 1391) = (   0.1100000   0.0000000   0.0000000), wk =   0.0006662
        k( 1392) = (   0.1090000   0.0000000   0.0000000), wk =   0.0006662
        k( 1393) = (   0.1080000   0.0000000   0.0000000), wk =   0.0006662
        k( 1394) = (   0.1070000   0.0000000   0.0000000), wk =   0.0006662
        k( 1395) = (   0.1060000   0.0000000   0.0000000), wk =   0.0006662
        k( 1396) = (   0.1050000   0.0000000   0.0000000), wk =   0.0006662
        k( 1397) = (   0.1040000   0.0000000   0.0000000), wk =   0.0006662
        k( 1398) = (   0.1030000   0.0000000   0.0000000), wk =   0.0006662
        k( 1399) = (   0.1020000   0.0000000   0.0000000), wk =   0.0006662
        k( 1400) = (   0.1010000   0.0000000   0.0000000), wk =   0.0006662
        k( 1401) = (   0.1000000   0.0000000   0.0000000), wk =   0.0006662
        k( 1402) = (   0.0990000   0.0000000   0.0000000), wk =   0.0006662
        k( 1403) = (   0.0980000   0.0000000   0.0000000), wk =   0.0006662
        k( 1404) = (   0.0970000   0.0000000   0.0000000), wk =   0.0006662
        k( 1405) = (   0.0960000   0.0000000   0.0000000), wk =   0.0006662
        k( 1406) = (   0.0950000   0.0000000   0.0000000), wk =   0.0006662
        k( 1407) = (   0.0940000   0.0000000   0.0000000), wk =   0.0006662
        k( 1408) = (   0.0930000   0.0000000   0.0000000), wk =   0.0006662
        k( 1409) = (   0.0920000   0.0000000   0.0000000), wk =   0.0006662
        k( 1410) = (   0.0910000   0.0000000   0.0000000), wk =   0.0006662
        k( 1411) = (   0.0900000   0.0000000   0.0000000), wk =   0.0006662
        k( 1412) = (   0.0890000   0.0000000   0.0000000), wk =   0.0006662
        k( 1413) = (   0.0880000   0.0000000   0.0000000), wk =   0.0006662
        k( 1414) = (   0.0870000   0.0000000   0.0000000), wk =   0.0006662
        k( 1415) = (   0.0860000   0.0000000   0.0000000), wk =   0.0006662
        k( 1416) = (   0.0850000   0.0000000   0.0000000), wk =   0.0006662
        k( 1417) = (   0.0840000   0.0000000   0.0000000), wk =   0.0006662
        k( 1418) = (   0.0830000   0.0000000   0.0000000), wk =   0.0006662
        k( 1419) = (   0.0820000   0.0000000   0.0000000), wk =   0.0006662
        k( 1420) = (   0.0810000   0.0000000   0.0000000), wk =   0.0006662
        k( 1421) = (   0.0800000   0.0000000   0.0000000), wk =   0.0006662
        k( 1422) = (   0.0790000   0.0000000   0.0000000), wk =   0.0006662
        k( 1423) = (   0.0780000   0.0000000   0.0000000), wk =   0.0006662
        k( 1424) = (   0.0770000   0.0000000   0.0000000), wk =   0.0006662
        k( 1425) = (   0.0760000   0.0000000   0.0000000), wk =   0.0006662
        k( 1426) = (   0.0750000   0.0000000   0.0000000), wk =   0.0006662
        k( 1427) = (   0.0740000   0.0000000   0.0000000), wk =   0.0006662
        k( 1428) = (   0.0730000   0.0000000   0.0000000), wk =   0.0006662
        k( 1429) = (   0.0720000   0.0000000   0.0000000), wk =   0.0006662
        k( 1430) = (   0.0710000   0.0000000   0.0000000), wk =   0.0006662
        k( 1431) = (   0.0700000   0.0000000   0.0000000), wk =   0.0006662
        k( 1432) = (   0.0690000   0.0000000   0.0000000), wk =   0.0006662
        k( 1433) = (   0.0680000   0.0000000   0.0000000), wk =   0.0006662
        k( 1434) = (   0.0670000   0.0000000   0.0000000), wk =   0.0006662
        k( 1435) = (   0.0660000   0.0000000   0.0000000), wk =   0.0006662
        k( 1436) = (   0.0650000   0.0000000   0.0000000), wk =   0.0006662
        k( 1437) = (   0.0640000   0.0000000   0.0000000), wk =   0.0006662
        k( 1438) = (   0.0630000   0.0000000   0.0000000), wk =   0.0006662
        k( 1439) = (   0.0620000   0.0000000   0.0000000), wk =   0.0006662
        k( 1440) = (   0.0610000   0.0000000   0.0000000), wk =   0.0006662
        k( 1441) = (   0.0600000   0.0000000   0.0000000), wk =   0.0006662
        k( 1442) = (   0.0590000   0.0000000   0.0000000), wk =   0.0006662
        k( 1443) = (   0.0580000   0.0000000   0.0000000), wk =   0.0006662
        k( 1444) = (   0.0570000   0.0000000   0.0000000), wk =   0.0006662
        k( 1445) = (   0.0560000   0.0000000   0.0000000), wk =   0.0006662
        k( 1446) = (   0.0550000   0.0000000   0.0000000), wk =   0.0006662
        k( 1447) = (   0.0540000   0.0000000   0.0000000), wk =   0.0006662
        k( 1448) = (   0.0530000   0.0000000   0.0000000), wk =   0.0006662
        k( 1449) = (   0.0520000   0.0000000   0.0000000), wk =   0.0006662
        k( 1450) = (   0.0510000   0.0000000   0.0000000), wk =   0.0006662
        k( 1451) = (   0.0500000   0.0000000   0.0000000), wk =   0.0006662
        k( 1452) = (   0.0490000   0.0000000   0.0000000), wk =   0.0006662
        k( 1453) = (   0.0480000   0.0000000   0.0000000), wk =   0.0006662
        k( 1454) = (   0.0470000   0.0000000   0.0000000), wk =   0.0006662
        k( 1455) = (   0.0460000   0.0000000   0.0000000), wk =   0.0006662
        k( 1456) = (   0.0450000   0.0000000   0.0000000), wk =   0.0006662
        k( 1457) = (   0.0440000   0.0000000   0.0000000), wk =   0.0006662
        k( 1458) = (   0.0430000   0.0000000   0.0000000), wk =   0.0006662
        k( 1459) = (   0.0420000   0.0000000   0.0000000), wk =   0.0006662
        k( 1460) = (   0.0410000   0.0000000   0.0000000), wk =   0.0006662
        k( 1461) = (   0.0400000   0.0000000   0.0000000), wk =   0.0006662
        k( 1462) = (   0.0390000   0.0000000   0.0000000), wk =   0.0006662
        k( 1463) = (   0.0380000   0.0000000   0.0000000), wk =   0.0006662
        k( 1464) = (   0.0370000   0.0000000   0.0000000), wk =   0.0006662
        k( 1465) = (   0.0360000   0.0000000   0.0000000), wk =   0.0006662
        k( 1466) = (   0.0350000   0.0000000   0.0000000), wk =   0.0006662
        k( 1467) = (   0.0340000   0.0000000   0.0000000), wk =   0.0006662
        k( 1468) = (   0.0330000   0.0000000   0.0000000), wk =   0.0006662
        k( 1469) = (   0.0320000   0.0000000   0.0000000), wk =   0.0006662
        k( 1470) = (   0.0310000   0.0000000   0.0000000), wk =   0.0006662
        k( 1471) = (   0.0300000   0.0000000   0.0000000), wk =   0.0006662
        k( 1472) = (   0.0290000   0.0000000   0.0000000), wk =   0.0006662
        k( 1473) = (   0.0280000   0.0000000   0.0000000), wk =   0.0006662
        k( 1474) = (   0.0270000   0.0000000   0.0000000), wk =   0.0006662
        k( 1475) = (   0.0260000   0.0000000   0.0000000), wk =   0.0006662
        k( 1476) = (   0.0250000   0.0000000   0.0000000), wk =   0.0006662
        k( 1477) = (   0.0240000   0.0000000   0.0000000), wk =   0.0006662
        k( 1478) = (   0.0230000   0.0000000   0.0000000), wk =   0.0006662
        k( 1479) = (   0.0220000   0.0000000   0.0000000), wk =   0.0006662
        k( 1480) = (   0.0210000   0.0000000   0.0000000), wk =   0.0006662
        k( 1481) = (   0.0200000   0.0000000   0.0000000), wk =   0.0006662
        k( 1482) = (   0.0190000   0.0000000   0.0000000), wk =   0.0006662
        k( 1483) = (   0.0180000   0.0000000   0.0000000), wk =   0.0006662
        k( 1484) = (   0.0170000   0.0000000   0.0000000), wk =   0.0006662
        k( 1485) = (   0.0160000   0.0000000   0.0000000), wk =   0.0006662
        k( 1486) = (   0.0150000   0.0000000   0.0000000), wk =   0.0006662
        k( 1487) = (   0.0140000   0.0000000   0.0000000), wk =   0.0006662
        k( 1488) = (   0.0130000   0.0000000   0.0000000), wk =   0.0006662
        k( 1489) = (   0.0120000   0.0000000   0.0000000), wk =   0.0006662
        k( 1490) = (   0.0110000   0.0000000   0.0000000), wk =   0.0006662
        k( 1491) = (   0.0100000   0.0000000   0.0000000), wk =   0.0006662
        k( 1492) = (   0.0090000   0.0000000   0.0000000), wk =   0.0006662
        k( 1493) = (   0.0080000   0.0000000   0.0000000), wk =   0.0006662
        k( 1494) = (   0.0070000   0.0000000   0.0000000), wk =   0.0006662
        k( 1495) = (   0.0060000   0.0000000   0.0000000), wk =   0.0006662
        k( 1496) = (   0.0050000   0.0000000   0.0000000), wk =   0.0006662
        k( 1497) = (   0.0040000   0.0000000   0.0000000), wk =   0.0006662
        k( 1498) = (   0.0030000   0.0000000   0.0000000), wk =   0.0006662
        k( 1499) = (   0.0020000   0.0000000   0.0000000), wk =   0.0006662
        k( 1500) = (   0.0010000   0.0000000   0.0000000), wk =   0.0006662
        k( 1501) = (   0.0000000   0.0000000   0.0000000), wk =   0.0006662

     Dense  grid:   166859 G-vectors     FFT dimensions: (  40,  40, 240)

     Smooth grid:    42343 G-vectors     FFT dimensions: (  25,  25, 160)

     Dynamical RAM for                 wfc:       0.08 MB

     Dynamical RAM for     wfc (w. buffer):       0.08 MB

     Dynamical RAM for           str. fact:       0.08 MB

     Dynamical RAM for           local pot:       0.00 MB

     Dynamical RAM for          nlocal pot:       0.07 MB

     Dynamical RAM for                qrad:       1.27 MB

     Dynamical RAM for          rho,v,vnew:       2.13 MB

     Dynamical RAM for           G-vectors:       0.31 MB

     Dynamical RAM for          h,s,v(r/c):       0.75 MB

     Dynamical RAM for          <psi|beta>:       0.01 MB

     Dynamical RAM for                 psi:       0.64 MB

     Dynamical RAM for                hpsi:       0.64 MB

     Dynamical RAM for                spsi:       0.64 MB

     Dynamical RAM for      wfcinit/wfcrot:       0.13 MB

     Dynamical RAM for           addusdens:       9.11 MB

     Estimated static dynamical RAM per process >       4.88 MB

     Estimated max dynamical RAM per process >      13.99 MB

     Estimated total dynamical RAM >     447.83 MB

     Atomic positions and unit cell read from directory:
     ../tmp/graphene.save/
 

     The potential is recalculated from file :
     ../tmp/graphene.save/charge-density


     negative rho (up, down):  3.550E-05 0.000E+00
 
     Adding external electric field

     Computed dipole along edir(3) : 
        Elec. dipole          0.1334 Ry au,          0.3390 Debye
        Ion. dipole           0.1335 Ry au,          0.3393 Debye
        Dipole                0.0058 Ry au,          0.0147 Debye
        Dipole field          0.0001 Ry au, 
 
        E field amplitude [Ha a.u.]:  9.7235E-04
        Potential amp.        0.0450 Ry
        Total length         26.9286 bohr
 
     Starting wfcs are random
     Checking if some PAW data can be deallocated... 

     Band Structure Calculation
     Davidson diagonalization with overlap

     Computing kpt #:     1  of  1501
     total cpu time spent up to now is        7.1 secs

     Computing kpt #:     2  of  1501
     total cpu time spent up to now is        7.3 secs

     Computing kpt #:     3  of  1501
     total cpu time spent up to now is        7.5 secs

     Computing kpt #:     4  of  1501
     total cpu time spent up to now is        7.6 secs

     Computing kpt #:     5  of  1501
     total cpu time spent up to now is        7.8 secs

     Computing kpt #:     6  of  1501
     total cpu time spent up to now is        8.1 secs

     Computing kpt #:     7  of  1501
     total cpu time spent up to now is        8.3 secs

     Computing kpt #:     8  of  1501
     total cpu time spent up to now is        8.5 secs

     Computing kpt #:     9  of  1501
     total cpu time spent up to now is        8.8 secs

     Computing kpt #:    10  of  1501
     total cpu time spent up to now is        9.0 secs

     Computing kpt #:    11  of  1501
     total cpu time spent up to now is        9.8 secs

     Computing kpt #:    12  of  1501
     total cpu time spent up to now is        9.9 secs

     Computing kpt #:    13  of  1501
     total cpu time spent up to now is       10.1 secs

     Computing kpt #:    14  of  1501
     total cpu time spent up to now is       10.3 secs

     Computing kpt #:    15  of  1501
     total cpu time spent up to now is       10.5 secs

     Computing kpt #:    16  of  1501
     total cpu time spent up to now is       10.6 secs

     Computing kpt #:    17  of  1501
     total cpu time spent up to now is       10.8 secs

     Computing kpt #:    18  of  1501
     total cpu time spent up to now is       11.0 secs

     Computing kpt #:    19  of  1501
     total cpu time spent up to now is       11.2 secs

     Computing kpt #:    20  of  1501
     total cpu time spent up to now is       11.3 secs

     Computing kpt #:    21  of  1501
     total cpu time spent up to now is       11.5 secs

     Computing kpt #:    22  of  1501
     total cpu time spent up to now is       11.7 secs

     Computing kpt #:    23  of  1501
     total cpu time spent up to now is       11.9 secs

     Computing kpt #:    24  of  1501
     total cpu time spent up to now is       12.0 secs

     Computing kpt #:    25  of  1501
     total cpu time spent up to now is       12.2 secs

     Computing kpt #:    26  of  1501
     total cpu time spent up to now is       12.4 secs

     Computing kpt #:    27  of  1501
     total cpu time spent up to now is       12.6 secs

     Computing kpt #:    28  of  1501
     total cpu time spent up to now is       12.8 secs

     Computing kpt #:    29  of  1501
     total cpu time spent up to now is       13.0 secs

     Computing kpt #:    30  of  1501
     total cpu time spent up to now is       13.1 secs

     Computing kpt #:    31  of  1501
     total cpu time spent up to now is       13.4 secs

     Computing kpt #:    32  of  1501
     total cpu time spent up to now is       13.5 secs

     Computing kpt #:    33  of  1501
     total cpu time spent up to now is       13.7 secs

     Computing kpt #:    34  of  1501
     total cpu time spent up to now is       14.0 secs

     Computing kpt #:    35  of  1501
     total cpu time spent up to now is       14.2 secs

     Computing kpt #:    36  of  1501
     total cpu time spent up to now is       14.4 secs

     Computing kpt #:    37  of  1501
     total cpu time spent up to now is       14.7 secs

     Computing kpt #:    38  of  1501
     total cpu time spent up to now is       14.9 secs

     Computing kpt #:    39  of  1501
     total cpu time spent up to now is       15.1 secs

     Computing kpt #:    40  of  1501
     total cpu time spent up to now is       15.2 secs

     Computing kpt #:    41  of  1501
     total cpu time spent up to now is       15.4 secs

     Computing kpt #:    42  of  1501
     total cpu time spent up to now is       15.6 secs

     Computing kpt #:    43  of  1501
     total cpu time spent up to now is       15.9 secs

     Computing kpt #:    44  of  1501
     total cpu time spent up to now is       16.0 secs

     Computing kpt #:    45  of  1501
     total cpu time spent up to now is       16.2 secs

     Computing kpt #:    46  of  1501
     total cpu time spent up to now is       16.4 secs

     Computing kpt #:    47  of  1501
     total cpu time spent up to now is       16.6 secs

     Computing kpt #:    48  of  1501
     total cpu time spent up to now is       16.7 secs

     Computing kpt #:    49  of  1501
     total cpu time spent up to now is       17.0 secs

     Computing kpt #:    50  of  1501
     total cpu time spent up to now is       17.2 secs

     Computing kpt #:    51  of  1501
     total cpu time spent up to now is       17.4 secs

     Computing kpt #:    52  of  1501
     total cpu time spent up to now is       17.5 secs

     Computing kpt #:    53  of  1501
     total cpu time spent up to now is       17.7 secs

     Computing kpt #:    54  of  1501
     total cpu time spent up to now is       17.9 secs

     Computing kpt #:    55  of  1501
     total cpu time spent up to now is       18.1 secs

     Computing kpt #:    56  of  1501
     total cpu time spent up to now is       18.2 secs

     Computing kpt #:    57  of  1501
     total cpu time spent up to now is       18.4 secs

     Computing kpt #:    58  of  1501
     total cpu time spent up to now is       18.7 secs

     Computing kpt #:    59  of  1501
     total cpu time spent up to now is       18.9 secs

     Computing kpt #:    60  of  1501
     total cpu time spent up to now is       19.1 secs

     Computing kpt #:    61  of  1501
     total cpu time spent up to now is       19.3 secs

     Computing kpt #:    62  of  1501
     total cpu time spent up to now is       19.5 secs

     Computing kpt #:    63  of  1501
     total cpu time spent up to now is       19.8 secs

     Computing kpt #:    64  of  1501
     total cpu time spent up to now is       19.9 secs

     Computing kpt #:    65  of  1501
     total cpu time spent up to now is       20.1 secs

     Computing kpt #:    66  of  1501
     total cpu time spent up to now is       20.3 secs

     Computing kpt #:    67  of  1501
     total cpu time spent up to now is       20.5 secs

     Computing kpt #:    68  of  1501
     total cpu time spent up to now is       20.7 secs

     Computing kpt #:    69  of  1501
     total cpu time spent up to now is       20.9 secs

     Computing kpt #:    70  of  1501
     total cpu time spent up to now is       21.1 secs

     Computing kpt #:    71  of  1501
     total cpu time spent up to now is       21.4 secs

     Computing kpt #:    72  of  1501
     total cpu time spent up to now is       21.5 secs

     Computing kpt #:    73  of  1501
     total cpu time spent up to now is       21.7 secs

     Computing kpt #:    74  of  1501
     total cpu time spent up to now is       21.9 secs

     Computing kpt #:    75  of  1501
     total cpu time spent up to now is       22.0 secs

     Computing kpt #:    76  of  1501
     total cpu time spent up to now is       22.2 secs

     Computing kpt #:    77  of  1501
     total cpu time spent up to now is       22.5 secs

     Computing kpt #:    78  of  1501
     total cpu time spent up to now is       22.6 secs

     Computing kpt #:    79  of  1501
     total cpu time spent up to now is       22.9 secs

     Computing kpt #:    80  of  1501
     total cpu time spent up to now is       23.0 secs

     Computing kpt #:    81  of  1501
     total cpu time spent up to now is       23.2 secs

     Computing kpt #:    82  of  1501
     total cpu time spent up to now is       23.4 secs

     Computing kpt #:    83  of  1501
     total cpu time spent up to now is       23.6 secs

     Computing kpt #:    84  of  1501
     total cpu time spent up to now is       23.8 secs

     Computing kpt #:    85  of  1501
     total cpu time spent up to now is       24.1 secs

     Computing kpt #:    86  of  1501
     total cpu time spent up to now is       24.4 secs

     Computing kpt #:    87  of  1501
     total cpu time spent up to now is       29.7 secs

     Computing kpt #:    88  of  1501
     total cpu time spent up to now is       29.8 secs

     Computing kpt #:    89  of  1501
     total cpu time spent up to now is       30.0 secs

     Computing kpt #:    90  of  1501
     total cpu time spent up to now is       30.2 secs

     Computing kpt #:    91  of  1501
     total cpu time spent up to now is       30.5 secs

     Computing kpt #:    92  of  1501
     total cpu time spent up to now is       30.7 secs

     Computing kpt #:    93  of  1501
     total cpu time spent up to now is       31.0 secs

     Computing kpt #:    94  of  1501
     total cpu time spent up to now is       31.2 secs

     Computing kpt #:    95  of  1501
     total cpu time spent up to now is       31.4 secs

     Computing kpt #:    96  of  1501
     total cpu time spent up to now is       31.6 secs

     Computing kpt #:    97  of  1501
     total cpu time spent up to now is       31.7 secs

     Computing kpt #:    98  of  1501
     total cpu time spent up to now is       32.0 secs

     Computing kpt #:    99  of  1501
     total cpu time spent up to now is       32.1 secs

     Computing kpt #:   100  of  1501
     total cpu time spent up to now is       32.3 secs

     Computing kpt #:   101  of  1501
     total cpu time spent up to now is       32.5 secs

     Computing kpt #:   102  of  1501
     total cpu time spent up to now is       32.6 secs

     Computing kpt #:   103  of  1501
     total cpu time spent up to now is       32.8 secs

     Computing kpt #:   104  of  1501
     total cpu time spent up to now is       33.0 secs

     Computing kpt #:   105  of  1501
     total cpu time spent up to now is       33.2 secs

     Computing kpt #:   106  of  1501
     total cpu time spent up to now is       33.4 secs

     Computing kpt #:   107  of  1501
     total cpu time spent up to now is       33.6 secs

     Computing kpt #:   108  of  1501
     total cpu time spent up to now is       33.7 secs

     Computing kpt #:   109  of  1501
     total cpu time spent up to now is       33.9 secs

     Computing kpt #:   110  of  1501
     total cpu time spent up to now is       34.1 secs

     Computing kpt #:   111  of  1501
     total cpu time spent up to now is       34.3 secs

     Computing kpt #:   112  of  1501
     total cpu time spent up to now is       34.4 secs

     Computing kpt #:   113  of  1501
     total cpu time spent up to now is       34.6 secs

     Computing kpt #:   114  of  1501
     total cpu time spent up to now is       34.8 secs

     Computing kpt #:   115  of  1501
     total cpu time spent up to now is       35.0 secs

     Computing kpt #:   116  of  1501
     total cpu time spent up to now is       35.1 secs

     Computing kpt #:   117  of  1501
     total cpu time spent up to now is       35.4 secs

     Computing kpt #:   118  of  1501
     total cpu time spent up to now is       35.5 secs

     Computing kpt #:   119  of  1501
     total cpu time spent up to now is       35.7 secs

     Computing kpt #:   120  of  1501
     total cpu time spent up to now is       35.8 secs

     Computing kpt #:   121  of  1501
     total cpu time spent up to now is       36.0 secs

     Computing kpt #:   122  of  1501
     total cpu time spent up to now is       36.2 secs

     Computing kpt #:   123  of  1501
     total cpu time spent up to now is       36.3 secs

     Computing kpt #:   124  of  1501
     total cpu time spent up to now is       36.5 secs

     Computing kpt #:   125  of  1501
     total cpu time spent up to now is       36.7 secs

     Computing kpt #:   126  of  1501
     total cpu time spent up to now is       36.9 secs

     Computing kpt #:   127  of  1501
     total cpu time spent up to now is       37.1 secs

     Computing kpt #:   128  of  1501
     total cpu time spent up to now is       37.2 secs

     Computing kpt #:   129  of  1501
     total cpu time spent up to now is       37.4 secs

     Computing kpt #:   130  of  1501
     total cpu time spent up to now is       37.7 secs

     Computing kpt #:   131  of  1501
     total cpu time spent up to now is       37.9 secs

     Computing kpt #:   132  of  1501
     total cpu time spent up to now is       38.1 secs

     Computing kpt #:   133  of  1501
     total cpu time spent up to now is       38.2 secs

     Computing kpt #:   134  of  1501
     total cpu time spent up to now is       38.4 secs

     Computing kpt #:   135  of  1501
     total cpu time spent up to now is       38.6 secs

     Computing kpt #:   136  of  1501
     total cpu time spent up to now is       38.7 secs

     Computing kpt #:   137  of  1501
     total cpu time spent up to now is       38.9 secs

     Computing kpt #:   138  of  1501
     total cpu time spent up to now is       39.2 secs

     Computing kpt #:   139  of  1501
     total cpu time spent up to now is       39.4 secs

     Computing kpt #:   140  of  1501
     total cpu time spent up to now is       39.6 secs

     Computing kpt #:   141  of  1501
     total cpu time spent up to now is       39.8 secs

     Computing kpt #:   142  of  1501
     total cpu time spent up to now is       40.0 secs

     Computing kpt #:   143  of  1501
     total cpu time spent up to now is       40.2 secs

     Computing kpt #:   144  of  1501
     total cpu time spent up to now is       40.4 secs

     Computing kpt #:   145  of  1501
     total cpu time spent up to now is       40.6 secs

     Computing kpt #:   146  of  1501
     total cpu time spent up to now is       40.8 secs

     Computing kpt #:   147  of  1501
     total cpu time spent up to now is       41.0 secs

     Computing kpt #:   148  of  1501
     total cpu time spent up to now is       41.2 secs

     Computing kpt #:   149  of  1501
     total cpu time spent up to now is       41.4 secs

     Computing kpt #:   150  of  1501
     total cpu time spent up to now is       41.6 secs

     Computing kpt #:   151  of  1501
     total cpu time spent up to now is       41.8 secs

     Computing kpt #:   152  of  1501
     total cpu time spent up to now is       41.9 secs

     Computing kpt #:   153  of  1501
     total cpu time spent up to now is       42.1 secs

     Computing kpt #:   154  of  1501
     total cpu time spent up to now is       42.3 secs

     Computing kpt #:   155  of  1501
     total cpu time spent up to now is       42.5 secs

     Computing kpt #:   156  of  1501
     total cpu time spent up to now is       42.6 secs

     Computing kpt #:   157  of  1501
     total cpu time spent up to now is       42.8 secs

     Computing kpt #:   158  of  1501
     total cpu time spent up to now is       43.0 secs

     Computing kpt #:   159  of  1501
     total cpu time spent up to now is       43.3 secs

     Computing kpt #:   160  of  1501
     total cpu time spent up to now is       43.4 secs

     Computing kpt #:   161  of  1501
     total cpu time spent up to now is       43.6 secs

     Computing kpt #:   162  of  1501
     total cpu time spent up to now is       43.8 secs

     Computing kpt #:   163  of  1501
     total cpu time spent up to now is       44.0 secs

     Computing kpt #:   164  of  1501
     total cpu time spent up to now is       44.2 secs

     Computing kpt #:   165  of  1501
     total cpu time spent up to now is       44.4 secs

     Computing kpt #:   166  of  1501
     total cpu time spent up to now is       44.6 secs

     Computing kpt #:   167  of  1501
     total cpu time spent up to now is       44.7 secs

     Computing kpt #:   168  of  1501
     total cpu time spent up to now is       44.8 secs

     Computing kpt #:   169  of  1501
     total cpu time spent up to now is       45.0 secs

     Computing kpt #:   170  of  1501
     total cpu time spent up to now is       45.2 secs

     Computing kpt #:   171  of  1501
     total cpu time spent up to now is       45.4 secs

     Computing kpt #:   172  of  1501
     total cpu time spent up to now is       45.7 secs

     Computing kpt #:   173  of  1501
     total cpu time spent up to now is       45.9 secs

     Computing kpt #:   174  of  1501
     total cpu time spent up to now is       46.0 secs

     Computing kpt #:   175  of  1501
     total cpu time spent up to now is       46.3 secs

     Computing kpt #:   176  of  1501
     total cpu time spent up to now is       46.4 secs

     Computing kpt #:   177  of  1501
     total cpu time spent up to now is       46.7 secs

     Computing kpt #:   178  of  1501
     total cpu time spent up to now is       46.9 secs

     Computing kpt #:   179  of  1501
     total cpu time spent up to now is       47.1 secs

     Computing kpt #:   180  of  1501
     total cpu time spent up to now is       47.4 secs

     Computing kpt #:   181  of  1501
     total cpu time spent up to now is       47.6 secs

     Computing kpt #:   182  of  1501
     total cpu time spent up to now is       47.8 secs

     Computing kpt #:   183  of  1501
     total cpu time spent up to now is       48.0 secs

     Computing kpt #:   184  of  1501
     total cpu time spent up to now is       48.1 secs

     Computing kpt #:   185  of  1501
     total cpu time spent up to now is       48.3 secs

     Computing kpt #:   186  of  1501
     total cpu time spent up to now is       48.4 secs

     Computing kpt #:   187  of  1501
     total cpu time spent up to now is       48.7 secs

     Computing kpt #:   188  of  1501
     total cpu time spent up to now is       48.9 secs

     Computing kpt #:   189  of  1501
     total cpu time spent up to now is       49.1 secs

     Computing kpt #:   190  of  1501
     total cpu time spent up to now is       49.3 secs

     Computing kpt #:   191  of  1501
     total cpu time spent up to now is       49.5 secs

     Computing kpt #:   192  of  1501
     total cpu time spent up to now is       49.6 secs

     Computing kpt #:   193  of  1501
     total cpu time spent up to now is       49.8 secs

     Computing kpt #:   194  of  1501
     total cpu time spent up to now is       57.5 secs

     Computing kpt #:   195  of  1501
     total cpu time spent up to now is       58.1 secs

     Computing kpt #:   196  of  1501
     total cpu time spent up to now is       58.3 secs

     Computing kpt #:   197  of  1501
     total cpu time spent up to now is       58.5 secs

     Computing kpt #:   198  of  1501
     total cpu time spent up to now is       58.8 secs

     Computing kpt #:   199  of  1501
     total cpu time spent up to now is       59.0 secs

     Computing kpt #:   200  of  1501
     total cpu time spent up to now is       59.1 secs

     Computing kpt #:   201  of  1501
     total cpu time spent up to now is       59.4 secs

     Computing kpt #:   202  of  1501
     total cpu time spent up to now is       59.6 secs

     Computing kpt #:   203  of  1501
     total cpu time spent up to now is       59.8 secs

     Computing kpt #:   204  of  1501
     total cpu time spent up to now is       60.0 secs

     Computing kpt #:   205  of  1501
     total cpu time spent up to now is       60.2 secs

     Computing kpt #:   206  of  1501
     total cpu time spent up to now is       60.4 secs

     Computing kpt #:   207  of  1501
     total cpu time spent up to now is       60.6 secs

     Computing kpt #:   208  of  1501
     total cpu time spent up to now is       60.7 secs

     Computing kpt #:   209  of  1501
     total cpu time spent up to now is       61.0 secs

     Computing kpt #:   210  of  1501
     total cpu time spent up to now is       61.2 secs

     Computing kpt #:   211  of  1501
     total cpu time spent up to now is       61.4 secs

     Computing kpt #:   212  of  1501
     total cpu time spent up to now is       61.5 secs

     Computing kpt #:   213  of  1501
     total cpu time spent up to now is       61.7 secs

     Computing kpt #:   214  of  1501
     total cpu time spent up to now is       61.9 secs

     Computing kpt #:   215  of  1501
     total cpu time spent up to now is       62.1 secs

     Computing kpt #:   216  of  1501
     total cpu time spent up to now is       62.3 secs

     Computing kpt #:   217  of  1501
     total cpu time spent up to now is       62.5 secs

     Computing kpt #:   218  of  1501
     total cpu time spent up to now is       62.7 secs

     Computing kpt #:   219  of  1501
     total cpu time spent up to now is       62.9 secs

     Computing kpt #:   220  of  1501
     total cpu time spent up to now is       63.0 secs

     Computing kpt #:   221  of  1501
     total cpu time spent up to now is       63.3 secs

     Computing kpt #:   222  of  1501
     total cpu time spent up to now is       63.5 secs

     Computing kpt #:   223  of  1501
     total cpu time spent up to now is       63.8 secs

     Computing kpt #:   224  of  1501
     total cpu time spent up to now is       63.9 secs

     Computing kpt #:   225  of  1501
     total cpu time spent up to now is       64.1 secs

     Computing kpt #:   226  of  1501
     total cpu time spent up to now is       64.3 secs

     Computing kpt #:   227  of  1501
     total cpu time spent up to now is       64.5 secs

     Computing kpt #:   228  of  1501
     total cpu time spent up to now is       64.7 secs

     Computing kpt #:   229  of  1501
     total cpu time spent up to now is       65.0 secs

     Computing kpt #:   230  of  1501
     total cpu time spent up to now is       65.1 secs

     Computing kpt #:   231  of  1501
     total cpu time spent up to now is       65.3 secs

     Computing kpt #:   232  of  1501
     total cpu time spent up to now is       65.5 secs

     Computing kpt #:   233  of  1501
     total cpu time spent up to now is       65.6 secs

     Computing kpt #:   234  of  1501
     total cpu time spent up to now is       65.8 secs

     Computing kpt #:   235  of  1501
     total cpu time spent up to now is       66.1 secs

     Computing kpt #:   236  of  1501
     total cpu time spent up to now is       66.3 secs

     Computing kpt #:   237  of  1501
     total cpu time spent up to now is       66.5 secs

     Computing kpt #:   238  of  1501
     total cpu time spent up to now is       66.6 secs

     Computing kpt #:   239  of  1501
     total cpu time spent up to now is       66.8 secs

     Computing kpt #:   240  of  1501
     total cpu time spent up to now is       66.9 secs

     Computing kpt #:   241  of  1501
     total cpu time spent up to now is       67.1 secs

     Computing kpt #:   242  of  1501
     total cpu time spent up to now is       67.3 secs

     Computing kpt #:   243  of  1501
     total cpu time spent up to now is       67.4 secs

     Computing kpt #:   244  of  1501
     total cpu time spent up to now is       67.6 secs

     Computing kpt #:   245  of  1501
     total cpu time spent up to now is       67.7 secs

     Computing kpt #:   246  of  1501
     total cpu time spent up to now is       67.9 secs

     Computing kpt #:   247  of  1501
     total cpu time spent up to now is       68.1 secs

     Computing kpt #:   248  of  1501
     total cpu time spent up to now is       68.2 secs

     Computing kpt #:   249  of  1501
     total cpu time spent up to now is       68.4 secs

     Computing kpt #:   250  of  1501
     total cpu time spent up to now is       68.6 secs

     Computing kpt #:   251  of  1501
     total cpu time spent up to now is       68.8 secs

     Computing kpt #:   252  of  1501
     total cpu time spent up to now is       69.0 secs

     Computing kpt #:   253  of  1501
     total cpu time spent up to now is       69.2 secs

     Computing kpt #:   254  of  1501
     total cpu time spent up to now is       69.4 secs

     Computing kpt #:   255  of  1501
     total cpu time spent up to now is       69.6 secs

     Computing kpt #:   256  of  1501
     total cpu time spent up to now is       69.7 secs

     Computing kpt #:   257  of  1501
     total cpu time spent up to now is       69.9 secs

     Computing kpt #:   258  of  1501
     total cpu time spent up to now is       70.1 secs

     Computing kpt #:   259  of  1501
     total cpu time spent up to now is       70.3 secs

     Computing kpt #:   260  of  1501
     total cpu time spent up to now is       70.5 secs

     Computing kpt #:   261  of  1501
     total cpu time spent up to now is       70.7 secs

     Computing kpt #:   262  of  1501
     total cpu time spent up to now is       70.9 secs

     Computing kpt #:   263  of  1501
     total cpu time spent up to now is       71.1 secs

     Computing kpt #:   264  of  1501
     total cpu time spent up to now is       71.2 secs

     Computing kpt #:   265  of  1501
     total cpu time spent up to now is       71.4 secs

     Computing kpt #:   266  of  1501
     total cpu time spent up to now is       71.5 secs

     Computing kpt #:   267  of  1501
     total cpu time spent up to now is       71.7 secs

     Computing kpt #:   268  of  1501
     total cpu time spent up to now is       71.9 secs

     Computing kpt #:   269  of  1501
     total cpu time spent up to now is       72.1 secs

     Computing kpt #:   270  of  1501
     total cpu time spent up to now is       72.2 secs

     Computing kpt #:   271  of  1501
     total cpu time spent up to now is       72.5 secs

     Computing kpt #:   272  of  1501
     total cpu time spent up to now is       72.6 secs

     Computing kpt #:   273  of  1501
     total cpu time spent up to now is       72.8 secs

     Computing kpt #:   274  of  1501
     total cpu time spent up to now is       73.0 secs

     Computing kpt #:   275  of  1501
     total cpu time spent up to now is       73.1 secs

     Computing kpt #:   276  of  1501
     total cpu time spent up to now is       73.3 secs

     Computing kpt #:   277  of  1501
     total cpu time spent up to now is       73.5 secs

     Computing kpt #:   278  of  1501
     total cpu time spent up to now is       73.6 secs

     Computing kpt #:   279  of  1501
     total cpu time spent up to now is       73.8 secs

     Computing kpt #:   280  of  1501
     total cpu time spent up to now is       73.9 secs

     Computing kpt #:   281  of  1501
     total cpu time spent up to now is       74.2 secs

     Computing kpt #:   282  of  1501
     total cpu time spent up to now is       74.4 secs

     Computing kpt #:   283  of  1501
     total cpu time spent up to now is       74.6 secs

     Computing kpt #:   284  of  1501
     total cpu time spent up to now is       74.8 secs

     Computing kpt #:   285  of  1501
     total cpu time spent up to now is       75.0 secs

     Computing kpt #:   286  of  1501
     total cpu time spent up to now is       75.1 secs

     Computing kpt #:   287  of  1501
     total cpu time spent up to now is       75.3 secs

     Computing kpt #:   288  of  1501
     total cpu time spent up to now is       75.4 secs

     Computing kpt #:   289  of  1501
     total cpu time spent up to now is       75.6 secs

     Computing kpt #:   290  of  1501
     total cpu time spent up to now is       75.8 secs

     Computing kpt #:   291  of  1501
     total cpu time spent up to now is       75.9 secs

     Computing kpt #:   292  of  1501
     total cpu time spent up to now is       76.1 secs

     Computing kpt #:   293  of  1501
     total cpu time spent up to now is       76.3 secs

     Computing kpt #:   294  of  1501
     total cpu time spent up to now is       76.5 secs

     Computing kpt #:   295  of  1501
     total cpu time spent up to now is       76.7 secs

     Computing kpt #:   296  of  1501
     total cpu time spent up to now is       76.9 secs

     Computing kpt #:   297  of  1501
     total cpu time spent up to now is       77.1 secs

     Computing kpt #:   298  of  1501
     total cpu time spent up to now is       77.3 secs

     Computing kpt #:   299  of  1501
     total cpu time spent up to now is       77.5 secs

     Computing kpt #:   300  of  1501
     total cpu time spent up to now is       77.6 secs

     Computing kpt #:   301  of  1501
     total cpu time spent up to now is       77.8 secs

     Computing kpt #:   302  of  1501
     total cpu time spent up to now is       78.0 secs

     Computing kpt #:   303  of  1501
     total cpu time spent up to now is       78.2 secs

     Computing kpt #:   304  of  1501
     total cpu time spent up to now is       78.4 secs

     Computing kpt #:   305  of  1501
     total cpu time spent up to now is       78.6 secs

     Computing kpt #:   306  of  1501
     total cpu time spent up to now is       78.8 secs

     Computing kpt #:   307  of  1501
     total cpu time spent up to now is       79.1 secs

     Computing kpt #:   308  of  1501
     total cpu time spent up to now is       79.2 secs

     Computing kpt #:   309  of  1501
     total cpu time spent up to now is       79.4 secs

     Computing kpt #:   310  of  1501
     total cpu time spent up to now is       79.6 secs

     Computing kpt #:   311  of  1501
     total cpu time spent up to now is       79.8 secs

     Computing kpt #:   312  of  1501
     total cpu time spent up to now is       79.9 secs

     Computing kpt #:   313  of  1501
     total cpu time spent up to now is       80.1 secs

     Computing kpt #:   314  of  1501
     total cpu time spent up to now is       80.3 secs

     Computing kpt #:   315  of  1501
     total cpu time spent up to now is       80.5 secs

     Computing kpt #:   316  of  1501
     total cpu time spent up to now is       80.7 secs

     Computing kpt #:   317  of  1501
     total cpu time spent up to now is       80.8 secs

     Computing kpt #:   318  of  1501
     total cpu time spent up to now is       81.0 secs

     Computing kpt #:   319  of  1501
     total cpu time spent up to now is       81.2 secs

     Computing kpt #:   320  of  1501
     total cpu time spent up to now is       81.4 secs

     Computing kpt #:   321  of  1501
     total cpu time spent up to now is       81.6 secs

     Computing kpt #:   322  of  1501
     total cpu time spent up to now is       81.8 secs

     Computing kpt #:   323  of  1501
     total cpu time spent up to now is       82.0 secs

     Computing kpt #:   324  of  1501
     total cpu time spent up to now is       82.2 secs

     Computing kpt #:   325  of  1501
     total cpu time spent up to now is       82.4 secs

     Computing kpt #:   326  of  1501
     total cpu time spent up to now is       82.6 secs

     Computing kpt #:   327  of  1501
     total cpu time spent up to now is       90.0 secs

     Computing kpt #:   328  of  1501
     total cpu time spent up to now is       93.2 secs

     Computing kpt #:   329  of  1501
     total cpu time spent up to now is       93.4 secs

     Computing kpt #:   330  of  1501
     total cpu time spent up to now is       93.6 secs

     Computing kpt #:   331  of  1501
     total cpu time spent up to now is       93.8 secs

     Computing kpt #:   332  of  1501
     total cpu time spent up to now is       94.0 secs

     Computing kpt #:   333  of  1501
     total cpu time spent up to now is       94.2 secs

     Computing kpt #:   334  of  1501
     total cpu time spent up to now is       94.3 secs

     Computing kpt #:   335  of  1501
     total cpu time spent up to now is       94.5 secs

     Computing kpt #:   336  of  1501
     total cpu time spent up to now is       94.6 secs

     Computing kpt #:   337  of  1501
     total cpu time spent up to now is       94.8 secs

     Computing kpt #:   338  of  1501
     total cpu time spent up to now is       95.0 secs

     Computing kpt #:   339  of  1501
     total cpu time spent up to now is       95.2 secs

     Computing kpt #:   340  of  1501
     total cpu time spent up to now is       95.4 secs

     Computing kpt #:   341  of  1501
     total cpu time spent up to now is       95.6 secs

     Computing kpt #:   342  of  1501
     total cpu time spent up to now is       95.8 secs

     Computing kpt #:   343  of  1501
     total cpu time spent up to now is       95.9 secs

     Computing kpt #:   344  of  1501
     total cpu time spent up to now is       96.1 secs

     Computing kpt #:   345  of  1501
     total cpu time spent up to now is       96.3 secs

     Computing kpt #:   346  of  1501
     total cpu time spent up to now is       96.4 secs

     Computing kpt #:   347  of  1501
     total cpu time spent up to now is       96.6 secs

     Computing kpt #:   348  of  1501
     total cpu time spent up to now is       96.8 secs

     Computing kpt #:   349  of  1501
     total cpu time spent up to now is       96.9 secs

     Computing kpt #:   350  of  1501
     total cpu time spent up to now is       97.1 secs

     Computing kpt #:   351  of  1501
     total cpu time spent up to now is       97.2 secs

     Computing kpt #:   352  of  1501
     total cpu time spent up to now is       97.4 secs

     Computing kpt #:   353  of  1501
     total cpu time spent up to now is       97.6 secs

     Computing kpt #:   354  of  1501
     total cpu time spent up to now is       97.8 secs

     Computing kpt #:   355  of  1501
     total cpu time spent up to now is       98.0 secs

     Computing kpt #:   356  of  1501
     total cpu time spent up to now is       98.2 secs

     Computing kpt #:   357  of  1501
     total cpu time spent up to now is       98.4 secs

     Computing kpt #:   358  of  1501
     total cpu time spent up to now is       98.5 secs

     Computing kpt #:   359  of  1501
     total cpu time spent up to now is       98.7 secs

     Computing kpt #:   360  of  1501
     total cpu time spent up to now is       98.9 secs

     Computing kpt #:   361  of  1501
     total cpu time spent up to now is       99.0 secs

     Computing kpt #:   362  of  1501
     total cpu time spent up to now is       99.3 secs

     Computing kpt #:   363  of  1501
     total cpu time spent up to now is       99.5 secs

     Computing kpt #:   364  of  1501
     total cpu time spent up to now is       99.6 secs

     Computing kpt #:   365  of  1501
     total cpu time spent up to now is       99.9 secs

     Computing kpt #:   366  of  1501
     total cpu time spent up to now is      100.1 secs

     Computing kpt #:   367  of  1501
     total cpu time spent up to now is      100.3 secs

     Computing kpt #:   368  of  1501
     total cpu time spent up to now is      100.4 secs

     Computing kpt #:   369  of  1501
     total cpu time spent up to now is      100.6 secs

     Computing kpt #:   370  of  1501
     total cpu time spent up to now is      100.7 secs

     Computing kpt #:   371  of  1501
     total cpu time spent up to now is      100.9 secs

     Computing kpt #:   372  of  1501
     total cpu time spent up to now is      101.0 secs

     Computing kpt #:   373  of  1501
     total cpu time spent up to now is      101.2 secs

     Computing kpt #:   374  of  1501
     total cpu time spent up to now is      101.4 secs

     Computing kpt #:   375  of  1501
     total cpu time spent up to now is      101.7 secs

     Computing kpt #:   376  of  1501
     total cpu time spent up to now is      101.8 secs

     Computing kpt #:   377  of  1501
     total cpu time spent up to now is      102.0 secs

     Computing kpt #:   378  of  1501
     total cpu time spent up to now is      102.3 secs

     Computing kpt #:   379  of  1501
     total cpu time spent up to now is      102.4 secs

     Computing kpt #:   380  of  1501
     total cpu time spent up to now is      102.6 secs

     Computing kpt #:   381  of  1501
     total cpu time spent up to now is      102.8 secs

     Computing kpt #:   382  of  1501
     total cpu time spent up to now is      103.0 secs

     Computing kpt #:   383  of  1501
     total cpu time spent up to now is      103.2 secs

     Computing kpt #:   384  of  1501
     total cpu time spent up to now is      103.4 secs

     Computing kpt #:   385  of  1501
     total cpu time spent up to now is      103.6 secs

     Computing kpt #:   386  of  1501
     total cpu time spent up to now is      103.8 secs

     Computing kpt #:   387  of  1501
     total cpu time spent up to now is      104.1 secs

     Computing kpt #:   388  of  1501
     total cpu time spent up to now is      104.2 secs

     Computing kpt #:   389  of  1501
     total cpu time spent up to now is      104.5 secs

     Computing kpt #:   390  of  1501
     total cpu time spent up to now is      104.7 secs

     Computing kpt #:   391  of  1501
     total cpu time spent up to now is      104.9 secs

     Computing kpt #:   392  of  1501
     total cpu time spent up to now is      105.1 secs

     Computing kpt #:   393  of  1501
     total cpu time spent up to now is      105.3 secs

     Computing kpt #:   394  of  1501
     total cpu time spent up to now is      105.5 secs

     Computing kpt #:   395  of  1501
     total cpu time spent up to now is      105.7 secs

     Computing kpt #:   396  of  1501
     total cpu time spent up to now is      105.9 secs

     Computing kpt #:   397  of  1501
     total cpu time spent up to now is      106.1 secs

     Computing kpt #:   398  of  1501
     total cpu time spent up to now is      106.3 secs

     Computing kpt #:   399  of  1501
     total cpu time spent up to now is      106.5 secs

     Computing kpt #:   400  of  1501
     total cpu time spent up to now is      106.6 secs

     Computing kpt #:   401  of  1501
     total cpu time spent up to now is      106.9 secs

     Computing kpt #:   402  of  1501
     total cpu time spent up to now is      107.0 secs

     Computing kpt #:   403  of  1501
     total cpu time spent up to now is      107.2 secs

     Computing kpt #:   404  of  1501
     total cpu time spent up to now is      107.4 secs

     Computing kpt #:   405  of  1501
     total cpu time spent up to now is      107.6 secs

     Computing kpt #:   406  of  1501
     total cpu time spent up to now is      107.8 secs

     Computing kpt #:   407  of  1501
     total cpu time spent up to now is      108.0 secs

     Computing kpt #:   408  of  1501
     total cpu time spent up to now is      108.2 secs

     Computing kpt #:   409  of  1501
     total cpu time spent up to now is      108.4 secs

     Computing kpt #:   410  of  1501
     total cpu time spent up to now is      108.6 secs

     Computing kpt #:   411  of  1501
     total cpu time spent up to now is      108.8 secs

     Computing kpt #:   412  of  1501
     total cpu time spent up to now is      108.9 secs

     Computing kpt #:   413  of  1501
     total cpu time spent up to now is      109.2 secs

     Computing kpt #:   414  of  1501
     total cpu time spent up to now is      109.4 secs

     Computing kpt #:   415  of  1501
     total cpu time spent up to now is      109.6 secs

     Computing kpt #:   416  of  1501
     total cpu time spent up to now is      109.7 secs

     Computing kpt #:   417  of  1501
     total cpu time spent up to now is      109.9 secs

     Computing kpt #:   418  of  1501
     total cpu time spent up to now is      110.2 secs

     Computing kpt #:   419  of  1501
     total cpu time spent up to now is      110.4 secs

     Computing kpt #:   420  of  1501
     total cpu time spent up to now is      110.6 secs

     Computing kpt #:   421  of  1501
     total cpu time spent up to now is      110.9 secs

     Computing kpt #:   422  of  1501
     total cpu time spent up to now is      111.1 secs

     Computing kpt #:   423  of  1501
     total cpu time spent up to now is      111.3 secs

     Computing kpt #:   424  of  1501
     total cpu time spent up to now is      111.5 secs

     Computing kpt #:   425  of  1501
     total cpu time spent up to now is      111.7 secs

     Computing kpt #:   426  of  1501
     total cpu time spent up to now is      111.9 secs

     Computing kpt #:   427  of  1501
     total cpu time spent up to now is      112.1 secs

     Computing kpt #:   428  of  1501
     total cpu time spent up to now is      112.3 secs

     Computing kpt #:   429  of  1501
     total cpu time spent up to now is      112.5 secs

     Computing kpt #:   430  of  1501
     total cpu time spent up to now is      112.7 secs

     Computing kpt #:   431  of  1501
     total cpu time spent up to now is      112.9 secs

     Computing kpt #:   432  of  1501
     total cpu time spent up to now is      113.0 secs

     Computing kpt #:   433  of  1501
     total cpu time spent up to now is      113.3 secs

     Computing kpt #:   434  of  1501
     total cpu time spent up to now is      113.7 secs

     Computing kpt #:   435  of  1501
     total cpu time spent up to now is      113.9 secs

     Computing kpt #:   436  of  1501
     total cpu time spent up to now is      114.1 secs

     Computing kpt #:   437  of  1501
     total cpu time spent up to now is      114.3 secs

     Computing kpt #:   438  of  1501
     total cpu time spent up to now is      114.5 secs

     Computing kpt #:   439  of  1501
     total cpu time spent up to now is      114.7 secs

     Computing kpt #:   440  of  1501
     total cpu time spent up to now is      114.8 secs

     Computing kpt #:   441  of  1501
     total cpu time spent up to now is      115.1 secs

     Computing kpt #:   442  of  1501
     total cpu time spent up to now is      115.4 secs

     Computing kpt #:   443  of  1501
     total cpu time spent up to now is      119.4 secs

     Computing kpt #:   444  of  1501
     total cpu time spent up to now is      119.6 secs

     Computing kpt #:   445  of  1501
     total cpu time spent up to now is      120.0 secs

     Computing kpt #:   446  of  1501
     c_bands:  2 eigenvalues not converged
     total cpu time spent up to now is      120.5 secs

     Computing kpt #:   447  of  1501
     total cpu time spent up to now is      123.7 secs

     Computing kpt #:   448  of  1501
     total cpu time spent up to now is      123.9 secs

     Computing kpt #:   449  of  1501
     total cpu time spent up to now is      124.1 secs

     Computing kpt #:   450  of  1501
     total cpu time spent up to now is      124.4 secs

     Computing kpt #:   451  of  1501
     total cpu time spent up to now is      124.7 secs

     Computing kpt #:   452  of  1501
     total cpu time spent up to now is      124.9 secs

     Computing kpt #:   453  of  1501
     total cpu time spent up to now is      125.2 secs

     Computing kpt #:   454  of  1501
     total cpu time spent up to now is      125.4 secs

     Computing kpt #:   455  of  1501
     total cpu time spent up to now is      125.6 secs

     Computing kpt #:   456  of  1501
     total cpu time spent up to now is      128.0 secs

     Computing kpt #:   457  of  1501
     total cpu time spent up to now is      128.2 secs

     Computing kpt #:   458  of  1501
     total cpu time spent up to now is      128.5 secs

     Computing kpt #:   459  of  1501
     total cpu time spent up to now is      128.8 secs

     Computing kpt #:   460  of  1501
     total cpu time spent up to now is      129.0 secs

     Computing kpt #:   461  of  1501
     total cpu time spent up to now is      129.2 secs

     Computing kpt #:   462  of  1501
     total cpu time spent up to now is      129.4 secs

     Computing kpt #:   463  of  1501
     total cpu time spent up to now is      129.8 secs

     Computing kpt #:   464  of  1501
     total cpu time spent up to now is      129.9 secs

     Computing kpt #:   465  of  1501
     total cpu time spent up to now is      130.1 secs

     Computing kpt #:   466  of  1501
     total cpu time spent up to now is      130.4 secs

     Computing kpt #:   467  of  1501
     total cpu time spent up to now is      130.6 secs

     Computing kpt #:   468  of  1501
     total cpu time spent up to now is      130.8 secs

     Computing kpt #:   469  of  1501
     total cpu time spent up to now is      131.1 secs

     Computing kpt #:   470  of  1501
     total cpu time spent up to now is      131.3 secs

     Computing kpt #:   471  of  1501
     total cpu time spent up to now is      131.6 secs

     Computing kpt #:   472  of  1501
     total cpu time spent up to now is      131.7 secs

     Computing kpt #:   473  of  1501
     total cpu time spent up to now is      132.0 secs

     Computing kpt #:   474  of  1501
     total cpu time spent up to now is      132.2 secs

     Computing kpt #:   475  of  1501
     total cpu time spent up to now is      132.4 secs

     Computing kpt #:   476  of  1501
     total cpu time spent up to now is      132.6 secs

     Computing kpt #:   477  of  1501
     total cpu time spent up to now is      132.8 secs

     Computing kpt #:   478  of  1501
     total cpu time spent up to now is      133.1 secs

     Computing kpt #:   479  of  1501
     total cpu time spent up to now is      133.3 secs

     Computing kpt #:   480  of  1501
     total cpu time spent up to now is      133.5 secs

     Computing kpt #:   481  of  1501
     total cpu time spent up to now is      133.8 secs

     Computing kpt #:   482  of  1501
     total cpu time spent up to now is      134.0 secs

     Computing kpt #:   483  of  1501
     total cpu time spent up to now is      134.2 secs

     Computing kpt #:   484  of  1501
     total cpu time spent up to now is      134.4 secs

     Computing kpt #:   485  of  1501
     total cpu time spent up to now is      134.7 secs

     Computing kpt #:   486  of  1501
     total cpu time spent up to now is      135.0 secs

     Computing kpt #:   487  of  1501
     total cpu time spent up to now is      135.2 secs

     Computing kpt #:   488  of  1501
     total cpu time spent up to now is      135.3 secs

     Computing kpt #:   489  of  1501
     total cpu time spent up to now is      135.6 secs

     Computing kpt #:   490  of  1501
     total cpu time spent up to now is      135.8 secs

     Computing kpt #:   491  of  1501
     total cpu time spent up to now is      136.1 secs

     Computing kpt #:   492  of  1501
     total cpu time spent up to now is      136.3 secs

     Computing kpt #:   493  of  1501
     total cpu time spent up to now is      136.5 secs

     Computing kpt #:   494  of  1501
     total cpu time spent up to now is      136.7 secs

     Computing kpt #:   495  of  1501
     total cpu time spent up to now is      136.9 secs

     Computing kpt #:   496  of  1501
     total cpu time spent up to now is      137.1 secs

     Computing kpt #:   497  of  1501
     total cpu time spent up to now is      137.4 secs

     Computing kpt #:   498  of  1501
     total cpu time spent up to now is      137.6 secs

     Computing kpt #:   499  of  1501
     total cpu time spent up to now is      137.8 secs

     Computing kpt #:   500  of  1501
     total cpu time spent up to now is      138.0 secs

     Computing kpt #:   501  of  1501
     total cpu time spent up to now is      138.3 secs

     Computing kpt #:   502  of  1501
     total cpu time spent up to now is      138.5 secs

     Computing kpt #:   503  of  1501
     total cpu time spent up to now is      138.7 secs

     Computing kpt #:   504  of  1501
     total cpu time spent up to now is      138.8 secs

     Computing kpt #:   505  of  1501
     total cpu time spent up to now is      139.1 secs

     Computing kpt #:   506  of  1501
     total cpu time spent up to now is      139.3 secs

     Computing kpt #:   507  of  1501
     total cpu time spent up to now is      139.6 secs

     Computing kpt #:   508  of  1501
     total cpu time spent up to now is      139.8 secs

     Computing kpt #:   509  of  1501
     total cpu time spent up to now is      140.0 secs

     Computing kpt #:   510  of  1501
     total cpu time spent up to now is      140.2 secs

     Computing kpt #:   511  of  1501
     total cpu time spent up to now is      140.4 secs

     Computing kpt #:   512  of  1501
     total cpu time spent up to now is      140.6 secs

     Computing kpt #:   513  of  1501
     total cpu time spent up to now is      140.8 secs

     Computing kpt #:   514  of  1501
     total cpu time spent up to now is      141.1 secs

     Computing kpt #:   515  of  1501
     total cpu time spent up to now is      141.3 secs

     Computing kpt #:   516  of  1501
     total cpu time spent up to now is      141.5 secs

     Computing kpt #:   517  of  1501
     total cpu time spent up to now is      141.7 secs

     Computing kpt #:   518  of  1501
     total cpu time spent up to now is      141.9 secs

     Computing kpt #:   519  of  1501
     total cpu time spent up to now is      142.2 secs

     Computing kpt #:   520  of  1501
     total cpu time spent up to now is      142.4 secs

     Computing kpt #:   521  of  1501
     total cpu time spent up to now is      142.6 secs

     Computing kpt #:   522  of  1501
     total cpu time spent up to now is      142.9 secs

     Computing kpt #:   523  of  1501
     total cpu time spent up to now is      143.2 secs

     Computing kpt #:   524  of  1501
     total cpu time spent up to now is      143.4 secs

     Computing kpt #:   525  of  1501
     total cpu time spent up to now is      143.7 secs

     Computing kpt #:   526  of  1501
     total cpu time spent up to now is      143.9 secs

     Computing kpt #:   527  of  1501
     total cpu time spent up to now is      144.1 secs

     Computing kpt #:   528  of  1501
     total cpu time spent up to now is      144.3 secs

     Computing kpt #:   529  of  1501
     total cpu time spent up to now is      144.5 secs

     Computing kpt #:   530  of  1501
     total cpu time spent up to now is      144.7 secs

     Computing kpt #:   531  of  1501
     total cpu time spent up to now is      145.0 secs

     Computing kpt #:   532  of  1501
     total cpu time spent up to now is      145.2 secs

     Computing kpt #:   533  of  1501
     total cpu time spent up to now is      145.4 secs

     Computing kpt #:   534  of  1501
     total cpu time spent up to now is      145.6 secs

     Computing kpt #:   535  of  1501
     total cpu time spent up to now is      145.8 secs

     Computing kpt #:   536  of  1501
     total cpu time spent up to now is      146.0 secs

     Computing kpt #:   537  of  1501
     total cpu time spent up to now is      146.5 secs

     Computing kpt #:   538  of  1501
     total cpu time spent up to now is      147.5 secs

     Computing kpt #:   539  of  1501
     total cpu time spent up to now is      148.0 secs

     Computing kpt #:   540  of  1501
     total cpu time spent up to now is      148.3 secs

     Computing kpt #:   541  of  1501
     total cpu time spent up to now is      148.5 secs

     Computing kpt #:   542  of  1501
     total cpu time spent up to now is      148.8 secs

     Computing kpt #:   543  of  1501
     total cpu time spent up to now is      149.0 secs

     Computing kpt #:   544  of  1501
     total cpu time spent up to now is      149.2 secs

     Computing kpt #:   545  of  1501
     total cpu time spent up to now is      149.4 secs

     Computing kpt #:   546  of  1501
     total cpu time spent up to now is      149.7 secs

     Computing kpt #:   547  of  1501
     total cpu time spent up to now is      149.9 secs

     Computing kpt #:   548  of  1501
     total cpu time spent up to now is      150.1 secs

     Computing kpt #:   549  of  1501
     total cpu time spent up to now is      150.3 secs

     Computing kpt #:   550  of  1501
     total cpu time spent up to now is      150.5 secs

     Computing kpt #:   551  of  1501
     total cpu time spent up to now is      150.8 secs

     Computing kpt #:   552  of  1501
     total cpu time spent up to now is      150.9 secs

     Computing kpt #:   553  of  1501
     total cpu time spent up to now is      151.2 secs

     Computing kpt #:   554  of  1501
     total cpu time spent up to now is      153.3 secs

     Computing kpt #:   555  of  1501
     total cpu time spent up to now is      153.5 secs

     Computing kpt #:   556  of  1501
     total cpu time spent up to now is      153.8 secs

     Computing kpt #:   557  of  1501
     total cpu time spent up to now is      154.0 secs

     Computing kpt #:   558  of  1501
     total cpu time spent up to now is      154.3 secs

     Computing kpt #:   559  of  1501
     total cpu time spent up to now is      154.5 secs

     Computing kpt #:   560  of  1501
     total cpu time spent up to now is      154.7 secs

     Computing kpt #:   561  of  1501
     total cpu time spent up to now is      154.9 secs

     Computing kpt #:   562  of  1501
     total cpu time spent up to now is      155.1 secs

     Computing kpt #:   563  of  1501
     total cpu time spent up to now is      155.3 secs

     Computing kpt #:   564  of  1501
     total cpu time spent up to now is      155.5 secs

     Computing kpt #:   565  of  1501
     total cpu time spent up to now is      155.8 secs

     Computing kpt #:   566  of  1501
     total cpu time spent up to now is      156.0 secs

     Computing kpt #:   567  of  1501
     total cpu time spent up to now is      156.3 secs

     Computing kpt #:   568  of  1501
     total cpu time spent up to now is      159.2 secs

     Computing kpt #:   569  of  1501
     total cpu time spent up to now is      159.4 secs

     Computing kpt #:   570  of  1501
     total cpu time spent up to now is      159.7 secs

     Computing kpt #:   571  of  1501
     total cpu time spent up to now is      159.9 secs

     Computing kpt #:   572  of  1501
     total cpu time spent up to now is      160.2 secs

     Computing kpt #:   573  of  1501
     total cpu time spent up to now is      160.4 secs

     Computing kpt #:   574  of  1501
     total cpu time spent up to now is      160.7 secs

     Computing kpt #:   575  of  1501
     total cpu time spent up to now is      161.0 secs

     Computing kpt #:   576  of  1501
     total cpu time spent up to now is      161.2 secs

     Computing kpt #:   577  of  1501
     total cpu time spent up to now is      161.5 secs

     Computing kpt #:   578  of  1501
     total cpu time spent up to now is      163.0 secs

     Computing kpt #:   579  of  1501
     total cpu time spent up to now is      163.2 secs

     Computing kpt #:   580  of  1501
     total cpu time spent up to now is      163.5 secs

     Computing kpt #:   581  of  1501
     total cpu time spent up to now is      163.8 secs

     Computing kpt #:   582  of  1501
     total cpu time spent up to now is      164.0 secs

     Computing kpt #:   583  of  1501
     total cpu time spent up to now is      164.3 secs

     Computing kpt #:   584  of  1501
     total cpu time spent up to now is      164.4 secs

     Computing kpt #:   585  of  1501
     total cpu time spent up to now is      164.7 secs

     Computing kpt #:   586  of  1501
     total cpu time spent up to now is      164.9 secs

     Computing kpt #:   587  of  1501
     total cpu time spent up to now is      165.2 secs

     Computing kpt #:   588  of  1501
     total cpu time spent up to now is      165.5 secs

     Computing kpt #:   589  of  1501
     total cpu time spent up to now is      165.7 secs

     Computing kpt #:   590  of  1501
     total cpu time spent up to now is      166.0 secs

     Computing kpt #:   591  of  1501
     total cpu time spent up to now is      166.2 secs

     Computing kpt #:   592  of  1501
     total cpu time spent up to now is      166.3 secs

     Computing kpt #:   593  of  1501
     total cpu time spent up to now is      166.6 secs

     Computing kpt #:   594  of  1501
     total cpu time spent up to now is      166.8 secs

     Computing kpt #:   595  of  1501
     total cpu time spent up to now is      167.1 secs

     Computing kpt #:   596  of  1501
     total cpu time spent up to now is      167.3 secs

     Computing kpt #:   597  of  1501
     total cpu time spent up to now is      167.5 secs

     Computing kpt #:   598  of  1501
     total cpu time spent up to now is      167.8 secs

     Computing kpt #:   599  of  1501
     total cpu time spent up to now is      168.0 secs

     Computing kpt #:   600  of  1501
     total cpu time spent up to now is      168.2 secs

     Computing kpt #:   601  of  1501
     total cpu time spent up to now is      168.4 secs

     Computing kpt #:   602  of  1501
     total cpu time spent up to now is      168.6 secs

     Computing kpt #:   603  of  1501
     total cpu time spent up to now is      168.8 secs

     Computing kpt #:   604  of  1501
     total cpu time spent up to now is      169.1 secs

     Computing kpt #:   605  of  1501
     total cpu time spent up to now is      169.3 secs

     Computing kpt #:   606  of  1501
     total cpu time spent up to now is      169.5 secs

     Computing kpt #:   607  of  1501
     total cpu time spent up to now is      169.8 secs

     Computing kpt #:   608  of  1501
     total cpu time spent up to now is      170.0 secs

     Computing kpt #:   609  of  1501
     total cpu time spent up to now is      170.2 secs

     Computing kpt #:   610  of  1501
     total cpu time spent up to now is      170.5 secs

     Computing kpt #:   611  of  1501
     total cpu time spent up to now is      170.8 secs

     Computing kpt #:   612  of  1501
     total cpu time spent up to now is      171.1 secs

     Computing kpt #:   613  of  1501
     total cpu time spent up to now is      171.3 secs

     Computing kpt #:   614  of  1501
     total cpu time spent up to now is      171.6 secs

     Computing kpt #:   615  of  1501
     total cpu time spent up to now is      171.8 secs

     Computing kpt #:   616  of  1501
     total cpu time spent up to now is      171.9 secs

     Computing kpt #:   617  of  1501
     total cpu time spent up to now is      172.2 secs

     Computing kpt #:   618  of  1501
     total cpu time spent up to now is      172.4 secs

     Computing kpt #:   619  of  1501
     total cpu time spent up to now is      172.6 secs

     Computing kpt #:   620  of  1501
     total cpu time spent up to now is      172.9 secs

     Computing kpt #:   621  of  1501
     total cpu time spent up to now is      173.2 secs

     Computing kpt #:   622  of  1501
     total cpu time spent up to now is      173.4 secs

     Computing kpt #:   623  of  1501
     total cpu time spent up to now is      173.6 secs

     Computing kpt #:   624  of  1501
     total cpu time spent up to now is      173.8 secs

     Computing kpt #:   625  of  1501
     total cpu time spent up to now is      174.0 secs

     Computing kpt #:   626  of  1501
     total cpu time spent up to now is      174.2 secs

     Computing kpt #:   627  of  1501
     total cpu time spent up to now is      174.4 secs

     Computing kpt #:   628  of  1501
     total cpu time spent up to now is      174.6 secs

     Computing kpt #:   629  of  1501
     total cpu time spent up to now is      174.8 secs

     Computing kpt #:   630  of  1501
     total cpu time spent up to now is      175.1 secs

     Computing kpt #:   631  of  1501
     total cpu time spent up to now is      175.3 secs

     Computing kpt #:   632  of  1501
     total cpu time spent up to now is      175.4 secs

     Computing kpt #:   633  of  1501
     total cpu time spent up to now is      175.7 secs

     Computing kpt #:   634  of  1501
     total cpu time spent up to now is      175.9 secs

     Computing kpt #:   635  of  1501
     total cpu time spent up to now is      176.2 secs

     Computing kpt #:   636  of  1501
     total cpu time spent up to now is      176.3 secs

     Computing kpt #:   637  of  1501
     total cpu time spent up to now is      176.6 secs

     Computing kpt #:   638  of  1501
     total cpu time spent up to now is      176.8 secs

     Computing kpt #:   639  of  1501
     total cpu time spent up to now is      177.5 secs

     Computing kpt #:   640  of  1501
     total cpu time spent up to now is      177.6 secs

     Computing kpt #:   641  of  1501
     total cpu time spent up to now is      178.3 secs

     Computing kpt #:   642  of  1501
     total cpu time spent up to now is      178.7 secs

     Computing kpt #:   643  of  1501
     total cpu time spent up to now is      178.9 secs

     Computing kpt #:   644  of  1501
     total cpu time spent up to now is      179.1 secs

     Computing kpt #:   645  of  1501
     total cpu time spent up to now is      179.4 secs

     Computing kpt #:   646  of  1501
     total cpu time spent up to now is      179.6 secs

     Computing kpt #:   647  of  1501
     total cpu time spent up to now is      179.9 secs

     Computing kpt #:   648  of  1501
     total cpu time spent up to now is      180.0 secs

     Computing kpt #:   649  of  1501
     total cpu time spent up to now is      180.3 secs

     Computing kpt #:   650  of  1501
     total cpu time spent up to now is      180.5 secs

     Computing kpt #:   651  of  1501
     total cpu time spent up to now is      180.8 secs

     Computing kpt #:   652  of  1501
     total cpu time spent up to now is      180.9 secs

     Computing kpt #:   653  of  1501
     total cpu time spent up to now is      181.2 secs

     Computing kpt #:   654  of  1501
     total cpu time spent up to now is      181.4 secs

     Computing kpt #:   655  of  1501
     total cpu time spent up to now is      181.6 secs

     Computing kpt #:   656  of  1501
     total cpu time spent up to now is      181.8 secs

     Computing kpt #:   657  of  1501
     total cpu time spent up to now is      182.0 secs

     Computing kpt #:   658  of  1501
     total cpu time spent up to now is      183.7 secs

     Computing kpt #:   659  of  1501
     total cpu time spent up to now is      183.9 secs

     Computing kpt #:   660  of  1501
     total cpu time spent up to now is      184.1 secs

     Computing kpt #:   661  of  1501
     total cpu time spent up to now is      184.3 secs

     Computing kpt #:   662  of  1501
     total cpu time spent up to now is      184.6 secs

     Computing kpt #:   663  of  1501
     total cpu time spent up to now is      184.8 secs

     Computing kpt #:   664  of  1501
     total cpu time spent up to now is      185.0 secs

     Computing kpt #:   665  of  1501
     total cpu time spent up to now is      185.2 secs

     Computing kpt #:   666  of  1501
     total cpu time spent up to now is      185.5 secs

     Computing kpt #:   667  of  1501
     total cpu time spent up to now is      185.7 secs

     Computing kpt #:   668  of  1501
     total cpu time spent up to now is      185.9 secs

     Computing kpt #:   669  of  1501
     total cpu time spent up to now is      186.1 secs

     Computing kpt #:   670  of  1501
     total cpu time spent up to now is      186.3 secs

     Computing kpt #:   671  of  1501
     total cpu time spent up to now is      186.5 secs

     Computing kpt #:   672  of  1501
     total cpu time spent up to now is      186.7 secs

     Computing kpt #:   673  of  1501
     total cpu time spent up to now is      186.9 secs

     Computing kpt #:   674  of  1501
     total cpu time spent up to now is      187.2 secs

     Computing kpt #:   675  of  1501
     total cpu time spent up to now is      189.0 secs

     Computing kpt #:   676  of  1501
     total cpu time spent up to now is      189.2 secs

     Computing kpt #:   677  of  1501
     total cpu time spent up to now is      189.4 secs

     Computing kpt #:   678  of  1501
     total cpu time spent up to now is      189.7 secs

     Computing kpt #:   679  of  1501
     total cpu time spent up to now is      190.0 secs

     Computing kpt #:   680  of  1501
     total cpu time spent up to now is      190.2 secs

     Computing kpt #:   681  of  1501
     total cpu time spent up to now is      190.4 secs

     Computing kpt #:   682  of  1501
     total cpu time spent up to now is      190.6 secs

     Computing kpt #:   683  of  1501
     total cpu time spent up to now is      190.8 secs

     Computing kpt #:   684  of  1501
     total cpu time spent up to now is      191.1 secs

     Computing kpt #:   685  of  1501
     total cpu time spent up to now is      191.3 secs

     Computing kpt #:   686  of  1501
     total cpu time spent up to now is      191.5 secs

     Computing kpt #:   687  of  1501
     total cpu time spent up to now is      191.8 secs

     Computing kpt #:   688  of  1501
     total cpu time spent up to now is      191.9 secs

     Computing kpt #:   689  of  1501
     total cpu time spent up to now is      192.3 secs

     Computing kpt #:   690  of  1501
     total cpu time spent up to now is      195.4 secs

     Computing kpt #:   691  of  1501
     total cpu time spent up to now is      195.6 secs

     Computing kpt #:   692  of  1501
     total cpu time spent up to now is      195.8 secs

     Computing kpt #:   693  of  1501
     total cpu time spent up to now is      196.1 secs

     Computing kpt #:   694  of  1501
     total cpu time spent up to now is      196.4 secs

     Computing kpt #:   695  of  1501
     total cpu time spent up to now is      196.6 secs

     Computing kpt #:   696  of  1501
     total cpu time spent up to now is      196.8 secs

     Computing kpt #:   697  of  1501
     total cpu time spent up to now is      197.0 secs

     Computing kpt #:   698  of  1501
     total cpu time spent up to now is      197.2 secs

     Computing kpt #:   699  of  1501
     total cpu time spent up to now is      198.0 secs

     Computing kpt #:   700  of  1501
     total cpu time spent up to now is      198.2 secs

     Computing kpt #:   701  of  1501
     total cpu time spent up to now is      198.5 secs

     Computing kpt #:   702  of  1501
     total cpu time spent up to now is      198.7 secs

     Computing kpt #:   703  of  1501
     total cpu time spent up to now is      198.9 secs

     Computing kpt #:   704  of  1501
     total cpu time spent up to now is      199.1 secs

     Computing kpt #:   705  of  1501
     total cpu time spent up to now is      199.3 secs

     Computing kpt #:   706  of  1501
     total cpu time spent up to now is      199.5 secs

     Computing kpt #:   707  of  1501
     total cpu time spent up to now is      199.7 secs

     Computing kpt #:   708  of  1501
     total cpu time spent up to now is      200.0 secs

     Computing kpt #:   709  of  1501
     total cpu time spent up to now is      200.2 secs

     Computing kpt #:   710  of  1501
     total cpu time spent up to now is      200.4 secs

     Computing kpt #:   711  of  1501
     total cpu time spent up to now is      200.6 secs

     Computing kpt #:   712  of  1501
     total cpu time spent up to now is      200.8 secs

     Computing kpt #:   713  of  1501
     total cpu time spent up to now is      201.0 secs

     Computing kpt #:   714  of  1501
     total cpu time spent up to now is      201.2 secs

     Computing kpt #:   715  of  1501
     total cpu time spent up to now is      201.4 secs

     Computing kpt #:   716  of  1501
     total cpu time spent up to now is      201.6 secs

     Computing kpt #:   717  of  1501
     total cpu time spent up to now is      201.9 secs

     Computing kpt #:   718  of  1501
     total cpu time spent up to now is      202.1 secs

     Computing kpt #:   719  of  1501
     total cpu time spent up to now is      202.4 secs

     Computing kpt #:   720  of  1501
     total cpu time spent up to now is      202.5 secs

     Computing kpt #:   721  of  1501
     total cpu time spent up to now is      202.7 secs

     Computing kpt #:   722  of  1501
     total cpu time spent up to now is      203.0 secs

     Computing kpt #:   723  of  1501
     total cpu time spent up to now is      203.2 secs

     Computing kpt #:   724  of  1501
     total cpu time spent up to now is      203.4 secs

     Computing kpt #:   725  of  1501
     total cpu time spent up to now is      203.6 secs

     Computing kpt #:   726  of  1501
     total cpu time spent up to now is      203.9 secs

     Computing kpt #:   727  of  1501
     total cpu time spent up to now is      204.1 secs

     Computing kpt #:   728  of  1501
     total cpu time spent up to now is      204.3 secs

     Computing kpt #:   729  of  1501
     total cpu time spent up to now is      204.5 secs

     Computing kpt #:   730  of  1501
     total cpu time spent up to now is      204.8 secs

     Computing kpt #:   731  of  1501
     total cpu time spent up to now is      205.0 secs

     Computing kpt #:   732  of  1501
     total cpu time spent up to now is      205.2 secs

     Computing kpt #:   733  of  1501
     total cpu time spent up to now is      205.5 secs

     Computing kpt #:   734  of  1501
     total cpu time spent up to now is      205.8 secs

     Computing kpt #:   735  of  1501
     total cpu time spent up to now is      206.0 secs

     Computing kpt #:   736  of  1501
     total cpu time spent up to now is      206.2 secs

     Computing kpt #:   737  of  1501
     total cpu time spent up to now is      206.5 secs

     Computing kpt #:   738  of  1501
     total cpu time spent up to now is      206.7 secs

     Computing kpt #:   739  of  1501
     total cpu time spent up to now is      206.9 secs

     Computing kpt #:   740  of  1501
     total cpu time spent up to now is      207.1 secs

     Computing kpt #:   741  of  1501
     total cpu time spent up to now is      207.4 secs

     Computing kpt #:   742  of  1501
     total cpu time spent up to now is      207.6 secs

     Computing kpt #:   743  of  1501
     total cpu time spent up to now is      208.4 secs

     Computing kpt #:   744  of  1501
     total cpu time spent up to now is      208.6 secs

     Computing kpt #:   745  of  1501
     total cpu time spent up to now is      209.3 secs

     Computing kpt #:   746  of  1501
     total cpu time spent up to now is      209.6 secs

     Computing kpt #:   747  of  1501
     total cpu time spent up to now is      209.9 secs

     Computing kpt #:   748  of  1501
     total cpu time spent up to now is      210.1 secs

     Computing kpt #:   749  of  1501
     total cpu time spent up to now is      210.4 secs

     Computing kpt #:   750  of  1501
     total cpu time spent up to now is      210.7 secs

     Computing kpt #:   751  of  1501
     total cpu time spent up to now is      211.0 secs

     Computing kpt #:   752  of  1501
     total cpu time spent up to now is      211.2 secs

     Computing kpt #:   753  of  1501
     total cpu time spent up to now is      211.4 secs

     Computing kpt #:   754  of  1501
     total cpu time spent up to now is      211.7 secs

     Computing kpt #:   755  of  1501
     total cpu time spent up to now is      212.0 secs

     Computing kpt #:   756  of  1501
     total cpu time spent up to now is      212.2 secs

     Computing kpt #:   757  of  1501
     total cpu time spent up to now is      212.5 secs

     Computing kpt #:   758  of  1501
     total cpu time spent up to now is      212.7 secs

     Computing kpt #:   759  of  1501
     total cpu time spent up to now is      213.2 secs

     Computing kpt #:   760  of  1501
     total cpu time spent up to now is      213.3 secs

     Computing kpt #:   761  of  1501
     total cpu time spent up to now is      213.6 secs

     Computing kpt #:   762  of  1501
     total cpu time spent up to now is      213.9 secs

     Computing kpt #:   763  of  1501
     total cpu time spent up to now is      214.1 secs

     Computing kpt #:   764  of  1501
     total cpu time spent up to now is      214.3 secs

     Computing kpt #:   765  of  1501
     total cpu time spent up to now is      214.5 secs

     Computing kpt #:   766  of  1501
     total cpu time spent up to now is      214.8 secs

     Computing kpt #:   767  of  1501
     total cpu time spent up to now is      215.1 secs

     Computing kpt #:   768  of  1501
     total cpu time spent up to now is      215.3 secs

     Computing kpt #:   769  of  1501
     total cpu time spent up to now is      215.5 secs

     Computing kpt #:   770  of  1501
     total cpu time spent up to now is      215.9 secs

     Computing kpt #:   771  of  1501
     total cpu time spent up to now is      216.1 secs

     Computing kpt #:   772  of  1501
     total cpu time spent up to now is      216.3 secs

     Computing kpt #:   773  of  1501
     total cpu time spent up to now is      216.6 secs

     Computing kpt #:   774  of  1501
     total cpu time spent up to now is      216.9 secs

     Computing kpt #:   775  of  1501
     total cpu time spent up to now is      217.1 secs

     Computing kpt #:   776  of  1501
     total cpu time spent up to now is      217.3 secs

     Computing kpt #:   777  of  1501
     total cpu time spent up to now is      217.6 secs

     Computing kpt #:   778  of  1501
     total cpu time spent up to now is      217.8 secs

     Computing kpt #:   779  of  1501
     total cpu time spent up to now is      219.4 secs

     Computing kpt #:   780  of  1501
     total cpu time spent up to now is      219.6 secs

     Computing kpt #:   781  of  1501
     total cpu time spent up to now is      220.0 secs

     Computing kpt #:   782  of  1501
     total cpu time spent up to now is      220.2 secs

     Computing kpt #:   783  of  1501
     total cpu time spent up to now is      220.5 secs

     Computing kpt #:   784  of  1501
     total cpu time spent up to now is      220.6 secs

     Computing kpt #:   785  of  1501
     total cpu time spent up to now is      221.0 secs

     Computing kpt #:   786  of  1501
     total cpu time spent up to now is      221.3 secs

     Computing kpt #:   787  of  1501
     total cpu time spent up to now is      221.5 secs

     Computing kpt #:   788  of  1501
     total cpu time spent up to now is      221.7 secs

     Computing kpt #:   789  of  1501
     total cpu time spent up to now is      221.9 secs

     Computing kpt #:   790  of  1501
     total cpu time spent up to now is      222.1 secs

     Computing kpt #:   791  of  1501
     total cpu time spent up to now is      222.4 secs

     Computing kpt #:   792  of  1501
     total cpu time spent up to now is      222.6 secs

     Computing kpt #:   793  of  1501
     total cpu time spent up to now is      222.8 secs

     Computing kpt #:   794  of  1501
     total cpu time spent up to now is      224.6 secs

     Computing kpt #:   795  of  1501
     total cpu time spent up to now is      224.8 secs

     Computing kpt #:   796  of  1501
     total cpu time spent up to now is      225.0 secs

     Computing kpt #:   797  of  1501
     total cpu time spent up to now is      225.4 secs

     Computing kpt #:   798  of  1501
     total cpu time spent up to now is      225.7 secs

     Computing kpt #:   799  of  1501
     total cpu time spent up to now is      226.0 secs

     Computing kpt #:   800  of  1501
     total cpu time spent up to now is      226.2 secs

     Computing kpt #:   801  of  1501
     total cpu time spent up to now is      226.4 secs

     Computing kpt #:   802  of  1501
     total cpu time spent up to now is      226.7 secs

     Computing kpt #:   803  of  1501
     total cpu time spent up to now is      226.9 secs

     Computing kpt #:   804  of  1501
     total cpu time spent up to now is      227.3 secs

     Computing kpt #:   805  of  1501
     total cpu time spent up to now is      227.6 secs

     Computing kpt #:   806  of  1501
     total cpu time spent up to now is      227.9 secs

     Computing kpt #:   807  of  1501
     total cpu time spent up to now is      228.1 secs

     Computing kpt #:   808  of  1501
     total cpu time spent up to now is      230.9 secs

     Computing kpt #:   809  of  1501
     total cpu time spent up to now is      231.2 secs

     Computing kpt #:   810  of  1501
     total cpu time spent up to now is      231.4 secs

     Computing kpt #:   811  of  1501
     total cpu time spent up to now is      231.7 secs

     Computing kpt #:   812  of  1501
     total cpu time spent up to now is      231.9 secs

     Computing kpt #:   813  of  1501
     total cpu time spent up to now is      232.2 secs

     Computing kpt #:   814  of  1501
     total cpu time spent up to now is      232.4 secs

     Computing kpt #:   815  of  1501
     total cpu time spent up to now is      232.7 secs

     Computing kpt #:   816  of  1501
     total cpu time spent up to now is      232.9 secs

     Computing kpt #:   817  of  1501
     total cpu time spent up to now is      233.1 secs

     Computing kpt #:   818  of  1501
     total cpu time spent up to now is      233.3 secs

     Computing kpt #:   819  of  1501
     total cpu time spent up to now is      233.5 secs

     Computing kpt #:   820  of  1501
     total cpu time spent up to now is      233.8 secs

     Computing kpt #:   821  of  1501
     total cpu time spent up to now is      234.0 secs

     Computing kpt #:   822  of  1501
     total cpu time spent up to now is      234.3 secs

     Computing kpt #:   823  of  1501
     total cpu time spent up to now is      234.5 secs

     Computing kpt #:   824  of  1501
     total cpu time spent up to now is      234.7 secs

     Computing kpt #:   825  of  1501
     total cpu time spent up to now is      234.9 secs

     Computing kpt #:   826  of  1501
     total cpu time spent up to now is      235.2 secs

     Computing kpt #:   827  of  1501
     total cpu time spent up to now is      235.4 secs

     Computing kpt #:   828  of  1501
     total cpu time spent up to now is      235.6 secs

     Computing kpt #:   829  of  1501
     total cpu time spent up to now is      235.8 secs

     Computing kpt #:   830  of  1501
     total cpu time spent up to now is      236.0 secs

     Computing kpt #:   831  of  1501
     total cpu time spent up to now is      236.2 secs

     Computing kpt #:   832  of  1501
     total cpu time spent up to now is      236.4 secs

     Computing kpt #:   833  of  1501
     total cpu time spent up to now is      236.7 secs

     Computing kpt #:   834  of  1501
     total cpu time spent up to now is      236.9 secs

     Computing kpt #:   835  of  1501
     total cpu time spent up to now is      237.2 secs

     Computing kpt #:   836  of  1501
     total cpu time spent up to now is      237.4 secs

     Computing kpt #:   837  of  1501
     total cpu time spent up to now is      237.6 secs

     Computing kpt #:   838  of  1501
     total cpu time spent up to now is      237.9 secs

     Computing kpt #:   839  of  1501
     total cpu time spent up to now is      238.1 secs

     Computing kpt #:   840  of  1501
     total cpu time spent up to now is      238.2 secs

     Computing kpt #:   841  of  1501
     total cpu time spent up to now is      238.8 secs

     Computing kpt #:   842  of  1501
     total cpu time spent up to now is      239.4 secs

     Computing kpt #:   843  of  1501
     total cpu time spent up to now is      239.8 secs

     Computing kpt #:   844  of  1501
     total cpu time spent up to now is      240.1 secs

     Computing kpt #:   845  of  1501
     total cpu time spent up to now is      240.3 secs

     Computing kpt #:   846  of  1501
     total cpu time spent up to now is      240.5 secs

     Computing kpt #:   847  of  1501
     total cpu time spent up to now is      240.8 secs

     Computing kpt #:   848  of  1501
     total cpu time spent up to now is      240.9 secs

     Computing kpt #:   849  of  1501
     total cpu time spent up to now is      241.1 secs

     Computing kpt #:   850  of  1501
     total cpu time spent up to now is      241.3 secs

     Computing kpt #:   851  of  1501
     total cpu time spent up to now is      241.6 secs

     Computing kpt #:   852  of  1501
     total cpu time spent up to now is      241.9 secs

     Computing kpt #:   853  of  1501
     total cpu time spent up to now is      242.1 secs

     Computing kpt #:   854  of  1501
     total cpu time spent up to now is      242.3 secs

     Computing kpt #:   855  of  1501
     total cpu time spent up to now is      242.6 secs

     Computing kpt #:   856  of  1501
     total cpu time spent up to now is      242.7 secs

     Computing kpt #:   857  of  1501
     total cpu time spent up to now is      242.9 secs

     Computing kpt #:   858  of  1501
     total cpu time spent up to now is      243.1 secs

     Computing kpt #:   859  of  1501
     total cpu time spent up to now is      243.3 secs

     Computing kpt #:   860  of  1501
     total cpu time spent up to now is      244.0 secs

     Computing kpt #:   861  of  1501
     total cpu time spent up to now is      244.2 secs

     Computing kpt #:   862  of  1501
     total cpu time spent up to now is      244.4 secs

     Computing kpt #:   863  of  1501
     total cpu time spent up to now is      244.7 secs

     Computing kpt #:   864  of  1501
     total cpu time spent up to now is      244.9 secs

     Computing kpt #:   865  of  1501
     total cpu time spent up to now is      245.1 secs

     Computing kpt #:   866  of  1501
     total cpu time spent up to now is      245.3 secs

     Computing kpt #:   867  of  1501
     total cpu time spent up to now is      245.5 secs

     Computing kpt #:   868  of  1501
     total cpu time spent up to now is      245.8 secs

     Computing kpt #:   869  of  1501
     total cpu time spent up to now is      246.0 secs

     Computing kpt #:   870  of  1501
     total cpu time spent up to now is      246.3 secs

     Computing kpt #:   871  of  1501
     total cpu time spent up to now is      246.7 secs

     Computing kpt #:   872  of  1501
     total cpu time spent up to now is      246.8 secs

     Computing kpt #:   873  of  1501
     total cpu time spent up to now is      247.0 secs

     Computing kpt #:   874  of  1501
     total cpu time spent up to now is      247.3 secs

     Computing kpt #:   875  of  1501
     total cpu time spent up to now is      247.5 secs

     Computing kpt #:   876  of  1501
     total cpu time spent up to now is      247.7 secs

     Computing kpt #:   877  of  1501
     total cpu time spent up to now is      248.0 secs

     Computing kpt #:   878  of  1501
     total cpu time spent up to now is      248.2 secs

     Computing kpt #:   879  of  1501
     total cpu time spent up to now is      248.4 secs

     Computing kpt #:   880  of  1501
     total cpu time spent up to now is      248.6 secs

     Computing kpt #:   881  of  1501
     total cpu time spent up to now is      249.0 secs

     Computing kpt #:   882  of  1501
     total cpu time spent up to now is      249.3 secs

     Computing kpt #:   883  of  1501
     total cpu time spent up to now is      249.5 secs

     Computing kpt #:   884  of  1501
     total cpu time spent up to now is      249.7 secs

     Computing kpt #:   885  of  1501
     total cpu time spent up to now is      250.1 secs

     Computing kpt #:   886  of  1501
     total cpu time spent up to now is      250.4 secs

     Computing kpt #:   887  of  1501
     total cpu time spent up to now is      250.6 secs

     Computing kpt #:   888  of  1501
     total cpu time spent up to now is      250.8 secs

     Computing kpt #:   889  of  1501
     total cpu time spent up to now is      251.0 secs

     Computing kpt #:   890  of  1501
     total cpu time spent up to now is      251.3 secs

     Computing kpt #:   891  of  1501
     total cpu time spent up to now is      251.5 secs

     Computing kpt #:   892  of  1501
     total cpu time spent up to now is      251.7 secs

     Computing kpt #:   893  of  1501
     total cpu time spent up to now is      251.9 secs

     Computing kpt #:   894  of  1501
     total cpu time spent up to now is      252.1 secs

     Computing kpt #:   895  of  1501
     total cpu time spent up to now is      252.3 secs

     Computing kpt #:   896  of  1501
     total cpu time spent up to now is      252.5 secs

     Computing kpt #:   897  of  1501
     total cpu time spent up to now is      252.7 secs

     Computing kpt #:   898  of  1501
     total cpu time spent up to now is      252.9 secs

     Computing kpt #:   899  of  1501
     total cpu time spent up to now is      253.2 secs

     Computing kpt #:   900  of  1501
     total cpu time spent up to now is      253.4 secs

     Computing kpt #:   901  of  1501
     total cpu time spent up to now is      253.6 secs

     Computing kpt #:   902  of  1501
     total cpu time spent up to now is      255.1 secs

     Computing kpt #:   903  of  1501
     total cpu time spent up to now is      255.3 secs

     Computing kpt #:   904  of  1501
     total cpu time spent up to now is      255.5 secs

     Computing kpt #:   905  of  1501
     total cpu time spent up to now is      255.8 secs

     Computing kpt #:   906  of  1501
     total cpu time spent up to now is      256.0 secs

     Computing kpt #:   907  of  1501
     total cpu time spent up to now is      256.2 secs

     Computing kpt #:   908  of  1501
     total cpu time spent up to now is      256.5 secs

     Computing kpt #:   909  of  1501
     total cpu time spent up to now is      256.7 secs

     Computing kpt #:   910  of  1501
     total cpu time spent up to now is      256.9 secs

     Computing kpt #:   911  of  1501
     total cpu time spent up to now is      257.1 secs

     Computing kpt #:   912  of  1501
     total cpu time spent up to now is      257.3 secs

     Computing kpt #:   913  of  1501
     total cpu time spent up to now is      257.5 secs

     Computing kpt #:   914  of  1501
     total cpu time spent up to now is      257.7 secs

     Computing kpt #:   915  of  1501
     total cpu time spent up to now is      257.9 secs

     Computing kpt #:   916  of  1501
     total cpu time spent up to now is      258.3 secs

     Computing kpt #:   917  of  1501
     total cpu time spent up to now is      258.5 secs

     Computing kpt #:   918  of  1501
     total cpu time spent up to now is      258.8 secs

     Computing kpt #:   919  of  1501
     total cpu time spent up to now is      261.0 secs

     Computing kpt #:   920  of  1501
     total cpu time spent up to now is      261.1 secs

     Computing kpt #:   921  of  1501
     total cpu time spent up to now is      261.3 secs

     Computing kpt #:   922  of  1501
     total cpu time spent up to now is      261.5 secs

     Computing kpt #:   923  of  1501
     total cpu time spent up to now is      261.8 secs

     Computing kpt #:   924  of  1501
     total cpu time spent up to now is      262.0 secs

     Computing kpt #:   925  of  1501
     total cpu time spent up to now is      262.3 secs

     Computing kpt #:   926  of  1501
     total cpu time spent up to now is      262.5 secs

     Computing kpt #:   927  of  1501
     total cpu time spent up to now is      262.7 secs

     Computing kpt #:   928  of  1501
     total cpu time spent up to now is      262.9 secs

     Computing kpt #:   929  of  1501
     total cpu time spent up to now is      263.1 secs

     Computing kpt #:   930  of  1501
     total cpu time spent up to now is      263.4 secs

     Computing kpt #:   931  of  1501
     total cpu time spent up to now is      263.7 secs

     Computing kpt #:   932  of  1501
     total cpu time spent up to now is      263.9 secs

     Computing kpt #:   933  of  1501
     total cpu time spent up to now is      265.4 secs

     Computing kpt #:   934  of  1501
     total cpu time spent up to now is      265.6 secs

     Computing kpt #:   935  of  1501
     total cpu time spent up to now is      265.8 secs

     Computing kpt #:   936  of  1501
     total cpu time spent up to now is      266.0 secs

     Computing kpt #:   937  of  1501
     total cpu time spent up to now is      266.4 secs

     Computing kpt #:   938  of  1501
     total cpu time spent up to now is      266.6 secs

     Computing kpt #:   939  of  1501
     total cpu time spent up to now is      266.8 secs

     Computing kpt #:   940  of  1501
     total cpu time spent up to now is      267.1 secs

     Computing kpt #:   941  of  1501
     total cpu time spent up to now is      267.3 secs

     Computing kpt #:   942  of  1501
     total cpu time spent up to now is      267.6 secs

     Computing kpt #:   943  of  1501
     total cpu time spent up to now is      267.8 secs

     Computing kpt #:   944  of  1501
     total cpu time spent up to now is      267.9 secs

     Computing kpt #:   945  of  1501
     total cpu time spent up to now is      268.2 secs

     Computing kpt #:   946  of  1501
     total cpu time spent up to now is      268.5 secs

     Computing kpt #:   947  of  1501
     total cpu time spent up to now is      268.7 secs

     Computing kpt #:   948  of  1501
     total cpu time spent up to now is      268.9 secs

     Computing kpt #:   949  of  1501
     total cpu time spent up to now is      269.1 secs

     Computing kpt #:   950  of  1501
     total cpu time spent up to now is      269.9 secs

     Computing kpt #:   951  of  1501
     total cpu time spent up to now is      270.7 secs

     Computing kpt #:   952  of  1501
     total cpu time spent up to now is      271.2 secs

     Computing kpt #:   953  of  1501
     total cpu time spent up to now is      271.4 secs

     Computing kpt #:   954  of  1501
     total cpu time spent up to now is      271.6 secs

     Computing kpt #:   955  of  1501
     total cpu time spent up to now is      271.8 secs

     Computing kpt #:   956  of  1501
     total cpu time spent up to now is      272.0 secs

     Computing kpt #:   957  of  1501
     total cpu time spent up to now is      272.4 secs

     Computing kpt #:   958  of  1501
     total cpu time spent up to now is      272.6 secs

     Computing kpt #:   959  of  1501
     total cpu time spent up to now is      272.9 secs

     Computing kpt #:   960  of  1501
     total cpu time spent up to now is      273.0 secs

     Computing kpt #:   961  of  1501
     total cpu time spent up to now is      273.2 secs

     Computing kpt #:   962  of  1501
     total cpu time spent up to now is      273.4 secs

     Computing kpt #:   963  of  1501
     total cpu time spent up to now is      273.7 secs

     Computing kpt #:   964  of  1501
     total cpu time spent up to now is      273.9 secs

     Computing kpt #:   965  of  1501
     total cpu time spent up to now is      274.1 secs

     Computing kpt #:   966  of  1501
     total cpu time spent up to now is      274.7 secs

     Computing kpt #:   967  of  1501
     total cpu time spent up to now is      275.0 secs

     Computing kpt #:   968  of  1501
     total cpu time spent up to now is      275.1 secs

     Computing kpt #:   969  of  1501
     total cpu time spent up to now is      275.3 secs

     Computing kpt #:   970  of  1501
     total cpu time spent up to now is      275.6 secs

     Computing kpt #:   971  of  1501
     total cpu time spent up to now is      275.8 secs

     Computing kpt #:   972  of  1501
     total cpu time spent up to now is      276.0 secs

     Computing kpt #:   973  of  1501
     total cpu time spent up to now is      276.3 secs

     Computing kpt #:   974  of  1501
     total cpu time spent up to now is      276.5 secs

     Computing kpt #:   975  of  1501
     total cpu time spent up to now is      276.8 secs

     Computing kpt #:   976  of  1501
     total cpu time spent up to now is      277.0 secs

     Computing kpt #:   977  of  1501
     total cpu time spent up to now is      277.1 secs

     Computing kpt #:   978  of  1501
     total cpu time spent up to now is      277.6 secs

     Computing kpt #:   979  of  1501
     total cpu time spent up to now is      277.8 secs

     Computing kpt #:   980  of  1501
     total cpu time spent up to now is      278.0 secs

     Computing kpt #:   981  of  1501
     total cpu time spent up to now is      278.2 secs

     Computing kpt #:   982  of  1501
     total cpu time spent up to now is      278.5 secs

     Computing kpt #:   983  of  1501
     total cpu time spent up to now is      278.7 secs

     Computing kpt #:   984  of  1501
     total cpu time spent up to now is      278.9 secs

     Computing kpt #:   985  of  1501
     total cpu time spent up to now is      279.2 secs

     Computing kpt #:   986  of  1501
     total cpu time spent up to now is      280.1 secs

     Computing kpt #:   987  of  1501
     total cpu time spent up to now is      280.3 secs

     Computing kpt #:   988  of  1501
     total cpu time spent up to now is      280.6 secs

     Computing kpt #:   989  of  1501
     total cpu time spent up to now is      280.8 secs

     Computing kpt #:   990  of  1501
     total cpu time spent up to now is      281.0 secs

     Computing kpt #:   991  of  1501
     total cpu time spent up to now is      281.2 secs

     Computing kpt #:   992  of  1501
     total cpu time spent up to now is      281.3 secs

     Computing kpt #:   993  of  1501
     total cpu time spent up to now is      281.5 secs

     Computing kpt #:   994  of  1501
     total cpu time spent up to now is      281.7 secs

     Computing kpt #:   995  of  1501
     total cpu time spent up to now is      282.0 secs

     Computing kpt #:   996  of  1501
     total cpu time spent up to now is      282.2 secs

     Computing kpt #:   997  of  1501
     total cpu time spent up to now is      282.4 secs

     Computing kpt #:   998  of  1501
     total cpu time spent up to now is      282.7 secs

     Computing kpt #:   999  of  1501
     total cpu time spent up to now is      282.9 secs

     Computing kpt #:  1000  of  1501
     total cpu time spent up to now is      283.0 secs

     Computing kpt #:  1001  of  1501
     total cpu time spent up to now is      283.3 secs

     Computing kpt #:  1002  of  1501
     total cpu time spent up to now is      283.6 secs

     Computing kpt #:  1003  of  1501
     total cpu time spent up to now is      283.8 secs

     Computing kpt #:  1004  of  1501
     total cpu time spent up to now is      284.0 secs

     Computing kpt #:  1005  of  1501
     total cpu time spent up to now is      284.2 secs

     Computing kpt #:  1006  of  1501
     total cpu time spent up to now is      284.4 secs

     Computing kpt #:  1007  of  1501
     total cpu time spent up to now is      285.4 secs

     Computing kpt #:  1008  of  1501
     total cpu time spent up to now is      285.6 secs

     Computing kpt #:  1009  of  1501
     total cpu time spent up to now is      286.0 secs

     Computing kpt #:  1010  of  1501
     total cpu time spent up to now is      286.2 secs

     Computing kpt #:  1011  of  1501
     total cpu time spent up to now is      286.4 secs

     Computing kpt #:  1012  of  1501
     total cpu time spent up to now is      286.7 secs

     Computing kpt #:  1013  of  1501
     total cpu time spent up to now is      286.9 secs

     Computing kpt #:  1014  of  1501
     total cpu time spent up to now is      287.2 secs

     Computing kpt #:  1015  of  1501
     total cpu time spent up to now is      287.4 secs

     Computing kpt #:  1016  of  1501
     total cpu time spent up to now is      287.6 secs

     Computing kpt #:  1017  of  1501
     total cpu time spent up to now is      287.9 secs

     Computing kpt #:  1018  of  1501
     total cpu time spent up to now is      288.2 secs

     Computing kpt #:  1019  of  1501
     total cpu time spent up to now is      288.4 secs

     Computing kpt #:  1020  of  1501
     total cpu time spent up to now is      288.7 secs

     Computing kpt #:  1021  of  1501
     total cpu time spent up to now is      288.9 secs

     Computing kpt #:  1022  of  1501
     total cpu time spent up to now is      289.2 secs

     Computing kpt #:  1023  of  1501
     total cpu time spent up to now is      289.4 secs

     Computing kpt #:  1024  of  1501
     total cpu time spent up to now is      291.1 secs

     Computing kpt #:  1025  of  1501
     total cpu time spent up to now is      291.3 secs

     Computing kpt #:  1026  of  1501
     total cpu time spent up to now is      291.6 secs

     Computing kpt #:  1027  of  1501
     total cpu time spent up to now is      291.8 secs

     Computing kpt #:  1028  of  1501
     total cpu time spent up to now is      292.0 secs

     Computing kpt #:  1029  of  1501
     total cpu time spent up to now is      292.2 secs

     Computing kpt #:  1030  of  1501
     total cpu time spent up to now is      292.5 secs

     Computing kpt #:  1031  of  1501
     total cpu time spent up to now is      292.7 secs

     Computing kpt #:  1032  of  1501
     total cpu time spent up to now is      292.8 secs

     Computing kpt #:  1033  of  1501
     total cpu time spent up to now is      293.1 secs

     Computing kpt #:  1034  of  1501
     total cpu time spent up to now is      293.6 secs

     Computing kpt #:  1035  of  1501
     total cpu time spent up to now is      293.9 secs

     Computing kpt #:  1036  of  1501
     total cpu time spent up to now is      294.1 secs

     Computing kpt #:  1037  of  1501
     total cpu time spent up to now is      294.4 secs

     Computing kpt #:  1038  of  1501
     total cpu time spent up to now is      294.6 secs

     Computing kpt #:  1039  of  1501
     total cpu time spent up to now is      296.6 secs

     Computing kpt #:  1040  of  1501
     total cpu time spent up to now is      296.8 secs

     Computing kpt #:  1041  of  1501
     total cpu time spent up to now is      297.0 secs

     Computing kpt #:  1042  of  1501
     total cpu time spent up to now is      297.3 secs

     Computing kpt #:  1043  of  1501
     total cpu time spent up to now is      297.5 secs

     Computing kpt #:  1044  of  1501
     total cpu time spent up to now is      297.7 secs

     Computing kpt #:  1045  of  1501
     total cpu time spent up to now is      297.9 secs

     Computing kpt #:  1046  of  1501
     total cpu time spent up to now is      298.2 secs

     Computing kpt #:  1047  of  1501
     total cpu time spent up to now is      298.6 secs

     Computing kpt #:  1048  of  1501
     total cpu time spent up to now is      298.7 secs

     Computing kpt #:  1049  of  1501
     total cpu time spent up to now is      299.0 secs

     Computing kpt #:  1050  of  1501
     total cpu time spent up to now is      299.2 secs

     Computing kpt #:  1051  of  1501
     total cpu time spent up to now is      299.5 secs

     Computing kpt #:  1052  of  1501
     total cpu time spent up to now is      299.7 secs

     Computing kpt #:  1053  of  1501
     total cpu time spent up to now is      300.6 secs

     Computing kpt #:  1054  of  1501
     total cpu time spent up to now is      301.3 secs

     Computing kpt #:  1055  of  1501
     total cpu time spent up to now is      302.0 secs

     Computing kpt #:  1056  of  1501
     total cpu time spent up to now is      302.1 secs

     Computing kpt #:  1057  of  1501
     total cpu time spent up to now is      302.3 secs

     Computing kpt #:  1058  of  1501
     total cpu time spent up to now is      302.6 secs

     Computing kpt #:  1059  of  1501
     total cpu time spent up to now is      302.8 secs

     Computing kpt #:  1060  of  1501
     total cpu time spent up to now is      303.1 secs

     Computing kpt #:  1061  of  1501
     total cpu time spent up to now is      303.3 secs

     Computing kpt #:  1062  of  1501
     total cpu time spent up to now is      303.5 secs

     Computing kpt #:  1063  of  1501
     total cpu time spent up to now is      303.7 secs

     Computing kpt #:  1064  of  1501
     total cpu time spent up to now is      303.8 secs

     Computing kpt #:  1065  of  1501
     total cpu time spent up to now is      304.0 secs

     Computing kpt #:  1066  of  1501
     total cpu time spent up to now is      304.3 secs

     Computing kpt #:  1067  of  1501
     total cpu time spent up to now is      304.5 secs

     Computing kpt #:  1068  of  1501
     total cpu time spent up to now is      304.7 secs

     Computing kpt #:  1069  of  1501
     total cpu time spent up to now is      304.9 secs

     Computing kpt #:  1070  of  1501
     total cpu time spent up to now is      305.5 secs

     Computing kpt #:  1071  of  1501
     total cpu time spent up to now is      305.7 secs

     Computing kpt #:  1072  of  1501
     total cpu time spent up to now is      305.8 secs

     Computing kpt #:  1073  of  1501
     total cpu time spent up to now is      306.1 secs

     Computing kpt #:  1074  of  1501
     total cpu time spent up to now is      306.3 secs

     Computing kpt #:  1075  of  1501
     total cpu time spent up to now is      306.5 secs

     Computing kpt #:  1076  of  1501
     total cpu time spent up to now is      306.9 secs

     Computing kpt #:  1077  of  1501
     total cpu time spent up to now is      307.1 secs

     Computing kpt #:  1078  of  1501
     total cpu time spent up to now is      307.3 secs

     Computing kpt #:  1079  of  1501
     total cpu time spent up to now is      307.6 secs

     Computing kpt #:  1080  of  1501
     total cpu time spent up to now is      307.7 secs

     Computing kpt #:  1081  of  1501
     total cpu time spent up to now is      308.0 secs

     Computing kpt #:  1082  of  1501
     total cpu time spent up to now is      308.2 secs

     Computing kpt #:  1083  of  1501
     total cpu time spent up to now is      308.4 secs

     Computing kpt #:  1084  of  1501
     total cpu time spent up to now is      308.6 secs

     Computing kpt #:  1085  of  1501
     total cpu time spent up to now is      308.8 secs

     Computing kpt #:  1086  of  1501
     total cpu time spent up to now is      308.9 secs

     Computing kpt #:  1087  of  1501
     total cpu time spent up to now is      309.1 secs

     Computing kpt #:  1088  of  1501
     total cpu time spent up to now is      309.3 secs

     Computing kpt #:  1089  of  1501
     total cpu time spent up to now is      309.4 secs

     Computing kpt #:  1090  of  1501
     total cpu time spent up to now is      309.7 secs

     Computing kpt #:  1091  of  1501
     total cpu time spent up to now is      309.8 secs

     Computing kpt #:  1092  of  1501
     total cpu time spent up to now is      310.1 secs

     Computing kpt #:  1093  of  1501
     total cpu time spent up to now is      310.7 secs

     Computing kpt #:  1094  of  1501
     total cpu time spent up to now is      311.0 secs

     Computing kpt #:  1095  of  1501
     total cpu time spent up to now is      311.2 secs

     Computing kpt #:  1096  of  1501
     total cpu time spent up to now is      311.3 secs

     Computing kpt #:  1097  of  1501
     total cpu time spent up to now is      311.5 secs

     Computing kpt #:  1098  of  1501
     total cpu time spent up to now is      311.7 secs

     Computing kpt #:  1099  of  1501
     total cpu time spent up to now is      311.9 secs

     Computing kpt #:  1100  of  1501
     total cpu time spent up to now is      312.1 secs

     Computing kpt #:  1101  of  1501
     total cpu time spent up to now is      312.4 secs

     Computing kpt #:  1102  of  1501
     total cpu time spent up to now is      312.6 secs

     Computing kpt #:  1103  of  1501
     total cpu time spent up to now is      312.9 secs

     Computing kpt #:  1104  of  1501
     total cpu time spent up to now is      313.1 secs

     Computing kpt #:  1105  of  1501
     total cpu time spent up to now is      313.3 secs

     Computing kpt #:  1106  of  1501
     total cpu time spent up to now is      313.5 secs

     Computing kpt #:  1107  of  1501
     total cpu time spent up to now is      313.6 secs

     Computing kpt #:  1108  of  1501
     total cpu time spent up to now is      313.8 secs

     Computing kpt #:  1109  of  1501
     total cpu time spent up to now is      314.1 secs

     Computing kpt #:  1110  of  1501
     total cpu time spent up to now is      314.2 secs

     Computing kpt #:  1111  of  1501
     total cpu time spent up to now is      314.5 secs

     Computing kpt #:  1112  of  1501
     total cpu time spent up to now is      314.6 secs

     Computing kpt #:  1113  of  1501
     total cpu time spent up to now is      314.8 secs

     Computing kpt #:  1114  of  1501
     total cpu time spent up to now is      315.0 secs

     Computing kpt #:  1115  of  1501
     total cpu time spent up to now is      315.9 secs

     Computing kpt #:  1116  of  1501
     total cpu time spent up to now is      316.0 secs

     Computing kpt #:  1117  of  1501
     total cpu time spent up to now is      316.3 secs

     Computing kpt #:  1118  of  1501
     total cpu time spent up to now is      316.5 secs

     Computing kpt #:  1119  of  1501
     total cpu time spent up to now is      316.7 secs

     Computing kpt #:  1120  of  1501
     total cpu time spent up to now is      316.8 secs

     Computing kpt #:  1121  of  1501
     total cpu time spent up to now is      317.0 secs

     Computing kpt #:  1122  of  1501
     total cpu time spent up to now is      317.2 secs

     Computing kpt #:  1123  of  1501
     total cpu time spent up to now is      317.5 secs

     Computing kpt #:  1124  of  1501
     total cpu time spent up to now is      317.7 secs

     Computing kpt #:  1125  of  1501
     total cpu time spent up to now is      317.9 secs

     Computing kpt #:  1126  of  1501
     total cpu time spent up to now is      318.1 secs

     Computing kpt #:  1127  of  1501
     total cpu time spent up to now is      318.4 secs

     Computing kpt #:  1128  of  1501
     total cpu time spent up to now is      318.5 secs

     Computing kpt #:  1129  of  1501
     total cpu time spent up to now is      318.7 secs

     Computing kpt #:  1130  of  1501
     total cpu time spent up to now is      318.9 secs

     Computing kpt #:  1131  of  1501
     total cpu time spent up to now is      319.1 secs

     Computing kpt #:  1132  of  1501
     total cpu time spent up to now is      319.2 secs

     Computing kpt #:  1133  of  1501
     total cpu time spent up to now is      319.5 secs

     Computing kpt #:  1134  of  1501
     total cpu time spent up to now is      319.6 secs

     Computing kpt #:  1135  of  1501
     total cpu time spent up to now is      319.9 secs

     Computing kpt #:  1136  of  1501
     total cpu time spent up to now is      320.0 secs

     Computing kpt #:  1137  of  1501
     total cpu time spent up to now is      320.2 secs

     Computing kpt #:  1138  of  1501
     total cpu time spent up to now is      321.3 secs

     Computing kpt #:  1139  of  1501
     total cpu time spent up to now is      321.5 secs

     Computing kpt #:  1140  of  1501
     total cpu time spent up to now is      321.7 secs

     Computing kpt #:  1141  of  1501
     total cpu time spent up to now is      321.8 secs

     Computing kpt #:  1142  of  1501
     total cpu time spent up to now is      322.1 secs

     Computing kpt #:  1143  of  1501
     total cpu time spent up to now is      322.3 secs

     Computing kpt #:  1144  of  1501
     total cpu time spent up to now is      322.5 secs

     Computing kpt #:  1145  of  1501
     total cpu time spent up to now is      322.8 secs

     Computing kpt #:  1146  of  1501
     total cpu time spent up to now is      323.1 secs

     Computing kpt #:  1147  of  1501
     total cpu time spent up to now is      323.2 secs

     Computing kpt #:  1148  of  1501
     total cpu time spent up to now is      323.4 secs

     Computing kpt #:  1149  of  1501
     total cpu time spent up to now is      323.6 secs

     Computing kpt #:  1150  of  1501
     total cpu time spent up to now is      323.8 secs

     Computing kpt #:  1151  of  1501
     total cpu time spent up to now is      324.0 secs

     Computing kpt #:  1152  of  1501
     total cpu time spent up to now is      324.1 secs

     Computing kpt #:  1153  of  1501
     total cpu time spent up to now is      324.5 secs

     Computing kpt #:  1154  of  1501
     total cpu time spent up to now is      324.7 secs

     Computing kpt #:  1155  of  1501
     total cpu time spent up to now is      324.9 secs

     Computing kpt #:  1156  of  1501
     total cpu time spent up to now is      325.1 secs

     Computing kpt #:  1157  of  1501
     total cpu time spent up to now is      325.3 secs

     Computing kpt #:  1158  of  1501
     total cpu time spent up to now is      327.2 secs

     Computing kpt #:  1159  of  1501
     total cpu time spent up to now is      327.4 secs

     Computing kpt #:  1160  of  1501
     total cpu time spent up to now is      327.5 secs

     Computing kpt #:  1161  of  1501
     total cpu time spent up to now is      327.8 secs

     Computing kpt #:  1162  of  1501
     total cpu time spent up to now is      328.0 secs

     Computing kpt #:  1163  of  1501
     total cpu time spent up to now is      328.2 secs

     Computing kpt #:  1164  of  1501
     total cpu time spent up to now is      328.5 secs

     Computing kpt #:  1165  of  1501
     total cpu time spent up to now is      328.7 secs

     Computing kpt #:  1166  of  1501
     total cpu time spent up to now is      328.9 secs

     Computing kpt #:  1167  of  1501
     total cpu time spent up to now is      329.2 secs

     Computing kpt #:  1168  of  1501
     total cpu time spent up to now is      329.4 secs

     Computing kpt #:  1169  of  1501
     total cpu time spent up to now is      329.6 secs

     Computing kpt #:  1170  of  1501
     total cpu time spent up to now is      329.9 secs

     Computing kpt #:  1171  of  1501
     total cpu time spent up to now is      330.1 secs

     Computing kpt #:  1172  of  1501
     total cpu time spent up to now is      330.4 secs

     Computing kpt #:  1173  of  1501
     total cpu time spent up to now is      334.7 secs

     Computing kpt #:  1174  of  1501
     total cpu time spent up to now is      334.9 secs

     Computing kpt #:  1175  of  1501
     total cpu time spent up to now is      335.1 secs

     Computing kpt #:  1176  of  1501
     total cpu time spent up to now is      335.2 secs

     Computing kpt #:  1177  of  1501
     total cpu time spent up to now is      335.4 secs

     Computing kpt #:  1178  of  1501
     total cpu time spent up to now is      335.6 secs

     Computing kpt #:  1179  of  1501
     total cpu time spent up to now is      336.0 secs

     Computing kpt #:  1180  of  1501
     total cpu time spent up to now is      336.3 secs

     Computing kpt #:  1181  of  1501
     total cpu time spent up to now is      336.6 secs

     Computing kpt #:  1182  of  1501
     total cpu time spent up to now is      336.8 secs

     Computing kpt #:  1183  of  1501
     total cpu time spent up to now is      337.1 secs

     Computing kpt #:  1184  of  1501
     total cpu time spent up to now is      337.2 secs

     Computing kpt #:  1185  of  1501
     total cpu time spent up to now is      337.4 secs

     Computing kpt #:  1186  of  1501
     total cpu time spent up to now is      337.7 secs

     Computing kpt #:  1187  of  1501
     total cpu time spent up to now is      337.9 secs

     Computing kpt #:  1188  of  1501
     total cpu time spent up to now is      338.1 secs

     Computing kpt #:  1189  of  1501
     total cpu time spent up to now is      338.4 secs

     Computing kpt #:  1190  of  1501
     total cpu time spent up to now is      338.7 secs

     Computing kpt #:  1191  of  1501
     total cpu time spent up to now is      338.9 secs

     Computing kpt #:  1192  of  1501
     total cpu time spent up to now is      339.1 secs

     Computing kpt #:  1193  of  1501
     total cpu time spent up to now is      339.3 secs

     Computing kpt #:  1194  of  1501
     total cpu time spent up to now is      339.5 secs

     Computing kpt #:  1195  of  1501
     total cpu time spent up to now is      339.7 secs

     Computing kpt #:  1196  of  1501
     total cpu time spent up to now is      339.8 secs

     Computing kpt #:  1197  of  1501
     total cpu time spent up to now is      340.1 secs

     Computing kpt #:  1198  of  1501
     total cpu time spent up to now is      340.3 secs

     Computing kpt #:  1199  of  1501
     total cpu time spent up to now is      340.5 secs

     Computing kpt #:  1200  of  1501
     total cpu time spent up to now is      340.7 secs

     Computing kpt #:  1201  of  1501
     total cpu time spent up to now is      341.2 secs

     Computing kpt #:  1202  of  1501
     total cpu time spent up to now is      341.5 secs

     Computing kpt #:  1203  of  1501
     total cpu time spent up to now is      341.6 secs

     Computing kpt #:  1204  of  1501
     total cpu time spent up to now is      341.8 secs

     Computing kpt #:  1205  of  1501
     total cpu time spent up to now is      342.0 secs

     Computing kpt #:  1206  of  1501
     total cpu time spent up to now is      342.2 secs

     Computing kpt #:  1207  of  1501
     total cpu time spent up to now is      342.4 secs

     Computing kpt #:  1208  of  1501
     total cpu time spent up to now is      342.5 secs

     Computing kpt #:  1209  of  1501
     total cpu time spent up to now is      342.8 secs

     Computing kpt #:  1210  of  1501
     total cpu time spent up to now is      343.1 secs

     Computing kpt #:  1211  of  1501
     total cpu time spent up to now is      343.3 secs

     Computing kpt #:  1212  of  1501
     total cpu time spent up to now is      343.5 secs

     Computing kpt #:  1213  of  1501
     total cpu time spent up to now is      343.7 secs

     Computing kpt #:  1214  of  1501
     total cpu time spent up to now is      343.9 secs

     Computing kpt #:  1215  of  1501
     total cpu time spent up to now is      344.1 secs

     Computing kpt #:  1216  of  1501
     total cpu time spent up to now is      344.2 secs

     Computing kpt #:  1217  of  1501
     total cpu time spent up to now is      344.4 secs

     Computing kpt #:  1218  of  1501
     total cpu time spent up to now is      344.6 secs

     Computing kpt #:  1219  of  1501
     total cpu time spent up to now is      344.8 secs

     Computing kpt #:  1220  of  1501
     total cpu time spent up to now is      345.0 secs

     Computing kpt #:  1221  of  1501
     total cpu time spent up to now is      345.2 secs

     Computing kpt #:  1222  of  1501
     total cpu time spent up to now is      345.4 secs

     Computing kpt #:  1223  of  1501
     total cpu time spent up to now is      345.6 secs

     Computing kpt #:  1224  of  1501
     total cpu time spent up to now is      345.7 secs

     Computing kpt #:  1225  of  1501
     total cpu time spent up to now is      345.9 secs

     Computing kpt #:  1226  of  1501
     total cpu time spent up to now is      346.5 secs

     Computing kpt #:  1227  of  1501
     total cpu time spent up to now is      346.7 secs

     Computing kpt #:  1228  of  1501
     total cpu time spent up to now is      346.8 secs

     Computing kpt #:  1229  of  1501
     total cpu time spent up to now is      347.0 secs

     Computing kpt #:  1230  of  1501
     total cpu time spent up to now is      347.2 secs

     Computing kpt #:  1231  of  1501
     total cpu time spent up to now is      347.4 secs

     Computing kpt #:  1232  of  1501
     total cpu time spent up to now is      347.5 secs

     Computing kpt #:  1233  of  1501
     total cpu time spent up to now is      347.7 secs

     Computing kpt #:  1234  of  1501
     total cpu time spent up to now is      347.9 secs

     Computing kpt #:  1235  of  1501
     total cpu time spent up to now is      348.1 secs

     Computing kpt #:  1236  of  1501
     total cpu time spent up to now is      348.4 secs

     Computing kpt #:  1237  of  1501
     total cpu time spent up to now is      348.6 secs

     Computing kpt #:  1238  of  1501
     total cpu time spent up to now is      348.8 secs

     Computing kpt #:  1239  of  1501
     total cpu time spent up to now is      349.0 secs

     Computing kpt #:  1240  of  1501
     total cpu time spent up to now is      349.1 secs

     Computing kpt #:  1241  of  1501
     total cpu time spent up to now is      349.3 secs

     Computing kpt #:  1242  of  1501
     total cpu time spent up to now is      349.5 secs

     Computing kpt #:  1243  of  1501
     total cpu time spent up to now is      349.7 secs

     Computing kpt #:  1244  of  1501
     total cpu time spent up to now is      349.9 secs

     Computing kpt #:  1245  of  1501
     total cpu time spent up to now is      350.1 secs

     Computing kpt #:  1246  of  1501
     total cpu time spent up to now is      350.3 secs

     Computing kpt #:  1247  of  1501
     total cpu time spent up to now is      350.6 secs

     Computing kpt #:  1248  of  1501
     total cpu time spent up to now is      350.7 secs

     Computing kpt #:  1249  of  1501
     total cpu time spent up to now is      351.0 secs

     Computing kpt #:  1250  of  1501
     total cpu time spent up to now is      351.7 secs

     Computing kpt #:  1251  of  1501
     total cpu time spent up to now is      351.9 secs

     Computing kpt #:  1252  of  1501
     total cpu time spent up to now is      352.1 secs

     Computing kpt #:  1253  of  1501
     total cpu time spent up to now is      352.3 secs

     Computing kpt #:  1254  of  1501
     total cpu time spent up to now is      352.5 secs

     Computing kpt #:  1255  of  1501
     total cpu time spent up to now is      352.8 secs

     Computing kpt #:  1256  of  1501
     total cpu time spent up to now is      352.9 secs

     Computing kpt #:  1257  of  1501
     total cpu time spent up to now is      353.1 secs

     Computing kpt #:  1258  of  1501
     total cpu time spent up to now is      353.3 secs

     Computing kpt #:  1259  of  1501
     total cpu time spent up to now is      353.5 secs

     Computing kpt #:  1260  of  1501
     total cpu time spent up to now is      353.7 secs

     Computing kpt #:  1261  of  1501
     total cpu time spent up to now is      353.8 secs

     Computing kpt #:  1262  of  1501
     total cpu time spent up to now is      354.0 secs

     Computing kpt #:  1263  of  1501
     total cpu time spent up to now is      354.3 secs

     Computing kpt #:  1264  of  1501
     total cpu time spent up to now is      354.4 secs

     Computing kpt #:  1265  of  1501
     total cpu time spent up to now is      354.7 secs

     Computing kpt #:  1266  of  1501
     total cpu time spent up to now is      354.9 secs

     Computing kpt #:  1267  of  1501
     total cpu time spent up to now is      355.1 secs

     Computing kpt #:  1268  of  1501
     total cpu time spent up to now is      355.3 secs

     Computing kpt #:  1269  of  1501
     total cpu time spent up to now is      355.5 secs

     Computing kpt #:  1270  of  1501
     total cpu time spent up to now is      355.7 secs

     Computing kpt #:  1271  of  1501
     total cpu time spent up to now is      355.9 secs

     Computing kpt #:  1272  of  1501
     total cpu time spent up to now is      357.0 secs

     Computing kpt #:  1273  of  1501
     total cpu time spent up to now is      357.3 secs

     Computing kpt #:  1274  of  1501
     total cpu time spent up to now is      357.5 secs

     Computing kpt #:  1275  of  1501
     total cpu time spent up to now is      357.8 secs

     Computing kpt #:  1276  of  1501
     total cpu time spent up to now is      358.0 secs

     Computing kpt #:  1277  of  1501
     total cpu time spent up to now is      358.3 secs

     Computing kpt #:  1278  of  1501
     total cpu time spent up to now is      358.5 secs

     Computing kpt #:  1279  of  1501
     total cpu time spent up to now is      358.6 secs

     Computing kpt #:  1280  of  1501
     total cpu time spent up to now is      358.8 secs

     Computing kpt #:  1281  of  1501
     total cpu time spent up to now is      359.0 secs

     Computing kpt #:  1282  of  1501
     total cpu time spent up to now is      359.2 secs

     Computing kpt #:  1283  of  1501
     total cpu time spent up to now is      359.4 secs

     Computing kpt #:  1284  of  1501
     total cpu time spent up to now is      359.6 secs

     Computing kpt #:  1285  of  1501
     total cpu time spent up to now is      359.8 secs

     Computing kpt #:  1286  of  1501
     total cpu time spent up to now is      360.1 secs

     Computing kpt #:  1287  of  1501
     total cpu time spent up to now is      360.4 secs

     Computing kpt #:  1288  of  1501
     total cpu time spent up to now is      360.5 secs

     Computing kpt #:  1289  of  1501
     total cpu time spent up to now is      360.7 secs

     Computing kpt #:  1290  of  1501
     total cpu time spent up to now is      361.0 secs

     Computing kpt #:  1291  of  1501
     total cpu time spent up to now is      361.2 secs

     Computing kpt #:  1292  of  1501
     total cpu time spent up to now is      364.7 secs

     Computing kpt #:  1293  of  1501
     total cpu time spent up to now is      364.9 secs

     Computing kpt #:  1294  of  1501
     total cpu time spent up to now is      365.1 secs

     Computing kpt #:  1295  of  1501
     total cpu time spent up to now is      365.3 secs

     Computing kpt #:  1296  of  1501
     total cpu time spent up to now is      365.4 secs

     Computing kpt #:  1297  of  1501
     total cpu time spent up to now is      365.7 secs

     Computing kpt #:  1298  of  1501
     total cpu time spent up to now is      365.9 secs

     Computing kpt #:  1299  of  1501
     total cpu time spent up to now is      366.2 secs

     Computing kpt #:  1300  of  1501
     total cpu time spent up to now is      366.3 secs

     Computing kpt #:  1301  of  1501
     total cpu time spent up to now is      367.9 secs

     Computing kpt #:  1302  of  1501
     total cpu time spent up to now is      368.4 secs

     Computing kpt #:  1303  of  1501
     total cpu time spent up to now is      368.7 secs

     Computing kpt #:  1304  of  1501
     total cpu time spent up to now is      368.8 secs

     Computing kpt #:  1305  of  1501
     total cpu time spent up to now is      369.0 secs

     Computing kpt #:  1306  of  1501
     total cpu time spent up to now is      369.2 secs

     Computing kpt #:  1307  of  1501
     total cpu time spent up to now is      369.4 secs

     Computing kpt #:  1308  of  1501
     total cpu time spent up to now is      369.6 secs

     Computing kpt #:  1309  of  1501
     total cpu time spent up to now is      369.8 secs

     Computing kpt #:  1310  of  1501
     total cpu time spent up to now is      369.9 secs

     Computing kpt #:  1311  of  1501
     total cpu time spent up to now is      370.1 secs

     Computing kpt #:  1312  of  1501
     total cpu time spent up to now is      370.3 secs

     Computing kpt #:  1313  of  1501
     total cpu time spent up to now is      370.5 secs

     Computing kpt #:  1314  of  1501
     total cpu time spent up to now is      370.7 secs

     Computing kpt #:  1315  of  1501
     total cpu time spent up to now is      370.8 secs

     Computing kpt #:  1316  of  1501
     total cpu time spent up to now is      371.0 secs

     Computing kpt #:  1317  of  1501
     total cpu time spent up to now is      371.2 secs

     Computing kpt #:  1318  of  1501
     total cpu time spent up to now is      371.4 secs

     Computing kpt #:  1319  of  1501
     total cpu time spent up to now is      372.4 secs

     Computing kpt #:  1320  of  1501
     total cpu time spent up to now is      372.6 secs

     Computing kpt #:  1321  of  1501
     total cpu time spent up to now is      372.8 secs

     Computing kpt #:  1322  of  1501
     total cpu time spent up to now is      373.0 secs

     Computing kpt #:  1323  of  1501
     total cpu time spent up to now is      373.2 secs

     Computing kpt #:  1324  of  1501
     total cpu time spent up to now is      373.3 secs

     Computing kpt #:  1325  of  1501
     total cpu time spent up to now is      373.5 secs

     Computing kpt #:  1326  of  1501
     total cpu time spent up to now is      373.7 secs

     Computing kpt #:  1327  of  1501
     total cpu time spent up to now is      373.9 secs

     Computing kpt #:  1328  of  1501
     total cpu time spent up to now is      374.1 secs

     Computing kpt #:  1329  of  1501
     total cpu time spent up to now is      374.2 secs

     Computing kpt #:  1330  of  1501
     total cpu time spent up to now is      374.4 secs

     Computing kpt #:  1331  of  1501
     total cpu time spent up to now is      374.6 secs

     Computing kpt #:  1332  of  1501
     total cpu time spent up to now is      374.8 secs

     Computing kpt #:  1333  of  1501
     total cpu time spent up to now is      375.0 secs

     Computing kpt #:  1334  of  1501
     total cpu time spent up to now is      375.3 secs

     Computing kpt #:  1335  of  1501
     total cpu time spent up to now is      375.5 secs

     Computing kpt #:  1336  of  1501
     total cpu time spent up to now is      375.7 secs

     Computing kpt #:  1337  of  1501
     total cpu time spent up to now is      375.9 secs

     Computing kpt #:  1338  of  1501
     total cpu time spent up to now is      376.0 secs

     Computing kpt #:  1339  of  1501
     total cpu time spent up to now is      376.2 secs

     Computing kpt #:  1340  of  1501
     total cpu time spent up to now is      376.4 secs

     Computing kpt #:  1341  of  1501
     total cpu time spent up to now is      376.6 secs

     Computing kpt #:  1342  of  1501
     total cpu time spent up to now is      377.5 secs

     Computing kpt #:  1343  of  1501
     total cpu time spent up to now is      377.7 secs

     Computing kpt #:  1344  of  1501
     total cpu time spent up to now is      377.9 secs

     Computing kpt #:  1345  of  1501
     total cpu time spent up to now is      378.1 secs

     Computing kpt #:  1346  of  1501
     total cpu time spent up to now is      378.2 secs

     Computing kpt #:  1347  of  1501
     total cpu time spent up to now is      378.4 secs

     Computing kpt #:  1348  of  1501
     total cpu time spent up to now is      378.6 secs

     Computing kpt #:  1349  of  1501
     total cpu time spent up to now is      378.8 secs

     Computing kpt #:  1350  of  1501
     total cpu time spent up to now is      379.0 secs

     Computing kpt #:  1351  of  1501
     total cpu time spent up to now is      379.2 secs

     Computing kpt #:  1352  of  1501
     total cpu time spent up to now is      379.3 secs

     Computing kpt #:  1353  of  1501
     total cpu time spent up to now is      379.6 secs

     Computing kpt #:  1354  of  1501
     total cpu time spent up to now is      379.8 secs

     Computing kpt #:  1355  of  1501
     total cpu time spent up to now is      380.0 secs

     Computing kpt #:  1356  of  1501
     total cpu time spent up to now is      380.2 secs

     Computing kpt #:  1357  of  1501
     total cpu time spent up to now is      380.4 secs

     Computing kpt #:  1358  of  1501
     total cpu time spent up to now is      380.6 secs

     Computing kpt #:  1359  of  1501
     total cpu time spent up to now is      380.8 secs

     Computing kpt #:  1360  of  1501
     total cpu time spent up to now is      380.9 secs

     Computing kpt #:  1361  of  1501
     total cpu time spent up to now is      381.1 secs

     Computing kpt #:  1362  of  1501
     total cpu time spent up to now is      381.3 secs

     Computing kpt #:  1363  of  1501
     total cpu time spent up to now is      381.5 secs

     Computing kpt #:  1364  of  1501
     total cpu time spent up to now is      381.6 secs

     Computing kpt #:  1365  of  1501
     total cpu time spent up to now is      382.4 secs

     Computing kpt #:  1366  of  1501
     total cpu time spent up to now is      382.7 secs

     Computing kpt #:  1367  of  1501
     total cpu time spent up to now is      382.8 secs

     Computing kpt #:  1368  of  1501
     total cpu time spent up to now is      383.0 secs

     Computing kpt #:  1369  of  1501
     total cpu time spent up to now is      383.2 secs

     Computing kpt #:  1370  of  1501
     total cpu time spent up to now is      383.4 secs

     Computing kpt #:  1371  of  1501
     total cpu time spent up to now is      383.6 secs

     Computing kpt #:  1372  of  1501
     total cpu time spent up to now is      383.8 secs

     Computing kpt #:  1373  of  1501
     total cpu time spent up to now is      384.0 secs

     Computing kpt #:  1374  of  1501
     total cpu time spent up to now is      384.2 secs

     Computing kpt #:  1375  of  1501
     total cpu time spent up to now is      384.4 secs

     Computing kpt #:  1376  of  1501
     total cpu time spent up to now is      384.5 secs

     Computing kpt #:  1377  of  1501
     total cpu time spent up to now is      384.7 secs

     Computing kpt #:  1378  of  1501
     total cpu time spent up to now is      384.9 secs

     Computing kpt #:  1379  of  1501
     total cpu time spent up to now is      385.1 secs

     Computing kpt #:  1380  of  1501
     total cpu time spent up to now is      385.2 secs

     Computing kpt #:  1381  of  1501
     total cpu time spent up to now is      385.4 secs

     Computing kpt #:  1382  of  1501
     total cpu time spent up to now is      385.6 secs

     Computing kpt #:  1383  of  1501
     total cpu time spent up to now is      385.8 secs

     Computing kpt #:  1384  of  1501
     total cpu time spent up to now is      385.9 secs

     Computing kpt #:  1385  of  1501
     total cpu time spent up to now is      386.1 secs

     Computing kpt #:  1386  of  1501
     total cpu time spent up to now is      386.3 secs

     Computing kpt #:  1387  of  1501
     total cpu time spent up to now is      386.5 secs

     Computing kpt #:  1388  of  1501
     total cpu time spent up to now is      386.7 secs

     Computing kpt #:  1389  of  1501
     total cpu time spent up to now is      386.8 secs

     Computing kpt #:  1390  of  1501
     total cpu time spent up to now is      387.5 secs

     Computing kpt #:  1391  of  1501
     total cpu time spent up to now is      387.7 secs

     Computing kpt #:  1392  of  1501
     total cpu time spent up to now is      387.8 secs

     Computing kpt #:  1393  of  1501
     total cpu time spent up to now is      388.0 secs

     Computing kpt #:  1394  of  1501
     total cpu time spent up to now is      388.1 secs

     Computing kpt #:  1395  of  1501
     total cpu time spent up to now is      388.3 secs

     Computing kpt #:  1396  of  1501
     total cpu time spent up to now is      388.5 secs

     Computing kpt #:  1397  of  1501
     total cpu time spent up to now is      388.7 secs

     Computing kpt #:  1398  of  1501
     total cpu time spent up to now is      388.9 secs

     Computing kpt #:  1399  of  1501
     total cpu time spent up to now is      389.3 secs

     Computing kpt #:  1400  of  1501
     total cpu time spent up to now is      389.4 secs

     Computing kpt #:  1401  of  1501
     total cpu time spent up to now is      389.6 secs

     Computing kpt #:  1402  of  1501
     total cpu time spent up to now is      389.8 secs

     Computing kpt #:  1403  of  1501
     total cpu time spent up to now is      390.1 secs

     Computing kpt #:  1404  of  1501
     total cpu time spent up to now is      390.3 secs

     Computing kpt #:  1405  of  1501
     total cpu time spent up to now is      390.4 secs

     Computing kpt #:  1406  of  1501
     total cpu time spent up to now is      390.7 secs

     Computing kpt #:  1407  of  1501
     total cpu time spent up to now is      390.9 secs

     Computing kpt #:  1408  of  1501
     total cpu time spent up to now is      391.0 secs

     Computing kpt #:  1409  of  1501
     total cpu time spent up to now is      391.3 secs

     Computing kpt #:  1410  of  1501
     total cpu time spent up to now is      391.5 secs

     Computing kpt #:  1411  of  1501
     total cpu time spent up to now is      391.7 secs

     Computing kpt #:  1412  of  1501
     total cpu time spent up to now is      391.9 secs

     Computing kpt #:  1413  of  1501
     total cpu time spent up to now is      392.4 secs

     Computing kpt #:  1414  of  1501
     total cpu time spent up to now is      393.1 secs

     Computing kpt #:  1415  of  1501
     total cpu time spent up to now is      393.5 secs

     Computing kpt #:  1416  of  1501
     total cpu time spent up to now is      393.7 secs

     Computing kpt #:  1417  of  1501
     total cpu time spent up to now is      393.9 secs

     Computing kpt #:  1418  of  1501
     total cpu time spent up to now is      394.1 secs

     Computing kpt #:  1419  of  1501
     total cpu time spent up to now is      394.3 secs

     Computing kpt #:  1420  of  1501
     total cpu time spent up to now is      394.4 secs

     Computing kpt #:  1421  of  1501
     total cpu time spent up to now is      394.6 secs

     Computing kpt #:  1422  of  1501
     total cpu time spent up to now is      394.8 secs

     Computing kpt #:  1423  of  1501
     total cpu time spent up to now is      395.0 secs

     Computing kpt #:  1424  of  1501
     total cpu time spent up to now is      395.1 secs

     Computing kpt #:  1425  of  1501
     total cpu time spent up to now is      395.3 secs

     Computing kpt #:  1426  of  1501
     total cpu time spent up to now is      395.5 secs

     Computing kpt #:  1427  of  1501
     total cpu time spent up to now is      395.7 secs

     Computing kpt #:  1428  of  1501
     total cpu time spent up to now is      395.9 secs

     Computing kpt #:  1429  of  1501
     total cpu time spent up to now is      396.1 secs

     Computing kpt #:  1430  of  1501
     total cpu time spent up to now is      396.2 secs

     Computing kpt #:  1431  of  1501
     total cpu time spent up to now is      396.4 secs

     Computing kpt #:  1432  of  1501
     total cpu time spent up to now is      396.6 secs

     Computing kpt #:  1433  of  1501
     total cpu time spent up to now is      396.8 secs

     Computing kpt #:  1434  of  1501
     total cpu time spent up to now is      397.0 secs

     Computing kpt #:  1435  of  1501
     total cpu time spent up to now is      401.1 secs

     Computing kpt #:  1436  of  1501
     total cpu time spent up to now is      401.4 secs

     Computing kpt #:  1437  of  1501
     total cpu time spent up to now is      401.6 secs

     Computing kpt #:  1438  of  1501
     total cpu time spent up to now is      401.8 secs

     Computing kpt #:  1439  of  1501
     total cpu time spent up to now is      402.0 secs

     Computing kpt #:  1440  of  1501
     total cpu time spent up to now is      402.1 secs

     Computing kpt #:  1441  of  1501
     total cpu time spent up to now is      402.8 secs

     Computing kpt #:  1442  of  1501
     total cpu time spent up to now is      403.1 secs

     Computing kpt #:  1443  of  1501
     total cpu time spent up to now is      403.4 secs

     Computing kpt #:  1444  of  1501
     total cpu time spent up to now is      403.6 secs

     Computing kpt #:  1445  of  1501
     total cpu time spent up to now is      403.8 secs

     Computing kpt #:  1446  of  1501
     total cpu time spent up to now is      404.0 secs

     Computing kpt #:  1447  of  1501
     total cpu time spent up to now is      404.2 secs

     Computing kpt #:  1448  of  1501
     total cpu time spent up to now is      404.3 secs

     Computing kpt #:  1449  of  1501
     total cpu time spent up to now is      404.6 secs

     Computing kpt #:  1450  of  1501
     total cpu time spent up to now is      404.8 secs

     Computing kpt #:  1451  of  1501
     total cpu time spent up to now is      405.0 secs

     Computing kpt #:  1452  of  1501
     total cpu time spent up to now is      405.1 secs

     Computing kpt #:  1453  of  1501
     total cpu time spent up to now is      405.4 secs

     Computing kpt #:  1454  of  1501
     total cpu time spent up to now is      405.6 secs

     Computing kpt #:  1455  of  1501
     total cpu time spent up to now is      405.9 secs

     Computing kpt #:  1456  of  1501
     total cpu time spent up to now is      406.1 secs

     Computing kpt #:  1457  of  1501
     total cpu time spent up to now is      406.3 secs

     Computing kpt #:  1458  of  1501
     total cpu time spent up to now is      406.5 secs

     Computing kpt #:  1459  of  1501
     total cpu time spent up to now is      406.6 secs

     Computing kpt #:  1460  of  1501
     total cpu time spent up to now is      406.8 secs

     Computing kpt #:  1461  of  1501
     total cpu time spent up to now is      407.0 secs

     Computing kpt #:  1462  of  1501
     total cpu time spent up to now is      407.3 secs

     Computing kpt #:  1463  of  1501
     total cpu time spent up to now is      408.1 secs

     Computing kpt #:  1464  of  1501
     total cpu time spent up to now is      408.2 secs

     Computing kpt #:  1465  of  1501
     total cpu time spent up to now is      408.4 secs

     Computing kpt #:  1466  of  1501
     total cpu time spent up to now is      408.6 secs

     Computing kpt #:  1467  of  1501
     total cpu time spent up to now is      408.8 secs

     Computing kpt #:  1468  of  1501
     total cpu time spent up to now is      408.9 secs

     Computing kpt #:  1469  of  1501
     total cpu time spent up to now is      409.2 secs

     Computing kpt #:  1470  of  1501
     total cpu time spent up to now is      409.3 secs

     Computing kpt #:  1471  of  1501
     total cpu time spent up to now is      409.6 secs

     Computing kpt #:  1472  of  1501
     total cpu time spent up to now is      409.8 secs

     Computing kpt #:  1473  of  1501
     total cpu time spent up to now is      410.2 secs

     Computing kpt #:  1474  of  1501
     total cpu time spent up to now is      410.3 secs

     Computing kpt #:  1475  of  1501
     total cpu time spent up to now is      410.5 secs

     Computing kpt #:  1476  of  1501
     total cpu time spent up to now is      410.7 secs

     Computing kpt #:  1477  of  1501
     total cpu time spent up to now is      410.9 secs

     Computing kpt #:  1478  of  1501
     total cpu time spent up to now is      411.1 secs

     Computing kpt #:  1479  of  1501
     total cpu time spent up to now is      411.3 secs

     Computing kpt #:  1480  of  1501
     total cpu time spent up to now is      411.4 secs

     Computing kpt #:  1481  of  1501
     total cpu time spent up to now is      411.6 secs

     Computing kpt #:  1482  of  1501
     total cpu time spent up to now is      411.8 secs

     Computing kpt #:  1483  of  1501
     total cpu time spent up to now is      412.0 secs

     Computing kpt #:  1484  of  1501
     total cpu time spent up to now is      412.2 secs

     Computing kpt #:  1485  of  1501
     total cpu time spent up to now is      412.4 secs

     Computing kpt #:  1486  of  1501
     total cpu time spent up to now is      413.2 secs

     Computing kpt #:  1487  of  1501
     total cpu time spent up to now is      413.4 secs

     Computing kpt #:  1488  of  1501
     total cpu time spent up to now is      413.6 secs

     Computing kpt #:  1489  of  1501
     total cpu time spent up to now is      413.8 secs

     Computing kpt #:  1490  of  1501
     total cpu time spent up to now is      414.0 secs

     Computing kpt #:  1491  of  1501
     total cpu time spent up to now is      414.1 secs

     Computing kpt #:  1492  of  1501
     total cpu time spent up to now is      414.3 secs

     Computing kpt #:  1493  of  1501
     total cpu time spent up to now is      414.5 secs

     Computing kpt #:  1494  of  1501
     total cpu time spent up to now is      414.7 secs

     Computing kpt #:  1495  of  1501
     total cpu time spent up to now is      414.9 secs

     Computing kpt #:  1496  of  1501
     total cpu time spent up to now is      415.0 secs

     Computing kpt #:  1497  of  1501
     total cpu time spent up to now is      415.2 secs

     Computing kpt #:  1498  of  1501
     total cpu time spent up to now is      415.4 secs

     Computing kpt #:  1499  of  1501
     total cpu time spent up to now is      415.6 secs

     Computing kpt #:  1500  of  1501
     total cpu time spent up to now is      415.8 secs

     Computing kpt #:  1501  of  1501
     total cpu time spent up to now is      416.1 secs

     ethr =  1.25E-10,  avg # of iterations = 23.2

     total cpu time spent up to now is      416.1 secs

     End of band structure calculation

          k = 0.0000 0.0000 0.0000 (  5307 PWs)   bands (ev):

   -21.2240 -21.2240  -9.3204  -9.3204  -4.7669  -4.7669  -4.7577  -4.7577
     1.5197   1.5197   2.4264   2.4264   2.8024   2.8024   4.7629   4.7629

          k = 0.0007 0.0012 0.0000 (  5295 PWs)   bands (ev):

   -21.2240 -21.2240  -9.3203  -9.3203  -4.7670  -4.7670  -4.7578  -4.7578
     1.5198   1.5198   2.4265   2.4265   2.8024   2.8024   4.7629   4.7629

          k = 0.0013 0.0023 0.0000 (  5295 PWs)   bands (ev):

   -21.2239 -21.2239  -9.3202  -9.3202  -4.7673  -4.7673  -4.7581  -4.7581
     1.5199   1.5199   2.4266   2.4266   2.8026   2.8026   4.7631   4.7631

          k = 0.0020 0.0035 0.0000 (  5295 PWs)   bands (ev):

   -21.2238 -21.2238  -9.3200  -9.3200  -4.7678  -4.7678  -4.7586  -4.7586
     1.5201   1.5201   2.4268   2.4268   2.8028   2.8028   4.7633   4.7633

          k = 0.0027 0.0046 0.0000 (  5295 PWs)   bands (ev):

   -21.2235 -21.2235  -9.3198  -9.3198  -4.7685  -4.7685  -4.7593  -4.7593
     1.5204   1.5204   2.4271   2.4271   2.8031   2.8031   4.7636   4.7636

          k = 0.0033 0.0058 0.0000 (  5295 PWs)   bands (ev):

   -21.2233 -21.2233  -9.3194  -9.3194  -4.7694  -4.7694  -4.7601  -4.7601
     1.5208   1.5208   2.4275   2.4275   2.8035   2.8035   4.7640   4.7640

          k = 0.0040 0.0069 0.0000 (  5295 PWs)   bands (ev):

   -21.2229 -21.2229  -9.3190  -9.3190  -4.7706  -4.7706  -4.7612  -4.7612
     1.5213   1.5213   2.4280   2.4280   2.8039   2.8040   4.7644   4.7644

          k = 0.0047 0.0081 0.0000 (  5299 PWs)   bands (ev):

   -21.2225 -21.2225  -9.3185  -9.3185  -4.7720  -4.7720  -4.7624  -4.7624
     1.5218   1.5218   2.4286   2.4286   2.8045   2.8045   4.7650   4.7650

          k = 0.0053 0.0092 0.0000 (  5303 PWs)   bands (ev):

   -21.2220 -21.2220  -9.3180  -9.3180  -4.7737  -4.7737  -4.7637  -4.7637
     1.5224   1.5225   2.4292   2.4292   2.8052   2.8052   4.7656   4.7656

          k = 0.0060 0.0104 0.0000 (  5299 PWs)   bands (ev):

   -21.2215 -21.2215  -9.3173  -9.3173  -4.7757  -4.7757  -4.7652  -4.7652
     1.5232   1.5232   2.4299   2.4299   2.8059   2.8059   4.7664   4.7664

          k = 0.0067 0.0115 0.0000 (  5299 PWs)   bands (ev):

   -21.2209 -21.2209  -9.3166  -9.3166  -4.7779  -4.7779  -4.7668  -4.7668
     1.5240   1.5240   2.4308   2.4308   2.8067   2.8067   4.7672   4.7672

          k = 0.0073 0.0127 0.0000 (  5305 PWs)   bands (ev):

   -21.2202 -21.2202  -9.3158  -9.3158  -4.7804  -4.7804  -4.7685  -4.7685
     1.5249   1.5249   2.4317   2.4317   2.8076   2.8076   4.7681   4.7681

          k = 0.0080 0.0139 0.0000 (  5305 PWs)   bands (ev):

   -21.2195 -21.2195  -9.3149  -9.3149  -4.7831  -4.7831  -4.7704  -4.7704
     1.5259   1.5259   2.4327   2.4327   2.8086   2.8087   4.7691   4.7691

          k = 0.0087 0.0150 0.0000 (  5301 PWs)   bands (ev):

   -21.2187 -21.2187  -9.3140  -9.3140  -4.7862  -4.7862  -4.7723  -4.7723
     1.5269   1.5269   2.4337   2.4337   2.8097   2.8097   4.7701   4.7701

          k = 0.0093 0.0162 0.0000 (  5301 PWs)   bands (ev):

   -21.2179 -21.2179  -9.3130  -9.3130  -4.7896  -4.7896  -4.7744  -4.7744
     1.5281   1.5281   2.4349   2.4349   2.8109   2.8109   4.7713   4.7713

          k = 0.0100 0.0173 0.0000 (  5293 PWs)   bands (ev):

   -21.2170 -21.2170  -9.3119  -9.3119  -4.7932  -4.7932  -4.7766  -4.7766
     1.5293   1.5293   2.4361   2.4362   2.8122   2.8122   4.7725   4.7725

          k = 0.0107 0.0185 0.0000 (  5293 PWs)   bands (ev):

   -21.2160 -21.2160  -9.3107  -9.3107  -4.7971  -4.7971  -4.7789  -4.7789
     1.5307   1.5307   2.4375   2.4375   2.8135   2.8135   4.7739   4.7739

          k = 0.0113 0.0196 0.0000 (  5293 PWs)   bands (ev):

   -21.2149 -21.2149  -9.3095  -9.3095  -4.8013  -4.8013  -4.7813  -4.7813
     1.5321   1.5321   2.4389   2.4389   2.8150   2.8150   4.7753   4.7753

          k = 0.0120 0.0208 0.0000 (  5293 PWs)   bands (ev):

   -21.2138 -21.2138  -9.3082  -9.3082  -4.8057  -4.8057  -4.7838  -4.7838
     1.5336   1.5336   2.4404   2.4404   2.8165   2.8165   4.7768   4.7768

          k = 0.0127 0.0219 0.0000 (  5293 PWs)   bands (ev):

   -21.2127 -21.2127  -9.3068  -9.3068  -4.8104  -4.8104  -4.7865  -4.7865
     1.5352   1.5352   2.4420   2.4420   2.8181   2.8181   4.7784   4.7784

          k = 0.0133 0.0231 0.0000 (  5295 PWs)   bands (ev):

   -21.2115 -21.2115  -9.3053  -9.3053  -4.8154  -4.8154  -4.7893  -4.7893
     1.5368   1.5368   2.4437   2.4437   2.8198   2.8198   4.7800   4.7800

          k = 0.0140 0.0242 0.0000 (  5303 PWs)   bands (ev):

   -21.2102 -21.2102  -9.3038  -9.3038  -4.8207  -4.8207  -4.7922  -4.7922
     1.5386   1.5386   2.4455   2.4455   2.8216   2.8216   4.7818   4.7818

          k = 0.0147 0.0254 0.0000 (  5301 PWs)   bands (ev):

   -21.2088 -21.2088  -9.3021  -9.3021  -4.8262  -4.8262  -4.7953  -4.7953
     1.5404   1.5404   2.4473   2.4473   2.8234   2.8234   4.7836   4.7836

          k = 0.0153 0.0266 0.0000 (  5297 PWs)   bands (ev):

   -21.2074 -21.2074  -9.3005  -9.3005  -4.8320  -4.8320  -4.7984  -4.7984
     1.5423   1.5424   2.4493   2.4493   2.8254   2.8254   4.7855   4.7856

          k = 0.0160 0.0277 0.0000 (  5297 PWs)   bands (ev):

   -21.2059 -21.2059  -9.2987  -9.2987  -4.8380  -4.8380  -4.8017  -4.8017
     1.5444   1.5444   2.4513   2.4513   2.8274   2.8274   4.7876   4.7876

          k = 0.0167 0.0289 0.0000 (  5297 PWs)   bands (ev):

   -21.2044 -21.2044  -9.2968  -9.2968  -4.8443  -4.8443  -4.8052  -4.8052
     1.5465   1.5465   2.4534   2.4534   2.8296   2.8296   4.7897   4.7897

          k = 0.0173 0.0300 0.0000 (  5297 PWs)   bands (ev):

   -21.2028 -21.2028  -9.2949  -9.2949  -4.8508  -4.8508  -4.8088  -4.8088
     1.5486   1.5486   2.4556   2.4556   2.8318   2.8318   4.7918   4.7918

          k = 0.0180 0.0312 0.0000 (  5301 PWs)   bands (ev):

   -21.2011 -21.2011  -9.2929  -9.2929  -4.8576  -4.8576  -4.8125  -4.8125
     1.5509   1.5509   2.4579   2.4579   2.8341   2.8341   4.7941   4.7941

          k = 0.0187 0.0323 0.0000 (  5301 PWs)   bands (ev):

   -21.1994 -21.1994  -9.2909  -9.2909  -4.8647  -4.8647  -4.8163  -4.8163
     1.5533   1.5533   2.4602   2.4603   2.8365   2.8365   4.7965   4.7965

          k = 0.0193 0.0335 0.0000 (  5297 PWs)   bands (ev):

   -21.1976 -21.1976  -9.2887  -9.2887  -4.8720  -4.8720  -4.8203  -4.8203
     1.5557   1.5557   2.4627   2.4627   2.8390   2.8390   4.7989   4.7989

          k = 0.0200 0.0346 0.0000 (  5297 PWs)   bands (ev):

   -21.1957 -21.1957  -9.2865  -9.2865  -4.8795  -4.8795  -4.8244  -4.8244
     1.5582   1.5582   2.4653   2.4653   2.8415   2.8415   4.8014   4.8014

          k = 0.0207 0.0358 0.0000 (  5297 PWs)   bands (ev):

   -21.1938 -21.1938  -9.2842  -9.2842  -4.8873  -4.8873  -4.8286  -4.8286
     1.5608   1.5608   2.4679   2.4679   2.8442   2.8442   4.8041   4.8041

          k = 0.0213 0.0370 0.0000 (  5301 PWs)   bands (ev):

   -21.1918 -21.1918  -9.2818  -9.2818  -4.8953  -4.8953  -4.8330  -4.8330
     1.5635   1.5635   2.4706   2.4706   2.8469   2.8469   4.8068   4.8068

          k = 0.0220 0.0381 0.0000 (  5305 PWs)   bands (ev):

   -21.1898 -21.1898  -9.2794  -9.2794  -4.9036  -4.9036  -4.8375  -4.8375
     1.5663   1.5663   2.4734   2.4734   2.8498   2.8498   4.8095   4.8095

          k = 0.0227 0.0393 0.0000 (  5301 PWs)   bands (ev):

   -21.1877 -21.1877  -9.2769  -9.2769  -4.9121  -4.9121  -4.8421  -4.8421
     1.5692   1.5692   2.4763   2.4763   2.8527   2.8527   4.8124   4.8124

          k = 0.0233 0.0404 0.0000 (  5301 PWs)   bands (ev):

   -21.1855 -21.1855  -9.2743  -9.2743  -4.9208  -4.9208  -4.8469  -4.8469
     1.5721   1.5721   2.4793   2.4793   2.8557   2.8557   4.8154   4.8154

          k = 0.0240 0.0416 0.0000 (  5301 PWs)   bands (ev):

   -21.1833 -21.1833  -9.2716  -9.2716  -4.9298  -4.9298  -4.8518  -4.8518
     1.5752   1.5752   2.4823   2.4823   2.8588   2.8588   4.8184   4.8184

          k = 0.0247 0.0427 0.0000 (  5301 PWs)   bands (ev):

   -21.1810 -21.1810  -9.2689  -9.2688  -4.9390  -4.9390  -4.8568  -4.8568
     1.5783   1.5783   2.4855   2.4855   2.8619   2.8619   4.8215   4.8215

          k = 0.0253 0.0439 0.0000 (  5301 PWs)   bands (ev):

   -21.1786 -21.1786  -9.2660  -9.2660  -4.9484  -4.9484  -4.8620  -4.8620
     1.5815   1.5815   2.4887   2.4887   2.8652   2.8652   4.8247   4.8248

          k = 0.0260 0.0450 0.0000 (  5301 PWs)   bands (ev):

   -21.1762 -21.1762  -9.2631  -9.2631  -4.9581  -4.9581  -4.8673  -4.8673
     1.5848   1.5848   2.4920   2.4920   2.8685   2.8686   4.8280   4.8280

          k = 0.0267 0.0462 0.0000 (  5305 PWs)   bands (ev):

   -21.1737 -21.1737  -9.2602  -9.2602  -4.9680  -4.9680  -4.8728  -4.8728
     1.5882   1.5882   2.4954   2.4954   2.8720   2.8720   4.8314   4.8314

          k = 0.0273 0.0473 0.0000 (  5305 PWs)   bands (ev):

   -21.1712 -21.1712  -9.2571  -9.2571  -4.9782  -4.9781  -4.8783  -4.8783
     1.5917   1.5917   2.4989   2.4989   2.8755   2.8755   4.8349   4.8349

          k = 0.0280 0.0485 0.0000 (  5305 PWs)   bands (ev):

   -21.1685 -21.1685  -9.2540  -9.2540  -4.9885  -4.9885  -4.8840  -4.8840
     1.5952   1.5952   2.5025   2.5025   2.8791   2.8791   4.8385   4.8385

          k = 0.0287 0.0497 0.0000 (  5305 PWs)   bands (ev):

   -21.1659 -21.1659  -9.2508  -9.2508  -4.9991  -4.9991  -4.8899  -4.8899
     1.5988   1.5989   2.5062   2.5062   2.8828   2.8828   4.8421   4.8421

          k = 0.0293 0.0508 0.0000 (  5297 PWs)   bands (ev):

   -21.1631 -21.1631  -9.2475  -9.2475  -5.0099  -5.0099  -4.8958  -4.8958
     1.6026   1.6026   2.5099   2.5099   2.8866   2.8866   4.8458   4.8458

          k = 0.0300 0.0520 0.0000 (  5297 PWs)   bands (ev):

   -21.1603 -21.1603  -9.2442  -9.2442  -5.0209  -5.0209  -4.9019  -4.9019
     1.6064   1.6064   2.5138   2.5138   2.8905   2.8905   4.8496   4.8496

          k = 0.0307 0.0531 0.0000 (  5299 PWs)   bands (ev):

   -21.1575 -21.1575  -9.2408  -9.2408  -5.0322  -5.0322  -4.9082  -4.9082
     1.6103   1.6103   2.5177   2.5177   2.8944   2.8944   4.8535   4.8535

          k = 0.0313 0.0543 0.0000 (  5299 PWs)   bands (ev):

   -21.1546 -21.1546  -9.2373  -9.2373  -5.0436  -5.0436  -4.9145  -4.9145
     1.6143   1.6143   2.5217   2.5217   2.8985   2.8985   4.8575   4.8575

          k = 0.0320 0.0554 0.0000 (  5299 PWs)   bands (ev):

   -21.1516 -21.1516  -9.2337  -9.2337  -5.0553  -5.0553  -4.9210  -4.9210
     1.6183   1.6183   2.5258   2.5258   2.9026   2.9026   4.8616   4.8616

          k = 0.0327 0.0566 0.0000 (  5295 PWs)   bands (ev):

   -21.1485 -21.1485  -9.2301  -9.2301  -5.0672  -5.0672  -4.9276  -4.9276
     1.6225   1.6225   2.5300   2.5300   2.9068   2.9068   4.8657   4.8657

          k = 0.0333 0.0577 0.0000 (  5295 PWs)   bands (ev):

   -21.1454 -21.1454  -9.2263  -9.2263  -5.0793  -5.0793  -4.9344  -4.9344
     1.6267   1.6267   2.5342   2.5343   2.9111   2.9111   4.8700   4.8700

          k = 0.0340 0.0589 0.0000 (  5293 PWs)   bands (ev):

   -21.1422 -21.1422  -9.2225  -9.2225  -5.0916  -5.0916  -4.9412  -4.9412
     1.6310   1.6310   2.5386   2.5386   2.9155   2.9155   4.8743   4.8743

          k = 0.0347 0.0600 0.0000 (  5293 PWs)   bands (ev):

   -21.1390 -21.1390  -9.2187  -9.2187  -5.1041  -5.1041  -4.9483  -4.9483
     1.6354   1.6355   2.5430   2.5431   2.9200   2.9200   4.8787   4.8787

          k = 0.0353 0.0612 0.0000 (  5293 PWs)   bands (ev):

   -21.1357 -21.1357  -9.2147  -9.2147  -5.1168  -5.1168  -4.9554  -4.9554
     1.6399   1.6399   2.5476   2.5476   2.9246   2.9246   4.8832   4.8832

          k = 0.0360 0.0624 0.0000 (  5293 PWs)   bands (ev):

   -21.1323 -21.1323  -9.2107  -9.2107  -5.1297  -5.1297  -4.9627  -4.9627
     1.6445   1.6445   2.5522   2.5522   2.9292   2.9292   4.8878   4.8878

          k = 0.0367 0.0635 0.0000 (  5293 PWs)   bands (ev):

   -21.1289 -21.1289  -9.2066  -9.2066  -5.1429  -5.1429  -4.9701  -4.9701
     1.6492   1.6492   2.5569   2.5569   2.9340   2.9340   4.8925   4.8925

          k = 0.0373 0.0647 0.0000 (  5293 PWs)   bands (ev):

   -21.1254 -21.1254  -9.2024  -9.2024  -5.1562  -5.1562  -4.9776  -4.9776
     1.6539   1.6539   2.5617   2.5617   2.9388   2.9388   4.8972   4.8972

          k = 0.0380 0.0658 0.0000 (  5293 PWs)   bands (ev):

   -21.1219 -21.1219  -9.1982  -9.1982  -5.1697  -5.1697  -4.9852  -4.9852
     1.6588   1.6588   2.5665   2.5665   2.9437   2.9437   4.9020   4.9021

          k = 0.0387 0.0670 0.0000 (  5289 PWs)   bands (ev):

   -21.1182 -21.1182  -9.1939  -9.1939  -5.1834  -5.1834  -4.9930  -4.9930
     1.6637   1.6637   2.5715   2.5715   2.9487   2.9487   4.9070   4.9070

          k = 0.0393 0.0681 0.0000 (  5289 PWs)   bands (ev):

   -21.1146 -21.1146  -9.1895  -9.1895  -5.1974  -5.1974  -5.0009  -5.0009
     1.6687   1.6687   2.5765   2.5765   2.9538   2.9538   4.9120   4.9120

          k = 0.0400 0.0693 0.0000 (  5289 PWs)   bands (ev):

   -21.1108 -21.1108  -9.1850  -9.1850  -5.2115  -5.2115  -5.0089  -5.0089
     1.6738   1.6738   2.5817   2.5817   2.9590   2.9590   4.9171   4.9171

          k = 0.0407 0.0704 0.0000 (  5285 PWs)   bands (ev):

   -21.1070 -21.1070  -9.1805  -9.1805  -5.2258  -5.2258  -5.0171  -5.0171
     1.6790   1.6790   2.5869   2.5869   2.9642   2.9643   4.9223   4.9223

          k = 0.0413 0.0716 0.0000 (  5289 PWs)   bands (ev):

   -21.1032 -21.1032  -9.1758  -9.1758  -5.2402  -5.2402  -5.0254  -5.0254
     1.6842   1.6843   2.5922   2.5922   2.9696   2.9696   4.9275   4.9275

          k = 0.0420 0.0727 0.0000 (  5285 PWs)   bands (ev):

   -21.0992 -21.0992  -9.1711  -9.1711  -5.2549  -5.2549  -5.0338  -5.0338
     1.6896   1.6896   2.5976   2.5976   2.9750   2.9751   4.9329   4.9329

          k = 0.0427 0.0739 0.0000 (  5285 PWs)   bands (ev):

   -21.0952 -21.0952  -9.1664  -9.1664  -5.2698  -5.2698  -5.0423  -5.0423
     1.6950   1.6950   2.6030   2.6031   2.9806   2.9806   4.9383   4.9383

          k = 0.0433 0.0751 0.0000 (  5285 PWs)   bands (ev):

   -21.0912 -21.0912  -9.1615  -9.1615  -5.2848  -5.2848  -5.0510  -5.0510
     1.7006   1.7006   2.6086   2.6086   2.9862   2.9862   4.9438   4.9438

          k = 0.0440 0.0762 0.0000 (  5285 PWs)   bands (ev):

   -21.0871 -21.0871  -9.1566  -9.1566  -5.3000  -5.3000  -5.0597  -5.0597
     1.7062   1.7062   2.6142   2.6143   2.9919   2.9919   4.9494   4.9494

          k = 0.0447 0.0774 0.0000 (  5289 PWs)   bands (ev):

   -21.0829 -21.0829  -9.1516  -9.1516  -5.3154  -5.3154  -5.0686  -5.0686
     1.7119   1.7119   2.6200   2.6200   2.9977   2.9977   4.9551   4.9551

          k = 0.0453 0.0785 0.0000 (  5285 PWs)   bands (ev):

   -21.0786 -21.0786  -9.1466  -9.1466  -5.3310  -5.3310  -5.0776  -5.0776
     1.7176   1.7176   2.6258   2.6258   3.0035   3.0035   4.9609   4.9609

          k = 0.0460 0.0797 0.0000 (  5281 PWs)   bands (ev):

   -21.0743 -21.0743  -9.1414  -9.1414  -5.3467  -5.3467  -5.0868  -5.0868
     1.7235   1.7235   2.6317   2.6317   3.0095   3.0095   4.9668   4.9668

          k = 0.0467 0.0808 0.0000 (  5281 PWs)   bands (ev):

   -21.0700 -21.0700  -9.1362  -9.1362  -5.3627  -5.3627  -5.0961  -5.0961
     1.7295   1.7295   2.6377   2.6377   3.0155   3.0156   4.9727   4.9727

          k = 0.0473 0.0820 0.0000 (  5281 PWs)   bands (ev):

   -21.0655 -21.0655  -9.1309  -9.1309  -5.3788  -5.3788  -5.1054  -5.1054
     1.7355   1.7355   2.6438   2.6438   3.0217   3.0217   4.9788   4.9788

          k = 0.0480 0.0831 0.0000 (  5281 PWs)   bands (ev):

   -21.0610 -21.0610  -9.1256  -9.1256  -5.3950  -5.3950  -5.1150  -5.1150
     1.7416   1.7416   2.6499   2.6499   3.0279   3.0279   4.9849   4.9849

          k = 0.0487 0.0843 0.0000 (  5273 PWs)   bands (ev):

   -21.0565 -21.0565  -9.1201  -9.1201  -5.4114  -5.4114  -5.1246  -5.1246
     1.7478   1.7478   2.6562   2.6562   3.0342   3.0342   4.9911   4.9911

          k = 0.0493 0.0854 0.0000 (  5269 PWs)   bands (ev):

   -21.0519 -21.0519  -9.1146  -9.1146  -5.4280  -5.4280  -5.1343  -5.1343
     1.7541   1.7541   2.6625   2.6625   3.0406   3.0406   4.9974   4.9974

          k = 0.0500 0.0866 0.0000 (  5269 PWs)   bands (ev):

   -21.0472 -21.0472  -9.1090  -9.1090  -5.4448  -5.4448  -5.1442  -5.1442
     1.7605   1.7605   2.6689   2.6690   3.0471   3.0471   5.0037   5.0038

          k = 0.0507 0.0878 0.0000 (  5265 PWs)   bands (ev):

   -21.0425 -21.0424  -9.1034  -9.1034  -5.4617  -5.4617  -5.1542  -5.1542
     1.7670   1.7670   2.6754   2.6755   3.0536   3.0537   5.0102   5.0102

          k = 0.0513 0.0889 0.0000 (  5265 PWs)   bands (ev):

   -21.0376 -21.0376  -9.0976  -9.0976  -5.4787  -5.4787  -5.1643  -5.1643
     1.7735   1.7735   2.6820   2.6821   3.0603   3.0603   5.0168   5.0168

          k = 0.0520 0.0901 0.0000 (  5265 PWs)   bands (ev):

   -21.0328 -21.0328  -9.0918  -9.0918  -5.4960  -5.4960  -5.1745  -5.1745
     1.7801   1.7802   2.6887   2.6887   3.0671   3.0671   5.0234   5.0234

          k = 0.0527 0.0912 0.0000 (  5265 PWs)   bands (ev):

   -21.0278 -21.0278  -9.0859  -9.0859  -5.5133  -5.5133  -5.1848  -5.1848
     1.7869   1.7869   2.6955   2.6955   3.0739   3.0739   5.0301   5.0301

          k = 0.0533 0.0924 0.0000 (  5265 PWs)   bands (ev):

   -21.0229 -21.0229  -9.0800  -9.0800  -5.5309  -5.5309  -5.1953  -5.1953
     1.7937   1.7937   2.7023   2.7023   3.0808   3.0808   5.0369   5.0369

          k = 0.0540 0.0935 0.0000 (  5265 PWs)   bands (ev):

   -21.0178 -21.0178  -9.0739  -9.0739  -5.5485  -5.5485  -5.2059  -5.2059
     1.8006   1.8006   2.7093   2.7093   3.0878   3.0878   5.0438   5.0438

          k = 0.0547 0.0947 0.0000 (  5265 PWs)   bands (ev):

   -21.0127 -21.0127  -9.0678  -9.0678  -5.5664  -5.5664  -5.2165  -5.2165
     1.8075   1.8076   2.7163   2.7163   3.0949   3.0949   5.0508   5.0508

          k = 0.0553 0.0958 0.0000 (  5265 PWs)   bands (ev):

   -21.0075 -21.0075  -9.0617  -9.0617  -5.5843  -5.5843  -5.2273  -5.2273
     1.8146   1.8146   2.7234   2.7234   3.1021   3.1021   5.0578   5.0578

          k = 0.0560 0.0970 0.0000 (  5269 PWs)   bands (ev):

   -21.0023 -21.0023  -9.0554  -9.0554  -5.6025  -5.6025  -5.2383  -5.2383
     1.8218   1.8218   2.7306   2.7306   3.1093   3.1094   5.0650   5.0650

          k = 0.0567 0.0981 0.0000 (  5269 PWs)   bands (ev):

   -20.9970 -20.9970  -9.0491  -9.0491  -5.6207  -5.6207  -5.2493  -5.2493
     1.8290   1.8290   2.7379   2.7379   3.1167   3.1167   5.0722   5.0722

          k = 0.0573 0.0993 0.0000 (  5271 PWs)   bands (ev):

   -20.9916 -20.9916  -9.0427  -9.0427  -5.6391  -5.6391  -5.2604  -5.2604
     1.8363   1.8363   2.7452   2.7453   3.1241   3.1242   5.0795   5.0795

          k = 0.0580 0.1005 0.0000 (  5271 PWs)   bands (ev):

   -20.9862 -20.9862  -9.0362  -9.0362  -5.6577  -5.6577  -5.2717  -5.2717
     1.8437   1.8437   2.7527   2.7527   3.1317   3.1317   5.0869   5.0869

          k = 0.0587 0.1016 0.0000 (  5271 PWs)   bands (ev):

   -20.9807 -20.9807  -9.0296  -9.0296  -5.6763  -5.6763  -5.2830  -5.2830
     1.8512   1.8512   2.7602   2.7602   3.1393   3.1393   5.0944   5.0944

          k = 0.0593 0.1028 0.0000 (  5271 PWs)   bands (ev):

   -20.9751 -20.9751  -9.0230  -9.0230  -5.6952  -5.6952  -5.2945  -5.2945
     1.8588   1.8588   2.7678   2.7679   3.1470   3.1470   5.1020   5.1020

          k = 0.0600 0.1039 0.0000 (  5267 PWs)   bands (ev):

   -20.9695 -20.9695  -9.0163  -9.0163  -5.7141  -5.7141  -5.3061  -5.3061
     1.8665   1.8665   2.7755   2.7756   3.1548   3.1548   5.1096   5.1096

          k = 0.0607 0.1051 0.0000 (  5267 PWs)   bands (ev):

   -20.9638 -20.9638  -9.0096  -9.0096  -5.7332  -5.7332  -5.3178  -5.3178
     1.8742   1.8742   2.7833   2.7834   3.1626   3.1627   5.1174   5.1174

          k = 0.0613 0.1062 0.0000 (  5267 PWs)   bands (ev):

   -20.9581 -20.9581  -9.0027  -9.0027  -5.7524  -5.7524  -5.3296  -5.3296
     1.8820   1.8821   2.7912   2.7913   3.1706   3.1706   5.1252   5.1252

          k = 0.0620 0.1074 0.0000 (  5267 PWs)   bands (ev):

   -20.9523 -20.9523  -8.9958  -8.9958  -5.7717  -5.7717  -5.3415  -5.3415
     1.8900   1.8900   2.7992   2.7992   3.1787   3.1787   5.1331   5.1331

          k = 0.0627 0.1085 0.0000 (  5275 PWs)   bands (ev):

   -20.9464 -20.9464  -8.9888  -8.9888  -5.7912  -5.7912  -5.3536  -5.3536
     1.8980   1.8980   2.8072   2.8073   3.1868   3.1868   5.1411   5.1411

          k = 0.0633 0.1097 0.0000 (  5275 PWs)   bands (ev):

   -20.9405 -20.9405  -8.9817  -8.9817  -5.8107  -5.8107  -5.3657  -5.3657
     1.9061   1.9061   2.8154   2.8154   3.1950   3.1950   5.1492   5.1492

          k = 0.0640 0.1109 0.0000 (  5275 PWs)   bands (ev):

   -20.9345 -20.9345  -8.9746  -8.9746  -5.8304  -5.8304  -5.3779  -5.3779
     1.9142   1.9143   2.8236   2.8236   3.2033   3.2033   5.1573   5.1573

          k = 0.0647 0.1120 0.0000 (  5275 PWs)   bands (ev):

   -20.9284 -20.9284  -8.9674  -8.9674  -5.8503  -5.8503  -5.3903  -5.3903
     1.9225   1.9225   2.8319   2.8320   3.2117   3.2117   5.1656   5.1656

          k = 0.0653 0.1132 0.0000 (  5265 PWs)   bands (ev):

   -20.9223 -20.9223  -8.9601  -8.9601  -5.8702  -5.8702  -5.4027  -5.4027
     1.9309   1.9309   2.8403   2.8404   3.2202   3.2202   5.1739   5.1739

          k = 0.0660 0.1143 0.0000 (  5265 PWs)   bands (ev):

   -20.9161 -20.9161  -8.9527  -8.9527  -5.8902  -5.8902  -5.4153  -5.4153
     1.9393   1.9393   2.8488   2.8488   3.2288   3.2288   5.1823   5.1823

          k = 0.0667 0.1155 0.0000 (  5261 PWs)   bands (ev):

   -20.9099 -20.9099  -8.9453  -8.9453  -5.9104  -5.9104  -5.4280  -5.4280
     1.9478   1.9478   2.8574   2.8574   3.2374   3.2375   5.1908   5.1908

          k = 0.0673 0.1166 0.0000 (  5263 PWs)   bands (ev):

   -20.9036 -20.9036  -8.9378  -8.9378  -5.9307  -5.9307  -5.4407  -5.4407
     1.9564   1.9564   2.8660   2.8661   3.2462   3.2462   5.1994   5.1994

          k = 0.0680 0.1178 0.0000 (  5267 PWs)   bands (ev):

   -20.8972 -20.8972  -8.9302  -8.9302  -5.9511  -5.9511  -5.4536  -5.4536
     1.9651   1.9651   2.8748   2.8748   3.2550   3.2550   5.2081   5.2081

          k = 0.0687 0.1189 0.0000 (  5271 PWs)   bands (ev):

   -20.8908 -20.8908  -8.9226  -8.9226  -5.9716  -5.9716  -5.4666  -5.4666
     1.9739   1.9739   2.8836   2.8836   3.2639   3.2640   5.2169   5.2169

          k = 0.0693 0.1201 0.0000 (  5271 PWs)   bands (ev):

   -20.8843 -20.8843  -8.9148  -8.9148  -5.9922  -5.9922  -5.4797  -5.4797
     1.9827   1.9828   2.8925   2.8925   3.2729   3.2730   5.2257   5.2257

          k = 0.0700 0.1212 0.0000 (  5271 PWs)   bands (ev):

   -20.8777 -20.8777  -8.9070  -8.9070  -6.0129  -6.0129  -5.4928  -5.4928
     1.9917   1.9917   2.9015   2.9015   3.2820   3.2821   5.2346   5.2346

          k = 0.0707 0.1224 0.0000 (  5275 PWs)   bands (ev):

   -20.8711 -20.8711  -8.8992  -8.8992  -6.0337  -6.0337  -5.5061  -5.5061
     2.0007   2.0007   2.9106   2.9106   3.2912   3.2912   5.2436   5.2436

          k = 0.0713 0.1236 0.0000 (  5275 PWs)   bands (ev):

   -20.8644 -20.8644  -8.8912  -8.8912  -6.0546  -6.0546  -5.5195  -5.5195
     2.0099   2.0099   2.9198   2.9198   3.3005   3.3005   5.2527   5.2527

          k = 0.0720 0.1247 0.0000 (  5275 PWs)   bands (ev):

   -20.8577 -20.8577  -8.8832  -8.8832  -6.0757  -6.0757  -5.5330  -5.5330
     2.0191   2.0191   2.9290   2.9291   3.3098   3.3099   5.2619   5.2619

          k = 0.0727 0.1259 0.0000 (  5275 PWs)   bands (ev):

   -20.8509 -20.8509  -8.8751  -8.8751  -6.0968  -6.0968  -5.5466  -5.5466
     2.0283   2.0284   2.9383   2.9384   3.3193   3.3193   5.2712   5.2712

          k = 0.0733 0.1270 0.0000 (  5271 PWs)   bands (ev):

   -20.8440 -20.8440  -8.8669  -8.8669  -6.1180  -6.1180  -5.5602  -5.5602
     2.0377   2.0377   2.9478   2.9478   3.3288   3.3288   5.2805   5.2806

          k = 0.0740 0.1282 0.0000 (  5271 PWs)   bands (ev):

   -20.8371 -20.8371  -8.8587  -8.8587  -6.1393  -6.1393  -5.5740  -5.5740
     2.0472   2.0472   2.9573   2.9573   3.3384   3.3385   5.2900   5.2900

          k = 0.0747 0.1293 0.0000 (  5269 PWs)   bands (ev):

   -20.8301 -20.8301  -8.8504  -8.8504  -6.1607  -6.1607  -5.5879  -5.5879
     2.0567   2.0568   2.9669   2.9669   3.3481   3.3482   5.2995   5.2995

          k = 0.0753 0.1305 0.0000 (  5273 PWs)   bands (ev):

   -20.8231 -20.8231  -8.8420  -8.8420  -6.1822  -6.1822  -5.6019  -5.6019
     2.0664   2.0664   2.9766   2.9766   3.3579   3.3580   5.3091   5.3091

          k = 0.0760 0.1316 0.0000 (  5273 PWs)   bands (ev):

   -20.8160 -20.8160  -8.8335  -8.8335  -6.2038  -6.2038  -5.6159  -5.6159
     2.0761   2.0761   2.9863   2.9864   3.3678   3.3678   5.3188   5.3188

          k = 0.0767 0.1328 0.0000 (  5273 PWs)   bands (ev):

   -20.8088 -20.8088  -8.8250  -8.8250  -6.2255  -6.2255  -5.6301  -5.6301
     2.0859   2.0859   2.9962   2.9962   3.3778   3.3778   5.3286   5.3286

          k = 0.0773 0.1339 0.0000 (  5271 PWs)   bands (ev):

   -20.8016 -20.8016  -8.8164  -8.8164  -6.2472  -6.2472  -5.6443  -5.6443
     2.0958   2.0958   3.0061   3.0062   3.3878   3.3878   5.3384   5.3385

          k = 0.0780 0.1351 0.0000 (  5271 PWs)   bands (ev):

   -20.7943 -20.7943  -8.8077  -8.8077  -6.2691  -6.2691  -5.6587  -5.6587
     2.1058   2.1058   3.0162   3.0162   3.3980   3.3980   5.3484   5.3484

          k = 0.0787 0.1363 0.0000 (  5271 PWs)   bands (ev):

   -20.7869 -20.7869  -8.7990  -8.7990  -6.2910  -6.2910  -5.6731  -5.6731
     2.1158   2.1158   3.0263   3.0263   3.4082   3.4082   5.3584   5.3584

          k = 0.0793 0.1374 0.0000 (  5271 PWs)   bands (ev):

   -20.7795 -20.7795  -8.7902  -8.7902  -6.3130  -6.3130  -5.6877  -5.6877
     2.1260   2.1260   3.0365   3.0365   3.4185   3.4185   5.3685   5.3685

          k = 0.0800 0.1386 0.0000 (  5271 PWs)   bands (ev):

   -20.7720 -20.7720  -8.7813  -8.7813  -6.3351  -6.3351  -5.7023  -5.7023
     2.1362   2.1362   3.0467   3.0468   3.4289   3.4289   5.3787   5.3787

          k = 0.0807 0.1397 0.0000 (  5271 PWs)   bands (ev):

   -20.7645 -20.7645  -8.7723  -8.7723  -6.3573  -6.3573  -5.7170  -5.7170
     2.1465   2.1465   3.0571   3.0572   3.4394   3.4394   5.3890   5.3890

          k = 0.0813 0.1409 0.0000 (  5271 PWs)   bands (ev):

   -20.7568 -20.7568  -8.7633  -8.7633  -6.3796  -6.3796  -5.7318  -5.7318
     2.1569   2.1570   3.0676   3.0676   3.4500   3.4500   5.3994   5.3994

          k = 0.0820 0.1420 0.0000 (  5269 PWs)   bands (ev):

   -20.7492 -20.7492  -8.7541  -8.7541  -6.4019  -6.4019  -5.7467  -5.7467
     2.1674   2.1674   3.0781   3.0782   3.4606   3.4606   5.4098   5.4099

          k = 0.0827 0.1432 0.0000 (  5269 PWs)   bands (ev):

   -20.7414 -20.7414  -8.7450  -8.7450  -6.4243  -6.4243  -5.7617  -5.7617
     2.1780   2.1780   3.0887   3.0888   3.4714   3.4714   5.4204   5.4204

          k = 0.0833 0.1443 0.0000 (  5269 PWs)   bands (ev):

   -20.7337 -20.7336  -8.7357  -8.7357  -6.4468  -6.4468  -5.7768  -5.7768
     2.1887   2.1887   3.0994   3.0995   3.4822   3.4822   5.4310   5.4310

          k = 0.0840 0.1455 0.0000 (  5269 PWs)   bands (ev):

   -20.7258 -20.7258  -8.7264  -8.7264  -6.4693  -6.4693  -5.7920  -5.7920
     2.1994   2.1994   3.1102   3.1103   3.4931   3.4932   5.4417   5.4417

          k = 0.0847 0.1466 0.0000 (  5269 PWs)   bands (ev):

   -20.7179 -20.7179  -8.7170  -8.7170  -6.4920  -6.4920  -5.8072  -5.8072
     2.2102   2.2103   3.1211   3.1212   3.5041   3.5042   5.4525   5.4525

          k = 0.0853 0.1478 0.0000 (  5269 PWs)   bands (ev):

   -20.7099 -20.7099  -8.7075  -8.7075  -6.5147  -6.5147  -5.8226  -5.8226
     2.2212   2.2212   3.1321   3.1321   3.5152   3.5153   5.4634   5.4634

          k = 0.0860 0.1490 0.0000 (  5271 PWs)   bands (ev):

   -20.7019 -20.7019  -8.6980  -8.6980  -6.5374  -6.5374  -5.8380  -5.8380
     2.2322   2.2322   3.1431   3.1432   3.5264   3.5264   5.4743   5.4743

          k = 0.0867 0.1501 0.0000 (  5271 PWs)   bands (ev):

   -20.6938 -20.6938  -8.6883  -8.6883  -6.5603  -6.5603  -5.8535  -5.8535
     2.2432   2.2433   3.1543   3.1543   3.5377   3.5377   5.4854   5.4854

          k = 0.0873 0.1513 0.0000 (  5277 PWs)   bands (ev):

   -20.6856 -20.6856  -8.6787  -8.6787  -6.5832  -6.5832  -5.8691  -5.8691
     2.2544   2.2544   3.1655   3.1655   3.5490   3.5491   5.4965   5.4965

          k = 0.0880 0.1524 0.0000 (  5273 PWs)   bands (ev):

   -20.6774 -20.6774  -8.6689  -8.6689  -6.6061  -6.6061  -5.8848  -5.8848
     2.2657   2.2657   3.1768   3.1769   3.5605   3.5605   5.5077   5.5077

          k = 0.0887 0.1536 0.0000 (  5277 PWs)   bands (ev):

   -20.6691 -20.6691  -8.6591  -8.6591  -6.6292  -6.6291  -5.9006  -5.9006
     2.2770   2.2770   3.1882   3.1883   3.5720   3.5720   5.5190   5.5190

          k = 0.0893 0.1547 0.0000 (  5277 PWs)   bands (ev):

   -20.6607 -20.6607  -8.6492  -8.6492  -6.6522  -6.6522  -5.9164  -5.9164
     2.2885   2.2885   3.1997   3.1997   3.5836   3.5837   5.5304   5.5304

          k = 0.0900 0.1559 0.0000 (  5277 PWs)   bands (ev):

   -20.6523 -20.6523  -8.6392  -8.6392  -6.6754  -6.6754  -5.9323  -5.9323
     2.3000   2.3000   3.2112   3.2113   3.5953   3.5954   5.5419   5.5419

          k = 0.0907 0.1570 0.0000 (  5277 PWs)   bands (ev):

   -20.6438 -20.6438  -8.6291  -8.6291  -6.6986  -6.6986  -5.9483  -5.9483
     2.3116   2.3116   3.2229   3.2229   3.6071   3.6072   5.5534   5.5534

          k = 0.0913 0.1582 0.0000 (  5273 PWs)   bands (ev):

   -20.6353 -20.6353  -8.6190  -8.6190  -6.7218  -6.7218  -5.9644  -5.9644
     2.3233   2.3233   3.2346   3.2347   3.6190   3.6190   5.5650   5.5651

          k = 0.0920 0.1593 0.0000 (  5273 PWs)   bands (ev):

   -20.6267 -20.6267  -8.6088  -8.6088  -6.7452  -6.7452  -5.9806  -5.9806
     2.3350   2.3351   3.2464   3.2465   3.6310   3.6310   5.5768   5.5768

          k = 0.0927 0.1605 0.0000 (  5273 PWs)   bands (ev):

   -20.6181 -20.6181  -8.5985  -8.5985  -6.7685  -6.7685  -5.9969  -5.9969
     2.3469   2.3469   3.2584   3.2584   3.6430   3.6431   5.5886   5.5886

          k = 0.0933 0.1617 0.0000 (  5269 PWs)   bands (ev):

   -20.6093 -20.6093  -8.5882  -8.5882  -6.7920  -6.7920  -6.0132  -6.0132
     2.3588   2.3589   3.2703   3.2704   3.6552   3.6552   5.6005   5.6005

          k = 0.0940 0.1628 0.0000 (  5269 PWs)   bands (ev):

   -20.6005 -20.6005  -8.5778  -8.5778  -6.8154  -6.8154  -6.0296  -6.0296
     2.3709   2.3709   3.2824   3.2825   3.6674   3.6674   5.6124   5.6124

          k = 0.0947 0.1640 0.0000 (  5267 PWs)   bands (ev):

   -20.5917 -20.5917  -8.5673  -8.5673  -6.8390  -6.8390  -6.0461  -6.0461
     2.3830   2.3830   3.2946   3.2946   3.6797   3.6798   5.6245   5.6245

          k = 0.0953 0.1651 0.0000 (  5267 PWs)   bands (ev):

   -20.5828 -20.5828  -8.5568  -8.5568  -6.8625  -6.8625  -6.0626  -6.0626
     2.3952   2.3952   3.3068   3.3069   3.6921   3.6922   5.6366   5.6366

          k = 0.0960 0.1663 0.0000 (  5271 PWs)   bands (ev):

   -20.5738 -20.5738  -8.5462  -8.5462  -6.8862  -6.8862  -6.0793  -6.0793
     2.4075   2.4075   3.3192   3.3192   3.7046   3.7046   5.6488   5.6488

          k = 0.0967 0.1674 0.0000 (  5271 PWs)   bands (ev):

   -20.5648 -20.5648  -8.5355  -8.5355  -6.9099  -6.9099  -6.0960  -6.0960
     2.4198   2.4199   3.3316   3.3316   3.7172   3.7172   5.6611   5.6612

          k = 0.0973 0.1686 0.0000 (  5271 PWs)   bands (ev):

   -20.5557 -20.5557  -8.5247  -8.5247  -6.9336  -6.9336  -6.1127  -6.1127
     2.4323   2.4323   3.3441   3.3441   3.7298   3.7299   5.6735   5.6735

          k = 0.0980 0.1697 0.0000 (  5271 PWs)   bands (ev):

   -20.5466 -20.5466  -8.5139  -8.5139  -6.9573  -6.9573  -6.1296  -6.1296
     2.4448   2.4449   3.3567   3.3567   3.7426   3.7426   5.6860   5.6860

          k = 0.0987 0.1709 0.0000 (  5267 PWs)   bands (ev):

   -20.5374 -20.5374  -8.5030  -8.5030  -6.9812  -6.9812  -6.1465  -6.1465
     2.4575   2.4575   3.3693   3.3694   3.7554   3.7555   5.6986   5.6986

          k = 0.0993 0.1721 0.0000 (  5267 PWs)   bands (ev):

   -20.5281 -20.5281  -8.4920  -8.4920  -7.0050  -7.0050  -6.1635  -6.1635
     2.4702   2.4702   3.3821   3.3822   3.7684   3.7684   5.7112   5.7112

          k = 0.1000 0.1732 0.0000 (  5269 PWs)   bands (ev):

   -20.5187 -20.5187  -8.4810  -8.4810  -7.0289  -7.0289  -6.1806  -6.1806
     2.4830   2.4830   3.3949   3.3950   3.7814   3.7814   5.7239   5.7239

          k = 0.1007 0.1744 0.0000 (  5269 PWs)   bands (ev):

   -20.5094 -20.5093  -8.4698  -8.4698  -7.0529  -7.0529  -6.1977  -6.1977
     2.4959   2.4959   3.4079   3.4079   3.7945   3.7945   5.7367   5.7367

          k = 0.1013 0.1755 0.0000 (  5269 PWs)   bands (ev):

   -20.4999 -20.4999  -8.4586  -8.4586  -7.0768  -7.0768  -6.2150  -6.2150
     2.5088   2.5089   3.4209   3.4209   3.8077   3.8077   5.7496   5.7496

          k = 0.1020 0.1767 0.0000 (  5269 PWs)   bands (ev):

   -20.4904 -20.4904  -8.4474  -8.4474  -7.1009  -7.1009  -6.2322  -6.2322
     2.5219   2.5219   3.4340   3.4340   3.8209   3.8210   5.7626   5.7626

          k = 0.1027 0.1778 0.0000 (  5269 PWs)   bands (ev):

   -20.4808 -20.4808  -8.4361  -8.4361  -7.1249  -7.1249  -6.2496  -6.2496
     2.5350   2.5351   3.4472   3.4472   3.8343   3.8343   5.7757   5.7757

          k = 0.1033 0.1790 0.0000 (  5263 PWs)   bands (ev):

   -20.4712 -20.4712  -8.4247  -8.4247  -7.1490  -7.1490  -6.2670  -6.2670
     2.5483   2.5483   3.4604   3.4605   3.8477   3.8478   5.7888   5.7888

          k = 0.1040 0.1801 0.0000 (  5263 PWs)   bands (ev):

   -20.4615 -20.4615  -8.4132  -8.4132  -7.1731  -7.1731  -6.2845  -6.2845
     2.5616   2.5616   3.4738   3.4738   3.8613   3.8613   5.8020   5.8020

          k = 0.1047 0.1813 0.0000 (  5262 PWs)   bands (ev):

   -20.4517 -20.4517  -8.4016  -8.4016  -7.1973  -7.1973  -6.3020  -6.3020
     2.5750   2.5750   3.4872   3.4873   3.8749   3.8749   5.8153   5.8153

          k = 0.1053 0.1824 0.0000 (  5262 PWs)   bands (ev):

   -20.4419 -20.4419  -8.3900  -8.3900  -7.2215  -7.2215  -6.3197  -6.3197
     2.5885   2.5885   3.5007   3.5008   3.8886   3.8886   5.8287   5.8287

          k = 0.1060 0.1836 0.0000 (  5262 PWs)   bands (ev):

   -20.4320 -20.4320  -8.3784  -8.3784  -7.2457  -7.2457  -6.3374  -6.3374
     2.6020   2.6021   3.5143   3.5144   3.9024   3.9024   5.8422   5.8422

          k = 0.1067 0.1848 0.0000 (  5262 PWs)   bands (ev):

   -20.4220 -20.4220  -8.3666  -8.3666  -7.2700  -7.2700  -6.3551  -6.3551
     2.6157   2.6157   3.5280   3.5281   3.9163   3.9163   5.8558   5.8558

          k = 0.1073 0.1859 0.0000 (  5262 PWs)   bands (ev):

   -20.4120 -20.4120  -8.3548  -8.3548  -7.2943  -7.2943  -6.3729  -6.3729
     2.6294   2.6294   3.5418   3.5419   3.9302   3.9303   5.8694   5.8694

          k = 0.1080 0.1871 0.0000 (  5262 PWs)   bands (ev):

   -20.4020 -20.4020  -8.3429  -8.3429  -7.3186  -7.3186  -6.3908  -6.3908
     2.6432   2.6433   3.5557   3.5557   3.9443   3.9443   5.8831   5.8831

          k = 0.1087 0.1882 0.0000 (  5258 PWs)   bands (ev):

   -20.3918 -20.3918  -8.3309  -8.3309  -7.3430  -7.3430  -6.4087  -6.4087
     2.6572   2.6572   3.5696   3.5697   3.9584   3.9585   5.8969   5.8970

          k = 0.1093 0.1894 0.0000 (  5258 PWs)   bands (ev):

   -20.3816 -20.3816  -8.3189  -8.3189  -7.3673  -7.3673  -6.4267  -6.4267
     2.6711   2.6712   3.5836   3.5837   3.9727   3.9727   5.9108   5.9108

          k = 0.1100 0.1905 0.0000 (  5258 PWs)   bands (ev):

   -20.3714 -20.3714  -8.3068  -8.3068  -7.3917  -7.3917  -6.4448  -6.4448
     2.6852   2.6853   3.5978   3.5978   3.9870   3.9870   5.9248   5.9248

          k = 0.1107 0.1917 0.0000 (  5258 PWs)   bands (ev):

   -20.3611 -20.3611  -8.2946  -8.2946  -7.4162  -7.4162  -6.4629  -6.4629
     2.6994   2.6994   3.6120   3.6120   4.0014   4.0014   5.9389   5.9389

          k = 0.1113 0.1928 0.0000 (  5258 PWs)   bands (ev):

   -20.3507 -20.3507  -8.2824  -8.2824  -7.4406  -7.4406  -6.4811  -6.4811
     2.7136   2.7137   3.6262   3.6263   4.0159   4.0159   5.9530   5.9530

          k = 0.1120 0.1940 0.0000 (  5258 PWs)   bands (ev):

   -20.3403 -20.3403  -8.2701  -8.2701  -7.4651  -7.4651  -6.4993  -6.4993
     2.7280   2.7280   3.6406   3.6407   4.0304   4.0305   5.9672   5.9672

          k = 0.1127 0.1951 0.0000 (  5258 PWs)   bands (ev):

   -20.3298 -20.3298  -8.2577  -8.2577  -7.4896  -7.4896  -6.5176  -6.5176
     2.7424   2.7424   3.6551   3.6551   4.0451   4.0451   5.9815   5.9815

          k = 0.1133 0.1963 0.0000 (  5258 PWs)   bands (ev):

   -20.3192 -20.3192  -8.2453  -8.2452  -7.5142  -7.5142  -6.5360  -6.5360
     2.7569   2.7569   3.6696   3.6697   4.0599   4.0599   5.9959   5.9959

          k = 0.1140 0.1975 0.0000 (  5258 PWs)   bands (ev):

   -20.3086 -20.3086  -8.2327  -8.2327  -7.5387  -7.5387  -6.5544  -6.5544
     2.7715   2.7715   3.6842   3.6843   4.0747   4.0747   6.0104   6.0104

          k = 0.1147 0.1986 0.0000 (  5258 PWs)   bands (ev):

   -20.2979 -20.2979  -8.2201  -8.2201  -7.5633  -7.5633  -6.5729  -6.5729
     2.7862   2.7862   3.6989   3.6990   4.0896   4.0897   6.0249   6.0250

          k = 0.1153 0.1998 0.0000 (  5258 PWs)   bands (ev):

   -20.2872 -20.2872  -8.2075  -8.2075  -7.5879  -7.5879  -6.5914  -6.5914
     2.8009   2.8010   3.7137   3.7138   4.1046   4.1047   6.0396   6.0396

          k = 0.1160 0.2009 0.0000 (  5258 PWs)   bands (ev):

   -20.2764 -20.2764  -8.1948  -8.1948  -7.6125  -7.6125  -6.6100  -6.6100
     2.8158   2.8158   3.7286   3.7287   4.1197   4.1198   6.0543   6.0543

          k = 0.1167 0.2021 0.0000 (  5260 PWs)   bands (ev):

   -20.2655 -20.2655  -8.1820  -8.1820  -7.6371  -7.6371  -6.6286  -6.6286
     2.8307   2.8307   3.7436   3.7436   4.1349   4.1350   6.0691   6.0691

          k = 0.1173 0.2032 0.0000 (  5262 PWs)   bands (ev):

   -20.2546 -20.2546  -8.1691  -8.1691  -7.6617  -7.6617  -6.6473  -6.6473
     2.8457   2.8458   3.7586   3.7587   4.1502   4.1502   6.0840   6.0840

          k = 0.1180 0.2044 0.0000 (  5262 PWs)   bands (ev):

   -20.2436 -20.2436  -8.1562  -8.1562  -7.6864  -7.6864  -6.6660  -6.6660
     2.8608   2.8609   3.7737   3.7738   4.1655   4.1656   6.0990   6.0990

          k = 0.1187 0.2055 0.0000 (  5264 PWs)   bands (ev):

   -20.2326 -20.2326  -8.1432  -8.1432  -7.7111  -7.7111  -6.6848  -6.6848
     2.8760   2.8760   3.7889   3.7890   4.1810   4.1810   6.1140   6.1140

          k = 0.1193 0.2067 0.0000 (  5260 PWs)   bands (ev):

   -20.2215 -20.2215  -8.1301  -8.1301  -7.7358  -7.7358  -6.7037  -6.7037
     2.8913   2.8913   3.8042   3.8043   4.1965   4.1966   6.1291   6.1291

          k = 0.1200 0.2078 0.0000 (  5264 PWs)   bands (ev):

   -20.2103 -20.2103  -8.1170  -8.1170  -7.7605  -7.7605  -6.7226  -6.7226
     2.9067   2.9067   3.8196   3.8197   4.2121   4.2122   6.1443   6.1444

          k = 0.1207 0.2090 0.0000 (  5264 PWs)   bands (ev):

   -20.1991 -20.1991  -8.1038  -8.1038  -7.7852  -7.7852  -6.7415  -6.7415
     2.9221   2.9221   3.8351   3.8352   4.2279   4.2279   6.1596   6.1597

          k = 0.1213 0.2102 0.0000 (  5260 PWs)   bands (ev):

   -20.1878 -20.1878  -8.0905  -8.0905  -7.8099  -7.8099  -6.7605  -6.7605
     2.9376   2.9377   3.8506   3.8507   4.2436   4.2437   6.1750   6.1750

          k = 0.1220 0.2113 0.0000 (  5264 PWs)   bands (ev):

   -20.1764 -20.1764  -8.0772  -8.0772  -7.8347  -7.8347  -6.7795  -6.7795
     2.9532   2.9533   3.8663   3.8663   4.2595   4.2596   6.1905   6.1905

          k = 0.1227 0.2125 0.0000 (  5260 PWs)   bands (ev):

   -20.1650 -20.1650  -8.0638  -8.0637  -7.8594  -7.8594  -6.7986  -6.7986
     2.9689   2.9690   3.8820   3.8821   4.2755   4.2755   6.2060   6.2060

          k = 0.1233 0.2136 0.0000 (  5264 PWs)   bands (ev):

   -20.1536 -20.1536  -8.0503  -8.0503  -7.8842  -7.8842  -6.8178  -6.8178
     2.9847   2.9847   3.8978   3.8979   4.2916   4.2916   6.2216   6.2217

          k = 0.1240 0.2148 0.0000 (  5264 PWs)   bands (ev):

   -20.1420 -20.1420  -8.0367  -8.0367  -7.9090  -7.9090  -6.8370  -6.8370
     3.0006   3.0006   3.9137   3.9137   4.3077   4.3077   6.2373   6.2374

          k = 0.1247 0.2159 0.0000 (  5264 PWs)   bands (ev):

   -20.1305 -20.1305  -8.0231  -8.0231  -7.9337  -7.9337  -6.8562  -6.8562
     3.0165   3.0166   3.9296   3.9297   4.3239   4.3240   6.2531   6.2531

          k = 0.1253 0.2171 0.0000 (  5264 PWs)   bands (ev):

   -20.1188 -20.1188  -8.0094  -8.0094  -7.9585  -7.9585  -6.8755  -6.8755
     3.0326   3.0326   3.9457   3.9458   4.3402   4.3403   6.2690   6.2690

          k = 0.1260 0.2182 0.0000 (  5260 PWs)   bands (ev):

   -20.1071 -20.1071  -7.9957  -7.9957  -7.9833  -7.9833  -6.8948  -6.8948
     3.0487   3.0487   3.9618   3.9619   4.3566   4.3567   6.2850   6.2850

          k = 0.1267 0.2194 0.0000 (  5260 PWs)   bands (ev):

   -20.0953 -20.0953  -8.0082  -8.0082  -7.9818  -7.9818  -6.9142  -6.9142
     3.0649   3.0649   3.9781   3.9781   4.3731   4.3732   6.3010   6.3010

          k = 0.1273 0.2205 0.0000 (  5260 PWs)   bands (ev):

   -20.0835 -20.0835  -8.0330  -8.0330  -7.9680  -7.9680  -6.9336  -6.9336
     3.0812   3.0812   3.9944   3.9944   4.3897   4.3897   6.3171   6.3171

          k = 0.1280 0.2217 0.0000 (  5260 PWs)   bands (ev):

   -20.0716 -20.0716  -8.0578  -8.0578  -7.9540  -7.9540  -6.9530  -6.9530
     3.0976   3.0976   4.0107   4.0108   4.4064   4.4064   6.3333   6.3333

          k = 0.1287 0.2229 0.0000 (  5260 PWs)   bands (ev):

   -20.0597 -20.0597  -8.0826  -8.0826  -7.9400  -7.9400  -6.9725  -6.9725
     3.1140   3.1141   4.0272   4.0273   4.4231   4.4232   6.3338   6.3338

          k = 0.1293 0.2240 0.0000 (  5264 PWs)   bands (ev):

   -20.0477 -20.0477  -8.1074  -8.1074  -7.9259  -7.9259  -6.9921  -6.9921
     3.1306   3.1306   4.0438   4.0438   4.4400   4.4400   6.3052   6.3052

          k = 0.1300 0.2252 0.0000 (  5260 PWs)   bands (ev):

   -20.0356 -20.0356  -8.1323  -8.1323  -7.9118  -7.9118  -7.0117  -7.0117
     3.1472   3.1473   4.0604   4.0605   4.4569   4.4569   6.2766   6.2766

          k = 0.1307 0.2263 0.0000 (  5260 PWs)   bands (ev):

   -20.0235 -20.0235  -8.1571  -8.1571  -7.8975  -7.8975  -7.0313  -7.0313
     3.1639   3.1640   4.0771   4.0772   4.4739   4.4739   6.2479   6.2479

          k = 0.1313 0.2275 0.0000 (  5268 PWs)   bands (ev):

   -20.0113 -20.0113  -8.1819  -8.1819  -7.8833  -7.8833  -7.0509  -7.0509
     3.1808   3.1808   4.0939   4.0940   4.4910   4.4910   6.2192   6.2192

          k = 0.1320 0.2286 0.0000 (  5264 PWs)   bands (ev):

   -19.9990 -19.9990  -8.2068  -8.2068  -7.8689  -7.8689  -7.0706  -7.0706
     3.1976   3.1977   4.1108   4.1109   4.5082   4.5082   6.1905   6.1905

          k = 0.1327 0.2298 0.0000 (  5264 PWs)   bands (ev):

   -19.9867 -19.9867  -8.2316  -8.2316  -7.8545  -7.8545  -7.0904  -7.0904
     3.2146   3.2146   4.1278   4.1279   4.5254   4.5255   6.1617   6.1617

          k = 0.1333 0.2309 0.0000 (  5260 PWs)   bands (ev):

   -19.9743 -19.9743  -8.2564  -8.2564  -7.8400  -7.8400  -7.1102  -7.1102
     3.2317   3.2317   4.1449   4.1449   4.5428   4.5428   6.1329   6.1329

          k = 0.1340 0.2321 0.0000 (  5268 PWs)   bands (ev):

   -19.9619 -19.9619  -8.2813  -8.2813  -7.8255  -7.8255  -7.1300  -7.1300
     3.2488   3.2488   4.1620   4.1621   4.5602   4.5603   6.1040   6.1040

          k = 0.1347 0.2332 0.0000 (  5272 PWs)   bands (ev):

   -19.9494 -19.9494  -8.3061  -8.3061  -7.8108  -7.8108  -7.1498  -7.1498
     3.2660   3.2661   4.1792   4.1793   4.5778   4.5778   6.0751   6.0751

          k = 0.1353 0.2344 0.0000 (  5272 PWs)   bands (ev):

   -19.9369 -19.9369  -8.3309  -8.3309  -7.7962  -7.7962  -7.1697  -7.1697
     3.2834   3.2834   4.1965   4.1966   4.5954   4.5954   6.0462   6.0462

          k = 0.1360 0.2356 0.0000 (  5272 PWs)   bands (ev):

   -19.9243 -19.9243  -8.3558  -8.3558  -7.7814  -7.7814  -7.1896  -7.1896
     3.3007   3.3008   4.2139   4.2140   4.6131   4.6131   6.0172   6.0172

          k = 0.1367 0.2367 0.0000 (  5272 PWs)   bands (ev):

   -19.9116 -19.9116  -8.3806  -8.3806  -7.7666  -7.7666  -7.2096  -7.2096
     3.3182   3.3183   4.2314   4.2315   4.6309   4.6309   5.9882   5.9882

          k = 0.1373 0.2379 0.0000 (  5272 PWs)   bands (ev):

   -19.8989 -19.8989  -8.4054  -8.4054  -7.7517  -7.7517  -7.2296  -7.2296
     3.3358   3.3358   4.2489   4.2490   4.6488   4.6488   5.9592   5.9592

          k = 0.1380 0.2390 0.0000 (  5276 PWs)   bands (ev):

   -19.8861 -19.8861  -8.4303  -8.4303  -7.7368  -7.7368  -7.2496  -7.2496
     3.3534   3.3535   4.2666   4.2667   4.6667   4.6668   5.9301   5.9301

          k = 0.1387 0.2402 0.0000 (  5272 PWs)   bands (ev):

   -19.8733 -19.8733  -8.4551  -8.4551  -7.7217  -7.7217  -7.2697  -7.2697
     3.3712   3.3712   4.2843   4.2844   4.6848   4.6848   5.9010   5.9010

          k = 0.1393 0.2413 0.0000 (  5272 PWs)   bands (ev):

   -19.8604 -19.8604  -8.4799  -8.4799  -7.7067  -7.7067  -7.2898  -7.2898
     3.3890   3.3890   4.3021   4.3022   4.7029   4.7030   5.8719   5.8719

          k = 0.1400 0.2425 0.0000 (  5272 PWs)   bands (ev):

   -19.8474 -19.8474  -8.5047  -8.5047  -7.6915  -7.6915  -7.3099  -7.3099
     3.4069   3.4069   4.3200   4.3201   4.7211   4.7212   5.8427   5.8427

          k = 0.1407 0.2436 0.0000 (  5272 PWs)   bands (ev):

   -19.8344 -19.8344  -8.5295  -8.5295  -7.6763  -7.6763  -7.3300  -7.3300
     3.4249   3.4249   4.3380   4.3380   4.7395   4.7395   5.8135   5.8135

          k = 0.1413 0.2448 0.0000 (  5272 PWs)   bands (ev):

   -19.8213 -19.8213  -8.5543  -8.5543  -7.6610  -7.6610  -7.3502  -7.3502
     3.4430   3.4430   4.3560   4.3561   4.7579   4.7579   5.7843   5.7843

          k = 0.1420 0.2460 0.0000 (  5270 PWs)   bands (ev):

   -19.8081 -19.8081  -8.5791  -8.5791  -7.6457  -7.6457  -7.3704  -7.3704
     3.4611   3.4612   4.3741   4.3742   4.7763   4.7764   5.7551   5.7551

          k = 0.1427 0.2471 0.0000 (  5270 PWs)   bands (ev):

   -19.7949 -19.7949  -8.6039  -8.6039  -7.6303  -7.6303  -7.3907  -7.3907
     3.4794   3.4794   4.3924   4.3924   4.7949   4.7950   5.7258   5.7258

          k = 0.1433 0.2483 0.0000 (  5270 PWs)   bands (ev):

   -19.7817 -19.7817  -8.6286  -8.6286  -7.6148  -7.6148  -7.4109  -7.4109
     3.4977   3.4977   4.4107   4.4107   4.8136   4.8136   5.6965   5.6965

          k = 0.1440 0.2494 0.0000 (  5276 PWs)   bands (ev):

   -19.7684 -19.7684  -8.6534  -8.6534  -7.5993  -7.5993  -7.4312  -7.4312
     3.5161   3.5162   4.4290   4.4291   4.8323   4.8324   5.6672   5.6672

          k = 0.1447 0.2506 0.0000 (  5276 PWs)   bands (ev):

   -19.7550 -19.7550  -8.6781  -8.6781  -7.5837  -7.5837  -7.4516  -7.4516
     3.5346   3.5347   4.4475   4.4476   4.8511   4.8512   5.6378   5.6378

          k = 0.1453 0.2517 0.0000 (  5280 PWs)   bands (ev):

   -19.7415 -19.7415  -8.7029  -8.7029  -7.5681  -7.5680  -7.4719  -7.4719
     3.5532   3.5532   4.4661   4.4661   4.8701   4.8701   5.6084   5.6084

          k = 0.1460 0.2529 0.0000 (  5280 PWs)   bands (ev):

   -19.7280 -19.7280  -8.7276  -8.7276  -7.5523  -7.5523  -7.4923  -7.4923
     3.5719   3.5719   4.4847   4.4848   4.8891   4.8891   5.5790   5.5790

          k = 0.1467 0.2540 0.0000 (  5280 PWs)   bands (ev):

   -19.7145 -19.7145  -8.7524  -8.7523  -7.5366  -7.5365  -7.5127  -7.5126
     3.5906   3.5907   4.5034   4.5035   4.9082   4.9082   5.5496   5.5496

          k = 0.1473 0.2552 0.0000 (  5276 PWs)   bands (ev):

   -19.7009 -19.7009  -8.7771  -8.7771  -7.5333  -7.5332  -7.5206  -7.5205
     3.6095   3.6095   4.5222   4.5223   4.9273   4.9274   5.5202   5.5202

          k = 0.1480 0.2563 0.0000 (  5276 PWs)   bands (ev):

   -19.6872 -19.6872  -8.8018  -8.8018  -7.5537  -7.5536  -7.5047  -7.5047
     3.6284   3.6284   4.5411   4.5411   4.9466   4.9467   5.4907   5.4907

          k = 0.1487 0.2575 0.0000 (  5276 PWs)   bands (ev):

   -19.6735 -19.6735  -8.8264  -8.8264  -7.5741  -7.5741  -7.4887  -7.4887
     3.6474   3.6474   4.5600   4.5601   4.9660   4.9660   5.4612   5.4612

          k = 0.1493 0.2587 0.0000 (  5280 PWs)   bands (ev):

   -19.6597 -19.6597  -8.8511  -8.8511  -7.5946  -7.5946  -7.4727  -7.4727
     3.6665   3.6665   4.5791   4.5791   4.9854   4.9855   5.4317   5.4317

          k = 0.1500 0.2598 0.0000 (  5280 PWs)   bands (ev):

   -19.6458 -19.6458  -8.8758  -8.8758  -7.6151  -7.6151  -7.4566  -7.4566
     3.6856   3.6857   4.5982   4.5983   5.0049   5.0050   5.4022   5.4022

          k = 0.1507 0.2610 0.0000 (  5280 PWs)   bands (ev):

   -19.6319 -19.6319  -8.9004  -8.9004  -7.6357  -7.6357  -7.4404  -7.4404
     3.7049   3.7049   4.6174   4.6175   5.0245   5.0246   5.3726   5.3727

          k = 0.1513 0.2621 0.0000 (  5280 PWs)   bands (ev):

   -19.6179 -19.6179  -8.9251  -8.9251  -7.6563  -7.6563  -7.4242  -7.4242
     3.7242   3.7243   4.6367   4.6367   5.0442   5.0443   5.3431   5.3431

          k = 0.1520 0.2633 0.0000 (  5282 PWs)   bands (ev):

   -19.6039 -19.6039  -8.9497  -8.9497  -7.6769  -7.6768  -7.4079  -7.4079
     3.7437   3.7437   4.6560   4.6561   5.0640   5.0641   5.3135   5.3135

          k = 0.1527 0.2644 0.0000 (  5282 PWs)   bands (ev):

   -19.5898 -19.5898  -8.9743  -8.9743  -7.6975  -7.6975  -7.3915  -7.3915
     3.7632   3.7632   4.6755   4.6756   5.0839   5.0839   5.2839   5.2839

          k = 0.1533 0.2656 0.0000 (  5286 PWs)   bands (ev):

   -19.5757 -19.5757  -8.9989  -8.9989  -7.7181  -7.7181  -7.3751  -7.3751
     3.7828   3.7828   4.6950   4.6951   5.1039   5.1039   5.2543   5.2543

          k = 0.1540 0.2667 0.0000 (  5286 PWs)   bands (ev):

   -19.5615 -19.5615  -9.0235  -9.0235  -7.7387  -7.7387  -7.3586  -7.3586
     3.8024   3.8025   4.7146   4.7147   5.1239   5.1240   5.2247   5.2247

          k = 0.1547 0.2679 0.0000 (  5286 PWs)   bands (ev):

   -19.5472 -19.5472  -9.0480  -9.0480  -7.7594  -7.7594  -7.3421  -7.3421
     3.8222   3.8222   4.7343   4.7344   5.1440   5.1441   5.1951   5.1951

          k = 0.1553 0.2690 0.0000 (  5282 PWs)   bands (ev):

   -19.5329 -19.5329  -9.0726  -9.0726  -7.7801  -7.7801  -7.3255  -7.3255
     3.8421   3.8421   4.7541   4.7542   5.1642   5.1643   5.1655   5.1655

          k = 0.1560 0.2702 0.0000 (  5282 PWs)   bands (ev):

   -19.5185 -19.5185  -9.0971  -9.0971  -7.8008  -7.8008  -7.3088  -7.3088
     3.8620   3.8620   4.7739   4.7740   5.1358   5.1358   5.1846   5.1846

          k = 0.1567 0.2714 0.0000 (  5286 PWs)   bands (ev):

   -19.5041 -19.5041  -9.1216  -9.1216  -7.8215  -7.8215  -7.2921  -7.2921
     3.8820   3.8820   4.7938   4.7939   5.1061   5.1061   5.2049   5.2050

          k = 0.1573 0.2725 0.0000 (  5286 PWs)   bands (ev):

   -19.4896 -19.4896  -9.1461  -9.1461  -7.8423  -7.8423  -7.2753  -7.2753
     3.9021   3.9021   4.8139   4.8139   5.0765   5.0765   5.2254   5.2255

          k = 0.1580 0.2737 0.0000 (  5286 PWs)   bands (ev):

   -19.4750 -19.4750  -9.1706  -9.1705  -7.8631  -7.8630  -7.2584  -7.2584
     3.9223   3.9223   4.8340   4.8340   5.0468   5.0468   5.2460   5.2460

          k = 0.1587 0.2748 0.0000 (  5286 PWs)   bands (ev):

   -19.4604 -19.4604  -9.1950  -9.1950  -7.8838  -7.8838  -7.2415  -7.2415
     3.9425   3.9426   4.8541   4.8542   5.0171   5.0171   5.2666   5.2667

          k = 0.1593 0.2760 0.0000 (  5286 PWs)   bands (ev):

   -19.4458 -19.4458  -9.2194  -9.2194  -7.9046  -7.9046  -7.2245  -7.2245
     3.9629   3.9629   4.8744   4.8745   4.9874   4.9874   5.2874   5.2874

          k = 0.1600 0.2771 0.0000 (  5286 PWs)   bands (ev):

   -19.4310 -19.4310  -9.2439  -9.2438  -7.9254  -7.9254  -7.2075  -7.2075
     3.9833   3.9834   4.8947   4.8948   4.9577   4.9577   5.3082   5.3083

          k = 0.1607 0.2783 0.0000 (  5286 PWs)   bands (ev):

   -19.4162 -19.4162  -9.2682  -9.2682  -7.9462  -7.9462  -7.1904  -7.1904
     4.0039   4.0039   4.9151   4.9152   4.9280   4.9280   5.3291   5.3292

          k = 0.1613 0.2794 0.0000 (  5290 PWs)   bands (ev):

   -19.4014 -19.4014  -9.2926  -9.2926  -7.9671  -7.9671  -7.1732  -7.1732
     4.0245   4.0245   4.8982   4.8982   4.9356   4.9357   5.3501   5.3502

          k = 0.1620 0.2806 0.0000 (  5290 PWs)   bands (ev):

   -19.3865 -19.3865  -9.3170  -9.3170  -7.9879  -7.9879  -7.1560  -7.1560
     4.0451   4.0452   4.8685   4.8685   4.9562   4.9563   5.3712   5.3712

          k = 0.1627 0.2817 0.0000 (  5288 PWs)   bands (ev):

   -19.3715 -19.3715  -9.3413  -9.3413  -8.0088  -8.0088  -7.1387  -7.1387
     4.0659   4.0660   4.8388   4.8388   4.9769   4.9769   5.3924   5.3924

          k = 0.1633 0.2829 0.0000 (  5288 PWs)   bands (ev):

   -19.3565 -19.3565  -9.3656  -9.3656  -8.0296  -8.0296  -7.1214  -7.1214
     4.0868   4.0868   4.8090   4.8091   4.9976   4.9977   5.4136   5.4137

          k = 0.1640 0.2841 0.0000 (  5288 PWs)   bands (ev):

   -19.3415 -19.3415  -9.3899  -9.3899  -8.0505  -8.0505  -7.1040  -7.1040
     4.1077   4.1077   4.7793   4.7793   5.0184   5.0185   5.4350   5.4350

          k = 0.1647 0.2852 0.0000 (  5288 PWs)   bands (ev):

   -19.3263 -19.3263  -9.4142  -9.4142  -8.0714  -8.0714  -7.0865  -7.0865
     4.1287   4.1288   4.7496   4.7496   5.0393   5.0394   5.4564   5.4564

          k = 0.1653 0.2864 0.0000 (  5288 PWs)   bands (ev):

   -19.3111 -19.3111  -9.4384  -9.4384  -8.0923  -8.0923  -7.0690  -7.0690
     4.1498   4.1499   4.7198   4.7198   5.0603   5.0604   5.4779   5.4780

          k = 0.1660 0.2875 0.0000 (  5288 PWs)   bands (ev):

   -19.2959 -19.2959  -9.4627  -9.4627  -8.1132  -8.1132  -7.0514  -7.0514
     4.1710   4.1711   4.6901   4.6901   5.0813   5.0814   5.4995   5.4996

          k = 0.1667 0.2887 0.0000 (  5288 PWs)   bands (ev):

   -19.2806 -19.2806  -9.4869  -9.4869  -8.1342  -8.1342  -7.0337  -7.0337
     4.1923   4.1923   4.6603   4.6604   5.1025   5.1025   5.5212   5.5212

          k = 0.1673 0.2898 0.0000 (  5284 PWs)   bands (ev):

   -19.2652 -19.2652  -9.5110  -9.5110  -8.1551  -8.1551  -7.0160  -7.0160
     4.2137   4.2137   4.6306   4.6306   5.1237   5.1238   5.5430   5.5430

          k = 0.1680 0.2910 0.0000 (  5284 PWs)   bands (ev):

   -19.2498 -19.2498  -9.5352  -9.5352  -8.1760  -8.1760  -6.9983  -6.9983
     4.2351   4.2351   4.6009   4.6009   5.1449   5.1450   5.5648   5.5649

          k = 0.1687 0.2921 0.0000 (  5280 PWs)   bands (ev):

   -19.2343 -19.2343  -9.5593  -9.5593  -8.1970  -8.1970  -6.9805  -6.9805
     4.2566   4.2567   4.5711   4.5711   5.1663   5.1664   5.5868   5.5868

          k = 0.1693 0.2933 0.0000 (  5278 PWs)   bands (ev):

   -19.2188 -19.2188  -9.5834  -9.5834  -8.2179  -8.2179  -6.9626  -6.9626
     4.2782   4.2783   4.5414   4.5414   5.1878   5.1879   5.6088   5.6089

          k = 0.1700 0.2944 0.0000 (  5278 PWs)   bands (ev):

   -19.2032 -19.2032  -9.6075  -9.6075  -8.2389  -8.2389  -6.9446  -6.9446
     4.2999   4.3000   4.5116   4.5116   5.2093   5.2094   5.6309   5.6310

          k = 0.1707 0.2956 0.0000 (  5278 PWs)   bands (ev):

   -19.1876 -19.1876  -9.6316  -9.6316  -8.2598  -8.2598  -6.9266  -6.9266
     4.3217   4.3217   4.4819   4.4819   5.2309   5.2310   5.6531   5.6532

          k = 0.1713 0.2968 0.0000 (  5278 PWs)   bands (ev):

   -19.1719 -19.1719  -9.6556  -9.6556  -8.2808  -8.2808  -6.9086  -6.9086
     4.3435   4.3436   4.4522   4.4522   5.2526   5.2527   5.6754   5.6755

          k = 0.1720 0.2979 0.0000 (  5278 PWs)   bands (ev):

   -19.1561 -19.1561  -9.6796  -9.6796  -8.3018  -8.3018  -6.8905  -6.8905
     4.3655   4.3655   4.4224   4.4225   5.2743   5.2744   5.6978   5.6979

          k = 0.1727 0.2991 0.0000 (  5278 PWs)   bands (ev):

   -19.1403 -19.1403  -9.7036  -9.7036  -8.3228  -8.3228  -6.8723  -6.8723
     4.3875   4.3875   4.3927   4.3927   5.2962   5.2963   5.7203   5.7203

          k = 0.1733 0.3002 0.0000 (  5274 PWs)   bands (ev):

   -19.1244 -19.1244  -9.7275  -9.7275  -8.3438  -8.3438  -6.8541  -6.8541
     4.3630   4.3630   4.4096   4.4097   5.3181   5.3182   5.7428   5.7429

          k = 0.1740 0.3014 0.0000 (  5266 PWs)   bands (ev):

   -19.1085 -19.1085  -9.7515  -9.7515  -8.3647  -8.3647  -6.8358  -6.8358
     4.3333   4.3333   4.4318   4.4318   5.3401   5.3402   5.7655   5.7655

          k = 0.1747 0.3025 0.0000 (  5266 PWs)   bands (ev):

   -19.0925 -19.0925  -9.7754  -9.7754  -8.3857  -8.3857  -6.8175  -6.8175
     4.3036   4.3036   4.4541   4.4541   5.3621   5.3622   5.7882   5.7882

          k = 0.1753 0.3037 0.0000 (  5258 PWs)   bands (ev):

   -19.0764 -19.0764  -9.7992  -9.7992  -8.4067  -8.4067  -6.7991  -6.7991
     4.2739   4.2739   4.4764   4.4765   5.3843   5.3844   5.8110   5.8110

          k = 0.1760 0.3048 0.0000 (  5266 PWs)   bands (ev):

   -19.0603 -19.0603  -9.8231  -9.8231  -8.4277  -8.4277  -6.7806  -6.7806
     4.2442   4.2442   4.4989   4.4989   5.4065   5.4066   5.8339   5.8339

          k = 0.1767 0.3060 0.0000 (  5270 PWs)   bands (ev):

   -19.0442 -19.0442  -9.8469  -9.8469  -8.4487  -8.4487  -6.7621  -6.7621
     4.2145   4.2145   4.5214   4.5214   5.4288   5.4289   5.8569   5.8569

          k = 0.1773 0.3072 0.0000 (  5270 PWs)   bands (ev):

   -19.0280 -19.0280  -9.8707  -9.8707  -8.4697  -8.4697  -6.7435  -6.7435
     4.1849   4.1849   4.5440   4.5440   5.4512   5.4513   5.8799   5.8800

          k = 0.1780 0.3083 0.0000 (  5270 PWs)   bands (ev):

   -19.0117 -19.0117  -9.8945  -9.8945  -8.4907  -8.4907  -6.7249  -6.7249
     4.1552   4.1552   4.5667   4.5667   5.4736   5.4737   5.9031   5.9031

          k = 0.1787 0.3095 0.0000 (  5270 PWs)   bands (ev):

   -18.9954 -18.9954  -9.9182  -9.9182  -8.5117  -8.5117  -6.7062  -6.7062
     4.1256   4.1256   4.5895   4.5895   5.4961   5.4962   5.9263   5.9264

          k = 0.1793 0.3106 0.0000 (  5270 PWs)   bands (ev):

   -18.9790 -18.9790  -9.9419  -9.9419  -8.5327  -8.5327  -6.6875  -6.6875
     4.0959   4.0959   4.6123   4.6124   5.5187   5.5188   5.9496   5.9497

          k = 0.1800 0.3118 0.0000 (  5278 PWs)   bands (ev):

   -18.9626 -18.9626  -9.9656  -9.9656  -8.5538  -8.5538  -6.6687  -6.6687
     4.0663   4.0663   4.6353   4.6353   5.5414   5.5415   5.9731   5.9731

          k = 0.1807 0.3129 0.0000 (  5278 PWs)   bands (ev):

   -18.9461 -18.9461  -9.9892  -9.9892  -8.5748  -8.5748  -6.6499  -6.6499
     4.0367   4.0367   4.6583   4.6583   5.5642   5.5643   5.9966   5.9966

          k = 0.1813 0.3141 0.0000 (  5274 PWs)   bands (ev):

   -18.9295 -18.9295 -10.0128 -10.0128  -8.5958  -8.5958  -6.6310  -6.6310
     4.0071   4.0071   4.6814   4.6814   5.5870   5.5871   6.0201   6.0202

          k = 0.1820 0.3152 0.0000 (  5274 PWs)   bands (ev):

   -18.9129 -18.9129 -10.0364 -10.0364  -8.6168  -8.6168  -6.6120  -6.6120
     3.9775   3.9775   4.7046   4.7046   5.6099   5.6100   6.0438   6.0439

          k = 0.1827 0.3164 0.0000 (  5274 PWs)   bands (ev):

   -18.8962 -18.8962 -10.0600 -10.0600  -8.6378  -8.6378  -6.5930  -6.5930
     3.9479   3.9479   4.7278   4.7279   5.6329   5.6330   6.0676   6.0676

          k = 0.1833 0.3175 0.0000 (  5278 PWs)   bands (ev):

   -18.8795 -18.8795 -10.0835 -10.0835  -8.6587  -8.6587  -6.5739  -6.5739
     3.9183   3.9183   4.7512   4.7512   5.6559   5.6560   6.0914   6.0915

          k = 0.1840 0.3187 0.0000 (  5278 PWs)   bands (ev):

   -18.8628 -18.8628 -10.1070 -10.1070  -8.6797  -8.6797  -6.5548  -6.5548
     3.8888   3.8888   4.7746   4.7747   5.6791   5.6792   6.1153   6.1154

          k = 0.1847 0.3199 0.0000 (  5282 PWs)   bands (ev):

   -18.8459 -18.8459 -10.1305 -10.1305  -8.7007  -8.7007  -6.5356  -6.5356
     3.8592   3.8592   4.7981   4.7982   5.7023   5.7024   6.1393   6.1394

          k = 0.1853 0.3210 0.0000 (  5282 PWs)   bands (ev):

   -18.8291 -18.8290 -10.1539 -10.1539  -8.7217  -8.7217  -6.5164  -6.5164
     3.8297   3.8297   4.8217   4.8218   5.7255   5.7256   6.1634   6.1635

          k = 0.1860 0.3222 0.0000 (  5282 PWs)   bands (ev):

   -18.8121 -18.8121 -10.1773 -10.1773  -8.7427  -8.7427  -6.4971  -6.4971
     3.8002   3.8002   4.8454   4.8455   5.7489   5.7490   6.1876   6.1877

          k = 0.1867 0.3233 0.0000 (  5282 PWs)   bands (ev):

   -18.7951 -18.7951 -10.2007 -10.2007  -8.7637  -8.7637  -6.4778  -6.4778
     3.7707   3.7707   4.8692   4.8692   5.7723   5.7724   6.2119   6.2120

          k = 0.1873 0.3245 0.0000 (  5278 PWs)   bands (ev):

   -18.7781 -18.7781 -10.2240 -10.2240  -8.7846  -8.7846  -6.4584  -6.4584
     3.7412   3.7412   4.8930   4.8931   5.7958   5.7959   6.2363   6.2363

          k = 0.1880 0.3256 0.0000 (  5274 PWs)   bands (ev):

   -18.7610 -18.7610 -10.2473 -10.2473  -8.8056  -8.8056  -6.4390  -6.4390
     3.7118   3.7118   4.9169   4.9170   5.8194   5.8195   6.2607   6.2608

          k = 0.1887 0.3268 0.0000 (  5276 PWs)   bands (ev):

   -18.7438 -18.7438 -10.2706 -10.2706  -8.8265  -8.8265  -6.4195  -6.4195
     3.6823   3.6824   4.9409   4.9410   5.8430   5.8431   6.2852   6.2853

          k = 0.1893 0.3279 0.0000 (  5276 PWs)   bands (ev):

   -18.7266 -18.7266 -10.2938 -10.2938  -8.8475  -8.8475  -6.3999  -6.3999
     3.6529   3.6529   4.9650   4.9651   5.8667   5.8668   6.3098   6.3099

          k = 0.1900 0.3291 0.0000 (  5276 PWs)   bands (ev):

   -18.7093 -18.7093 -10.3171 -10.3171  -8.8684  -8.8684  -6.3803  -6.3803
     3.6235   3.6235   4.9892   4.9893   5.8905   5.8906   6.3345   6.3346

          k = 0.1907 0.3302 0.0000 (  5276 PWs)   bands (ev):

   -18.6920 -18.6920 -10.3402 -10.3402  -8.8893  -8.8893  -6.3607  -6.3607
     3.5941   3.5942   5.0135   5.0135   5.9143   5.9144   6.3593   6.3594

          k = 0.1913 0.3314 0.0000 (  5272 PWs)   bands (ev):

   -18.6746 -18.6746 -10.3634 -10.3634  -8.9103  -8.9103  -6.3410  -6.3410
     3.5648   3.5648   5.0378   5.0379   5.9383   5.9384   6.3842   6.3843

          k = 0.1920 0.3326 0.0000 (  5272 PWs)   bands (ev):

   -18.6572 -18.6572 -10.3865 -10.3865  -8.9312  -8.9312  -6.3212  -6.3212
     3.5354   3.5355   5.0622   5.0623   5.9622   5.9624   6.4092   6.4092

          k = 0.1927 0.3337 0.0000 (  5276 PWs)   bands (ev):

   -18.6397 -18.6397 -10.4096 -10.4096  -8.9521  -8.9521  -6.3014  -6.3014
     3.5061   3.5061   5.0867   5.0868   5.9863   5.9864   6.4342   6.4343

          k = 0.1933 0.3349 0.0000 (  5276 PWs)   bands (ev):

   -18.6222 -18.6222 -10.4326 -10.4326  -8.9730  -8.9730  -6.2816  -6.2816
     3.4768   3.4768   5.1113   5.1114   6.0104   6.0106   6.4593   6.4594

          k = 0.1940 0.3360 0.0000 (  5276 PWs)   bands (ev):

   -18.6046 -18.6046 -10.4556 -10.4556  -8.9939  -8.9939  -6.2617  -6.2617
     3.4475   3.4476   5.1360   5.1360   6.0346   6.0348   6.4845   6.4846

          k = 0.1947 0.3372 0.0000 (  5276 PWs)   bands (ev):

   -18.5869 -18.5869 -10.4786 -10.4786  -9.0147  -9.0147  -6.2417  -6.2417
     3.4183   3.4183   5.1607   5.1608   6.0589   6.0590   6.5098   6.5099

          k = 0.1953 0.3383 0.0000 (  5280 PWs)   bands (ev):

   -18.5692 -18.5692 -10.5015 -10.5015  -9.0356  -9.0356  -6.2217  -6.2217
     3.3891   3.3891   5.1855   5.1856   6.0833   6.0834   6.5352   6.5353

          k = 0.1960 0.3395 0.0000 (  5284 PWs)   bands (ev):

   -18.5515 -18.5515 -10.5244 -10.5244  -9.0565  -9.0565  -6.2017  -6.2017
     3.3599   3.3599   5.2105   5.2105   6.1077   6.1078   6.5607   6.5608

          k = 0.1967 0.3406 0.0000 (  5288 PWs)   bands (ev):

   -18.5337 -18.5337 -10.5473 -10.5473  -9.0773  -9.0773  -6.1816  -6.1816
     3.3307   3.3307   5.2354   5.2355   6.1321   6.1322   6.5862   6.5863

          k = 0.1973 0.3418 0.0000 (  5284 PWs)   bands (ev):

   -18.5158 -18.5158 -10.5702 -10.5702  -9.0981  -9.0981  -6.1614  -6.1614
     3.3015   3.3015   5.2605   5.2606   6.1567   6.1568   6.6119   6.6119

          k = 0.1980 0.3429 0.0000 (  5284 PWs)   bands (ev):

   -18.4979 -18.4979 -10.5930 -10.5930  -9.1190  -9.1190  -6.1412  -6.1412
     3.2724   3.2724   5.2857   5.2857   6.1813   6.1814   6.6376   6.6377

          k = 0.1987 0.3441 0.0000 (  5284 PWs)   bands (ev):

   -18.4799 -18.4799 -10.6157 -10.6157  -9.1398  -9.1398  -6.1210  -6.1210
     3.2433   3.2433   5.3109   5.3110   6.2060   6.2061   6.6634   6.6635

          k = 0.1993 0.3453 0.0000 (  5282 PWs)   bands (ev):

   -18.4619 -18.4619 -10.6384 -10.6384  -9.1605  -9.1605  -6.1007  -6.1007
     3.2142   3.2142   5.3362   5.3363   6.2307   6.2308   6.6893   6.6894

          k = 0.2000 0.3464 0.0000 (  5282 PWs)   bands (ev):

   -18.4438 -18.4438 -10.6611 -10.6611  -9.1813  -9.1813  -6.0803  -6.0803
     3.1851   3.1851   5.3616   5.3617   6.2555   6.2556   6.7153   6.7154

          k = 0.2007 0.3476 0.0000 (  5282 PWs)   bands (ev):

   -18.4257 -18.4257 -10.6838 -10.6838  -9.2021  -9.2021  -6.0600  -6.0600
     3.1561   3.1561   5.3871   5.3871   6.2804   6.2805   6.7414   6.7414

          k = 0.2013 0.3487 0.0000 (  5282 PWs)   bands (ev):

   -18.4075 -18.4075 -10.7064 -10.7064  -9.2228  -9.2228  -6.0395  -6.0395
     3.1271   3.1271   5.4126   5.4127   6.3053   6.3054   6.7675   6.7676

          k = 0.2020 0.3499 0.0000 (  5282 PWs)   bands (ev):

   -18.3893 -18.3893 -10.7290 -10.7290  -9.2436  -9.2436  -6.0190  -6.0190
     3.0981   3.0981   5.4383   5.4383   6.3303   6.3304   6.7937   6.7938

          k = 0.2027 0.3510 0.0000 (  5282 PWs)   bands (ev):

   -18.3710 -18.3710 -10.7515 -10.7515  -9.2643  -9.2643  -5.9985  -5.9985
     3.0691   3.0691   5.4640   5.4641   6.3554   6.3555   6.8201   6.8201

          k = 0.2033 0.3522 0.0000 (  5282 PWs)   bands (ev):

   -18.3527 -18.3527 -10.7741 -10.7741  -9.2850  -9.2850  -5.9779  -5.9779
     3.0402   3.0402   5.4898   5.4899   6.3805   6.3806   6.8465   6.8465

          k = 0.2040 0.3533 0.0000 (  5278 PWs)   bands (ev):

   -18.3343 -18.3343 -10.7965 -10.7965  -9.3057  -9.3057  -5.9573  -5.9573
     3.0113   3.0113   5.5157   5.5157   6.4057   6.4058   6.8730   6.8730

          k = 0.2047 0.3545 0.0000 (  5278 PWs)   bands (ev):

   -18.3158 -18.3158 -10.8190 -10.8190  -9.3263  -9.3263  -5.9366  -5.9366
     2.9824   2.9824   5.5416   5.5417   6.4309   6.4310   6.8995   6.8996

          k = 0.2053 0.3556 0.0000 (  5278 PWs)   bands (ev):

   -18.2973 -18.2973 -10.8414 -10.8414  -9.3470  -9.3470  -5.9159  -5.9159
     2.9536   2.9536   5.5677   5.5677   6.4562   6.4563   6.9262   6.9263

          k = 0.2060 0.3568 0.0000 (  5278 PWs)   bands (ev):

   -18.2788 -18.2788 -10.8637 -10.8637  -9.3676  -9.3676  -5.8951  -5.8951
     2.9248   2.9248   5.5938   5.5939   6.4816   6.4817   6.9530   6.9530

          k = 0.2067 0.3580 0.0000 (  5278 PWs)   bands (ev):

   -18.2602 -18.2602 -10.8860 -10.8860  -9.3882  -9.3882  -5.8743  -5.8743
     2.8960   2.8960   5.6200   5.6201   6.5070   6.5071   6.9798   6.9798

          k = 0.2073 0.3591 0.0000 (  5282 PWs)   bands (ev):

   -18.2415 -18.2415 -10.9083 -10.9083  -9.4088  -9.4088  -5.8535  -5.8535
     2.8673   2.8673   5.6463   5.6463   6.5325   6.5326   7.0067   7.0068

          k = 0.2080 0.3603 0.0000 (  5282 PWs)   bands (ev):

   -18.2228 -18.2228 -10.9306 -10.9306  -9.4294  -9.4294  -5.8326  -5.8326
     2.8385   2.8385   5.6727   5.6727   6.5581   6.5582   7.0337   7.0338

          k = 0.2087 0.3614 0.0000 (  5282 PWs)   bands (ev):

   -18.2041 -18.2041 -10.9528 -10.9528  -9.4500  -9.4500  -5.8116  -5.8116
     2.8099   2.8099   5.6991   5.6991   6.5837   6.5838   7.0608   7.0609

          k = 0.2093 0.3626 0.0000 (  5282 PWs)   bands (ev):

   -18.1853 -18.1853 -10.9750 -10.9750  -9.4705  -9.4705  -5.7907  -5.7906
     2.7812   2.7812   5.7256   5.7257   6.6093   6.6094   7.0880   7.0880

          k = 0.2100 0.3637 0.0000 (  5282 PWs)   bands (ev):

   -18.1664 -18.1664 -10.9971 -10.9971  -9.4910  -9.4910  -5.7696  -5.7696
     2.7526   2.7526   5.7522   5.7523   6.6350   6.6351   7.1152   7.1153

          k = 0.2107 0.3649 0.0000 (  5286 PWs)   bands (ev):

   -18.1475 -18.1475 -11.0192 -11.0192  -9.5115  -9.5115  -5.7486  -5.7486
     2.7240   2.7240   5.7789   5.7790   6.6608   6.6609   7.1425   7.1426

          k = 0.2113 0.3660 0.0000 (  5286 PWs)   bands (ev):

   -18.1285 -18.1285 -11.0412 -11.0412  -9.5320  -9.5320  -5.7274  -5.7274
     2.6954   2.6954   5.8057   5.8057   6.6866   6.6867   7.1700   7.1700

          k = 0.2120 0.3672 0.0000 (  5286 PWs)   bands (ev):

   -18.1095 -18.1095 -11.0633 -11.0633  -9.5525  -9.5525  -5.7063  -5.7063
     2.6669   2.6669   5.8325   5.8325   6.7125   6.7126   7.1975   7.1975

          k = 0.2127 0.3683 0.0000 (  5286 PWs)   bands (ev):

   -18.0905 -18.0905 -11.0852 -11.0852  -9.5729  -9.5729  -5.6851  -5.6851
     2.6384   2.6384   5.8594   5.8595   6.7384   6.7385   7.2251   7.2251

          k = 0.2133 0.3695 0.0000 (  5286 PWs)   bands (ev):

   -18.0713 -18.0713 -11.1072 -11.1072  -9.5933  -9.5933  -5.6638  -5.6638
     2.6099   2.6099   5.8864   5.8865   6.7644   6.7645   7.2527   7.2528

          k = 0.2140 0.3707 0.0000 (  5282 PWs)   bands (ev):

   -18.0522 -18.0522 -11.1291 -11.1291  -9.6137  -9.6137  -5.6426  -5.6426
     2.5815   2.5815   5.9135   5.9135   6.7904   6.7905   7.2805   7.2806

          k = 0.2147 0.3718 0.0000 (  5278 PWs)   bands (ev):

   -18.0330 -18.0330 -11.1509 -11.1509  -9.6341  -9.6341  -5.6212  -5.6212
     2.5531   2.5531   5.9406   5.9407   6.8165   6.8166   7.3083   7.3084

          k = 0.2153 0.3730 0.0000 (  5286 PWs)   bands (ev):

   -18.0137 -18.0137 -11.1728 -11.1728  -9.6544  -9.6544  -5.5999  -5.5999
     2.5248   2.5248   5.9679   5.9679   6.8426   6.8427   7.3363   7.3363

          k = 0.2160 0.3741 0.0000 (  5286 PWs)   bands (ev):

   -17.9944 -17.9944 -11.1945 -11.1945  -9.6747  -9.6747  -5.5785  -5.5785
     2.4964   2.4964   5.9952   5.9952   6.8688   6.8689   7.3643   7.3644

          k = 0.2167 0.3753 0.0000 (  5286 PWs)   bands (ev):

   -17.9750 -17.9750 -11.2163 -11.2163  -9.6950  -9.6950  -5.5570  -5.5570
     2.4681   2.4682   6.0226   6.0226   6.8950   6.8951   7.3924   7.3925

          k = 0.2173 0.3764 0.0000 (  5282 PWs)   bands (ev):

   -17.9556 -17.9556 -11.2380 -11.2380  -9.7153  -9.7153  -5.5356  -5.5356
     2.4399   2.4399   6.0500   6.0501   6.9212   6.9214   7.4206   7.4206

          k = 0.2180 0.3776 0.0000 (  5282 PWs)   bands (ev):

   -17.9361 -17.9361 -11.2596 -11.2596  -9.7355  -9.7355  -5.5140  -5.5140
     2.4117   2.4117   6.0776   6.0776   6.9475   6.9477   7.4488   7.4489

          k = 0.2187 0.3787 0.0000 (  5278 PWs)   bands (ev):

   -17.9166 -17.9166 -11.2812 -11.2812  -9.7558  -9.7558  -5.4925  -5.4925
     2.3835   2.3835   6.1052   6.1053   6.9739   6.9740   7.4772   7.4773

          k = 0.2193 0.3799 0.0000 (  5278 PWs)   bands (ev):

   -17.8971 -17.8971 -11.3028 -11.3028  -9.7760  -9.7760  -5.4709  -5.4709
     2.3554   2.3554   6.1329   6.1330   7.0003   7.0004   7.5056   7.5057

          k = 0.2200 0.3811 0.0000 (  5278 PWs)   bands (ev):

   -17.8775 -17.8775 -11.3244 -11.3244  -9.7961  -9.7961  -5.4492  -5.4492
     2.3273   2.3273   6.1607   6.1608   7.0267   7.0268   7.5341   7.5342

          k = 0.2207 0.3822 0.0000 (  5278 PWs)   bands (ev):

   -17.8578 -17.8578 -11.3458 -11.3458  -9.8163  -9.8163  -5.4276  -5.4276
     2.2992   2.2992   6.1886   6.1886   7.0532   7.0533   7.5627   7.5628

          k = 0.2213 0.3834 0.0000 (  5278 PWs)   bands (ev):

   -17.8381 -17.8381 -11.3673 -11.3673  -9.8364  -9.8364  -5.4059  -5.4058
     2.2712   2.2712   6.2165   6.2166   7.0797   7.0798   7.5914   7.5915

          k = 0.2220 0.3845 0.0000 (  5278 PWs)   bands (ev):

   -17.8183 -17.8183 -11.3887 -11.3887  -9.8565  -9.8565  -5.3841  -5.3841
     2.2432   2.2432   6.2445   6.2446   7.1062   7.1063   7.6202   7.6202

          k = 0.2227 0.3857 0.0000 (  5282 PWs)   bands (ev):

   -17.7985 -17.7985 -11.4101 -11.4101  -9.8765  -9.8765  -5.3623  -5.3623
     2.2152   2.2152   6.2726   6.2727   7.1328   7.1329   7.6490   7.6491

          k = 0.2233 0.3868 0.0000 (  5282 PWs)   bands (ev):

   -17.7787 -17.7787 -11.4314 -11.4314  -9.8966  -9.8966  -5.3405  -5.3405
     2.1873   2.1873   6.3008   6.3008   7.1593   7.1595   7.6780   7.6780

          k = 0.2240 0.3880 0.0000 (  5282 PWs)   bands (ev):

   -17.7588 -17.7588 -11.4527 -11.4527  -9.9166  -9.9166  -5.3186  -5.3186
     2.1594   2.1594   6.3290   6.3291   7.1860   7.1861   7.7070   7.7070

          k = 0.2247 0.3891 0.0000 (  5282 PWs)   bands (ev):

   -17.7388 -17.7388 -11.4739 -11.4739  -9.9366  -9.9366  -5.2968  -5.2968
     2.1316   2.1316   6.3573   6.3574   7.2126   7.2128   7.7361   7.7361

          k = 0.2253 0.3903 0.0000 (  5282 PWs)   bands (ev):

   -17.7188 -17.7188 -11.4951 -11.4951  -9.9565  -9.9565  -5.2748  -5.2748
     2.1038   2.1038   6.3857   6.3858   7.2393   7.2394   7.7653   7.7653

          k = 0.2260 0.3914 0.0000 (  5282 PWs)   bands (ev):

   -17.6988 -17.6988 -11.5163 -11.5163  -9.9764  -9.9764  -5.2529  -5.2529
     2.0760   2.0760   6.4142   6.4143   7.2660   7.2661   7.7945   7.7946

          k = 0.2267 0.3926 0.0000 (  5278 PWs)   bands (ev):

   -17.6787 -17.6787 -11.5374 -11.5374  -9.9963  -9.9963  -5.2309  -5.2309
     2.0483   2.0483   6.4427   6.4428   7.2927   7.2929   7.8239   7.8239

          k = 0.2273 0.3938 0.0000 (  5278 PWs)   bands (ev):

   -17.6586 -17.6586 -11.5585 -11.5585 -10.0162 -10.0162  -5.2088  -5.2088
     2.0206   2.0207   6.4714   6.4714   7.3195   7.3196   7.8533   7.8534

          k = 0.2280 0.3949 0.0000 (  5278 PWs)   bands (ev):

   -17.6384 -17.6384 -11.5795 -11.5795 -10.0360 -10.0360  -5.1868  -5.1868
     1.9930   1.9930   6.5001   6.5001   7.3462   7.3464   7.8828   7.8829

          k = 0.2287 0.3961 0.0000 (  5276 PWs)   bands (ev):

   -17.6182 -17.6182 -11.6005 -11.6005 -10.0558 -10.0558  -5.1647  -5.1647
     1.9654   1.9654   6.5289   6.5289   7.3730   7.3731   7.9124   7.9125

          k = 0.2293 0.3972 0.0000 (  5278 PWs)   bands (ev):

   -17.5979 -17.5979 -11.6215 -11.6215 -10.0756 -10.0756  -5.1426  -5.1426
     1.9379   1.9379   6.5577   6.5578   7.3998   7.3999   7.9421   7.9422

          k = 0.2300 0.3984 0.0000 (  5278 PWs)   bands (ev):

   -17.5776 -17.5776 -11.6424 -11.6424 -10.0953 -10.0953  -5.1204  -5.1204
     1.9104   1.9104   6.5866   6.5867   7.4266   7.4267   7.9718   7.9719

          k = 0.2307 0.3995 0.0000 (  5278 PWs)   bands (ev):

   -17.5572 -17.5572 -11.6632 -11.6632 -10.1150 -10.1150  -5.0982  -5.0982
     1.8829   1.8829   6.6156   6.6157   7.4534   7.4535   8.0017   8.0018

          k = 0.2313 0.4007 0.0000 (  5278 PWs)   bands (ev):

   -17.5368 -17.5368 -11.6841 -11.6841 -10.1347 -10.1347  -5.0760  -5.0760
     1.8555   1.8555   6.6447   6.6448   7.4802   7.4803   8.0316   8.0317

          k = 0.2320 0.4018 0.0000 (  5278 PWs)   bands (ev):

   -17.5163 -17.5163 -11.7048 -11.7048 -10.1543 -10.1543  -5.0538  -5.0538
     1.8281   1.8281   6.6739   6.6739   7.5070   7.5072   8.0616   8.0617

          k = 0.2327 0.4030 0.0000 (  5278 PWs)   bands (ev):

   -17.4958 -17.4958 -11.7256 -11.7256 -10.1739 -10.1739  -5.0315  -5.0315
     1.8007   1.8008   6.7031   6.7032   7.5338   7.5340   8.0917   8.0918

          k = 0.2333 0.4041 0.0000 (  5278 PWs)   bands (ev):

   -17.4753 -17.4753 -11.7463 -11.7463 -10.1935 -10.1935  -5.0092  -5.0092
     1.7734   1.7735   6.7324   6.7325   7.5606   7.5608   8.1219   8.1219

          k = 0.2340 0.4053 0.0000 (  5278 PWs)   bands (ev):

   -17.4547 -17.4547 -11.7669 -11.7669 -10.2130 -10.2130  -4.9868  -4.9868
     1.7462   1.7462   6.7618   6.7618   7.5874   7.5876   8.1521   8.1522

          k = 0.2347 0.4065 0.0000 (  5278 PWs)   bands (ev):

   -17.4340 -17.4340 -11.7875 -11.7875 -10.2325 -10.2325  -4.9645  -4.9645
     1.7190   1.7190   6.7912   6.7913   7.6142   7.6144   8.1824   8.1825

          k = 0.2353 0.4076 0.0000 (  5278 PWs)   bands (ev):

   -17.4134 -17.4134 -11.8081 -11.8081 -10.2519 -10.2519  -4.9421  -4.9421
     1.6918   1.6918   6.8207   6.8208   7.6410   7.6411   8.2129   8.2129

          k = 0.2360 0.4088 0.0000 (  5278 PWs)   bands (ev):

   -17.3926 -17.3926 -11.8286 -11.8286 -10.2714 -10.2714  -4.9196  -4.9196
     1.6647   1.6647   6.8503   6.8504   7.6677   7.6679   8.2433   8.2434

          k = 0.2367 0.4099 0.0000 (  5278 PWs)   bands (ev):

   -17.3719 -17.3719 -11.8491 -11.8491 -10.2908 -10.2908  -4.8972  -4.8972
     1.6376   1.6376   6.8800   6.8801   7.6945   7.6946   8.2739   8.2740

          k = 0.2373 0.4111 0.0000 (  5278 PWs)   bands (ev):

   -17.3511 -17.3511 -11.8695 -11.8695 -10.3101 -10.3101  -4.8747  -4.8747
     1.6106   1.6106   6.9097   6.9098   7.7212   7.7213   8.3046   8.3047

          k = 0.2380 0.4122 0.0000 (  5278 PWs)   bands (ev):

   -17.3302 -17.3302 -11.8899 -11.8899 -10.3294 -10.3294  -4.8522  -4.8522
     1.5836   1.5836   6.9395   6.9396   7.7479   7.7480   8.3353   8.3354

          k = 0.2387 0.4134 0.0000 (  5282 PWs)   bands (ev):

   -17.3093 -17.3093 -11.9102 -11.9102 -10.3487 -10.3487  -4.8297  -4.8297
     1.5567   1.5567   6.9694   6.9695   7.7745   7.7747   8.3661   8.3662

          k = 0.2393 0.4145 0.0000 (  5286 PWs)   bands (ev):

   -17.2884 -17.2884 -11.9305 -11.9305 -10.3679 -10.3679  -4.8071  -4.8071
     1.5298   1.5298   6.9994   6.9995   7.8011   7.8013   8.3970   8.3971

          k = 0.2400 0.4157 0.0000 (  5286 PWs)   bands (ev):

   -17.2674 -17.2674 -11.9508 -11.9508 -10.3871 -10.3871  -4.7846  -4.7846
     1.5029   1.5029   7.0294   7.0295   7.8277   7.8278   8.4280   8.4281

          k = 0.2407 0.4168 0.0000 (  5286 PWs)   bands (ev):

   -17.2463 -17.2463 -11.9710 -11.9710 -10.4063 -10.4063  -4.7620  -4.7619
     1.4761   1.4761   7.0595   7.0596   7.8542   7.8543   8.4591   8.4591

          k = 0.2413 0.4180 0.0000 (  5286 PWs)   bands (ev):

   -17.2253 -17.2253 -11.9911 -11.9911 -10.4254 -10.4254  -4.7393  -4.7393
     1.4494   1.4494   7.0897   7.0898   7.8806   7.8808   8.4902   8.4903

          k = 0.2420 0.4192 0.0000 (  5286 PWs)   bands (ev):

   -17.2042 -17.2042 -12.0112 -12.0112 -10.4445 -10.4445  -4.7167  -4.7167
     1.4227   1.4227   7.1199   7.1200   7.9070   7.9072   8.5214   8.5215

          k = 0.2427 0.4203 0.0000 (  5282 PWs)   bands (ev):

   -17.1830 -17.1830 -12.0313 -12.0313 -10.4636 -10.4636  -4.6940  -4.6940
     1.3960   1.3960   7.1502   7.1503   7.9334   7.9335   8.5527   8.5528

          k = 0.2433 0.4215 0.0000 (  5278 PWs)   bands (ev):

   -17.1618 -17.1618 -12.0513 -12.0513 -10.4826 -10.4826  -4.6713  -4.6713
     1.3694   1.3694   7.1806   7.1807   7.9596   7.9598   8.5841   8.5841

          k = 0.2440 0.4226 0.0000 (  5278 PWs)   bands (ev):

   -17.1406 -17.1406 -12.0713 -12.0713 -10.5015 -10.5015  -4.6486  -4.6486
     1.3428   1.3428   7.2111   7.2111   7.9858   7.9859   8.6155   8.6156

          k = 0.2447 0.4238 0.0000 (  5278 PWs)   bands (ev):

   -17.1193 -17.1193 -12.0913 -12.0913 -10.5205 -10.5204  -4.6259  -4.6259
     1.3163   1.3163   7.2416   7.2417   8.0119   8.0120   8.6470   8.6471

          k = 0.2453 0.4249 0.0000 (  5278 PWs)   bands (ev):

   -17.0980 -17.0980 -12.1112 -12.1112 -10.5393 -10.5393  -4.6031  -4.6031
     1.2898   1.2898   7.2722   7.2722   8.0379   8.0381   8.6787   8.6787

          k = 0.2460 0.4261 0.0000 (  5278 PWs)   bands (ev):

   -17.0766 -17.0766 -12.1310 -12.1310 -10.5582 -10.5582  -4.5803  -4.5803
     1.2634   1.2634   7.3028   7.3029   8.0638   8.0640   8.7103   8.7104

          k = 0.2467 0.4272 0.0000 (  5278 PWs)   bands (ev):

   -17.0553 -17.0553 -12.1508 -12.1508 -10.5770 -10.5770  -4.5575  -4.5575
     1.2370   1.2371   7.3335   7.3336   8.0896   8.0898   8.7421   8.7422

          k = 0.2473 0.4284 0.0000 (  5270 PWs)   bands (ev):

   -17.0338 -17.0338 -12.1706 -12.1706 -10.5957 -10.5957  -4.5347  -4.5347
     1.2107   1.2107   7.3643   7.3644   8.1153   8.1155   8.7739   8.7740

          k = 0.2480 0.4295 0.0000 (  5270 PWs)   bands (ev):

   -17.0124 -17.0123 -12.1903 -12.1903 -10.6144 -10.6144  -4.5119  -4.5119
     1.1845   1.1845   7.3952   7.3953   8.1409   8.1410   8.8059   8.8059

          k = 0.2487 0.4307 0.0000 (  5272 PWs)   bands (ev):

   -16.9908 -16.9908 -12.2099 -12.2099 -10.6331 -10.6331  -4.4890  -4.4890
     1.1582   1.1582   7.4261   7.4262   8.1663   8.1665   8.8378   8.8379

          k = 0.2493 0.4319 0.0000 (  5272 PWs)   bands (ev):

   -16.9693 -16.9693 -12.2295 -12.2295 -10.6517 -10.6517  -4.4662  -4.4662
     1.1320   1.1321   7.4571   7.4572   8.1916   8.1918   8.8699   8.8700

          k = 0.2500 0.4330 0.0000 (  5268 PWs)   bands (ev):

   -16.9477 -16.9477 -12.2491 -12.2491 -10.6703 -10.6703  -4.4433  -4.4433
     1.1059   1.1059   7.4881   7.4882   8.2168   8.2169   8.9021   8.9021

          k = 0.2507 0.4342 0.0000 (  5266 PWs)   bands (ev):

   -16.9261 -16.9261 -12.2686 -12.2686 -10.6888 -10.6888  -4.4204  -4.4204
     1.0798   1.0798   7.5193   7.5194   8.2418   8.2419   8.9343   8.9344

          k = 0.2513 0.4353 0.0000 (  5274 PWs)   bands (ev):

   -16.9044 -16.9044 -12.2881 -12.2881 -10.7073 -10.7073  -4.3975  -4.3975
     1.0538   1.0538   7.5504   7.5505   8.2666   8.2668   8.9666   8.9667

          k = 0.2520 0.4365 0.0000 (  5274 PWs)   bands (ev):

   -16.8827 -16.8827 -12.3076 -12.3076 -10.7257 -10.7257  -4.3746  -4.3746
     1.0278   1.0278   7.5817   7.5818   8.2913   8.2914   8.9990   8.9990

          k = 0.2527 0.4376 0.0000 (  5274 PWs)   bands (ev):

   -16.8610 -16.8610 -12.3270 -12.3270 -10.7441 -10.7441  -4.3516  -4.3516
     1.0019   1.0019   7.6130   7.6131   8.3157   8.3159   9.0314   9.0315

          k = 0.2533 0.4388 0.0000 (  5270 PWs)   bands (ev):

   -16.8392 -16.8392 -12.3463 -12.3463 -10.7625 -10.7625  -4.3287  -4.3287
     0.9760   0.9760   7.6444   7.6445   8.3400   8.3402   9.0639   9.0640

          k = 0.2540 0.4399 0.0000 (  5270 PWs)   bands (ev):

   -16.8174 -16.8174 -12.3656 -12.3656 -10.7807 -10.7807  -4.3057  -4.3057
     0.9502   0.9502   7.6758   7.6759   8.3641   8.3642   9.0965   9.0966

          k = 0.2547 0.4411 0.0000 (  5270 PWs)   bands (ev):

   -16.7956 -16.7956 -12.3848 -12.3848 -10.7990 -10.7990  -4.2827  -4.2827
     0.9244   0.9245   7.7073   7.7074   8.3879   8.3881   9.1292   9.1293

          k = 0.2553 0.4423 0.0000 (  5270 PWs)   bands (ev):

   -16.7737 -16.7737 -12.4040 -12.4040 -10.8172 -10.8172  -4.2597  -4.2597
     0.8987   0.8987   7.7389   7.7390   8.4115   8.4117   9.1619   9.1620

          k = 0.2560 0.4434 0.0000 (  5270 PWs)   bands (ev):

   -16.7518 -16.7518 -12.4232 -12.4232 -10.8353 -10.8353  -4.2367  -4.2367
     0.8731   0.8731   7.7705   7.7706   8.4349   8.4350   9.1947   9.1948

          k = 0.2567 0.4446 0.0000 (  5266 PWs)   bands (ev):

   -16.7299 -16.7299 -12.4423 -12.4423 -10.8534 -10.8534  -4.2137  -4.2137
     0.8474   0.8474   7.8022   7.8023   8.4580   8.4582   9.2276   9.2277

          k = 0.2573 0.4457 0.0000 (  5266 PWs)   bands (ev):

   -16.7079 -16.7079 -12.4614 -12.4614 -10.8715 -10.8715  -4.1907  -4.1907
     0.8219   0.8219   7.8339   7.8340   8.4808   8.4810   9.2606   9.2606

          k = 0.2580 0.4469 0.0000 (  5266 PWs)   bands (ev):

   -16.6859 -16.6859 -12.4804 -12.4804 -10.8895 -10.8895  -4.1676  -4.1676
     0.7964   0.7964   7.8657   7.8658   8.5034   8.5036   9.2936   9.2937

          k = 0.2587 0.4480 0.0000 (  5266 PWs)   bands (ev):

   -16.6639 -16.6639 -12.4994 -12.4994 -10.9074 -10.9074  -4.1446  -4.1446
     0.7709   0.7709   7.8975   7.8976   8.5256   8.5258   9.3267   9.3268

          k = 0.2593 0.4492 0.0000 (  5270 PWs)   bands (ev):

   -16.6418 -16.6418 -12.5183 -12.5183 -10.9253 -10.9253  -4.1216  -4.1216
     0.7455   0.7455   7.9294   7.9295   8.5476   8.5478   9.3598   9.3599

          k = 0.2600 0.4503 0.0000 (  5270 PWs)   bands (ev):

   -16.6197 -16.6197 -12.5371 -12.5371 -10.9431 -10.9431  -4.0985  -4.0985
     0.7201   0.7201   7.9614   7.9615   8.5692   8.5694   9.3931   9.3932

          k = 0.2607 0.4515 0.0000 (  5270 PWs)   bands (ev):

   -16.5976 -16.5976 -12.5560 -12.5560 -10.9609 -10.9609  -4.0754  -4.0754
     0.6948   0.6948   7.9934   7.9935   8.5905   8.5907   9.4264   9.4265

          k = 0.2613 0.4526 0.0000 (  5270 PWs)   bands (ev):

   -16.5754 -16.5754 -12.5748 -12.5748 -10.9786 -10.9786  -4.0524  -4.0524
     0.6696   0.6696   8.0255   8.0256   8.6114   8.6116   9.4597   9.4598

          k = 0.2620 0.4538 0.0000 (  5266 PWs)   bands (ev):

   -16.5533 -16.5533 -12.5935 -12.5935 -10.9963 -10.9963  -4.0293  -4.0293
     0.6444   0.6444   8.0576   8.0577   8.6320   8.6322   9.4932   9.4933

          k = 0.2627 0.4550 0.0000 (  5266 PWs)   bands (ev):

   -16.5310 -16.5310 -12.6122 -12.6122 -11.0139 -11.0139  -4.0062  -4.0062
     0.6193   0.6193   8.0897   8.0899   8.6522   8.6524   9.5267   9.5268

          k = 0.2633 0.4561 0.0000 (  5270 PWs)   bands (ev):

   -16.5088 -16.5088 -12.6308 -12.6308 -11.0315 -11.0315  -3.9832  -3.9832
     0.5942   0.5942   8.1219   8.1221   8.6720   8.6722   9.5602   9.5603

          k = 0.2640 0.4573 0.0000 (  5262 PWs)   bands (ev):

   -16.4865 -16.4865 -12.6494 -12.6494 -11.0490 -11.0490  -3.9601  -3.9601
     0.5691   0.5692   8.1542   8.1543   8.6914   8.6916   9.5939   9.5939

          k = 0.2647 0.4584 0.0000 (  5266 PWs)   bands (ev):

   -16.4642 -16.4642 -12.6680 -12.6680 -11.0665 -11.0665  -3.9370  -3.9370
     0.5442   0.5442   8.1865   8.1866   8.7103   8.7105   9.6276   9.6276

          k = 0.2653 0.4596 0.0000 (  5266 PWs)   bands (ev):

   -16.4419 -16.4419 -12.6865 -12.6865 -11.0838 -11.0838  -3.9139  -3.9139
     0.5192   0.5193   8.2188   8.2190   8.7289   8.7291   9.6613   9.6614

          k = 0.2660 0.4607 0.0000 (  5266 PWs)   bands (ev):

   -16.4196 -16.4196 -12.7049 -12.7049 -11.1012 -11.1012  -3.8908  -3.8908
     0.4944   0.4944   8.2512   8.2514   8.7470   8.7472   9.6951   9.6952

          k = 0.2667 0.4619 0.0000 (  5270 PWs)   bands (ev):

   -16.3972 -16.3972 -12.7233 -12.7233 -11.1184 -11.1184  -3.8677  -3.8677
     0.4696   0.4696   8.2836   8.2838   8.7646   8.7648   9.7290   9.7291

          k = 0.2673 0.4630 0.0000 (  5278 PWs)   bands (ev):

   -16.3748 -16.3748 -12.7417 -12.7417 -11.1357 -11.1357  -3.8447  -3.8447
     0.4448   0.4448   8.3161   8.3163   8.7817   8.7820   9.7629   9.7630

          k = 0.2680 0.4642 0.0000 (  5282 PWs)   bands (ev):

   -16.3524 -16.3524 -12.7600 -12.7600 -11.1528 -11.1528  -3.8216  -3.8216
     0.4201   0.4201   8.3486   8.3487   8.7984   8.7986   9.7969   9.7970

          k = 0.2687 0.4653 0.0000 (  5286 PWs)   bands (ev):

   -16.3299 -16.3299 -12.7782 -12.7782 -11.1699 -11.1699  -3.7985  -3.7985
     0.3954   0.3955   8.3811   8.3813   8.8146   8.8148   9.8310   9.8310

          k = 0.2693 0.4665 0.0000 (  5286 PWs)   bands (ev):

   -16.3075 -16.3075 -12.7964 -12.7964 -11.1869 -11.1869  -3.7754  -3.7754
     0.3709   0.3709   8.4136   8.4138   8.8303   8.8305   9.8651   9.8651

          k = 0.2700 0.4677 0.0000 (  5286 PWs)   bands (ev):

   -16.2850 -16.2850 -12.8146 -12.8146 -11.2039 -11.2039  -3.7523  -3.7523
     0.3463   0.3463   8.4462   8.4464   8.8455   8.8458   9.8992   9.8993

          k = 0.2707 0.4688 0.0000 (  5286 PWs)   bands (ev):

   -16.2625 -16.2625 -12.8327 -12.8327 -11.2208 -11.2208  -3.7293  -3.7293
     0.3218   0.3218   8.4787   8.4789   8.8602   8.8605   9.9334   9.9335

          k = 0.2713 0.4700 0.0000 (  5286 PWs)   bands (ev):

   -16.2399 -16.2399 -12.8508 -12.8508 -11.2376 -11.2376  -3.7062  -3.7062
     0.2974   0.2974   8.5113   8.5115   8.8744   8.8747   9.9677   9.9678

          k = 0.2720 0.4711 0.0000 (  5288 PWs)   bands (ev):

   -16.2174 -16.2174 -12.8688 -12.8688 -11.2544 -11.2544  -3.6831  -3.6831
     0.2731   0.2731   8.5439   8.5441   8.8881   8.8884  10.0020  10.0021

          k = 0.2727 0.4723 0.0000 (  5288 PWs)   bands (ev):

   -16.1948 -16.1948 -12.8868 -12.8868 -11.2711 -11.2711  -3.6601  -3.6601
     0.2487   0.2487   8.5764   8.5766   8.9013   8.9016  10.0364  10.0364

          k = 0.2733 0.4734 0.0000 (  5288 PWs)   bands (ev):

   -16.1722 -16.1722 -12.9047 -12.9047 -11.2877 -11.2877  -3.6371  -3.6370
     0.2245   0.2245   8.6089   8.6091   8.9141   8.9143  10.0708  10.0708

          k = 0.2740 0.4746 0.0000 (  5288 PWs)   bands (ev):

   -16.1496 -16.1496 -12.9225 -12.9225 -11.3043 -11.3043  -3.6140  -3.6140
     0.2003   0.2003   8.6414   8.6416   8.9263   8.9266  10.1052  10.1053

          k = 0.2747 0.4757 0.0000 (  5292 PWs)   bands (ev):

   -16.1270 -16.1270 -12.9404 -12.9404 -11.3208 -11.3208  -3.5910  -3.5910
     0.1762   0.1762   8.6737   8.6740   8.9381   8.9384  10.1397  10.1397

          k = 0.2753 0.4769 0.0000 (  5284 PWs)   bands (ev):

   -16.1044 -16.1044 -12.9581 -12.9581 -11.3372 -11.3372  -3.5680  -3.5680
     0.1521   0.1521   8.7060   8.7062   8.9495   8.9498  10.1742  10.1743

          k = 0.2760 0.4780 0.0000 (  5284 PWs)   bands (ev):

   -16.0817 -16.0817 -12.9759 -12.9759 -11.3536 -11.3536  -3.5450  -3.5450
     0.1280   0.1281   8.7380   8.7383   8.9606   8.9609  10.2088  10.2088

          k = 0.2767 0.4792 0.0000 (  5284 PWs)   bands (ev):

   -16.0591 -16.0591 -12.9935 -12.9935 -11.3698 -11.3698  -3.5220  -3.5220
     0.1041   0.1041   8.7699   8.7702   8.9714   8.9717  10.2434  10.2434

          k = 0.2773 0.4804 0.0000 (  5284 PWs)   bands (ev):

   -16.0364 -16.0364 -13.0112 -13.0112 -11.3861 -11.3861  -3.4990  -3.4990
     0.0802   0.0802   8.8013   8.8017   8.9820   8.9823  10.2780  10.2780

          k = 0.2780 0.4815 0.0000 (  5284 PWs)   bands (ev):

   -16.0137 -16.0137 -13.0287 -13.0287 -11.4022 -11.4022  -3.4760  -3.4760
     0.0563   0.0563   8.8322   8.8326   8.9926   8.9930  10.3127  10.3127

          k = 0.2787 0.4827 0.0000 (  5284 PWs)   bands (ev):

   -15.9910 -15.9910 -13.0463 -13.0463 -11.4183 -11.4183  -3.4531  -3.4531
     0.0325   0.0325   8.8623   8.8628   9.0035   9.0040  10.3473  10.3474

          k = 0.2793 0.4838 0.0000 (  5284 PWs)   bands (ev):

   -15.9683 -15.9683 -13.0638 -13.0638 -11.4342 -11.4342  -3.4301  -3.4301
     0.0088   0.0088   8.8912   8.8917   9.0152   9.0157  10.3820  10.3821

          k = 0.2800 0.4850 0.0000 (  5284 PWs)   bands (ev):

   -15.9456 -15.9456 -13.0812 -13.0812 -11.4502 -11.4502  -3.4072  -3.4072
    -0.0149  -0.0149   8.9181   8.9187   9.0282   9.0288  10.4168  10.4168

          k = 0.2807 0.4861 0.0000 (  5284 PWs)   bands (ev):

   -15.9229 -15.9229 -13.0986 -13.0986 -11.4660 -11.4660  -3.3843  -3.3843
    -0.0385  -0.0385   8.9423   8.9428   9.0437   9.0442  10.4515  10.4515

          k = 0.2813 0.4873 0.0000 (  5284 PWs)   bands (ev):

   -15.9002 -15.9002 -13.1159 -13.1159 -11.4817 -11.4817  -3.3614  -3.3614
    -0.0621  -0.0620   8.9627   8.9633   9.0623   9.0629  10.4863  10.4863

          k = 0.2820 0.4884 0.0000 (  5284 PWs)   bands (ev):

   -15.8774 -15.8774 -13.1332 -13.1332 -11.4974 -11.4974  -3.3385  -3.3385
    -0.0856  -0.0855   8.9791   8.9796   9.0846   9.0852  10.5210  10.5211

          k = 0.2827 0.4896 0.0000 (  5280 PWs)   bands (ev):

   -15.8547 -15.8547 -13.1504 -13.1504 -11.5130 -11.5130  -3.3157  -3.3157
    -0.1090  -0.1090   8.9918   8.9922   9.1102   9.1107  10.5558  10.5558

          k = 0.2833 0.4907 0.0000 (  5280 PWs)   bands (ev):

   -15.8320 -15.8320 -13.1676 -13.1676 -11.5285 -11.5285  -3.2928  -3.2928
    -0.1324  -0.1324   9.0016   9.0020   9.1382   9.1386  10.5906  10.5906

          k = 0.2840 0.4919 0.0000 (  5280 PWs)   bands (ev):

   -15.8092 -15.8092 -13.1848 -13.1848 -11.5439 -11.5439  -3.2700  -3.2700
    -0.1557  -0.1557   9.0093   9.0097   9.1678   9.1681  10.6254  10.6254

          k = 0.2847 0.4931 0.0000 (  5280 PWs)   bands (ev):

   -15.7865 -15.7865 -13.2018 -13.2018 -11.5593 -11.5593  -3.2472  -3.2472
    -0.1790  -0.1790   9.0156   9.0158   9.1985   9.1987  10.6601  10.6602

          k = 0.2853 0.4942 0.0000 (  5280 PWs)   bands (ev):

   -15.7638 -15.7638 -13.2189 -13.2189 -11.5745 -11.5745  -3.2245  -3.2245
    -0.2022  -0.2022   9.0206   9.0209   9.2299   9.2301  10.6949  10.6949

          k = 0.2860 0.4954 0.0000 (  5280 PWs)   bands (ev):

   -15.7410 -15.7410 -13.2359 -13.2359 -11.5897 -11.5897  -3.2017  -3.2017
    -0.2253  -0.2253   9.0248   9.0250   9.2618   9.2620  10.7296  10.7297

          k = 0.2867 0.4965 0.0000 (  5280 PWs)   bands (ev):

   -15.7183 -15.7183 -13.2528 -13.2528 -11.6047 -11.6047  -3.1790  -3.1790
    -0.2484  -0.2484   9.0282   9.0284   9.2940   9.2942  10.7644  10.7644

          k = 0.2873 0.4977 0.0000 (  5280 PWs)   bands (ev):

   -15.6956 -15.6956 -13.2697 -13.2697 -11.6197 -11.6197  -3.1563  -3.1563
    -0.2714  -0.2714   9.0310   9.0312   9.3265   9.3267  10.7991  10.7991

          k = 0.2880 0.4988 0.0000 (  5280 PWs)   bands (ev):

   -15.6729 -15.6729 -13.2865 -13.2865 -11.6346 -11.6346  -3.1336  -3.1336
    -0.2944  -0.2944   9.0333   9.0334   9.3592   9.3593  10.8337  10.8338

          k = 0.2887 0.5000 0.0000 (  5276 PWs)   bands (ev):

   -15.6502 -15.6502 -13.3033 -13.3033 -11.6494 -11.6494  -3.1110  -3.1110
    -0.3173  -0.3173   9.0351   9.0352   9.3920   9.3922  10.8684  10.8684

          k = 0.2893 0.5011 0.0000 (  5276 PWs)   bands (ev):

   -15.6275 -15.6275 -13.3201 -13.3201 -11.6641 -11.6641  -3.0884  -3.0884
    -0.3401  -0.3401   9.0364   9.0365   9.4250   9.4251  10.9029  10.9030

          k = 0.2900 0.5023 0.0000 (  5280 PWs)   bands (ev):

   -15.6048 -15.6048 -13.3368 -13.3368 -11.6787 -11.6787  -3.0658  -3.0658
    -0.3629  -0.3629   9.0373   9.0374   9.4580   9.4580  10.9375  10.9375

          k = 0.2907 0.5034 0.0000 (  5280 PWs)   bands (ev):

   -15.5822 -15.5822 -13.3534 -13.3534 -11.6932 -11.6932  -3.0433  -3.0433
    -0.3856  -0.3856   9.0379   9.0380   9.4910   9.4911  10.9719  10.9720

          k = 0.2913 0.5046 0.0000 (  5280 PWs)   bands (ev):

   -15.5595 -15.5595 -13.3700 -13.3700 -11.7076 -11.7076  -3.0207  -3.0207
    -0.4083  -0.4083   9.0381   9.0382   9.5241   9.5242  11.0063  11.0064

          k = 0.2920 0.5058 0.0000 (  5280 PWs)   bands (ev):

   -15.5369 -15.5369 -13.3865 -13.3865 -11.7219 -11.7219  -2.9982  -2.9982
    -0.4309  -0.4309   9.0380   9.0381   9.5572   9.5573  11.0407  11.0407

          k = 0.2927 0.5069 0.0000 (  5280 PWs)   bands (ev):

   -15.5143 -15.5143 -13.4030 -13.4030 -11.7361 -11.7361  -2.9758  -2.9758
    -0.4534  -0.4534   9.0376   9.0377   9.5903   9.5904  11.0749  11.0750

          k = 0.2933 0.5081 0.0000 (  5284 PWs)   bands (ev):

   -15.4917 -15.4917 -13.4195 -13.4195 -11.7502 -11.7502  -2.9534  -2.9534
    -0.4759  -0.4759   9.0369   9.0370   9.6235   9.6235  11.1090  11.1091

          k = 0.2940 0.5092 0.0000 (  5284 PWs)   bands (ev):

   -15.4692 -15.4692 -13.4359 -13.4359 -11.7642 -11.7642  -2.9310  -2.9310
    -0.4983  -0.4983   9.0360   9.0361   9.6566   9.6566  11.1430  11.1431

          k = 0.2947 0.5104 0.0000 (  5284 PWs)   bands (ev):

   -15.4466 -15.4466 -13.4522 -13.4522 -11.7780 -11.7780  -2.9086  -2.9086
    -0.5206  -0.5206   9.0349   9.0349   9.6897   9.6897  11.1768  11.1769

          k = 0.2953 0.5115 0.0000 (  5284 PWs)   bands (ev):

   -15.4241 -15.4241 -13.4685 -13.4685 -11.7918 -11.7918  -2.8863  -2.8863
    -0.5429  -0.5429   9.0335   9.0336   9.7227   9.7228  11.2104  11.2106

          k = 0.2960 0.5127 0.0000 (  5284 PWs)   bands (ev):

   -15.4017 -15.4017 -13.4848 -13.4847 -11.8054 -11.8054  -2.8640  -2.8640
    -0.5652  -0.5651   9.0319   9.0320   9.7558   9.7558  11.2438  11.2440

          k = 0.2967 0.5138 0.0000 (  5280 PWs)   bands (ev):

   -15.3792 -15.3792 -13.5009 -13.5009 -11.8189 -11.8189  -2.8418  -2.8418
    -0.5873  -0.5873   9.0302   9.0302   9.7888   9.7888  11.2760  11.2763

          k = 0.2973 0.5150 0.0000 (  5280 PWs)   bands (ev):

   -15.3568 -15.3568 -13.5171 -13.5171 -11.8323 -11.8323  -2.8196  -2.8196
    -0.6094  -0.6094   9.0283   9.0283   9.8217   9.8217  11.2793  11.2793

          k = 0.2980 0.5162 0.0000 (  5280 PWs)   bands (ev):

   -15.3344 -15.3344 -13.5332 -13.5332 -11.8456 -11.8456  -2.7974  -2.7974
    -0.6315  -0.6314   9.0262   9.0262   9.8546   9.8546  11.2813  11.2813

          k = 0.2987 0.5173 0.0000 (  5284 PWs)   bands (ev):

   -15.3121 -15.3121 -13.5492 -13.5492 -11.8588 -11.8588  -2.7753  -2.7753
    -0.6534  -0.6534   9.0239   9.0240   9.8875   9.8875  11.2831  11.2832

          k = 0.2993 0.5185 0.0000 (  5284 PWs)   bands (ev):

   -15.2898 -15.2898 -13.5652 -13.5652 -11.8718 -11.8718  -2.7532  -2.7532
    -0.6753  -0.6753   9.0216   9.0216   9.9202   9.9202  11.2848  11.2848

          k = 0.3000 0.5196 0.0000 (  5284 PWs)   bands (ev):

   -15.2676 -15.2676 -13.5811 -13.5811 -11.8847 -11.8847  -2.7312  -2.7312
    -0.6972  -0.6972   9.0191   9.0191   9.9529   9.9529  11.2864  11.2864

          k = 0.3007 0.5208 0.0000 (  5284 PWs)   bands (ev):

   -15.2454 -15.2454 -13.5970 -13.5970 -11.8975 -11.8975  -2.7092  -2.7092
    -0.7190  -0.7190   9.0165   9.0165   9.9855   9.9855  11.2878  11.2878

          k = 0.3013 0.5219 0.0000 (  5284 PWs)   bands (ev):

   -15.2233 -15.2233 -13.6129 -13.6129 -11.9101 -11.9101  -2.6873  -2.6873
    -0.7407  -0.7407   9.0138   9.0138  10.0180  10.0180  11.2890  11.2890

          k = 0.3020 0.5231 0.0000 (  5284 PWs)   bands (ev):

   -15.2012 -15.2012 -13.6287 -13.6287 -11.9226 -11.9226  -2.6654  -2.6654
    -0.7624  -0.7624   9.0110   9.0110  10.0504  10.0504  11.2901  11.2901

          k = 0.3027 0.5242 0.0000 (  5284 PWs)   bands (ev):

   -15.1792 -15.1792 -13.6444 -13.6444 -11.9349 -11.9349  -2.6435  -2.6435
    -0.7840  -0.7840   9.0081   9.0081  10.0827  10.0827  11.2911  11.2911

          k = 0.3033 0.5254 0.0000 (  5284 PWs)   bands (ev):

   -15.1572 -15.1572 -13.6601 -13.6601 -11.9471 -11.9471  -2.6217  -2.6217
    -0.8055  -0.8055   9.0052   9.0052  10.1149  10.1149  11.2919  11.2919

          k = 0.3040 0.5265 0.0000 (  5284 PWs)   bands (ev):

   -15.1354 -15.1354 -13.6757 -13.6757 -11.9592 -11.9592  -2.6000  -2.6000
    -0.8270  -0.8270   9.0022   9.0022  10.1469  10.1470  11.2925  11.2926

          k = 0.3047 0.5277 0.0000 (  5288 PWs)   bands (ev):

   -15.1135 -15.1135 -13.6913 -13.6913 -11.9711 -11.9711  -2.5783  -2.5783
    -0.8484  -0.8484   8.9991   8.9991  10.1788  10.1789  11.2930  11.2931

          k = 0.3053 0.5289 0.0000 (  5288 PWs)   bands (ev):

   -15.0918 -15.0918 -13.7069 -13.7069 -11.9828 -11.9828  -2.5566  -2.5566
    -0.8697  -0.8697   8.9960   8.9960  10.2106  10.2106  11.2934  11.2934

          k = 0.3060 0.5300 0.0000 (  5284 PWs)   bands (ev):

   -15.0701 -15.0701 -13.7223 -13.7223 -11.9944 -11.9944  -2.5350  -2.5350
    -0.8910  -0.8910   8.9929   8.9929  10.2422  10.2422  11.2936  11.2936

          k = 0.3067 0.5312 0.0000 (  5280 PWs)   bands (ev):

   -15.0485 -15.0485 -13.7378 -13.7378 -12.0059 -12.0059  -2.5135  -2.5135
    -0.9122  -0.9122   8.9897   8.9897  10.2736  10.2736  11.2936  11.2936

          k = 0.3073 0.5323 0.0000 (  5280 PWs)   bands (ev):

   -15.0270 -15.0270 -13.7532 -13.7532 -12.0171 -12.0171  -2.4920  -2.4920
    -0.9334  -0.9334   8.9866   8.9866  10.3048  10.3048  11.2935  11.2935

          k = 0.3080 0.5335 0.0000 (  5280 PWs)   bands (ev):

   -15.0056 -15.0056 -13.7685 -13.7685 -12.0282 -12.0282  -2.4705  -2.4705
    -0.9545  -0.9545   8.9834   8.9834  10.3358  10.3359  11.2932  11.2932

          k = 0.3087 0.5346 0.0000 (  5280 PWs)   bands (ev):

   -14.9842 -14.9842 -13.7838 -13.7838 -12.0391 -12.0391  -2.4492  -2.4492
    -0.9755  -0.9755   8.9802   8.9802  10.3666  10.3667  11.2927  11.2928

          k = 0.3093 0.5358 0.0000 (  5280 PWs)   bands (ev):

   -14.9630 -14.9630 -13.7990 -13.7990 -12.0499 -12.0499  -2.4278  -2.4278
    -0.9965  -0.9965   8.9770   8.9770  10.3972  10.3973  11.2921  11.2922

          k = 0.3100 0.5369 0.0000 (  5280 PWs)   bands (ev):

   -14.9419 -14.9419 -13.8142 -13.8142 -12.0604 -12.0604  -2.4066  -2.4066
    -1.0174  -1.0174   8.9738   8.9738  10.4276  10.4276  11.2914  11.2914

          k = 0.3107 0.5381 0.0000 (  5280 PWs)   bands (ev):

   -14.9209 -14.9209 -13.8293 -13.8293 -12.0708 -12.0708  -2.3854  -2.3854
    -1.0382  -1.0382   8.9707   8.9707  10.4576  10.4577  11.2904  11.2905

          k = 0.3113 0.5392 0.0000 (  5280 PWs)   bands (ev):

   -14.8999 -14.8999 -13.8444 -13.8444 -12.0810 -12.0810  -2.3642  -2.3642
    -1.0590  -1.0589   8.9675   8.9675  10.4875  10.4875  11.2893  11.2894

          k = 0.3120 0.5404 0.0000 (  5280 PWs)   bands (ev):

   -14.8791 -14.8791 -13.8594 -13.8594 -12.0909 -12.0909  -2.3432  -2.3432
    -1.0797  -1.0796   8.9644   8.9644  10.5170  10.5170  11.2881  11.2881

          k = 0.3127 0.5416 0.0000 (  5280 PWs)   bands (ev):

   -14.8585 -14.8585 -13.8744 -13.8744 -12.1007 -12.1007  -2.3221  -2.3221
    -1.1003  -1.1003   8.9614   8.9614  10.5462  10.5462  11.2866  11.2867

          k = 0.3133 0.5427 0.0000 (  5276 PWs)   bands (ev):

   -14.8379 -14.8379 -13.8893 -13.8893 -12.1103 -12.1103  -2.3012  -2.3012
    -1.1209  -1.1209   8.9583   8.9583  10.5751  10.5751  11.2850  11.2851

          k = 0.3140 0.5439 0.0000 (  5276 PWs)   bands (ev):

   -14.8175 -14.8175 -13.9042 -13.9042 -12.1196 -12.1196  -2.2803  -2.2803
    -1.1414  -1.1414   8.9553   8.9553  10.6036  10.6036  11.2833  11.2833

          k = 0.3147 0.5450 0.0000 (  5276 PWs)   bands (ev):

   -14.7972 -14.7972 -13.9190 -13.9190 -12.1288 -12.1288  -2.2595  -2.2595
    -1.1618  -1.1618   8.9524   8.9524  10.6317  10.6318  11.2813  11.2814

          k = 0.3153 0.5462 0.0000 (  5276 PWs)   bands (ev):

   -14.7771 -14.7771 -13.9338 -13.9338 -12.1377 -12.1377  -2.2387  -2.2387
    -1.1822  -1.1822   8.9495   8.9495  10.6595  10.6595  11.2792  11.2793

          k = 0.3160 0.5473 0.0000 (  5276 PWs)   bands (ev):

   -14.7571 -14.7571 -13.9485 -13.9485 -12.1464 -12.1464  -2.2180  -2.2180
    -1.2025  -1.2025   8.9467   8.9467  10.6868  10.6869  11.2769  11.2770

          k = 0.3167 0.5485 0.0000 (  5276 PWs)   bands (ev):

   -14.7373 -14.7372 -13.9632 -13.9632 -12.1548 -12.1548  -2.1974  -2.1974
    -1.2227  -1.2227   8.9439   8.9439  10.7137  10.7138  11.2745  11.2745

          k = 0.3173 0.5496 0.0000 (  5276 PWs)   bands (ev):

   -14.7176 -14.7176 -13.9778 -13.9778 -12.1630 -12.1630  -2.1769  -2.1769
    -1.2429  -1.2429   8.9412   8.9412  10.7402  10.7402  11.2719  11.2719

          k = 0.3180 0.5508 0.0000 (  5278 PWs)   bands (ev):

   -14.6981 -14.6981 -13.9924 -13.9924 -12.1710 -12.1710  -2.1564  -2.1564
    -1.2630  -1.2630   8.9386   8.9386  10.7661  10.7662  11.2691  11.2691

          k = 0.3187 0.5519 0.0000 (  5278 PWs)   bands (ev):

   -14.6788 -14.6787 -14.0069 -14.0069 -12.1787 -12.1787  -2.1360  -2.1360
    -1.2831  -1.2831   8.9361   8.9361  10.7915  10.7916  11.2662  11.2662

          k = 0.3193 0.5531 0.0000 (  5278 PWs)   bands (ev):

   -14.6596 -14.6596 -14.0213 -14.0213 -12.1861 -12.1861  -2.1156  -2.1156
    -1.3030  -1.3030   8.9336   8.9336  10.8164  10.8164  11.2630  11.2631

          k = 0.3200 0.5543 0.0000 (  5278 PWs)   bands (ev):

   -14.6407 -14.6406 -14.0357 -14.0357 -12.1933 -12.1933  -2.0954  -2.0954
    -1.3230  -1.3230   8.9312   8.9312  10.8407  10.8407  11.2597  11.2598

          k = 0.3207 0.5554 0.0000 (  5278 PWs)   bands (ev):

   -14.6219 -14.6219 -14.0501 -14.0501 -12.2002 -12.2002  -2.0752  -2.0752
    -1.3428  -1.3428   8.9289   8.9289  10.8644  10.8644  11.2563  11.2563

          k = 0.3213 0.5566 0.0000 (  5278 PWs)   bands (ev):

   -14.6033 -14.6033 -14.0644 -14.0644 -12.2068 -12.2068  -2.0551  -2.0551
    -1.3626  -1.3626   8.9267   8.9267  10.8874  10.8874  11.2527  11.2527

          k = 0.3220 0.5577 0.0000 (  5278 PWs)   bands (ev):

   -14.5850 -14.5850 -14.0787 -14.0787 -12.2131 -12.2131  -2.0350  -2.0350
    -1.3823  -1.3823   8.9246   8.9246  10.9098  10.9098  11.2489  11.2489

          k = 0.3227 0.5589 0.0000 (  5278 PWs)   bands (ev):

   -14.5669 -14.5669 -14.0929 -14.0929 -12.2192 -12.2192  -2.0151  -2.0151
    -1.4019  -1.4019   8.9226   8.9226  10.9314  10.9315  11.2449  11.2450

          k = 0.3233 0.5600 0.0000 (  5278 PWs)   bands (ev):

   -14.5490 -14.5490 -14.1070 -14.1070 -12.2249 -12.2249  -1.9952  -1.9952
    -1.4215  -1.4215   8.9207   8.9207  10.9523  10.9524  11.2408  11.2408

          k = 0.3240 0.5612 0.0000 (  5274 PWs)   bands (ev):

   -14.5313 -14.5313 -14.1211 -14.1211 -12.2303 -12.2303  -1.9754  -1.9754
    -1.4410  -1.4410   8.9189   8.9189  10.9725  10.9725  11.2365  11.2365

          k = 0.3247 0.5623 0.0000 (  5282 PWs)   bands (ev):

   -14.5139 -14.5139 -14.1352 -14.1352 -12.2354 -12.2354  -1.9557  -1.9557
    -1.4605  -1.4605   8.9172   8.9172  10.9918  10.9919  11.2320  11.2321

          k = 0.3253 0.5635 0.0000 (  5278 PWs)   bands (ev):

   -14.4967 -14.4967 -14.1492 -14.1492 -12.2402 -12.2402  -1.9361  -1.9361
    -1.4799  -1.4799   8.9157   8.9157  11.0104  11.0104  11.2274  11.2275

          k = 0.3260 0.5646 0.0000 (  5280 PWs)   bands (ev):

   -14.4798 -14.4798 -14.1631 -14.1631 -12.2446 -12.2446  -1.9165  -1.9165
    -1.4992  -1.4992   8.9142   8.9142  11.0280  11.0281  11.2226  11.2227

          k = 0.3267 0.5658 0.0000 (  5280 PWs)   bands (ev):

   -14.4631 -14.4631 -14.1770 -14.1770 -12.2487 -12.2487  -1.8970  -1.8970
    -1.5184  -1.5184   8.9128   8.9128  11.0448  11.0449  11.2177  11.2178

          k = 0.3273 0.5670 0.0000 (  5280 PWs)   bands (ev):

   -14.4468 -14.4468 -14.1909 -14.1909 -12.2524 -12.2524  -1.8777  -1.8777
    -1.5376  -1.5376   8.9116   8.9116  11.0607  11.0607  11.2126  11.2127

          k = 0.3280 0.5681 0.0000 (  5280 PWs)   bands (ev):

   -14.4307 -14.4307 -14.2047 -14.2047 -12.2558 -12.2558  -1.8584  -1.8584
    -1.5567  -1.5567   8.9105   8.9105  11.0756  11.0756  11.2073  11.2074

          k = 0.3287 0.5693 0.0000 (  5280 PWs)   bands (ev):

   -14.4149 -14.4149 -14.2184 -14.2184 -12.2588 -12.2588  -1.8391  -1.8391
    -1.5758  -1.5757   8.9095   8.9095  11.0895  11.0896  11.2019  11.2020

          k = 0.3293 0.5704 0.0000 (  5280 PWs)   bands (ev):

   -14.3994 -14.3994 -14.2321 -14.2321 -12.2614 -12.2614  -1.8200  -1.8200
    -1.5947  -1.5947   8.9086   8.9086  11.1025  11.1026  11.1964  11.1964

          k = 0.3300 0.5716 0.0000 (  5280 PWs)   bands (ev):

   -14.3842 -14.3842 -14.2457 -14.2457 -12.2637 -12.2637  -1.8010  -1.8010
    -1.6136  -1.6136   8.9079   8.9079  11.1145  11.1146  11.1906  11.1907

          k = 0.3307 0.5727 0.0000 (  5280 PWs)   bands (ev):

   -14.3693 -14.3693 -14.2593 -14.2593 -12.2655 -12.2655  -1.7820  -1.7820
    -1.6325  -1.6325   8.9073   8.9073  11.1255  11.1256  11.1848  11.1848

          k = 0.3313 0.5739 0.0000 (  5280 PWs)   bands (ev):

   -14.3548 -14.3548 -14.2729 -14.2729 -12.2670 -12.2670  -1.7632  -1.7632
    -1.6512  -1.6512   8.9068   8.9068  11.1355  11.1356  11.1788  11.1788

          k = 0.3320 0.5750 0.0000 (  5284 PWs)   bands (ev):

   -14.3406 -14.3406 -14.2863 -14.2863 -12.2680 -12.2680  -1.7444  -1.7444
    -1.6700  -1.6699   8.9065   8.9065  11.1445  11.1446  11.1726  11.1727

          k = 0.3327 0.5762 0.0000 (  5288 PWs)   bands (ev):

   -14.3267 -14.3267 -14.2997 -14.2997 -12.2687 -12.2687  -1.7257  -1.7257
    -1.6886  -1.6886   8.9063   8.9063  11.1524  11.1524  11.1665  11.1665

          k = 0.3333 0.5774 0.0000 (  5292 PWs)   bands (ev):

   -14.3142 -14.3142 -14.3121 -14.3121 -12.2689 -12.2689  -1.7072  -1.7072
    -1.7071  -1.7071   8.9062   8.9062  11.1577  11.1578  11.1617  11.1617

          k = 0.3337 0.5768 0.0000 (  5284 PWs)   bands (ev):

   -14.3199 -14.3199 -14.3064 -14.3064 -12.2688 -12.2688  -1.7164  -1.7164
    -1.6979  -1.6979   8.9062   8.9062  11.1558  11.1559  11.1634  11.1635

          k = 0.3340 0.5762 0.0000 (  5280 PWs)   bands (ev):

   -14.3265 -14.3265 -14.2999 -14.2999 -12.2687 -12.2687  -1.7257  -1.7257
    -1.6887  -1.6887   8.9063   8.9063  11.1528  11.1528  11.1661  11.1661

          k = 0.3343 0.5756 0.0000 (  5280 PWs)   bands (ev):

   -14.3332 -14.3332 -14.2935 -14.2935 -12.2684 -12.2684  -1.7349  -1.7349
    -1.6795  -1.6795   8.9064   8.9064  11.1495  11.1496  11.1686  11.1687

          k = 0.3347 0.5750 0.0000 (  5280 PWs)   bands (ev):

   -14.3398 -14.3398 -14.2872 -14.2871 -12.2680 -12.2680  -1.7441  -1.7441
    -1.6703  -1.6703   8.9065   8.9065  11.1462  11.1462  11.1710  11.1711

          k = 0.3350 0.5745 0.0000 (  5280 PWs)   bands (ev):

   -14.3464 -14.3464 -14.2809 -14.2809 -12.2675 -12.2675  -1.7533  -1.7533
    -1.6611  -1.6611   8.9066   8.9066  11.1428  11.1428  11.1732  11.1732

          k = 0.3353 0.5739 0.0000 (  5280 PWs)   bands (ev):

   -14.3530 -14.3530 -14.2747 -14.2747 -12.2669 -12.2669  -1.7625  -1.7624
    -1.6520  -1.6520   8.9068   8.9068  11.1393  11.1394  11.1751  11.1752

          k = 0.3357 0.5733 0.0000 (  5280 PWs)   bands (ev):

   -14.3596 -14.3596 -14.2686 -14.2686 -12.2662 -12.2662  -1.7716  -1.7716
    -1.6429  -1.6429   8.9071   8.9071  11.1358  11.1359  11.1769  11.1769

          k = 0.3360 0.5727 0.0000 (  5280 PWs)   bands (ev):

   -14.3662 -14.3662 -14.2626 -14.2626 -12.2654 -12.2654  -1.7807  -1.7807
    -1.6338  -1.6338   8.9073   8.9073  11.1323  11.1324  11.1784  11.1784

          k = 0.3363 0.5722 0.0000 (  5280 PWs)   bands (ev):

   -14.3727 -14.3727 -14.2568 -14.2568 -12.2644 -12.2644  -1.7899  -1.7899
    -1.6247  -1.6247   8.9076   8.9076  11.1288  11.1288  11.1797  11.1797

          k = 0.3367 0.5716 0.0000 (  5280 PWs)   bands (ev):

   -14.3793 -14.3793 -14.2510 -14.2510 -12.2634 -12.2634  -1.7990  -1.7990
    -1.6157  -1.6157   8.9080   8.9080  11.1252  11.1252  11.1807  11.1808

          k = 0.3370 0.5710 0.0000 (  5280 PWs)   bands (ev):

   -14.3858 -14.3858 -14.2453 -14.2453 -12.2622 -12.2622  -1.8081  -1.8081
    -1.6067  -1.6067   8.9083   8.9083  11.1215  11.1216  11.1816  11.1816

          k = 0.3373 0.5704 0.0000 (  5280 PWs)   bands (ev):

   -14.3923 -14.3923 -14.2397 -14.2397 -12.2609 -12.2609  -1.8171  -1.8171
    -1.5977  -1.5977   8.9088   8.9088  11.1179  11.1179  11.1822  11.1823

          k = 0.3377 0.5698 0.0000 (  5280 PWs)   bands (ev):

   -14.3989 -14.3989 -14.2342 -14.2341 -12.2595 -12.2595  -1.8262  -1.8262
    -1.5887  -1.5887   8.9092   8.9092  11.1142  11.1142  11.1826  11.1827

          k = 0.3380 0.5693 0.0000 (  5280 PWs)   bands (ev):

   -14.4054 -14.4054 -14.2287 -14.2287 -12.2580 -12.2580  -1.8352  -1.8352
    -1.5798  -1.5798   8.9097   8.9097  11.1104  11.1105  11.1829  11.1829

          k = 0.3383 0.5687 0.0000 (  5280 PWs)   bands (ev):

   -14.4118 -14.4118 -14.2234 -14.2234 -12.2564 -12.2564  -1.8442  -1.8442
    -1.5708  -1.5708   8.9102   8.9102  11.1067  11.1067  11.1829  11.1829

          k = 0.3387 0.5681 0.0000 (  5280 PWs)   bands (ev):

   -14.4183 -14.4183 -14.2182 -14.2182 -12.2547 -12.2547  -1.8532  -1.8532
    -1.5620  -1.5620   8.9108   8.9108  11.1029  11.1030  11.1827  11.1828

          k = 0.3390 0.5675 0.0000 (  5280 PWs)   bands (ev):

   -14.4248 -14.4248 -14.2131 -14.2131 -12.2528 -12.2528  -1.8622  -1.8622
    -1.5531  -1.5531   8.9114   8.9114  11.0991  11.0991  11.1824  11.1824

          k = 0.3393 0.5670 0.0000 (  5280 PWs)   bands (ev):

   -14.4312 -14.4312 -14.2081 -14.2081 -12.2508 -12.2508  -1.8712  -1.8712
    -1.5442  -1.5442   8.9120   8.9120  11.0952  11.0953  11.1818  11.1819

          k = 0.3397 0.5664 0.0000 (  5280 PWs)   bands (ev):

   -14.4377 -14.4377 -14.2032 -14.2032 -12.2487 -12.2487  -1.8801  -1.8801
    -1.5354  -1.5354   8.9127   8.9127  11.0913  11.0914  11.1811  11.1812

          k = 0.3400 0.5658 0.0000 (  5280 PWs)   bands (ev):

   -14.4441 -14.4441 -14.1984 -14.1984 -12.2465 -12.2465  -1.8891  -1.8891
    -1.5266  -1.5266   8.9134   8.9134  11.0874  11.0875  11.1802  11.1802

          k = 0.3403 0.5652 0.0000 (  5280 PWs)   bands (ev):

   -14.4505 -14.4505 -14.1937 -14.1937 -12.2441 -12.2441  -1.8980  -1.8980
    -1.5179  -1.5179   8.9141   8.9141  11.0835  11.0835  11.1791  11.1792

          k = 0.3407 0.5646 0.0000 (  5276 PWs)   bands (ev):

   -14.4569 -14.4569 -14.1891 -14.1891 -12.2417 -12.2417  -1.9069  -1.9069
    -1.5091  -1.5091   8.9149   8.9149  11.0795  11.0796  11.1779  11.1779

          k = 0.3410 0.5641 0.0000 (  5276 PWs)   bands (ev):

   -14.4633 -14.4633 -14.1846 -14.1846 -12.2391 -12.2391  -1.9158  -1.9158
    -1.5004  -1.5004   8.9158   8.9158  11.0755  11.0756  11.1764  11.1765

          k = 0.3413 0.5635 0.0000 (  5276 PWs)   bands (ev):

   -14.4696 -14.4696 -14.1802 -14.1802 -12.2364 -12.2364  -1.9246  -1.9246
    -1.4917  -1.4917   8.9166   8.9166  11.0715  11.0715  11.1748  11.1749

          k = 0.3417 0.5629 0.0000 (  5280 PWs)   bands (ev):

   -14.4760 -14.4760 -14.1759 -14.1759 -12.2336 -12.2336  -1.9335  -1.9335
    -1.4831  -1.4831   8.9175   8.9175  11.0674  11.0675  11.1731  11.1731

          k = 0.3420 0.5623 0.0000 (  5280 PWs)   bands (ev):

   -14.4823 -14.4823 -14.1717 -14.1717 -12.2307 -12.2307  -1.9423  -1.9423
    -1.4744  -1.4744   8.9185   8.9185  11.0633  11.0634  11.1712  11.1712

          k = 0.3423 0.5618 0.0000 (  5280 PWs)   bands (ev):

   -14.4887 -14.4887 -14.1676 -14.1676 -12.2276 -12.2276  -1.9511  -1.9511
    -1.4658  -1.4658   8.9195   8.9195  11.0592  11.0593  11.1691  11.1691

          k = 0.3427 0.5612 0.0000 (  5280 PWs)   bands (ev):

   -14.4950 -14.4950 -14.1636 -14.1636 -12.2244 -12.2244  -1.9599  -1.9599
    -1.4573  -1.4573   8.9205   8.9205  11.0550  11.0551  11.1669  11.1669

          k = 0.3430 0.5606 0.0000 (  5276 PWs)   bands (ev):

   -14.5013 -14.5013 -14.1597 -14.1597 -12.2211 -12.2211  -1.9687  -1.9687
    -1.4487  -1.4487   8.9215   8.9215  11.0509  11.0509  11.1645  11.1645

          k = 0.3433 0.5600 0.0000 (  5276 PWs)   bands (ev):

   -14.5076 -14.5076 -14.1559 -14.1559 -12.2177 -12.2177  -1.9775  -1.9774
    -1.4402  -1.4402   8.9226   8.9226  11.0467  11.0467  11.1620  11.1620

          k = 0.3437 0.5595 0.0000 (  5276 PWs)   bands (ev):

   -14.5139 -14.5139 -14.1522 -14.1522 -12.2142 -12.2142  -1.9862  -1.9862
    -1.4317  -1.4317   8.9238   8.9238  11.0424  11.0425  11.1593  11.1594

          k = 0.3440 0.5589 0.0000 (  5272 PWs)   bands (ev):

   -14.5201 -14.5201 -14.1487 -14.1486 -12.2105 -12.2105  -1.9949  -1.9949
    -1.4232  -1.4232   8.9249   8.9249  11.0382  11.0382  11.1565  11.1566

          k = 0.3443 0.5583 0.0000 (  5272 PWs)   bands (ev):

   -14.5264 -14.5264 -14.1452 -14.1452 -12.2067 -12.2067  -2.0036  -2.0036
    -1.4147  -1.4147   8.9262   8.9262  11.0339  11.0340  11.1536  11.1536

          k = 0.3447 0.5577 0.0000 (  5276 PWs)   bands (ev):

   -14.5326 -14.5326 -14.1418 -14.1418 -12.2028 -12.2028  -2.0123  -2.0123
    -1.4063  -1.4063   8.9274   8.9274  11.0296  11.0297  11.1505  11.1506

          k = 0.3450 0.5571 0.0000 (  5276 PWs)   bands (ev):

   -14.5388 -14.5388 -14.1385 -14.1385 -12.1988 -12.1988  -2.0210  -2.0210
    -1.3979  -1.3979   8.9287   8.9287  11.0253  11.0253  11.1473  11.1474

          k = 0.3453 0.5566 0.0000 (  5276 PWs)   bands (ev):

   -14.5451 -14.5451 -14.1353 -14.1353 -12.1947 -12.1947  -2.0296  -2.0296
    -1.3895  -1.3895   8.9300   8.9300  11.0209  11.0210  11.1440  11.1441

          k = 0.3457 0.5560 0.0000 (  5276 PWs)   bands (ev):

   -14.5513 -14.5513 -14.1323 -14.1323 -12.1904 -12.1904  -2.0383  -2.0383
    -1.3812  -1.3812   8.9314   8.9314  11.0165  11.0166  11.1406  11.1406

          k = 0.3460 0.5554 0.0000 (  5276 PWs)   bands (ev):

   -14.5574 -14.5574 -14.1293 -14.1293 -12.1861 -12.1861  -2.0469  -2.0469
    -1.3729  -1.3729   8.9328   8.9328  11.0121  11.0122  11.1370  11.1370

          k = 0.3463 0.5548 0.0000 (  5276 PWs)   bands (ev):

   -14.5636 -14.5636 -14.1264 -14.1264 -12.1816 -12.1816  -2.0555  -2.0555
    -1.3646  -1.3646   8.9343   8.9343  11.0077  11.0077  11.1333  11.1333

          k = 0.3467 0.5543 0.0000 (  5276 PWs)   bands (ev):

   -14.5698 -14.5698 -14.1237 -14.1237 -12.1770 -12.1770  -2.0641  -2.0641
    -1.3563  -1.3563   8.9358   8.9358  11.0032  11.0033  11.1295  11.1295

          k = 0.3470 0.5537 0.0000 (  5276 PWs)   bands (ev):

   -14.5759 -14.5759 -14.1210 -14.1210 -12.1723 -12.1723  -2.0727  -2.0727
    -1.3481  -1.3481   8.9373   8.9373  10.9988  10.9988  11.1256  11.1256

          k = 0.3473 0.5531 0.0000 (  5276 PWs)   bands (ev):

   -14.5821 -14.5821 -14.1184 -14.1184 -12.1674 -12.1674  -2.0812  -2.0812
    -1.3399  -1.3399   8.9389   8.9389  10.9943  10.9943  11.1215  11.1216

          k = 0.3477 0.5525 0.0000 (  5276 PWs)   bands (ev):

   -14.5882 -14.5882 -14.1160 -14.1160 -12.1625 -12.1625  -2.0898  -2.0897
    -1.3317  -1.3317   8.9405   8.9405  10.9897  10.9898  11.1174  11.1174

          k = 0.3480 0.5519 0.0000 (  5276 PWs)   bands (ev):

   -14.5943 -14.5943 -14.1136 -14.1136 -12.1574 -12.1574  -2.0983  -2.0983
    -1.3236  -1.3236   8.9421   8.9421  10.9852  10.9852  11.1131  11.1132

          k = 0.3483 0.5514 0.0000 (  5274 PWs)   bands (ev):

   -14.6004 -14.6004 -14.1113 -14.1113 -12.1522 -12.1522  -2.1068  -2.1068
    -1.3154  -1.3154   8.9438   8.9438  10.9806  10.9807  11.1088  11.1088

          k = 0.3487 0.5508 0.0000 (  5274 PWs)   bands (ev):

   -14.6065 -14.6065 -14.1091 -14.1091 -12.1469 -12.1469  -2.1152  -2.1152
    -1.3073  -1.3073   8.9456   8.9456  10.9760  10.9761  11.1043  11.1043

          k = 0.3490 0.5502 0.0000 (  5278 PWs)   bands (ev):

   -14.6125 -14.6125 -14.1071 -14.1071 -12.1415 -12.1415  -2.1237  -2.1237
    -1.2993  -1.2993   8.9473   8.9473  10.9714  10.9715  11.0997  11.0997

          k = 0.3493 0.5496 0.0000 (  5278 PWs)   bands (ev):

   -14.6186 -14.6186 -14.1051 -14.1051 -12.1360 -12.1360  -2.1322  -2.1322
    -1.2912  -1.2912   8.9491   8.9491  10.9668  10.9668  11.0950  11.0950

          k = 0.3497 0.5491 0.0000 (  5278 PWs)   bands (ev):

   -14.6246 -14.6246 -14.1032 -14.1032 -12.1304 -12.1304  -2.1406  -2.1406
    -1.2832  -1.2832   8.9510   8.9510  10.9621  10.9622  11.0902  11.0902

          k = 0.3500 0.5485 0.0000 (  5278 PWs)   bands (ev):

   -14.6307 -14.6307 -14.1014 -14.1014 -12.1246 -12.1246  -2.1490  -2.1490
    -1.2752  -1.2752   8.9529   8.9529  10.9574  10.9575  11.0853  11.0854

          k = 0.3503 0.5479 0.0000 (  5282 PWs)   bands (ev):

   -14.6367 -14.6367 -14.0997 -14.0997 -12.1188 -12.1188  -2.1574  -2.1574
    -1.2673  -1.2673   8.9548   8.9548  10.9527  10.9528  11.0803  11.0804

          k = 0.3507 0.5473 0.0000 (  5282 PWs)   bands (ev):

   -14.6427 -14.6427 -14.0981 -14.0981 -12.1128 -12.1128  -2.1658  -2.1658
    -1.2593  -1.2593   8.9568   8.9568  10.9480  10.9481  11.0752  11.0753

          k = 0.3510 0.5468 0.0000 (  5282 PWs)   bands (ev):

   -14.6487 -14.6487 -14.0966 -14.0966 -12.1067 -12.1067  -2.1741  -2.1741
    -1.2514  -1.2514   8.9588   8.9588  10.9433  10.9434  11.0700  11.0701

          k = 0.3513 0.5462 0.0000 (  5282 PWs)   bands (ev):

   -14.6547 -14.6547 -14.0952 -14.0951 -12.1006 -12.1006  -2.1825  -2.1825
    -1.2436  -1.2436   8.9609   8.9609  10.9385  10.9386  11.0647  11.0648

          k = 0.3517 0.5456 0.0000 (  5282 PWs)   bands (ev):

   -14.6606 -14.6606 -14.0938 -14.0938 -12.0943 -12.0943  -2.1908  -2.1908
    -1.2357  -1.2357   8.9629   8.9629  10.9338  10.9338  11.0593  11.0594

          k = 0.3520 0.5450 0.0000 (  5282 PWs)   bands (ev):

   -14.6666 -14.6666 -14.0926 -14.0926 -12.0879 -12.0879  -2.1991  -2.1991
    -1.2279  -1.2279   8.9651   8.9651  10.9290  10.9290  11.0539  11.0539

          k = 0.3523 0.5444 0.0000 (  5282 PWs)   bands (ev):

   -14.6725 -14.6725 -14.0914 -14.0914 -12.0814 -12.0814  -2.2074  -2.2074
    -1.2201  -1.2201   8.9672   8.9673  10.9242  10.9242  11.0483  11.0483

          k = 0.3527 0.5439 0.0000 (  5282 PWs)   bands (ev):

   -14.6784 -14.6784 -14.0904 -14.0904 -12.0748 -12.0748  -2.2157  -2.2157
    -1.2123  -1.2123   8.9695   8.9695  10.9193  10.9194  11.0426  11.0426

          k = 0.3530 0.5433 0.0000 (  5282 PWs)   bands (ev):

   -14.6843 -14.6843 -14.0894 -14.0894 -12.0681 -12.0681  -2.2239  -2.2239
    -1.2046  -1.2046   8.9717   8.9717  10.9145  10.9145  11.0368  11.0368

          k = 0.3533 0.5427 0.0000 (  5282 PWs)   bands (ev):

   -14.6902 -14.6902 -14.0885 -14.0885 -12.0613 -12.0613  -2.2321  -2.2321
    -1.1969  -1.1969   8.9740   8.9740  10.9096  10.9097  11.0309  11.0309

          k = 0.3537 0.5421 0.0000 (  5282 PWs)   bands (ev):

   -14.6961 -14.6961 -14.0877 -14.0877 -12.0544 -12.0544  -2.2404  -2.2404
    -1.1892  -1.1892   8.9763   8.9763  10.9047  10.9048  11.0249  11.0250

          k = 0.3540 0.5416 0.0000 (  5284 PWs)   bands (ev):

   -14.7020 -14.7020 -14.0869 -14.0869 -12.0474 -12.0474  -2.2486  -2.2486
    -1.1816  -1.1816   8.9787   8.9787  10.8998  10.8999  11.0189  11.0189

          k = 0.3543 0.5410 0.0000 (  5284 PWs)   bands (ev):

   -14.7079 -14.7079 -14.0863 -14.0863 -12.0403 -12.0403  -2.2568  -2.2567
    -1.1740  -1.1740   8.9811   8.9811  10.8949  10.8950  11.0127  11.0127

          k = 0.3547 0.5404 0.0000 (  5284 PWs)   bands (ev):

   -14.7137 -14.7137 -14.0857 -14.0857 -12.0331 -12.0331  -2.2649  -2.2649
    -1.1664  -1.1664   8.9836   8.9836  10.8900  10.8901  11.0064  11.0064

          k = 0.3550 0.5398 0.0000 (  5284 PWs)   bands (ev):

   -14.7195 -14.7195 -14.0853 -14.0853 -12.0258 -12.0258  -2.2731  -2.2731
    -1.1588  -1.1588   8.9861   8.9861  10.8851  10.8851  11.0001  11.0001

          k = 0.3553 0.5392 0.0000 (  5284 PWs)   bands (ev):

   -14.7254 -14.7254 -14.0849 -14.0849 -12.0184 -12.0184  -2.2812  -2.2812
    -1.1513  -1.1513   8.9886   8.9886  10.8801  10.8802  10.9936  10.9936

          k = 0.3557 0.5387 0.0000 (  5284 PWs)   bands (ev):

   -14.7312 -14.7312 -14.0846 -14.0846 -12.0109 -12.0109  -2.2893  -2.2893
    -1.1438  -1.1438   8.9912   8.9912  10.8751  10.8752  10.9870  10.9870

          k = 0.3560 0.5381 0.0000 (  5284 PWs)   bands (ev):

   -14.7370 -14.7370 -14.0843 -14.0843 -12.0033 -12.0033  -2.2974  -2.2974
    -1.1363  -1.1363   8.9938   8.9938  10.8701  10.8702  10.9803  10.9804

          k = 0.3563 0.5375 0.0000 (  5284 PWs)   bands (ev):

   -14.7427 -14.7427 -14.0841 -14.0841 -11.9957 -11.9957  -2.3055  -2.3055
    -1.1289  -1.1289   8.9964   8.9964  10.8651  10.8652  10.9736  10.9736

          k = 0.3567 0.5369 0.0000 (  5284 PWs)   bands (ev):

   -14.7485 -14.7485 -14.0841 -14.0841 -11.9879 -11.9879  -2.3135  -2.3135
    -1.1215  -1.1215   8.9991   8.9991  10.8601  10.8602  10.9667  10.9667

          k = 0.3570 0.5364 0.0000 (  5284 PWs)   bands (ev):

   -14.7543 -14.7543 -14.0840 -14.0840 -11.9801 -11.9801  -2.3216  -2.3216
    -1.1141  -1.1141   9.0018   9.0019  10.8551  10.8551  10.9597  10.9597

          k = 0.3573 0.5358 0.0000 (  5284 PWs)   bands (ev):

   -14.7600 -14.7600 -14.0841 -14.0841 -11.9721 -11.9721  -2.3296  -2.3296
    -1.1067  -1.1067   9.0046   9.0046  10.8500  10.8501  10.9526  10.9526

          k = 0.3577 0.5352 0.0000 (  5284 PWs)   bands (ev):

   -14.7657 -14.7657 -14.0842 -14.0842 -11.9641 -11.9641  -2.3376  -2.3376
    -1.0994  -1.0994   9.0074   9.0074  10.8450  10.8450  10.9454  10.9454

          k = 0.3580 0.5346 0.0000 (  5284 PWs)   bands (ev):

   -14.7714 -14.7714 -14.0844 -14.0844 -11.9560 -11.9560  -2.3456  -2.3456
    -1.0921  -1.0921   9.0103   9.0103  10.8399  10.8400  10.9381  10.9381

          k = 0.3583 0.5340 0.0000 (  5284 PWs)   bands (ev):

   -14.7771 -14.7771 -14.0847 -14.0847 -11.9478 -11.9478  -2.3536  -2.3536
    -1.0848  -1.0848   9.0132   9.0132  10.8348  10.8349  10.9307  10.9307

          k = 0.3587 0.5335 0.0000 (  5288 PWs)   bands (ev):

   -14.7828 -14.7828 -14.0851 -14.0851 -11.9395 -11.9395  -2.3615  -2.3615
    -1.0776  -1.0776   9.0161   9.0161  10.8297  10.8298  10.9232  10.9232

          k = 0.3590 0.5329 0.0000 (  5288 PWs)   bands (ev):

   -14.7885 -14.7885 -14.0855 -14.0855 -11.9311 -11.9311  -2.3695  -2.3694
    -1.0704  -1.0704   9.0190   9.0191  10.8246  10.8247  10.9155  10.9156

          k = 0.3593 0.5323 0.0000 (  5288 PWs)   bands (ev):

   -14.7942 -14.7942 -14.0860 -14.0860 -11.9227 -11.9227  -2.3774  -2.3774
    -1.0632  -1.0632   9.0221   9.0221  10.8195  10.8195  10.9078  10.9078

          k = 0.3597 0.5317 0.0000 (  5288 PWs)   bands (ev):

   -14.7998 -14.7998 -14.0865 -14.0865 -11.9142 -11.9142  -2.3853  -2.3853
    -1.0561  -1.0560   9.0251   9.0251  10.8143  10.8144  10.8999  10.8999

          k = 0.3600 0.5312 0.0000 (  5288 PWs)   bands (ev):

   -14.8055 -14.8055 -14.0871 -14.0871 -11.9056 -11.9056  -2.3932  -2.3931
    -1.0489  -1.0489   9.0282   9.0282  10.8092  10.8093  10.8919  10.8919

          k = 0.3603 0.5306 0.0000 (  5292 PWs)   bands (ev):

   -14.8111 -14.8111 -14.0878 -14.0878 -11.8969 -11.8969  -2.4010  -2.4010
    -1.0418  -1.0418   9.0313   9.0313  10.8040  10.8041  10.8838  10.8838

          k = 0.3607 0.5300 0.0000 (  5292 PWs)   bands (ev):

   -14.8167 -14.8167 -14.0885 -14.0885 -11.8881 -11.8881  -2.4089  -2.4089
    -1.0348  -1.0348   9.0345   9.0345  10.7989  10.7989  10.8756  10.8756

          k = 0.3610 0.5294 0.0000 (  5292 PWs)   bands (ev):

   -14.8223 -14.8223 -14.0893 -14.0893 -11.8793 -11.8793  -2.4167  -2.4167
    -1.0277  -1.0277   9.0377   9.0377  10.7937  10.7937  10.8672  10.8672

          k = 0.3613 0.5289 0.0000 (  5292 PWs)   bands (ev):

   -14.8279 -14.8279 -14.0902 -14.0902 -11.8704 -11.8704  -2.4245  -2.4245
    -1.0207  -1.0207   9.0409   9.0409  10.7885  10.7886  10.8587  10.8587

          k = 0.3617 0.5283 0.0000 (  5288 PWs)   bands (ev):

   -14.8334 -14.8334 -14.0911 -14.0911 -11.8614 -11.8614  -2.4323  -2.4323
    -1.0138  -1.0138   9.0442   9.0442  10.7833  10.7834  10.8501  10.8501

          k = 0.3620 0.5277 0.0000 (  5288 PWs)   bands (ev):

   -14.8390 -14.8390 -14.0921 -14.0921 -11.8523 -11.8523  -2.4401  -2.4401
    -1.0068  -1.0068   9.0475   9.0475  10.7781  10.7782  10.8413  10.8413

          k = 0.3623 0.5271 0.0000 (  5296 PWs)   bands (ev):

   -14.8445 -14.8445 -14.0931 -14.0931 -11.8432 -11.8432  -2.4478  -2.4478
    -0.9999  -0.9999   9.0508   9.0508  10.7729  10.7729  10.8324  10.8324

          k = 0.3627 0.5265 0.0000 (  5296 PWs)   bands (ev):

   -14.8501 -14.8501 -14.0942 -14.0942 -11.8340 -11.8340  -2.4556  -2.4556
    -0.9930  -0.9930   9.0542   9.0542  10.7676  10.7677  10.8234  10.8234

          k = 0.3630 0.5260 0.0000 (  5296 PWs)   bands (ev):

   -14.8556 -14.8556 -14.0954 -14.0954 -11.8247 -11.8247  -2.4633  -2.4633
    -0.9862  -0.9862   9.0576   9.0577  10.7624  10.7625  10.8142  10.8142

          k = 0.3633 0.5254 0.0000 (  5296 PWs)   bands (ev):

   -14.8611 -14.8611 -14.0966 -14.0966 -11.8154 -11.8154  -2.4710  -2.4710
    -0.9794  -0.9794   9.0611   9.0611  10.7572  10.7572  10.8049  10.8049

          k = 0.3637 0.5248 0.0000 (  5296 PWs)   bands (ev):

   -14.8666 -14.8666 -14.0978 -14.0978 -11.8060 -11.8060  -2.4787  -2.4787
    -0.9726  -0.9726   9.0646   9.0646  10.7519  10.7520  10.7954  10.7954

          k = 0.3640 0.5242 0.0000 (  5296 PWs)   bands (ev):

   -14.8721 -14.8721 -14.0992 -14.0992 -11.7965 -11.7965  -2.4863  -2.4863
    -0.9658  -0.9658   9.0681   9.0682  10.7466  10.7467  10.7858  10.7858

          k = 0.3643 0.5237 0.0000 (  5292 PWs)   bands (ev):

   -14.8775 -14.8775 -14.1005 -14.1005 -11.7870 -11.7870  -2.4940  -2.4940
    -0.9591  -0.9591   9.0717   9.0717  10.7414  10.7414  10.7761  10.7761

          k = 0.3647 0.5231 0.0000 (  5292 PWs)   bands (ev):

   -14.8830 -14.8830 -14.1019 -14.1019 -11.7774 -11.7774  -2.5016  -2.5016
    -0.9524  -0.9524   9.0753   9.0753  10.7361  10.7361  10.7662  10.7662

          k = 0.3650 0.5225 0.0000 (  5292 PWs)   bands (ev):

   -14.8884 -14.8884 -14.1034 -14.1034 -11.7677 -11.7677  -2.5092  -2.5092
    -0.9457  -0.9457   9.0790   9.0790  10.7308  10.7309  10.7561  10.7561

          k = 0.3653 0.5219 0.0000 (  5288 PWs)   bands (ev):

   -14.8938 -14.8938 -14.1049 -14.1049 -11.7580 -11.7580  -2.5168  -2.5168
    -0.9390  -0.9390   9.0827   9.0827  10.7255  10.7255  10.7459  10.7459

          k = 0.3657 0.5213 0.0000 (  5288 PWs)   bands (ev):

   -14.8992 -14.8992 -14.1065 -14.1065 -11.7482 -11.7482  -2.5244  -2.5244
    -0.9324  -0.9324   9.0864   9.0864  10.7201  10.7202  10.7356  10.7356

          k = 0.3660 0.5208 0.0000 (  5284 PWs)   bands (ev):

   -14.9046 -14.9046 -14.1081 -14.1081 -11.7383 -11.7383  -2.5320  -2.5320
    -0.9258  -0.9258   9.0902   9.0902  10.7147  10.7148  10.7252  10.7252

          k = 0.3663 0.5202 0.0000 (  5284 PWs)   bands (ev):

   -14.9100 -14.9100 -14.1097 -14.1097 -11.7284 -11.7284  -2.5395  -2.5395
    -0.9193  -0.9193   9.0940   9.0940  10.7092  10.7092  10.7147  10.7148

          k = 0.3667 0.5196 0.0000 (  5284 PWs)   bands (ev):

   -14.9154 -14.9154 -14.1114 -14.1114 -11.7184 -11.7184  -2.5470  -2.5470
    -0.9128  -0.9128   9.0978   9.0978  10.7021  10.7022  10.7056  10.7056

          k = 0.3670 0.5190 0.0000 (  5284 PWs)   bands (ev):

   -14.9207 -14.9207 -14.1132 -14.1132 -11.7084 -11.7084  -2.5545  -2.5545
    -0.9063  -0.9063   9.1017   9.1017  10.6919  10.6920  10.6995  10.6995

          k = 0.3673 0.5185 0.0000 (  5284 PWs)   bands (ev):

   -14.9261 -14.9261 -14.1149 -14.1149 -11.6983 -11.6983  -2.5620  -2.5620
    -0.8998  -0.8998   9.1056   9.1056  10.6809  10.6809  10.6940  10.6940

          k = 0.3677 0.5179 0.0000 (  5286 PWs)   bands (ev):

   -14.9314 -14.9314 -14.1168 -14.1168 -11.6882 -11.6882  -2.5695  -2.5695
    -0.8934  -0.8934   9.1095   9.1095  10.6696  10.6697  10.6886  10.6886

          k = 0.3680 0.5173 0.0000 (  5286 PWs)   bands (ev):

   -14.9367 -14.9367 -14.1186 -14.1186 -11.6780 -11.6780  -2.5770  -2.5770
    -0.8870  -0.8870   9.1135   9.1135  10.6582  10.6582  10.6832  10.6833

          k = 0.3683 0.5167 0.0000 (  5282 PWs)   bands (ev):

   -14.9420 -14.9420 -14.1205 -14.1205 -11.6678 -11.6678  -2.5844  -2.5844
    -0.8806  -0.8806   9.1175   9.1175  10.6465  10.6466  10.6779  10.6779

          k = 0.3687 0.5162 0.0000 (  5282 PWs)   bands (ev):

   -14.9473 -14.9473 -14.1225 -14.1225 -11.6575 -11.6575  -2.5918  -2.5918
    -0.8742  -0.8742   9.1215   9.1215  10.6347  10.6347  10.6725  10.6726

          k = 0.3690 0.5156 0.0000 (  5282 PWs)   bands (ev):

   -14.9526 -14.9526 -14.1245 -14.1245 -11.6472 -11.6472  -2.5992  -2.5992
    -0.8679  -0.8679   9.1256   9.1256  10.6227  10.6228  10.6671  10.6672

          k = 0.3693 0.5150 0.0000 (  5278 PWs)   bands (ev):

   -14.9579 -14.9579 -14.1265 -14.1265 -11.6368 -11.6368  -2.6066  -2.6066
    -0.8616  -0.8616   9.1297   9.1297  10.6106  10.6106  10.6618  10.6618

          k = 0.3697 0.5144 0.0000 (  5278 PWs)   bands (ev):

   -14.9631 -14.9631 -14.1286 -14.1286 -11.6263 -11.6263  -2.6139  -2.6139
    -0.8554  -0.8554   9.1339   9.1339  10.5983  10.5983  10.6564  10.6565

          k = 0.3700 0.5138 0.0000 (  5278 PWs)   bands (ev):

   -14.9684 -14.9684 -14.1307 -14.1307 -11.6158 -11.6158  -2.6213  -2.6213
    -0.8492  -0.8492   9.1380   9.1380  10.5858  10.5858  10.6511  10.6511

          k = 0.3703 0.5133 0.0000 (  5278 PWs)   bands (ev):

   -14.9736 -14.9736 -14.1328 -14.1328 -11.6053 -11.6053  -2.6286  -2.6286
    -0.8430  -0.8430   9.1423   9.1423  10.5732  10.5732  10.6457  10.6458

          k = 0.3707 0.5127 0.0000 (  5278 PWs)   bands (ev):

   -14.9788 -14.9788 -14.1350 -14.1350 -11.5947 -11.5947  -2.6359  -2.6359
    -0.8368  -0.8368   9.1465   9.1465  10.5604  10.5604  10.6403  10.6404

          k = 0.3710 0.5121 0.0000 (  5278 PWs)   bands (ev):

   -14.9840 -14.9840 -14.1372 -14.1372 -11.5841 -11.5841  -2.6432  -2.6432
    -0.8307  -0.8307   9.1508   9.1508  10.5475  10.5475  10.6350  10.6350

          k = 0.3713 0.5115 0.0000 (  5278 PWs)   bands (ev):

   -14.9892 -14.9892 -14.1394 -14.1394 -11.5734 -11.5734  -2.6505  -2.6505
    -0.8246  -0.8246   9.1551   9.1551  10.5344  10.5344  10.6296  10.6297

          k = 0.3717 0.5110 0.0000 (  5278 PWs)   bands (ev):

   -14.9944 -14.9944 -14.1417 -14.1417 -11.5627 -11.5627  -2.6577  -2.6577
    -0.8185  -0.8185   9.1595   9.1595  10.5211  10.5211  10.6242  10.6243

          k = 0.3720 0.5104 0.0000 (  5278 PWs)   bands (ev):

   -14.9995 -14.9995 -14.1440 -14.1440 -11.5519 -11.5519  -2.6650  -2.6650
    -0.8125  -0.8124   9.1638   9.1638  10.5077  10.5077  10.6188  10.6189

          k = 0.3723 0.5098 0.0000 (  5278 PWs)   bands (ev):

   -15.0047 -15.0047 -14.1463 -14.1463 -11.5411 -11.5411  -2.6722  -2.6722
    -0.8064  -0.8064   9.1682   9.1683  10.4942  10.4942  10.6135  10.6135

          k = 0.3727 0.5092 0.0000 (  5278 PWs)   bands (ev):

   -15.0098 -15.0098 -14.1487 -14.1487 -11.5303 -11.5303  -2.6794  -2.6794
    -0.8005  -0.8005   9.1727   9.1727  10.4805  10.4805  10.6081  10.6082

          k = 0.3730 0.5086 0.0000 (  5278 PWs)   bands (ev):

   -15.0149 -15.0149 -14.1511 -14.1511 -11.5194 -11.5194  -2.6866  -2.6866
    -0.7945  -0.7945   9.1772   9.1772  10.4667  10.4667  10.6027  10.6028

          k = 0.3733 0.5081 0.0000 (  5278 PWs)   bands (ev):

   -15.0200 -15.0200 -14.1535 -14.1535 -11.5084 -11.5084  -2.6938  -2.6938
    -0.7886  -0.7886   9.1817   9.1817  10.4527  10.4527  10.5973  10.5974

          k = 0.3737 0.5075 0.0000 (  5278 PWs)   bands (ev):

   -15.0251 -15.0251 -14.1559 -14.1559 -11.4975 -11.4975  -2.7009  -2.7009
    -0.7827  -0.7827   9.1862   9.1862  10.4386  10.4386  10.5920  10.5920

          k = 0.3740 0.5069 0.0000 (  5278 PWs)   bands (ev):

   -15.0302 -15.0302 -14.1584 -14.1584 -11.4865 -11.4865  -2.7080  -2.7080
    -0.7768  -0.7768   9.1908   9.1908  10.4244  10.4244  10.5866  10.5866

          k = 0.3743 0.5063 0.0000 (  5282 PWs)   bands (ev):

   -15.0353 -15.0353 -14.1609 -14.1609 -11.4754 -11.4754  -2.7151  -2.7151
    -0.7710  -0.7710   9.1954   9.1954  10.4100  10.4100  10.5812  10.5812

          k = 0.3747 0.5058 0.0000 (  5282 PWs)   bands (ev):

   -15.0403 -15.0403 -14.1634 -14.1634 -11.4644 -11.4644  -2.7222  -2.7222
    -0.7652  -0.7652   9.2000   9.2000  10.3955  10.3955  10.5758  10.5759

          k = 0.3750 0.5052 0.0000 (  5282 PWs)   bands (ev):

   -15.0454 -15.0454 -14.1660 -14.1660 -11.4532 -11.4532  -2.7293  -2.7293
    -0.7594  -0.7594   9.2047   9.2047  10.3809  10.3809  10.5704  10.5705

          k = 0.3753 0.5046 0.0000 (  5282 PWs)   bands (ev):

   -15.0504 -15.0504 -14.1686 -14.1686 -11.4421 -11.4421  -2.7364  -2.7364
    -0.7537  -0.7537   9.2094   9.2094  10.3661  10.3661  10.5650  10.5651

          k = 0.3757 0.5040 0.0000 (  5282 PWs)   bands (ev):

   -15.0554 -15.0554 -14.1712 -14.1712 -11.4309 -11.4309  -2.7434  -2.7434
    -0.7479  -0.7479   9.2141   9.2141  10.3513  10.3513  10.5597  10.5597

          k = 0.3760 0.5034 0.0000 (  5282 PWs)   bands (ev):

   -15.0604 -15.0604 -14.1738 -14.1738 -11.4197 -11.4197  -2.7504  -2.7504
    -0.7423  -0.7423   9.2189   9.2189  10.3363  10.3363  10.5543  10.5543

          k = 0.3763 0.5029 0.0000 (  5282 PWs)   bands (ev):

   -15.0654 -15.0654 -14.1764 -14.1764 -11.4084 -11.4084  -2.7574  -2.7574
    -0.7366  -0.7366   9.2236   9.2237  10.3212  10.3212  10.5489  10.5490

          k = 0.3767 0.5023 0.0000 (  5282 PWs)   bands (ev):

   -15.0704 -15.0704 -14.1791 -14.1791 -11.3971 -11.3971  -2.7644  -2.7644
    -0.7310  -0.7310   9.2285   9.2285  10.3060  10.3060  10.5435  10.5436

          k = 0.3770 0.5017 0.0000 (  5282 PWs)   bands (ev):

   -15.0753 -15.0753 -14.1818 -14.1818 -11.3858 -11.3858  -2.7714  -2.7714
    -0.7254  -0.7254   9.2333   9.2333  10.2907  10.2907  10.5381  10.5382

          k = 0.3773 0.5011 0.0000 (  5282 PWs)   bands (ev):

   -15.0803 -15.0803 -14.1845 -14.1845 -11.3745 -11.3745  -2.7783  -2.7783
    -0.7198  -0.7198   9.2382   9.2382  10.2753  10.2753  10.5328  10.5328

          k = 0.3777 0.5006 0.0000 (  5282 PWs)   bands (ev):

   -15.0852 -15.0852 -14.1873 -14.1873 -11.3631 -11.3631  -2.7853  -2.7852
    -0.7143  -0.7143   9.2431   9.2431  10.2597  10.2597  10.5274  10.5274

          k = 0.3780 0.5000 0.0000 (  5282 PWs)   bands (ev):

   -15.0901 -15.0901 -14.1900 -14.1900 -11.3517 -11.3517  -2.7922  -2.7922
    -0.7088  -0.7088   9.2480   9.2480  10.2441  10.2441  10.5220  10.5221

          k = 0.3783 0.4994 0.0000 (  5282 PWs)   bands (ev):

   -15.0950 -15.0950 -14.1928 -14.1928 -11.3402 -11.3402  -2.7991  -2.7991
    -0.7033  -0.7033   9.2529   9.2529  10.2284  10.2284  10.5166  10.5167

          k = 0.3787 0.4988 0.0000 (  5282 PWs)   bands (ev):

   -15.0999 -15.0999 -14.1956 -14.1956 -11.3288 -11.3288  -2.8059  -2.8059
    -0.6979  -0.6979   9.2579   9.2579  10.2126  10.2126  10.5113  10.5113

          k = 0.3790 0.4983 0.0000 (  5282 PWs)   bands (ev):

   -15.1048 -15.1048 -14.1984 -14.1984 -11.3173 -11.3173  -2.8128  -2.8128
    -0.6924  -0.6924   9.2629   9.2629  10.1967  10.1967  10.5059  10.5059

          k = 0.3793 0.4977 0.0000 (  5282 PWs)   bands (ev):

   -15.1097 -15.1097 -14.2012 -14.2012 -11.3057 -11.3057  -2.8196  -2.8196
    -0.6871  -0.6870   9.2679   9.2679  10.1807  10.1807  10.5005  10.5006

          k = 0.3797 0.4971 0.0000 (  5278 PWs)   bands (ev):

   -15.1145 -15.1145 -14.2041 -14.2041 -11.2942 -11.2942  -2.8264  -2.8264
    -0.6817  -0.6817   9.2730   9.2730  10.1647  10.1647  10.4952  10.4952

          k = 0.3800 0.4965 0.0000 (  5278 PWs)   bands (ev):

   -15.1194 -15.1194 -14.2069 -14.2069 -11.2826 -11.2826  -2.8332  -2.8332
    -0.6764  -0.6764   9.2781   9.2781  10.1485  10.1485  10.4898  10.4898

          k = 0.3803 0.4959 0.0000 (  5278 PWs)   bands (ev):

   -15.1242 -15.1242 -14.2098 -14.2098 -11.2710 -11.2710  -2.8400  -2.8400
    -0.6711  -0.6711   9.2832   9.2832  10.1323  10.1323  10.4844  10.4845

          k = 0.3807 0.4954 0.0000 (  5282 PWs)   bands (ev):

   -15.1290 -15.1290 -14.2127 -14.2127 -11.2594 -11.2594  -2.8468  -2.8468
    -0.6658  -0.6658   9.2883   9.2883  10.1160  10.1160  10.4791  10.4791

          k = 0.3810 0.4948 0.0000 (  5282 PWs)   bands (ev):

   -15.1338 -15.1338 -14.2156 -14.2156 -11.2477 -11.2477  -2.8535  -2.8535
    -0.6606  -0.6606   9.2935   9.2935  10.0996  10.0996  10.4737  10.4738

          k = 0.3813 0.4942 0.0000 (  5282 PWs)   bands (ev):

   -15.1386 -15.1386 -14.2186 -14.2186 -11.2360 -11.2360  -2.8603  -2.8603
    -0.6553  -0.6553   9.2986   9.2987  10.0831  10.0831  10.4684  10.4684

          k = 0.3817 0.4936 0.0000 (  5282 PWs)   bands (ev):

   -15.1434 -15.1434 -14.2215 -14.2215 -11.2243 -11.2243  -2.8670  -2.8670
    -0.6502  -0.6502   9.3039   9.3039  10.0666  10.0666  10.4630  10.4631

          k = 0.3820 0.4931 0.0000 (  5282 PWs)   bands (ev):

   -15.1481 -15.1481 -14.2245 -14.2245 -11.2126 -11.2126  -2.8737  -2.8737
    -0.6450  -0.6450   9.3091   9.3091  10.0500  10.0500  10.4577  10.4577

          k = 0.3823 0.4925 0.0000 (  5282 PWs)   bands (ev):

   -15.1529 -15.1529 -14.2274 -14.2274 -11.2009 -11.2009  -2.8804  -2.8804
    -0.6399  -0.6399   9.3143   9.3143  10.0333  10.0333  10.4523  10.4524

          k = 0.3827 0.4919 0.0000 (  5282 PWs)   bands (ev):

   -15.1576 -15.1576 -14.2304 -14.2304 -11.1891 -11.1891  -2.8870  -2.8870
    -0.6348  -0.6348   9.3196   9.3196  10.0166  10.0166  10.4470  10.4471

          k = 0.3830 0.4913 0.0000 (  5282 PWs)   bands (ev):

   -15.1623 -15.1623 -14.2334 -14.2334 -11.1773 -11.1773  -2.8936  -2.8936
    -0.6297  -0.6297   9.3249   9.3249   9.9998   9.9998  10.4417  10.4417

          k = 0.3833 0.4907 0.0000 (  5286 PWs)   bands (ev):

   -15.1670 -15.1670 -14.2364 -14.2364 -11.1655 -11.1655  -2.9003  -2.9003
    -0.6247  -0.6247   9.3302   9.3302   9.9829   9.9830  10.4363  10.4364

          k = 0.3837 0.4902 0.0000 (  5286 PWs)   bands (ev):

   -15.1717 -15.1717 -14.2395 -14.2395 -11.1537 -11.1537  -2.9069  -2.9069
    -0.6197  -0.6197   9.3355   9.3356   9.9660   9.9660  10.4310  10.4311

          k = 0.3840 0.4896 0.0000 (  5286 PWs)   bands (ev):

   -15.1764 -15.1764 -14.2425 -14.2425 -11.1418 -11.1418  -2.9135  -2.9135
    -0.6147  -0.6147   9.3409   9.3409   9.9491   9.9491  10.4257  10.4258

          k = 0.3843 0.4890 0.0000 (  5286 PWs)   bands (ev):

   -15.1811 -15.1811 -14.2455 -14.2455 -11.1300 -11.1300  -2.9200  -2.9200
    -0.6098  -0.6097   9.3463   9.3463   9.9321   9.9321  10.4204  10.4204

          k = 0.3847 0.4884 0.0000 (  5286 PWs)   bands (ev):

   -15.1857 -15.1857 -14.2486 -14.2486 -11.1181 -11.1181  -2.9266  -2.9266
    -0.6048  -0.6048   9.3517   9.3517   9.9150   9.9150  10.4151  10.4151

          k = 0.3850 0.4879 0.0000 (  5286 PWs)   bands (ev):

   -15.1904 -15.1904 -14.2517 -14.2517 -11.1062 -11.1062  -2.9331  -2.9331
    -0.5999  -0.5999   9.3571   9.3571   9.8979   9.8979  10.4098  10.4098

          k = 0.3853 0.4873 0.0000 (  5286 PWs)   bands (ev):

   -15.1950 -15.1950 -14.2547 -14.2547 -11.0942 -11.0942  -2.9396  -2.9396
    -0.5951  -0.5951   9.3625   9.3626   9.8807   9.8807  10.4045  10.4045

          k = 0.3857 0.4867 0.0000 (  5286 PWs)   bands (ev):

   -15.1996 -15.1996 -14.2578 -14.2578 -11.0823 -11.0823  -2.9461  -2.9461
    -0.5902  -0.5902   9.3680   9.3680   9.8635   9.8635  10.3992  10.3992

          k = 0.3860 0.4861 0.0000 (  5286 PWs)   bands (ev):

   -15.2042 -15.2042 -14.2609 -14.2609 -11.0703 -11.0703  -2.9526  -2.9526
    -0.5854  -0.5854   9.3735   9.3735   9.8462   9.8462  10.3939  10.3939

          k = 0.3863 0.4856 0.0000 (  5288 PWs)   bands (ev):

   -15.2088 -15.2088 -14.2640 -14.2640 -11.0584 -11.0584  -2.9590  -2.9590
    -0.5807  -0.5807   9.3790   9.3790   9.8289   9.8289  10.3886  10.3887

          k = 0.3867 0.4850 0.0000 (  5288 PWs)   bands (ev):

   -15.2134 -15.2134 -14.2671 -14.2671 -11.0464 -11.0464  -2.9655  -2.9655
    -0.5759  -0.5759   9.3845   9.3845   9.8116   9.8116  10.3833  10.3834

          k = 0.3870 0.4844 0.0000 (  5288 PWs)   bands (ev):

   -15.2180 -15.2180 -14.2702 -14.2702 -11.0344 -11.0344  -2.9719  -2.9719
    -0.5712  -0.5712   9.3900   9.3900   9.7942   9.7942  10.3781  10.3781

          k = 0.3873 0.4838 0.0000 (  5284 PWs)   bands (ev):

   -15.2225 -15.2225 -14.2734 -14.2734 -11.0224 -11.0224  -2.9783  -2.9783
    -0.5665  -0.5665   9.3956   9.3956   9.7767   9.7767  10.3728  10.3728

          k = 0.3877 0.4832 0.0000 (  5280 PWs)   bands (ev):

   -15.2270 -15.2270 -14.2765 -14.2765 -11.0103 -11.0103  -2.9847  -2.9847
    -0.5618  -0.5618   9.4011   9.4011   9.7593   9.7593  10.3675  10.3676

          k = 0.3880 0.4827 0.0000 (  5280 PWs)   bands (ev):

   -15.2316 -15.2316 -14.2797 -14.2797 -10.9983 -10.9983  -2.9910  -2.9910
    -0.5572  -0.5572   9.4067   9.4067   9.7418   9.7418  10.3623  10.3623

          k = 0.3883 0.4821 0.0000 (  5280 PWs)   bands (ev):

   -15.2361 -15.2361 -14.2828 -14.2828 -10.9862 -10.9862  -2.9974  -2.9974
    -0.5526  -0.5526   9.4123   9.4123   9.7242   9.7243  10.3570  10.3571

          k = 0.3887 0.4815 0.0000 (  5280 PWs)   bands (ev):

   -15.2406 -15.2406 -14.2860 -14.2860 -10.9741 -10.9741  -3.0037  -3.0037
    -0.5480  -0.5480   9.4179   9.4179   9.7067   9.7067  10.3518  10.3518

          k = 0.3890 0.4809 0.0000 (  5280 PWs)   bands (ev):

   -15.2450 -15.2450 -14.2891 -14.2891 -10.9620 -10.9620  -3.0100  -3.0100
    -0.5435  -0.5435   9.4235   9.4235   9.6891   9.6891  10.3465  10.3466

          k = 0.3893 0.4804 0.0000 (  5280 PWs)   bands (ev):

   -15.2495 -15.2495 -14.2923 -14.2923 -10.9499 -10.9499  -3.0163  -3.0163
    -0.5389  -0.5389   9.4292   9.4292   9.6714   9.6715  10.3413  10.3414

          k = 0.3897 0.4798 0.0000 (  5280 PWs)   bands (ev):

   -15.2540 -15.2540 -14.2955 -14.2955 -10.9378 -10.9378  -3.0226  -3.0226
    -0.5344  -0.5344   9.4348   9.4348   9.6538   9.6538  10.3361  10.3362

          k = 0.3900 0.4792 0.0000 (  5280 PWs)   bands (ev):

   -15.2584 -15.2584 -14.2986 -14.2986 -10.9257 -10.9257  -3.0288  -3.0288
    -0.5300  -0.5300   9.4405   9.4405   9.6361   9.6361  10.3309  10.3309

          k = 0.3903 0.4786 0.0000 (  5280 PWs)   bands (ev):

   -15.2628 -15.2628 -14.3018 -14.3018 -10.9136 -10.9136  -3.0351  -3.0351
    -0.5255  -0.5255   9.4462   9.4462   9.6184   9.6184  10.3257  10.3257

          k = 0.3907 0.4780 0.0000 (  5280 PWs)   bands (ev):

   -15.2673 -15.2672 -14.3050 -14.3050 -10.9014 -10.9014  -3.0413  -3.0413
    -0.5211  -0.5211   9.4518   9.4519   9.6006   9.6006  10.3205  10.3205

          k = 0.3910 0.4775 0.0000 (  5280 PWs)   bands (ev):

   -15.2717 -15.2717 -14.3082 -14.3082 -10.8893 -10.8893  -3.0475  -3.0475
    -0.5167  -0.5167   9.4575   9.4576   9.5829   9.5829  10.3153  10.3153

          k = 0.3913 0.4769 0.0000 (  5280 PWs)   bands (ev):

   -15.2760 -15.2760 -14.3114 -14.3114 -10.8771 -10.8771  -3.0537  -3.0536
    -0.5124  -0.5124   9.4632   9.4633   9.5651   9.5651  10.3101  10.3102

          k = 0.3917 0.4763 0.0000 (  5280 PWs)   bands (ev):

   -15.2804 -15.2804 -14.3146 -14.3146 -10.8650 -10.8650  -3.0598  -3.0598
    -0.5081  -0.5081   9.4690   9.4690   9.5473   9.5473  10.3049  10.3050

          k = 0.3920 0.4757 0.0000 (  5276 PWs)   bands (ev):

   -15.2848 -15.2848 -14.3178 -14.3178 -10.8528 -10.8528  -3.0660  -3.0659
    -0.5038  -0.5037   9.4747   9.4747   9.5294   9.5295  10.2998  10.2998

          k = 0.3923 0.4752 0.0000 (  5276 PWs)   bands (ev):

   -15.2891 -15.2891 -14.3210 -14.3210 -10.8406 -10.8406  -3.0721  -3.0721
    -0.4995  -0.4995   9.4804   9.4805   9.5116   9.5117  10.2946  10.2947

          k = 0.3927 0.4746 0.0000 (  5272 PWs)   bands (ev):

   -15.2935 -15.2935 -14.3242 -14.3242 -10.8284 -10.8284  -3.0782  -3.0782
    -0.4952  -0.4952   9.4859   9.4862   9.4937   9.4940  10.2894  10.2895

          k = 0.3930 0.4740 0.0000 (  5268 PWs)   bands (ev):

   -15.2978 -15.2978 -14.3275 -14.3275 -10.8162 -10.8162  -3.0843  -3.0843
    -0.4910  -0.4910   9.4757   9.4758   9.4920   9.4921  10.2843  10.2844

          k = 0.3933 0.4734 0.0000 (  5268 PWs)   bands (ev):

   -15.3021 -15.3021 -14.3307 -14.3307 -10.8040 -10.8040  -3.0903  -3.0903
    -0.4868  -0.4868   9.4578   9.4579   9.4978   9.4978  10.2792  10.2792

          k = 0.3937 0.4728 0.0000 (  5268 PWs)   bands (ev):

   -15.3064 -15.3064 -14.3339 -14.3339 -10.7917 -10.7917  -3.0964  -3.0964
    -0.4826  -0.4826   9.4399   9.4400   9.5035   9.5035  10.2740  10.2741

          k = 0.3940 0.4723 0.0000 (  5268 PWs)   bands (ev):

   -15.3107 -15.3107 -14.3371 -14.3371 -10.7795 -10.7795  -3.1024  -3.1024
    -0.4785  -0.4785   9.4220   9.4220   9.5093   9.5093  10.2689  10.2690

          k = 0.3943 0.4717 0.0000 (  5268 PWs)   bands (ev):

   -15.3149 -15.3149 -14.3404 -14.3404 -10.7673 -10.7673  -3.1084  -3.1084
    -0.4744  -0.4744   9.4041   9.4041   9.5151   9.5151  10.2638  10.2639

          k = 0.3947 0.4711 0.0000 (  5268 PWs)   bands (ev):

   -15.3192 -15.3192 -14.3436 -14.3436 -10.7550 -10.7550  -3.1144  -3.1144
    -0.4703  -0.4703   9.3861   9.3861   9.5209   9.5209  10.2587  10.2588

          k = 0.3950 0.4705 0.0000 (  5268 PWs)   bands (ev):

   -15.3234 -15.3234 -14.3468 -14.3468 -10.7428 -10.7428  -3.1204  -3.1204
    -0.4663  -0.4663   9.3681   9.3681   9.5267   9.5267  10.2536  10.2537

          k = 0.3953 0.4700 0.0000 (  5268 PWs)   bands (ev):

   -15.3277 -15.3277 -14.3500 -14.3500 -10.7306 -10.7306  -3.1264  -3.1264
    -0.4622  -0.4622   9.3501   9.3502   9.5325   9.5325  10.2485  10.2486

          k = 0.3957 0.4694 0.0000 (  5268 PWs)   bands (ev):

   -15.3319 -15.3319 -14.3533 -14.3533 -10.7183 -10.7183  -3.1323  -3.1323
    -0.4582  -0.4582   9.3321   9.3322   9.5383   9.5383  10.2435  10.2435

          k = 0.3960 0.4688 0.0000 (  5270 PWs)   bands (ev):

   -15.3361 -15.3361 -14.3565 -14.3565 -10.7060 -10.7060  -3.1382  -3.1382
    -0.4542  -0.4542   9.3141   9.3141   9.5441   9.5441  10.2384  10.2384

          k = 0.3963 0.4682 0.0000 (  5270 PWs)   bands (ev):

   -15.3403 -15.3403 -14.3597 -14.3597 -10.6938 -10.6938  -3.1441  -3.1441
    -0.4503  -0.4503   9.2961   9.2961   9.5499   9.5499  10.2333  10.2334

          k = 0.3967 0.4677 0.0000 (  5274 PWs)   bands (ev):

   -15.3444 -15.3444 -14.3630 -14.3630 -10.6815 -10.6815  -3.1500  -3.1500
    -0.4464  -0.4464   9.2781   9.2781   9.5557   9.5557  10.2283  10.2283

          k = 0.3970 0.4671 0.0000 (  5270 PWs)   bands (ev):

   -15.3486 -15.3486 -14.3662 -14.3662 -10.6692 -10.6692  -3.1559  -3.1559
    -0.4425  -0.4425   9.2601   9.2601   9.5616   9.5616  10.2232  10.2233

          k = 0.3973 0.4665 0.0000 (  5270 PWs)   bands (ev):

   -15.3528 -15.3528 -14.3694 -14.3694 -10.6570 -10.6570  -3.1617  -3.1617
    -0.4386  -0.4386   9.2420   9.2420   9.5674   9.5674  10.2182  10.2183

          k = 0.3977 0.4659 0.0000 (  5270 PWs)   bands (ev):

   -15.3569 -15.3569 -14.3727 -14.3727 -10.6447 -10.6447  -3.1676  -3.1676
    -0.4347  -0.4347   9.2240   9.2240   9.5732   9.5732  10.2132  10.2132

          k = 0.3980 0.4653 0.0000 (  5270 PWs)   bands (ev):

   -15.3610 -15.3610 -14.3759 -14.3759 -10.6324 -10.6324  -3.1734  -3.1734
    -0.4309  -0.4309   9.2059   9.2059   9.5790   9.5790  10.2082  10.2082

          k = 0.3983 0.4648 0.0000 (  5270 PWs)   bands (ev):

   -15.3651 -15.3651 -14.3791 -14.3791 -10.6201 -10.6201  -3.1792  -3.1792
    -0.4271  -0.4271   9.1879   9.1879   9.5848   9.5848  10.2032  10.2032

          k = 0.3987 0.4642 0.0000 (  5270 PWs)   bands (ev):

   -15.3692 -15.3692 -14.3824 -14.3824 -10.6079 -10.6079  -3.1849  -3.1849
    -0.4234  -0.4234   9.1698   9.1698   9.5907   9.5907  10.1982  10.1982

          k = 0.3990 0.4636 0.0000 (  5270 PWs)   bands (ev):

   -15.3733 -15.3733 -14.3856 -14.3856 -10.5956 -10.5956  -3.1907  -3.1907
    -0.4196  -0.4196   9.1518   9.1518   9.5965   9.5965  10.1932  10.1933

          k = 0.3993 0.4630 0.0000 (  5270 PWs)   bands (ev):

   -15.3774 -15.3774 -14.3888 -14.3888 -10.5833 -10.5833  -3.1964  -3.1964
    -0.4159  -0.4159   9.1337   9.1337   9.6023   9.6023  10.1882  10.1883

          k = 0.3997 0.4625 0.0000 (  5266 PWs)   bands (ev):

   -15.3814 -15.3814 -14.3920 -14.3920 -10.5710 -10.5710  -3.2022  -3.2022
    -0.4122  -0.4122   9.1156   9.1156   9.6081   9.6081  10.1833  10.1833

          k = 0.4000 0.4619 0.0000 (  5262 PWs)   bands (ev):

   -15.3855 -15.3855 -14.3953 -14.3953 -10.5587 -10.5587  -3.2079  -3.2078
    -0.4085  -0.4085   9.0976   9.0976   9.6139   9.6139  10.1783  10.1784

          k = 0.4003 0.4613 0.0000 (  5266 PWs)   bands (ev):

   -15.3895 -15.3895 -14.3985 -14.3985 -10.5464 -10.5464  -3.2135  -3.2135
    -0.4049  -0.4049   9.0795   9.0795   9.6197   9.6197  10.1734  10.1734

          k = 0.4007 0.4607 0.0000 (  5266 PWs)   bands (ev):

   -15.3935 -15.3935 -14.4017 -14.4017 -10.5342 -10.5341  -3.2192  -3.2192
    -0.4013  -0.4013   9.0615   9.0615   9.6255   9.6255  10.1685  10.1685

          k = 0.4010 0.4601 0.0000 (  5266 PWs)   bands (ev):

   -15.3975 -15.3975 -14.4049 -14.4049 -10.5219 -10.5219  -3.2248  -3.2248
    -0.3977  -0.3977   9.0434   9.0434   9.6313   9.6313  10.1635  10.1636

          k = 0.4013 0.4596 0.0000 (  5266 PWs)   bands (ev):

   -15.4015 -15.4015 -14.4082 -14.4082 -10.5096 -10.5096  -3.2305  -3.2305
    -0.3941  -0.3941   9.0253   9.0253   9.6371   9.6371  10.1586  10.1587

          k = 0.4017 0.4590 0.0000 (  5266 PWs)   bands (ev):

   -15.4055 -15.4055 -14.4114 -14.4114 -10.4973 -10.4973  -3.2361  -3.2361
    -0.3906  -0.3906   9.0073   9.0073   9.6429   9.6429  10.1537  10.1538

          k = 0.4020 0.4584 0.0000 (  5266 PWs)   bands (ev):

   -15.4094 -15.4094 -14.4146 -14.4146 -10.4850 -10.4850  -3.2417  -3.2417
    -0.3871  -0.3871   8.9892   8.9892   9.6487   9.6487  10.1489  10.1489

          k = 0.4023 0.4578 0.0000 (  5266 PWs)   bands (ev):

   -15.4134 -15.4134 -14.4178 -14.4178 -10.4727 -10.4727  -3.2472  -3.2472
    -0.3836  -0.3836   8.9712   8.9712   9.6544   9.6544  10.1440  10.1440

          k = 0.4027 0.4573 0.0000 (  5266 PWs)   bands (ev):

   -15.4173 -15.4173 -14.4210 -14.4210 -10.4605 -10.4605  -3.2528  -3.2528
    -0.3801  -0.3801   8.9532   8.9532   9.6602   9.6602  10.1391  10.1392

          k = 0.4030 0.4567 0.0000 (  5266 PWs)   bands (ev):

   -15.4212 -15.4212 -14.4242 -14.4242 -10.4482 -10.4482  -3.2583  -3.2583
    -0.3767  -0.3767   8.9351   8.9351   9.6659   9.6659  10.1343  10.1343

          k = 0.4033 0.4561 0.0000 (  5266 PWs)   bands (ev):

   -15.4251 -15.4251 -14.4274 -14.4274 -10.4359 -10.4359  -3.2638  -3.2638
    -0.3733  -0.3733   8.9171   8.9171   9.6717   9.6717  10.1294  10.1295

          k = 0.4037 0.4555 0.0000 (  5266 PWs)   bands (ev):

   -15.4290 -15.4290 -14.4306 -14.4306 -10.4236 -10.4236  -3.2693  -3.2693
    -0.3699  -0.3699   8.8991   8.8991   9.6774   9.6774  10.1246  10.1246

          k = 0.4040 0.4550 0.0000 (  5266 PWs)   bands (ev):

   -15.4329 -15.4329 -14.4338 -14.4338 -10.4114 -10.4114  -3.2748  -3.2748
    -0.3665  -0.3665   8.8811   8.8811   9.6831   9.6831  10.1198  10.1198

          k = 0.4043 0.4544 0.0000 (  5266 PWs)   bands (ev):

   -15.4368 -15.4368 -14.4370 -14.4370 -10.3991 -10.3991  -3.2803  -3.2803
    -0.3632  -0.3632   8.8631   8.8631   9.6888   9.6888  10.1150  10.1150

          k = 0.4047 0.4538 0.0000 (  5266 PWs)   bands (ev):

   -15.4406 -15.4406 -14.4402 -14.4402 -10.3869 -10.3869  -3.2857  -3.2857
    -0.3598  -0.3598   8.8451   8.8451   9.6945   9.6945  10.1102  10.1102

          k = 0.4050 0.4532 0.0000 (  5266 PWs)   bands (ev):

   -15.4445 -15.4445 -14.4434 -14.4434 -10.3746 -10.3746  -3.2911  -3.2911
    -0.3565  -0.3565   8.8271   8.8271   9.7002   9.7002  10.1054  10.1054

          k = 0.4053 0.4526 0.0000 (  5266 PWs)   bands (ev):

   -15.4483 -15.4483 -14.4466 -14.4466 -10.3624 -10.3624  -3.2965  -3.2965
    -0.3533  -0.3533   8.8091   8.8091   9.7059   9.7059  10.1006  10.1007

          k = 0.4057 0.4521 0.0000 (  5266 PWs)   bands (ev):

   -15.4521 -15.4521 -14.4497 -14.4497 -10.3501 -10.3501  -3.3019  -3.3019
    -0.3500  -0.3500   8.7911   8.7911   9.7115   9.7115  10.0958  10.0959

          k = 0.4060 0.4515 0.0000 (  5266 PWs)   bands (ev):

   -15.4559 -15.4559 -14.4529 -14.4529 -10.3379 -10.3379  -3.3073  -3.3073
    -0.3468  -0.3468   8.7732   8.7732   9.7171   9.7172  10.0911  10.0911

          k = 0.4063 0.4509 0.0000 (  5266 PWs)   bands (ev):

   -15.4597 -15.4597 -14.4561 -14.4561 -10.3256 -10.3256  -3.3126  -3.3126
    -0.3436  -0.3436   8.7552   8.7552   9.7228   9.7228  10.0864  10.0864

          k = 0.4067 0.4503 0.0000 (  5266 PWs)   bands (ev):

   -15.4635 -15.4635 -14.4592 -14.4592 -10.3134 -10.3134  -3.3180  -3.3180
    -0.3404  -0.3404   8.7373   8.7373   9.7284   9.7284  10.0816  10.0817

          k = 0.4070 0.4498 0.0000 (  5266 PWs)   bands (ev):

   -15.4672 -15.4672 -14.4624 -14.4624 -10.3012 -10.3012  -3.3233  -3.3233
    -0.3373  -0.3373   8.7194   8.7194   9.7339   9.7340  10.0769  10.0770

          k = 0.4073 0.4492 0.0000 (  5266 PWs)   bands (ev):

   -15.4710 -15.4710 -14.4655 -14.4655 -10.2890 -10.2890  -3.3286  -3.3286
    -0.3341  -0.3341   8.7015   8.7015   9.7395   9.7395  10.0722  10.0723

          k = 0.4077 0.4486 0.0000 (  5262 PWs)   bands (ev):

   -15.4747 -15.4747 -14.4687 -14.4687 -10.2768 -10.2768  -3.3338  -3.3338
    -0.3310  -0.3310   8.6836   8.6836   9.7450   9.7451  10.0675  10.0676

          k = 0.4080 0.4480 0.0000 (  5262 PWs)   bands (ev):

   -15.4784 -15.4784 -14.4718 -14.4718 -10.2646 -10.2646  -3.3391  -3.3391
    -0.3280  -0.3280   8.6657   8.6657   9.7506   9.7506  10.0629  10.0629

          k = 0.4083 0.4474 0.0000 (  5262 PWs)   bands (ev):

   -15.4821 -15.4821 -14.4750 -14.4750 -10.2524 -10.2524  -3.3443  -3.3443
    -0.3249  -0.3249   8.6478   8.6478   9.7561   9.7561  10.0582  10.0582

          k = 0.4087 0.4469 0.0000 (  5262 PWs)   bands (ev):

   -15.4858 -15.4858 -14.4781 -14.4781 -10.2402 -10.2402  -3.3495  -3.3495
    -0.3219  -0.3219   8.6300   8.6300   9.7616   9.7616  10.0535  10.0536

          k = 0.4090 0.4463 0.0000 (  5262 PWs)   bands (ev):

   -15.4895 -15.4895 -14.4812 -14.4812 -10.2280 -10.2280  -3.3547  -3.3547
    -0.3188  -0.3188   8.6122   8.6122   9.7670   9.7670  10.0489  10.0489

          k = 0.4093 0.4457 0.0000 (  5264 PWs)   bands (ev):

   -15.4932 -15.4932 -14.4844 -14.4844 -10.2158 -10.2158  -3.3599  -3.3599
    -0.3159  -0.3159   8.5944   8.5944   9.7725   9.7725  10.0443  10.0443

          k = 0.4097 0.4451 0.0000 (  5264 PWs)   bands (ev):

   -15.4968 -15.4968 -14.4875 -14.4875 -10.2037 -10.2037  -3.3651  -3.3651
    -0.3129  -0.3129   8.5766   8.5766   9.7779   9.7779  10.0397  10.0397

          k = 0.4100 0.4446 0.0000 (  5264 PWs)   bands (ev):

   -15.5005 -15.5005 -14.4906 -14.4906 -10.1915 -10.1915  -3.3702  -3.3702
    -0.3099  -0.3099   8.5588   8.5588   9.7832   9.7833  10.0351  10.0351

          k = 0.4103 0.4440 0.0000 (  5264 PWs)   bands (ev):

   -15.5041 -15.5041 -14.4937 -14.4937 -10.1794 -10.1794  -3.3753  -3.3753
    -0.3070  -0.3070   8.5410   8.5410   9.7886   9.7886  10.0305  10.0305

          k = 0.4107 0.4434 0.0000 (  5268 PWs)   bands (ev):

   -15.5077 -15.5077 -14.4968 -14.4968 -10.1672 -10.1672  -3.3805  -3.3805
    -0.3041  -0.3041   8.5233   8.5233   9.7939   9.7940  10.0259  10.0259

          k = 0.4110 0.4428 0.0000 (  5268 PWs)   bands (ev):

   -15.5113 -15.5113 -14.4999 -14.4999 -10.1551 -10.1551  -3.3855  -3.3855
    -0.3012  -0.3012   8.5055   8.5055   9.7992   9.7993  10.0213  10.0214

          k = 0.4113 0.4423 0.0000 (  5268 PWs)   bands (ev):

   -15.5149 -15.5149 -14.5030 -14.5030 -10.1430 -10.1430  -3.3906  -3.3906
    -0.2984  -0.2984   8.4878   8.4878   9.8045   9.8045  10.0168  10.0168

          k = 0.4117 0.4417 0.0000 (  5268 PWs)   bands (ev):

   -15.5185 -15.5185 -14.5061 -14.5061 -10.1309 -10.1309  -3.3957  -3.3957
    -0.2955  -0.2955   8.4701   8.4701   9.8098   9.8098  10.0122  10.0123

          k = 0.4120 0.4411 0.0000 (  5264 PWs)   bands (ev):

   -15.5220 -15.5220 -14.5091 -14.5091 -10.1188 -10.1188  -3.4007  -3.4007
    -0.2927  -0.2927   8.4525   8.4525   9.8150   9.8150  10.0077  10.0078

          k = 0.4123 0.4405 0.0000 (  5260 PWs)   bands (ev):

   -15.5256 -15.5256 -14.5122 -14.5122 -10.1067 -10.1067  -3.4057  -3.4057
    -0.2899  -0.2899   8.4348   8.4348   9.8201   9.8202  10.0032  10.0032

          k = 0.4127 0.4399 0.0000 (  5260 PWs)   bands (ev):

   -15.5291 -15.5291 -14.5153 -14.5153 -10.0946 -10.0946  -3.4107  -3.4107
    -0.2872  -0.2872   8.4172   8.4172   9.8253   9.8253   9.9987   9.9987

          k = 0.4130 0.4394 0.0000 (  5260 PWs)   bands (ev):

   -15.5326 -15.5326 -14.5183 -14.5183 -10.0825 -10.0825  -3.4157  -3.4157
    -0.2844  -0.2844   8.3996   8.3996   9.8304   9.8304   9.9942   9.9943

          k = 0.4133 0.4388 0.0000 (  5260 PWs)   bands (ev):

   -15.5361 -15.5361 -14.5214 -14.5214 -10.0705 -10.0705  -3.4206  -3.4206
    -0.2817  -0.2817   8.3820   8.3820   9.8355   9.8355   9.9897   9.9898

          k = 0.4137 0.4382 0.0000 (  5264 PWs)   bands (ev):

   -15.5396 -15.5396 -14.5244 -14.5244 -10.0585 -10.0585  -3.4256  -3.4256
    -0.2790  -0.2790   8.3645   8.3645   9.8405   9.8405   9.9853   9.9853

          k = 0.4140 0.4376 0.0000 (  5264 PWs)   bands (ev):

   -15.5431 -15.5431 -14.5275 -14.5275 -10.0464 -10.0464  -3.4305  -3.4305
    -0.2763  -0.2763   8.3469   8.3469   9.8455   9.8455   9.9808   9.9809

          k = 0.4143 0.4371 0.0000 (  5264 PWs)   bands (ev):

   -15.5466 -15.5466 -14.5305 -14.5305 -10.0344 -10.0344  -3.4354  -3.4354
    -0.2737  -0.2737   8.3294   8.3294   9.8504   9.8505   9.9764   9.9765

          k = 0.4147 0.4365 0.0000 (  5264 PWs)   bands (ev):

   -15.5500 -15.5500 -14.5335 -14.5335 -10.0224 -10.0224  -3.4403  -3.4403
    -0.2710  -0.2710   8.3119   8.3119   9.8553   9.8554   9.9720   9.9720

          k = 0.4150 0.4359 0.0000 (  5264 PWs)   bands (ev):

   -15.5535 -15.5535 -14.5365 -14.5365 -10.0104 -10.0104  -3.4451  -3.4451
    -0.2684  -0.2684   8.2945   8.2945   9.8602   9.8603   9.9676   9.9676

          k = 0.4153 0.4353 0.0000 (  5264 PWs)   bands (ev):

   -15.5569 -15.5569 -14.5395 -14.5395  -9.9984  -9.9984  -3.4500  -3.4500
    -0.2658  -0.2658   8.2770   8.2770   9.8650   9.8651   9.9632   9.9632

          k = 0.4157 0.4347 0.0000 (  5264 PWs)   bands (ev):

   -15.5603 -15.5603 -14.5425 -14.5425  -9.9865  -9.9865  -3.4548  -3.4548
    -0.2632  -0.2632   8.2596   8.2596   9.8698   9.8698   9.9588   9.9589

          k = 0.4160 0.4342 0.0000 (  5264 PWs)   bands (ev):

   -15.5637 -15.5637 -14.5455 -14.5455  -9.9745  -9.9745  -3.4596  -3.4596
    -0.2607  -0.2607   8.2423   8.2423   9.8745   9.8746   9.9545   9.9545

          k = 0.4163 0.4336 0.0000 (  5264 PWs)   bands (ev):

   -15.5671 -15.5671 -14.5485 -14.5485  -9.9626  -9.9626  -3.4644  -3.4644
    -0.2581  -0.2581   8.2249   8.2249   9.8792   9.8792   9.9501   9.9502

          k = 0.4167 0.4330 0.0000 (  5264 PWs)   bands (ev):

   -15.5705 -15.5705 -14.5515 -14.5515  -9.9506  -9.9506  -3.4691  -3.4691
    -0.2556  -0.2556   8.2076   8.2076   9.8838   9.8838   9.9458   9.9458

          k = 0.4170 0.4324 0.0000 (  5264 PWs)   bands (ev):

   -15.5738 -15.5738 -14.5544 -14.5544  -9.9387  -9.9387  -3.4739  -3.4739
    -0.2531  -0.2531   8.1903   8.1903   9.8883   9.8884   9.9415   9.9415

          k = 0.4173 0.4319 0.0000 (  5264 PWs)   bands (ev):

   -15.5772 -15.5772 -14.5574 -14.5574  -9.9268  -9.9268  -3.4786  -3.4786
    -0.2506  -0.2506   8.1730   8.1730   9.8928   9.8928   9.9372   9.9372

          k = 0.4177 0.4313 0.0000 (  5264 PWs)   bands (ev):

   -15.5805 -15.5805 -14.5604 -14.5604  -9.9150  -9.9150  -3.4833  -3.4833
    -0.2482  -0.2482   8.1557   8.1557   9.8972   9.8972   9.9329   9.9329

          k = 0.4180 0.4307 0.0000 (  5264 PWs)   bands (ev):

   -15.5838 -15.5838 -14.5633 -14.5633  -9.9031  -9.9031  -3.4880  -3.4880
    -0.2457  -0.2457   8.1385   8.1385   9.9015   9.9016   9.9286   9.9286

          k = 0.4183 0.4301 0.0000 (  5264 PWs)   bands (ev):

   -15.5871 -15.5871 -14.5662 -14.5662  -9.8912  -9.8912  -3.4927  -3.4927
    -0.2433  -0.2433   8.1213   8.1213   9.9058   9.9058   9.9243   9.9244

          k = 0.4187 0.4295 0.0000 (  5264 PWs)   bands (ev):

   -15.5904 -15.5904 -14.5692 -14.5692  -9.8794  -9.8794  -3.4974  -3.4974
    -0.2409  -0.2409   8.1041   8.1041   9.9099   9.9100   9.9201   9.9201

          k = 0.4190 0.4290 0.0000 (  5264 PWs)   bands (ev):

   -15.5937 -15.5937 -14.5721 -14.5721  -9.8676  -9.8676  -3.5020  -3.5020
    -0.2386  -0.2386   8.0870   8.0870   9.9140   9.9140   9.9159   9.9159

          k = 0.4193 0.4284 0.0000 (  5268 PWs)   bands (ev):

   -15.5970 -15.5970 -14.5750 -14.5750  -9.8558  -9.8558  -3.5066  -3.5066
    -0.2362  -0.2362   8.0699   8.0699   9.9116   9.9116   9.9181   9.9182

          k = 0.4197 0.4278 0.0000 (  5268 PWs)   bands (ev):

   -15.6002 -15.6002 -14.5779 -14.5779  -9.8440  -9.8440  -3.5112  -3.5112
    -0.2339  -0.2339   8.0528   8.0528   9.9074   9.9074   9.9220   9.9220

          k = 0.4200 0.4272 0.0000 (  5268 PWs)   bands (ev):

   -15.6035 -15.6035 -14.5808 -14.5808  -9.8322  -9.8322  -3.5158  -3.5158
    -0.2316  -0.2316   8.0358   8.0358   9.9032   9.9032   9.9257   9.9258

          k = 0.4203 0.4267 0.0000 (  5268 PWs)   bands (ev):

   -15.6067 -15.6067 -14.5837 -14.5837  -9.8205  -9.8205  -3.5204  -3.5204
    -0.2293  -0.2293   8.0188   8.0188   9.8990   9.8991   9.9294   9.9295

          k = 0.4207 0.4261 0.0000 (  5270 PWs)   bands (ev):

   -15.6099 -15.6099 -14.5866 -14.5866  -9.8088  -9.8088  -3.5249  -3.5249
    -0.2270  -0.2270   8.0018   8.0018   9.8949   9.8949   9.9329   9.9330

          k = 0.4210 0.4255 0.0000 (  5266 PWs)   bands (ev):

   -15.6131 -15.6131 -14.5895 -14.5895  -9.7970  -9.7970  -3.5294  -3.5294
    -0.2247  -0.2247   7.9849   7.9849   9.8907   9.8907   9.9363   9.9364

          k = 0.4213 0.4249 0.0000 (  5266 PWs)   bands (ev):

   -15.6163 -15.6163 -14.5923 -14.5923  -9.7854  -9.7853  -3.5339  -3.5339
    -0.2225  -0.2225   7.9679   7.9679   9.8866   9.8866   9.9396   9.9397

          k = 0.4217 0.4244 0.0000 (  5266 PWs)   bands (ev):

   -15.6195 -15.6195 -14.5952 -14.5952  -9.7737  -9.7737  -3.5384  -3.5384
    -0.2203  -0.2203   7.9511   7.9511   9.8824   9.8825   9.9427   9.9428

          k = 0.4220 0.4238 0.0000 (  5266 PWs)   bands (ev):

   -15.6226 -15.6226 -14.5980 -14.5980  -9.7620  -9.7620  -3.5429  -3.5429
    -0.2181  -0.2181   7.9342   7.9342   9.8783   9.8784   9.9456   9.9457

          k = 0.4223 0.4232 0.0000 (  5266 PWs)   bands (ev):

   -15.6258 -15.6258 -14.6009 -14.6009  -9.7504  -9.7504  -3.5473  -3.5473
    -0.2159  -0.2159   7.9174   7.9174   9.8743   9.8743   9.9483   9.9484

          k = 0.4227 0.4226 0.0000 (  5266 PWs)   bands (ev):

   -15.6289 -15.6289 -14.6037 -14.6037  -9.7387  -9.7387  -3.5518  -3.5518
    -0.2137  -0.2137   7.9006   7.9006   9.8702   9.8702   9.9508   9.9509

          k = 0.4230 0.4220 0.0000 (  5266 PWs)   bands (ev):

   -15.6320 -15.6320 -14.6065 -14.6065  -9.7271  -9.7271  -3.5562  -3.5562
    -0.2116  -0.2116   7.8839   7.8839   9.8661   9.8662   9.9531   9.9532

          k = 0.4233 0.4215 0.0000 (  5270 PWs)   bands (ev):

   -15.6351 -15.6351 -14.6093 -14.6093  -9.7156  -9.7156  -3.5606  -3.5606
    -0.2094  -0.2094   7.8672   7.8672   9.8621   9.8621   9.9551   9.9553

          k = 0.4237 0.4209 0.0000 (  5270 PWs)   bands (ev):

   -15.6382 -15.6382 -14.6121 -14.6121  -9.7040  -9.7040  -3.5649  -3.5649
    -0.2073  -0.2073   7.8505   7.8505   9.8580   9.8581   9.9569   9.9570

          k = 0.4240 0.4203 0.0000 (  5272 PWs)   bands (ev):

   -15.6413 -15.6413 -14.6149 -14.6149  -9.6925  -9.6925  -3.5693  -3.5693
    -0.2052  -0.2052   7.8338   7.8338   9.8540   9.8541   9.9584   9.9585

          k = 0.4243 0.4197 0.0000 (  5272 PWs)   bands (ev):

   -15.6443 -15.6443 -14.6177 -14.6177  -9.6809  -9.6809  -3.5736  -3.5736
    -0.2032  -0.2032   7.8172   7.8172   9.8500   9.8501   9.9596   9.9597

          k = 0.4247 0.4192 0.0000 (  5272 PWs)   bands (ev):

   -15.6474 -15.6474 -14.6205 -14.6205  -9.6694  -9.6694  -3.5780  -3.5780
    -0.2011  -0.2011   7.8007   7.8007   9.8460   9.8461   9.9605   9.9606

          k = 0.4250 0.4186 0.0000 (  5268 PWs)   bands (ev):

   -15.6504 -15.6504 -14.6232 -14.6232  -9.6579  -9.6579  -3.5823  -3.5823
    -0.1991  -0.1991   7.7841   7.7842   9.8421   9.8421   9.9610   9.9612

          k = 0.4253 0.4180 0.0000 (  5272 PWs)   bands (ev):

   -15.6534 -15.6534 -14.6260 -14.6260  -9.6465  -9.6465  -3.5865  -3.5865
    -0.1970  -0.1970   7.7677   7.7677   9.8381   9.8381   9.9613   9.9614

          k = 0.4257 0.4174 0.0000 (  5276 PWs)   bands (ev):

   -15.6565 -15.6565 -14.6287 -14.6287  -9.6350  -9.6350  -3.5908  -3.5908
    -0.1950  -0.1950   7.7512   7.7512   9.8342   9.8342   9.9612   9.9614

          k = 0.4260 0.4168 0.0000 (  5276 PWs)   bands (ev):

   -15.6595 -15.6595 -14.6315 -14.6315  -9.6236  -9.6236  -3.5950  -3.5950
    -0.1931  -0.1931   7.7348   7.7348   9.8302   9.8303   9.9609   9.9610

          k = 0.4263 0.4163 0.0000 (  5276 PWs)   bands (ev):

   -15.6624 -15.6624 -14.6342 -14.6342  -9.6122  -9.6122  -3.5993  -3.5993
    -0.1911  -0.1911   7.7184   7.7184   9.8263   9.8264   9.9602   9.9603

          k = 0.4267 0.4157 0.0000 (  5280 PWs)   bands (ev):

   -15.6654 -15.6654 -14.6369 -14.6369  -9.6009  -9.6009  -3.6035  -3.6035
    -0.1891  -0.1891   7.7021   7.7021   9.8224   9.8225   9.9592   9.9593

          k = 0.4270 0.4151 0.0000 (  5284 PWs)   bands (ev):

   -15.6684 -15.6684 -14.6396 -14.6396  -9.5895  -9.5895  -3.6077  -3.6077
    -0.1872  -0.1872   7.6858   7.6858   9.8186   9.8186   9.9580   9.9581

          k = 0.4273 0.4145 0.0000 (  5284 PWs)   bands (ev):

   -15.6713 -15.6713 -14.6423 -14.6423  -9.5782  -9.5782  -3.6118  -3.6118
    -0.1853  -0.1853   7.6695   7.6695   9.8147   9.8147   9.9565   9.9566

          k = 0.4277 0.4140 0.0000 (  5284 PWs)   bands (ev):

   -15.6742 -15.6742 -14.6450 -14.6450  -9.5669  -9.5669  -3.6160  -3.6160
    -0.1834  -0.1834   7.6533   7.6533   9.8108   9.8109   9.9548   9.9549

          k = 0.4280 0.4134 0.0000 (  5284 PWs)   bands (ev):

   -15.6772 -15.6772 -14.6477 -14.6477  -9.5556  -9.5556  -3.6201  -3.6201
    -0.1815  -0.1815   7.6371   7.6371   9.8070   9.8070   9.9529   9.9530

          k = 0.4283 0.4128 0.0000 (  5284 PWs)   bands (ev):

   -15.6801 -15.6801 -14.6504 -14.6504  -9.5443  -9.5443  -3.6242  -3.6242
    -0.1796  -0.1796   7.6210   7.6210   9.8032   9.8032   9.9508   9.9509

          k = 0.4287 0.4122 0.0000 (  5284 PWs)   bands (ev):

   -15.6830 -15.6830 -14.6530 -14.6530  -9.5331  -9.5331  -3.6283  -3.6283
    -0.1778  -0.1778   7.6049   7.6049   9.7994   9.7994   9.9485   9.9486

          k = 0.4290 0.4117 0.0000 (  5280 PWs)   bands (ev):

   -15.6858 -15.6858 -14.6557 -14.6557  -9.5219  -9.5219  -3.6324  -3.6324
    -0.1760  -0.1760   7.5888   7.5888   9.7956   9.7956   9.9460   9.9462

          k = 0.4293 0.4111 0.0000 (  5284 PWs)   bands (ev):

   -15.6887 -15.6887 -14.6583 -14.6583  -9.5107  -9.5107  -3.6364  -3.6364
    -0.1742  -0.1741   7.5728   7.5728   9.7918   9.7919   9.9435   9.9436

          k = 0.4297 0.4105 0.0000 (  5284 PWs)   bands (ev):

   -15.6915 -15.6915 -14.6610 -14.6610  -9.4996  -9.4996  -3.6405  -3.6405
    -0.1724  -0.1723   7.5568   7.5568   9.7881   9.7881   9.9408   9.9409

          k = 0.4300 0.4099 0.0000 (  5284 PWs)   bands (ev):

   -15.6944 -15.6944 -14.6636 -14.6636  -9.4884  -9.4884  -3.6445  -3.6445
    -0.1706  -0.1706   7.5409   7.5409   9.7843   9.7844   9.9380   9.9381

          k = 0.4303 0.4093 0.0000 (  5284 PWs)   bands (ev):

   -15.6972 -15.6972 -14.6662 -14.6662  -9.4773  -9.4773  -3.6485  -3.6485
    -0.1688  -0.1688   7.5250   7.5250   9.7806   9.7806   9.9352   9.9352

          k = 0.4307 0.4088 0.0000 (  5284 PWs)   bands (ev):

   -15.7000 -15.7000 -14.6688 -14.6688  -9.4662  -9.4662  -3.6525  -3.6525
    -0.1671  -0.1670   7.5092   7.5092   9.7769   9.7769   9.9322   9.9323

          k = 0.4310 0.4082 0.0000 (  5284 PWs)   bands (ev):

   -15.7028 -15.7028 -14.6714 -14.6714  -9.4552  -9.4552  -3.6564  -3.6564
    -0.1653  -0.1653   7.4934   7.4934   9.7732   9.7732   9.9292   9.9293

          k = 0.4313 0.4076 0.0000 (  5284 PWs)   bands (ev):

   -15.7056 -15.7056 -14.6740 -14.6740  -9.4442  -9.4442  -3.6604  -3.6604
    -0.1636  -0.1636   7.4776   7.4776   9.7695   9.7696   9.9261   9.9262

          k = 0.4317 0.4070 0.0000 (  5292 PWs)   bands (ev):

   -15.7084 -15.7084 -14.6765 -14.6765  -9.4332  -9.4332  -3.6643  -3.6643
    -0.1619  -0.1619   7.4619   7.4619   9.7659   9.7659   9.9230   9.9231

          k = 0.4320 0.4065 0.0000 (  5292 PWs)   bands (ev):

   -15.7111 -15.7111 -14.6791 -14.6791  -9.4222  -9.4222  -3.6682  -3.6682
    -0.1602  -0.1602   7.4462   7.4462   9.7622   9.7623   9.9198   9.9199

          k = 0.4323 0.4059 0.0000 (  5292 PWs)   bands (ev):

   -15.7138 -15.7138 -14.6816 -14.6816  -9.4112  -9.4112  -3.6721  -3.6721
    -0.1585  -0.1585   7.4306   7.4306   9.7586   9.7586   9.9166   9.9167

          k = 0.4327 0.4053 0.0000 (  5292 PWs)   bands (ev):

   -15.7166 -15.7166 -14.6842 -14.6842  -9.4003  -9.4003  -3.6759  -3.6759
    -0.1569  -0.1569   7.4150   7.4150   9.7550   9.7550   9.9133   9.9134

          k = 0.4330 0.4047 0.0000 (  5292 PWs)   bands (ev):

   -15.7193 -15.7193 -14.6867 -14.6867  -9.3894  -9.3894  -3.6798  -3.6798
    -0.1552  -0.1552   7.3995   7.3995   9.7514   9.7514   9.9101   9.9101

          k = 0.4333 0.4041 0.0000 (  5292 PWs)   bands (ev):

   -15.7220 -15.7220 -14.6892 -14.6892  -9.3785  -9.3785  -3.6836  -3.6836
    -0.1536  -0.1536   7.3840   7.3840   9.7478   9.7478   9.9068   9.9068

          k = 0.4337 0.4036 0.0000 (  5292 PWs)   bands (ev):

   -15.7247 -15.7247 -14.6917 -14.6917  -9.3677  -9.3677  -3.6874  -3.6874
    -0.1520  -0.1520   7.3686   7.3686   9.7442   9.7443   9.9034   9.9035

          k = 0.4340 0.4030 0.0000 (  5292 PWs)   bands (ev):

   -15.7274 -15.7274 -14.6942 -14.6942  -9.3569  -9.3569  -3.6912  -3.6912
    -0.1504  -0.1504   7.3532   7.3532   9.7407   9.7407   9.9001   9.9002

          k = 0.4343 0.4024 0.0000 (  5292 PWs)   bands (ev):

   -15.7300 -15.7300 -14.6967 -14.6967  -9.3461  -9.3461  -3.6950  -3.6950
    -0.1488  -0.1488   7.3378   7.3378   9.7372   9.7372   9.8968   9.8968

          k = 0.4347 0.4018 0.0000 (  5292 PWs)   bands (ev):

   -15.7327 -15.7327 -14.6992 -14.6992  -9.3354  -9.3354  -3.6987  -3.6987
    -0.1473  -0.1473   7.3225   7.3225   9.7336   9.7337   9.8934   9.8935

          k = 0.4350 0.4013 0.0000 (  5292 PWs)   bands (ev):

   -15.7353 -15.7353 -14.7016 -14.7016  -9.3246  -9.3246  -3.7025  -3.7025
    -0.1457  -0.1457   7.3073   7.3073   9.7301   9.7302   9.8900   9.8901

          k = 0.4353 0.4007 0.0000 (  5292 PWs)   bands (ev):

   -15.7379 -15.7379 -14.7041 -14.7041  -9.3139  -9.3139  -3.7062  -3.7062
    -0.1442  -0.1442   7.2921   7.2921   9.7267   9.7267   9.8867   9.8867

          k = 0.4357 0.4001 0.0000 (  5292 PWs)   bands (ev):

   -15.7405 -15.7405 -14.7065 -14.7065  -9.3033  -9.3033  -3.7099  -3.7099
    -0.1427  -0.1427   7.2769   7.2769   9.7232   9.7232   9.8833   9.8833

          k = 0.4360 0.3995 0.0000 (  5296 PWs)   bands (ev):

   -15.7431 -15.7431 -14.7090 -14.7090  -9.2926  -9.2926  -3.7135  -3.7135
    -0.1411  -0.1411   7.2618   7.2618   9.7197   9.7198   9.8799   9.8799

          k = 0.4363 0.3989 0.0000 (  5296 PWs)   bands (ev):

   -15.7457 -15.7457 -14.7114 -14.7114  -9.2820  -9.2820  -3.7172  -3.7172
    -0.1397  -0.1397   7.2468   7.2468   9.7163   9.7163   9.8765   9.8766

          k = 0.4367 0.3984 0.0000 (  5296 PWs)   bands (ev):

   -15.7483 -15.7483 -14.7138 -14.7138  -9.2715  -9.2715  -3.7208  -3.7208
    -0.1382  -0.1382   7.2318   7.2318   9.7129   9.7129   9.8731   9.8732

          k = 0.4370 0.3978 0.0000 (  5300 PWs)   bands (ev):

   -15.7508 -15.7508 -14.7162 -14.7162  -9.2609  -9.2609  -3.7245  -3.7245
    -0.1367  -0.1367   7.2168   7.2168   9.7095   9.7095   9.8698   9.8698

          k = 0.4373 0.3972 0.0000 (  5300 PWs)   bands (ev):

   -15.7534 -15.7534 -14.7186 -14.7186  -9.2504  -9.2504  -3.7281  -3.7281
    -0.1353  -0.1353   7.2019   7.2019   9.7061   9.7061   9.8664   9.8664

          k = 0.4377 0.3966 0.0000 (  5300 PWs)   bands (ev):

   -15.7559 -15.7559 -14.7210 -14.7210  -9.2399  -9.2399  -3.7316  -3.7316
    -0.1338  -0.1338   7.1871   7.1871   9.7027   9.7028   9.8630   9.8631

          k = 0.4380 0.3961 0.0000 (  5300 PWs)   bands (ev):

   -15.7584 -15.7584 -14.7233 -14.7233  -9.2295  -9.2295  -3.7352  -3.7352
    -0.1324  -0.1324   7.1723   7.1723   9.6994   9.6994   9.8596   9.8597

          k = 0.4383 0.3955 0.0000 (  5300 PWs)   bands (ev):

   -15.7609 -15.7609 -14.7257 -14.7257  -9.2191  -9.2191  -3.7388  -3.7388
    -0.1310  -0.1310   7.1575   7.1575   9.6960   9.6961   9.8563   9.8563

          k = 0.4387 0.3949 0.0000 (  5304 PWs)   bands (ev):

   -15.7634 -15.7634 -14.7280 -14.7280  -9.2087  -9.2087  -3.7423  -3.7423
    -0.1296  -0.1296   7.1429   7.1429   9.6927   9.6928   9.8529   9.8530

          k = 0.4390 0.3943 0.0000 (  5304 PWs)   bands (ev):

   -15.7659 -15.7659 -14.7304 -14.7304  -9.1983  -9.1983  -3.7458  -3.7458
    -0.1282  -0.1282   7.1282   7.1282   9.6894   9.6895   9.8496   9.8496

          k = 0.4393 0.3938 0.0000 (  5304 PWs)   bands (ev):

   -15.7683 -15.7683 -14.7327 -14.7327  -9.1880  -9.1880  -3.7493  -3.7493
    -0.1268  -0.1268   7.1136   7.1136   9.6861   9.6862   9.8463   9.8463

          k = 0.4397 0.3932 0.0000 (  5304 PWs)   bands (ev):

   -15.7708 -15.7708 -14.7350 -14.7350  -9.1777  -9.1777  -3.7527  -3.7527
    -0.1255  -0.1255   7.0991   7.0991   9.6829   9.6829   9.8429   9.8430

          k = 0.4400 0.3926 0.0000 (  5300 PWs)   bands (ev):

   -15.7732 -15.7732 -14.7373 -14.7373  -9.1675  -9.1675  -3.7562  -3.7562
    -0.1242  -0.1242   7.0846   7.0846   9.6796   9.6796   9.8396   9.8397

          k = 0.4403 0.3920 0.0000 (  5300 PWs)   bands (ev):

   -15.7756 -15.7756 -14.7396 -14.7396  -9.1573  -9.1573  -3.7596  -3.7596
    -0.1228  -0.1228   7.0702   7.0702   9.6764   9.6764   9.8363   9.8363

          k = 0.4407 0.3914 0.0000 (  5300 PWs)   bands (ev):

   -15.7780 -15.7780 -14.7418 -14.7418  -9.1471  -9.1471  -3.7630  -3.7630
    -0.1215  -0.1215   7.0558   7.0558   9.6732   9.6732   9.8330   9.8331

          k = 0.4410 0.3909 0.0000 (  5300 PWs)   bands (ev):

   -15.7804 -15.7804 -14.7441 -14.7441  -9.1369  -9.1369  -3.7664  -3.7664
    -0.1202  -0.1202   7.0415   7.0415   9.6700   9.6700   9.8297   9.8298

          k = 0.4413 0.3903 0.0000 (  5296 PWs)   bands (ev):

   -15.7828 -15.7828 -14.7464 -14.7464  -9.1268  -9.1268  -3.7698  -3.7698
    -0.1189  -0.1189   7.0272   7.0272   9.6668   9.6668   9.8265   9.8265

          k = 0.4417 0.3897 0.0000 (  5296 PWs)   bands (ev):

   -15.7852 -15.7852 -14.7486 -14.7486  -9.1167  -9.1167  -3.7732  -3.7731
    -0.1176  -0.1176   7.0130   7.0130   9.6636   9.6636   9.8232   9.8232

          k = 0.4420 0.3891 0.0000 (  5296 PWs)   bands (ev):

   -15.7875 -15.7875 -14.7508 -14.7508  -9.1067  -9.1067  -3.7765  -3.7765
    -0.1164  -0.1164   6.9989   6.9989   9.6604   9.6605   9.8200   9.8200

          k = 0.4423 0.3886 0.0000 (  5296 PWs)   bands (ev):

   -15.7898 -15.7898 -14.7531 -14.7531  -9.0967  -9.0967  -3.7798  -3.7798
    -0.1151  -0.1151   6.9848   6.9848   9.6573   9.6573   9.8167   9.8168

          k = 0.4427 0.3880 0.0000 (  5296 PWs)   bands (ev):

   -15.7922 -15.7922 -14.7553 -14.7553  -9.0867  -9.0867  -3.7831  -3.7831
    -0.1139  -0.1139   6.9707   6.9707   9.6542   9.6542   9.8135   9.8135

          k = 0.4430 0.3874 0.0000 (  5296 PWs)   bands (ev):

   -15.7945 -15.7945 -14.7575 -14.7575  -9.0768  -9.0768  -3.7864  -3.7864
    -0.1127  -0.1127   6.9567   6.9567   9.6511   9.6511   9.8103   9.8103

          k = 0.4433 0.3868 0.0000 (  5296 PWs)   bands (ev):

   -15.7968 -15.7968 -14.7597 -14.7597  -9.0669  -9.0669  -3.7896  -3.7896
    -0.1115  -0.1115   6.9428   6.9428   9.6480   9.6480   9.8071   9.8071

          k = 0.4437 0.3862 0.0000 (  5296 PWs)   bands (ev):

   -15.7991 -15.7991 -14.7618 -14.7618  -9.0570  -9.0570  -3.7929  -3.7929
    -0.1103  -0.1103   6.9289   6.9289   9.6449   9.6450   9.8039   9.8040

          k = 0.4440 0.3857 0.0000 (  5296 PWs)   bands (ev):

   -15.8013 -15.8013 -14.7640 -14.7640  -9.0472  -9.0472  -3.7961  -3.7961
    -0.1091  -0.1091   6.9151   6.9151   9.6419   9.6419   9.8008   9.8008

          k = 0.4443 0.3851 0.0000 (  5300 PWs)   bands (ev):

   -15.8036 -15.8036 -14.7661 -14.7661  -9.0374  -9.0374  -3.7993  -3.7993
    -0.1079  -0.1079   6.9014   6.9014   9.6388   9.6389   9.7976   9.7976

          k = 0.4447 0.3845 0.0000 (  5300 PWs)   bands (ev):

   -15.8058 -15.8058 -14.7683 -14.7683  -9.0276  -9.0276  -3.8025  -3.8025
    -0.1067  -0.1067   6.8877   6.8877   9.6358   9.6359   9.7945   9.7945

          k = 0.4450 0.3839 0.0000 (  5300 PWs)   bands (ev):

   -15.8081 -15.8081 -14.7704 -14.7704  -9.0179  -9.0179  -3.8056  -3.8056
    -0.1056  -0.1056   6.8740   6.8740   9.6328   9.6329   9.7914   9.7914

          k = 0.4453 0.3834 0.0000 (  5304 PWs)   bands (ev):

   -15.8103 -15.8103 -14.7725 -14.7725  -9.0083  -9.0083  -3.8088  -3.8088
    -0.1044  -0.1044   6.8605   6.8605   9.6298   9.6299   9.7883   9.7883

          k = 0.4457 0.3828 0.0000 (  5304 PWs)   bands (ev):

   -15.8125 -15.8125 -14.7746 -14.7746  -8.9986  -8.9986  -3.8119  -3.8119
    -0.1033  -0.1033   6.8469   6.8469   9.6269   9.6269   9.7852   9.7852

          k = 0.4460 0.3822 0.0000 (  5304 PWs)   bands (ev):

   -15.8147 -15.8147 -14.7767 -14.7767  -8.9890  -8.9890  -3.8150  -3.8150
    -0.1022  -0.1022   6.8335   6.8335   9.6239   9.6240   9.7821   9.7821

          k = 0.4463 0.3816 0.0000 (  5304 PWs)   bands (ev):

   -15.8169 -15.8169 -14.7788 -14.7788  -8.9795  -8.9795  -3.8181  -3.8181
    -0.1011  -0.1011   6.8201   6.8201   9.6210   9.6210   9.7790   9.7791

          k = 0.4467 0.3811 0.0000 (  5304 PWs)   bands (ev):

   -15.8190 -15.8190 -14.7809 -14.7809  -8.9700  -8.9700  -3.8212  -3.8212
    -0.1000  -0.1000   6.8067   6.8067   9.6181   9.6181   9.7760   9.7760

          k = 0.4470 0.3805 0.0000 (  5304 PWs)   bands (ev):

   -15.8212 -15.8212 -14.7829 -14.7829  -8.9605  -8.9605  -3.8242  -3.8242
    -0.0989  -0.0989   6.7935   6.7935   9.6152   9.6152   9.7730   9.7730

          k = 0.4473 0.3799 0.0000 (  5304 PWs)   bands (ev):

   -15.8233 -15.8233 -14.7850 -14.7850  -8.9510  -8.9510  -3.8273  -3.8273
    -0.0978  -0.0978   6.7803   6.7803   9.6123   9.6123   9.7700   9.7700

          k = 0.4477 0.3793 0.0000 (  5304 PWs)   bands (ev):

   -15.8254 -15.8254 -14.7870 -14.7870  -8.9416  -8.9416  -3.8303  -3.8303
    -0.0968  -0.0968   6.7671   6.7671   9.6094   9.6095   9.7670   9.7670

          k = 0.4480 0.3787 0.0000 (  5308 PWs)   bands (ev):

   -15.8275 -15.8275 -14.7890 -14.7890  -8.9323  -8.9323  -3.8333  -3.8333
    -0.0957  -0.0957   6.7540   6.7540   9.6066   9.6066   9.7640   9.7640

          k = 0.4483 0.3782 0.0000 (  5308 PWs)   bands (ev):

   -15.8296 -15.8296 -14.7910 -14.7910  -8.9230  -8.9230  -3.8362  -3.8362
    -0.0947  -0.0947   6.7410   6.7410   9.6038   9.6038   9.7610   9.7611

          k = 0.4487 0.3776 0.0000 (  5308 PWs)   bands (ev):

   -15.8317 -15.8317 -14.7930 -14.7930  -8.9137  -8.9137  -3.8392  -3.8392
    -0.0937  -0.0937   6.7280   6.7280   9.6010   9.6010   9.7581   9.7581

          k = 0.4490 0.3770 0.0000 (  5312 PWs)   bands (ev):

   -15.8338 -15.8338 -14.7950 -14.7950  -8.9045  -8.9045  -3.8421  -3.8421
    -0.0927  -0.0927   6.7151   6.7151   9.5982   9.5982   9.7552   9.7552

          k = 0.4493 0.3764 0.0000 (  5312 PWs)   bands (ev):

   -15.8358 -15.8358 -14.7970 -14.7970  -8.8953  -8.8953  -3.8451  -3.8451
    -0.0917  -0.0916   6.7023   6.7023   9.5954   9.5954   9.7523   9.7523

          k = 0.4497 0.3759 0.0000 (  5312 PWs)   bands (ev):

   -15.8379 -15.8379 -14.7990 -14.7990  -8.8861  -8.8861  -3.8480  -3.8480
    -0.0907  -0.0907   6.6895   6.6895   9.5926   9.5926   9.7494   9.7494

          k = 0.4500 0.3753 0.0000 (  5312 PWs)   bands (ev):

   -15.8399 -15.8399 -14.8009 -14.8009  -8.8770  -8.8770  -3.8508  -3.8508
    -0.0897  -0.0897   6.6768   6.6768   9.5899   9.5899   9.7465   9.7465

          k = 0.4503 0.3747 0.0000 (  5312 PWs)   bands (ev):

   -15.8419 -15.8419 -14.8028 -14.8028  -8.8679  -8.8679  -3.8537  -3.8537
    -0.0887  -0.0887   6.6641   6.6641   9.5872   9.5872   9.7436   9.7437

          k = 0.4507 0.3741 0.0000 (  5312 PWs)   bands (ev):

   -15.8439 -15.8439 -14.8048 -14.8048  -8.8589  -8.8589  -3.8565  -3.8565
    -0.0877  -0.0877   6.6515   6.6515   9.5844   9.5845   9.7408   9.7408

          k = 0.4510 0.3735 0.0000 (  5312 PWs)   bands (ev):

   -15.8459 -15.8459 -14.8067 -14.8067  -8.8499  -8.8499  -3.8594  -3.8594
    -0.0868  -0.0868   6.6390   6.6390   9.5818   9.5818   9.7380   9.7380

          k = 0.4513 0.3730 0.0000 (  5312 PWs)   bands (ev):

   -15.8479 -15.8479 -14.8086 -14.8086  -8.8410  -8.8410  -3.8622  -3.8622
    -0.0858  -0.0858   6.6266   6.6266   9.5791   9.5791   9.7352   9.7352

          k = 0.4517 0.3724 0.0000 (  5312 PWs)   bands (ev):

   -15.8499 -15.8499 -14.8105 -14.8105  -8.8321  -8.8321  -3.8649  -3.8649
    -0.0849  -0.0849   6.6142   6.6142   9.5764   9.5765   9.7324   9.7324

          k = 0.4520 0.3718 0.0000 (  5312 PWs)   bands (ev):

   -15.8518 -15.8518 -14.8124 -14.8124  -8.8232  -8.8232  -3.8677  -3.8677
    -0.0840  -0.0840   6.6018   6.6018   9.5738   9.5738   9.7296   9.7296

          k = 0.4523 0.3712 0.0000 (  5312 PWs)   bands (ev):

   -15.8537 -15.8537 -14.8142 -14.8142  -8.8144  -8.8144  -3.8705  -3.8704
    -0.0831  -0.0831   6.5896   6.5896   9.5712   9.5712   9.7269   9.7269

          k = 0.4527 0.3707 0.0000 (  5308 PWs)   bands (ev):

   -15.8557 -15.8557 -14.8161 -14.8161  -8.8057  -8.8057  -3.8732  -3.8732
    -0.0822  -0.0822   6.5774   6.5774   9.5686   9.5686   9.7241   9.7241

          k = 0.4530 0.3701 0.0000 (  5308 PWs)   bands (ev):

   -15.8576 -15.8576 -14.8179 -14.8179  -8.7969  -8.7969  -3.8759  -3.8759
    -0.0813  -0.0813   6.5653   6.5653   9.5660   9.5660   9.7214   9.7214

          k = 0.4533 0.3695 0.0000 (  5304 PWs)   bands (ev):

   -15.8595 -15.8595 -14.8197 -14.8197  -8.7883  -8.7883  -3.8786  -3.8786
    -0.0804  -0.0804   6.5532   6.5532   9.5634   9.5634   9.7187   9.7187

          k = 0.4537 0.3689 0.0000 (  5304 PWs)   bands (ev):

   -15.8613 -15.8613 -14.8216 -14.8216  -8.7796  -8.7796  -3.8812  -3.8812
    -0.0795  -0.0795   6.5412   6.5412   9.5609   9.5609   9.7160   9.7160

          k = 0.4540 0.3683 0.0000 (  5304 PWs)   bands (ev):

   -15.8632 -15.8632 -14.8234 -14.8234  -8.7711  -8.7711  -3.8839  -3.8839
    -0.0787  -0.0787   6.5293   6.5293   9.5583   9.5584   9.7134   9.7134

          k = 0.4543 0.3678 0.0000 (  5304 PWs)   bands (ev):

   -15.8651 -15.8651 -14.8251 -14.8251  -8.7625  -8.7625  -3.8865  -3.8865
    -0.0778  -0.0778   6.5175   6.5175   9.5558   9.5558   9.7107   9.7107

          k = 0.4547 0.3672 0.0000 (  5304 PWs)   bands (ev):

   -15.8669 -15.8669 -14.8269 -14.8269  -8.7540  -8.7540  -3.8891  -3.8891
    -0.0770  -0.0770   6.5057   6.5057   9.5533   9.5533   9.7081   9.7081

          k = 0.4550 0.3666 0.0000 (  5300 PWs)   bands (ev):

   -15.8687 -15.8687 -14.8287 -14.8287  -8.7456  -8.7456  -3.8917  -3.8917
    -0.0762  -0.0762   6.4940   6.4940   9.5508   9.5509   9.7055   9.7055

          k = 0.4553 0.3660 0.0000 (  5300 PWs)   bands (ev):

   -15.8705 -15.8705 -14.8304 -14.8304  -8.7372  -8.7372  -3.8943  -3.8943
    -0.0753  -0.0753   6.4823   6.4823   9.5484   9.5484   9.7029   9.7029

          k = 0.4557 0.3655 0.0000 (  5292 PWs)   bands (ev):

   -15.8723 -15.8723 -14.8322 -14.8322  -8.7288  -8.7288  -3.8969  -3.8969
    -0.0745  -0.0745   6.4707   6.4707   9.5459   9.5459   9.7003   9.7003

          k = 0.4560 0.3649 0.0000 (  5292 PWs)   bands (ev):

   -15.8741 -15.8741 -14.8339 -14.8339  -8.7205  -8.7205  -3.8994  -3.8994
    -0.0737  -0.0737   6.4592   6.4592   9.5435   9.5435   9.6978   9.6978

          k = 0.4563 0.3643 0.0000 (  5292 PWs)   bands (ev):

   -15.8759 -15.8759 -14.8356 -14.8356  -8.7123  -8.7123  -3.9019  -3.9019
    -0.0729  -0.0729   6.4478   6.4478   9.5411   9.5411   9.6952   9.6952

          k = 0.4567 0.3637 0.0000 (  5292 PWs)   bands (ev):

   -15.8777 -15.8777 -14.8373 -14.8373  -8.7041  -8.7041  -3.9044  -3.9044
    -0.0721  -0.0721   6.4364   6.4364   9.5387   9.5387   9.6927   9.6927

          k = 0.4570 0.3632 0.0000 (  5296 PWs)   bands (ev):

   -15.8794 -15.8794 -14.8390 -14.8390  -8.6959  -8.6959  -3.9069  -3.9069
    -0.0714  -0.0714   6.4251   6.4251   9.5363   9.5363   9.6902   9.6902

          k = 0.4573 0.3626 0.0000 (  5296 PWs)   bands (ev):

   -15.8811 -15.8811 -14.8407 -14.8407  -8.6878  -8.6878  -3.9093  -3.9093
    -0.0706  -0.0706   6.4139   6.4139   9.5340   9.5340   9.6877   9.6877

          k = 0.4577 0.3620 0.0000 (  5296 PWs)   bands (ev):

   -15.8829 -15.8829 -14.8424 -14.8424  -8.6798  -8.6798  -3.9118  -3.9118
    -0.0698  -0.0698   6.4028   6.4028   9.5316   9.5316   9.6853   9.6853

          k = 0.4580 0.3614 0.0000 (  5296 PWs)   bands (ev):

   -15.8846 -15.8846 -14.8440 -14.8440  -8.6718  -8.6718  -3.9142  -3.9142
    -0.0691  -0.0691   6.3917   6.3917   9.5293   9.5293   9.6828   9.6828

          k = 0.4583 0.3608 0.0000 (  5300 PWs)   bands (ev):

   -15.8863 -15.8863 -14.8457 -14.8457  -8.6638  -8.6638  -3.9166  -3.9166
    -0.0684  -0.0683   6.3807   6.3807   9.5270   9.5270   9.6804   9.6804

          k = 0.4587 0.3603 0.0000 (  5300 PWs)   bands (ev):

   -15.8879 -15.8879 -14.8473 -14.8473  -8.6559  -8.6559  -3.9190  -3.9190
    -0.0676  -0.0676   6.3697   6.3697   9.5247   9.5247   9.6780   9.6780

          k = 0.4590 0.3597 0.0000 (  5300 PWs)   bands (ev):

   -15.8896 -15.8896 -14.8489 -14.8489  -8.6480  -8.6480  -3.9214  -3.9214
    -0.0669  -0.0669   6.3589   6.3589   9.5225   9.5225   9.6756   9.6756

          k = 0.4593 0.3591 0.0000 (  5300 PWs)   bands (ev):

   -15.8912 -15.8912 -14.8505 -14.8505  -8.6402  -8.6402  -3.9237  -3.9237
    -0.0662  -0.0662   6.3481   6.3481   9.5202   9.5202   9.6732   9.6732

          k = 0.4597 0.3585 0.0000 (  5300 PWs)   bands (ev):

   -15.8929 -15.8929 -14.8521 -14.8521  -8.6325  -8.6325  -3.9260  -3.9260
    -0.0655  -0.0655   6.3374   6.3374   9.5180   9.5180   9.6709   9.6709

          k = 0.4600 0.3580 0.0000 (  5300 PWs)   bands (ev):

   -15.8945 -15.8945 -14.8537 -14.8537  -8.6247  -8.6247  -3.9283  -3.9283
    -0.0648  -0.0648   6.3267   6.3267   9.5158   9.5158   9.6685   9.6685

          k = 0.4603 0.3574 0.0000 (  5300 PWs)   bands (ev):

   -15.8961 -15.8961 -14.8553 -14.8553  -8.6171  -8.6171  -3.9306  -3.9306
    -0.0641  -0.0641   6.3161   6.3161   9.5136   9.5136   9.6662   9.6662

          k = 0.4607 0.3568 0.0000 (  5300 PWs)   bands (ev):

   -15.8977 -15.8977 -14.8568 -14.8568  -8.6095  -8.6095  -3.9329  -3.9329
    -0.0634  -0.0634   6.3057   6.3057   9.5114   9.5114   9.6639   9.6639

          k = 0.4610 0.3562 0.0000 (  5300 PWs)   bands (ev):

   -15.8993 -15.8993 -14.8584 -14.8584  -8.6019  -8.6019  -3.9352  -3.9352
    -0.0627  -0.0627   6.2952   6.2952   9.5092   9.5092   9.6616   9.6616

          k = 0.4613 0.3556 0.0000 (  5298 PWs)   bands (ev):

   -15.9009 -15.9009 -14.8599 -14.8599  -8.5944  -8.5944  -3.9374  -3.9374
    -0.0621  -0.0621   6.2849   6.2849   9.5071   9.5071   9.6594   9.6594

          k = 0.4617 0.3551 0.0000 (  5298 PWs)   bands (ev):

   -15.9024 -15.9024 -14.8614 -14.8614  -8.5870  -8.5870  -3.9396  -3.9396
    -0.0614  -0.0614   6.2746   6.2746   9.5050   9.5050   9.6571   9.6571

          k = 0.4620 0.3545 0.0000 (  5298 PWs)   bands (ev):

   -15.9040 -15.9040 -14.8629 -14.8629  -8.5796  -8.5796  -3.9418  -3.9418
    -0.0608  -0.0608   6.2644   6.2644   9.5028   9.5029   9.6549   9.6549

          k = 0.4623 0.3539 0.0000 (  5298 PWs)   bands (ev):

   -15.9055 -15.9055 -14.8644 -14.8644  -8.5722  -8.5722  -3.9440  -3.9440
    -0.0601  -0.0601   6.2543   6.2543   9.5008   9.5008   9.6527   9.6527

          k = 0.4627 0.3533 0.0000 (  5298 PWs)   bands (ev):

   -15.9070 -15.9070 -14.8659 -14.8659  -8.5649  -8.5649  -3.9461  -3.9461
    -0.0595  -0.0595   6.2443   6.2443   9.4987   9.4987   9.6505   9.6505

          k = 0.4630 0.3528 0.0000 (  5294 PWs)   bands (ev):

   -15.9085 -15.9085 -14.8674 -14.8674  -8.5577  -8.5577  -3.9483  -3.9483
    -0.0589  -0.0589   6.2343   6.2343   9.4966   9.4966   9.6484   9.6484

          k = 0.4633 0.3522 0.0000 (  5294 PWs)   bands (ev):

   -15.9100 -15.9100 -14.8688 -14.8688  -8.5505  -8.5505  -3.9504  -3.9504
    -0.0583  -0.0583   6.2244   6.2244   9.4946   9.4946   9.6462   9.6462

          k = 0.4637 0.3516 0.0000 (  5298 PWs)   bands (ev):

   -15.9115 -15.9115 -14.8703 -14.8703  -8.5433  -8.5433  -3.9525  -3.9525
    -0.0576  -0.0576   6.2146   6.2146   9.4926   9.4926   9.6441   9.6441

          k = 0.4640 0.3510 0.0000 (  5298 PWs)   bands (ev):

   -15.9130 -15.9130 -14.8717 -14.8717  -8.5363  -8.5363  -3.9545  -3.9545
    -0.0570  -0.0570   6.2049   6.2049   9.4906   9.4906   9.6420   9.6420

          k = 0.4643 0.3505 0.0000 (  5298 PWs)   bands (ev):

   -15.9144 -15.9144 -14.8731 -14.8731  -8.5292  -8.5292  -3.9566  -3.9566
    -0.0565  -0.0565   6.1952   6.1952   9.4886   9.4886   9.6399   9.6399

          k = 0.4647 0.3499 0.0000 (  5298 PWs)   bands (ev):

   -15.9158 -15.9158 -14.8745 -14.8745  -8.5223  -8.5223  -3.9586  -3.9586
    -0.0559  -0.0559   6.1856   6.1856   9.4866   9.4867   9.6378   9.6378

          k = 0.4650 0.3493 0.0000 (  5298 PWs)   bands (ev):

   -15.9173 -15.9173 -14.8759 -14.8759  -8.5154  -8.5154  -3.9607  -3.9607
    -0.0553  -0.0553   6.1761   6.1761   9.4847   9.4847   9.6358   9.6358

          k = 0.4653 0.3487 0.0000 (  5294 PWs)   bands (ev):

   -15.9187 -15.9187 -14.8773 -14.8773  -8.5085  -8.5085  -3.9627  -3.9627
    -0.0547  -0.0547   6.1667   6.1667   9.4828   9.4828   9.6337   9.6337

          k = 0.4657 0.3481 0.0000 (  5294 PWs)   bands (ev):

   -15.9201 -15.9201 -14.8786 -14.8786  -8.5017  -8.5017  -3.9646  -3.9646
    -0.0542  -0.0542   6.1574   6.1574   9.4809   9.4809   9.6317   9.6317

          k = 0.4660 0.3476 0.0000 (  5290 PWs)   bands (ev):

   -15.9215 -15.9215 -14.8800 -14.8800  -8.4949  -8.4949  -3.9666  -3.9666
    -0.0536  -0.0536   6.1481   6.1481   9.4790   9.4790   9.6297   9.6297

          k = 0.4663 0.3470 0.0000 (  5290 PWs)   bands (ev):

   -15.9228 -15.9228 -14.8813 -14.8813  -8.4882  -8.4882  -3.9686  -3.9686
    -0.0531  -0.0531   6.1389   6.1389   9.4771   9.4771   9.6277   9.6277

          k = 0.4667 0.3464 0.0000 (  5290 PWs)   bands (ev):

   -15.9242 -15.9242 -14.8827 -14.8827  -8.4816  -8.4816  -3.9705  -3.9705
    -0.0525  -0.0525   6.1298   6.1298   9.4752   9.4753   9.6258   9.6258

          k = 0.4670 0.3458 0.0000 (  5294 PWs)   bands (ev):

   -15.9255 -15.9255 -14.8840 -14.8840  -8.4750  -8.4750  -3.9724  -3.9724
    -0.0520  -0.0520   6.1208   6.1208   9.4734   9.4734   9.6238   9.6239

          k = 0.4673 0.3453 0.0000 (  5294 PWs)   bands (ev):

   -15.9268 -15.9268 -14.8853 -14.8853  -8.4685  -8.4685  -3.9743  -3.9743
    -0.0515  -0.0515   6.1119   6.1119   9.4716   9.4716   9.6219   9.6219

          k = 0.4677 0.3447 0.0000 (  5290 PWs)   bands (ev):

   -15.9282 -15.9282 -14.8866 -14.8866  -8.4620  -8.4620  -3.9761  -3.9761
    -0.0509  -0.0509   6.1030   6.1030   9.4698   9.4698   9.6200   9.6200

          k = 0.4680 0.3441 0.0000 (  5294 PWs)   bands (ev):

   -15.9295 -15.9295 -14.8878 -14.8878  -8.4556  -8.4556  -3.9780  -3.9780
    -0.0504  -0.0504   6.0942   6.0942   9.4680   9.4680   9.6181   9.6182

          k = 0.4683 0.3435 0.0000 (  5294 PWs)   bands (ev):

   -15.9307 -15.9307 -14.8891 -14.8891  -8.4493  -8.4493  -3.9798  -3.9798
    -0.0499  -0.0499   6.0855   6.0855   9.4662   9.4663   9.6163   9.6163

          k = 0.4687 0.3429 0.0000 (  5294 PWs)   bands (ev):

   -15.9320 -15.9320 -14.8904 -14.8904  -8.4430  -8.4430  -3.9816  -3.9816
    -0.0494  -0.0494   6.0769   6.0769   9.4645   9.4645   9.6144   9.6144

          k = 0.4690 0.3424 0.0000 (  5294 PWs)   bands (ev):

   -15.9333 -15.9333 -14.8916 -14.8916  -8.4367  -8.4367  -3.9834  -3.9834
    -0.0489  -0.0489   6.0684   6.0684   9.4628   9.4628   9.6126   9.6126

          k = 0.4693 0.3418 0.0000 (  5294 PWs)   bands (ev):

   -15.9345 -15.9345 -14.8928 -14.8928  -8.4306  -8.4306  -3.9852  -3.9852
    -0.0484  -0.0484   6.0599   6.0599   9.4611   9.4611   9.6108   9.6108

          k = 0.4697 0.3412 0.0000 (  5294 PWs)   bands (ev):

   -15.9358 -15.9358 -14.8940 -14.8940  -8.4244  -8.4244  -3.9869  -3.9869
    -0.0480  -0.0480   6.0515   6.0515   9.4594   9.4594   9.6090   9.6090

          k = 0.4700 0.3406 0.0000 (  5294 PWs)   bands (ev):

   -15.9370 -15.9370 -14.8952 -14.8952  -8.4184  -8.4184  -3.9887  -3.9887
    -0.0475  -0.0475   6.0433   6.0433   9.4577   9.4577   9.6073   9.6073

          k = 0.4703 0.3401 0.0000 (  5294 PWs)   bands (ev):

   -15.9382 -15.9382 -14.8964 -14.8964  -8.4124  -8.4124  -3.9904  -3.9904
    -0.0470  -0.0470   6.0350   6.0351   9.4560   9.4560   9.6055   9.6055

          k = 0.4707 0.3395 0.0000 (  5294 PWs)   bands (ev):

   -15.9394 -15.9394 -14.8976 -14.8976  -8.4064  -8.4064  -3.9921  -3.9921
    -0.0466  -0.0466   6.0269   6.0269   9.4544   9.4544   9.6038   9.6038

          k = 0.4710 0.3389 0.0000 (  5290 PWs)   bands (ev):

   -15.9406 -15.9406 -14.8987 -14.8987  -8.4005  -8.4005  -3.9938  -3.9938
    -0.0461  -0.0461   6.0189   6.0189   9.4528   9.4528   9.6021   9.6021

          k = 0.4713 0.3383 0.0000 (  5290 PWs)   bands (ev):

   -15.9417 -15.9417 -14.8999 -14.8999  -8.3947  -8.3947  -3.9954  -3.9954
    -0.0457  -0.0457   6.0109   6.0109   9.4512   9.4512   9.6004   9.6004

          k = 0.4717 0.3377 0.0000 (  5294 PWs)   bands (ev):

   -15.9429 -15.9429 -14.9010 -14.9010  -8.3890  -8.3890  -3.9971  -3.9971
    -0.0452  -0.0452   6.0031   6.0031   9.4496   9.4496   9.5987   9.5987

          k = 0.4720 0.3372 0.0000 (  5294 PWs)   bands (ev):

   -15.9440 -15.9440 -14.9021 -14.9021  -8.3833  -8.3833  -3.9987  -3.9987
    -0.0448  -0.0448   5.9953   5.9953   9.4480   9.4480   9.5971   9.5971

          k = 0.4723 0.3366 0.0000 (  5290 PWs)   bands (ev):

   -15.9452 -15.9452 -14.9032 -14.9032  -8.3776  -8.3776  -4.0003  -4.0003
    -0.0444  -0.0444   5.9876   5.9876   9.4465   9.4465   9.5954   9.5954

          k = 0.4727 0.3360 0.0000 (  5290 PWs)   bands (ev):

   -15.9463 -15.9463 -14.9043 -14.9043  -8.3720  -8.3720  -4.0019  -4.0019
    -0.0440  -0.0440   5.9800   5.9800   9.4450   9.4450   9.5938   9.5938

          k = 0.4730 0.3354 0.0000 (  5290 PWs)   bands (ev):

   -15.9474 -15.9474 -14.9054 -14.9054  -8.3665  -8.3665  -4.0034  -4.0034
    -0.0436  -0.0436   5.9724   5.9724   9.4435   9.4435   9.5922   9.5922

          k = 0.4733 0.3349 0.0000 (  5290 PWs)   bands (ev):

   -15.9484 -15.9484 -14.9065 -14.9065  -8.3610  -8.3610  -4.0050  -4.0050
    -0.0432  -0.0431   5.9650   5.9650   9.4420   9.4420   9.5907   9.5907

          k = 0.4737 0.3343 0.0000 (  5290 PWs)   bands (ev):

   -15.9495 -15.9495 -14.9075 -14.9075  -8.3556  -8.3556  -4.0065  -4.0065
    -0.0428  -0.0427   5.9576   5.9576   9.4405   9.4405   9.5891   9.5891

          k = 0.4740 0.3337 0.0000 (  5294 PWs)   bands (ev):

   -15.9506 -15.9506 -14.9086 -14.9086  -8.3503  -8.3503  -4.0080  -4.0080
    -0.0424  -0.0424   5.9503   5.9503   9.4390   9.4390   9.5876   9.5876

          k = 0.4743 0.3331 0.0000 (  5294 PWs)   bands (ev):

   -15.9516 -15.9516 -14.9096 -14.9096  -8.3450  -8.3450  -4.0095  -4.0095
    -0.0420  -0.0420   5.9431   5.9431   9.4376   9.4376   9.5860   9.5861

          k = 0.4747 0.3326 0.0000 (  5294 PWs)   bands (ev):

   -15.9527 -15.9527 -14.9106 -14.9106  -8.3398  -8.3398  -4.0110  -4.0110
    -0.0416  -0.0416   5.9360   5.9360   9.4362   9.4362   9.5845   9.5846

          k = 0.4750 0.3320 0.0000 (  5294 PWs)   bands (ev):

   -15.9537 -15.9537 -14.9116 -14.9116  -8.3347  -8.3347  -4.0124  -4.0124
    -0.0412  -0.0412   5.9290   5.9290   9.4348   9.4348   9.5831   9.5831

          k = 0.4753 0.3314 0.0000 (  5294 PWs)   bands (ev):

   -15.9547 -15.9547 -14.9126 -14.9126  -8.3296  -8.3296  -4.0138  -4.0138
    -0.0408  -0.0408   5.9221   5.9221   9.4334   9.4334   9.5816   9.5816

          k = 0.4757 0.3308 0.0000 (  5294 PWs)   bands (ev):

   -15.9557 -15.9557 -14.9136 -14.9136  -8.3246  -8.3246  -4.0152  -4.0152
    -0.0405  -0.0405   5.9152   5.9152   9.4320   9.4321   9.5802   9.5802

          k = 0.4760 0.3302 0.0000 (  5294 PWs)   bands (ev):

   -15.9566 -15.9566 -14.9145 -14.9145  -8.3196  -8.3196  -4.0166  -4.0166
    -0.0401  -0.0401   5.9085   5.9085   9.4307   9.4307   9.5788   9.5788

          k = 0.4763 0.3297 0.0000 (  5294 PWs)   bands (ev):

   -15.9576 -15.9576 -14.9155 -14.9155  -8.3147  -8.3147  -4.0180  -4.0180
    -0.0398  -0.0398   5.9018   5.9018   9.4294   9.4294   9.5774   9.5774

          k = 0.4767 0.3291 0.0000 (  5290 PWs)   bands (ev):

   -15.9586 -15.9586 -14.9164 -14.9164  -8.3098  -8.3098  -4.0194  -4.0194
    -0.0394  -0.0394   5.8952   5.8952   9.4281   9.4281   9.5760   9.5760

          k = 0.4770 0.3285 0.0000 (  5290 PWs)   bands (ev):

   -15.9595 -15.9595 -14.9174 -14.9174  -8.3051  -8.3051  -4.0207  -4.0207
    -0.0391  -0.0391   5.8887   5.8887   9.4268   9.4268   9.5746   9.5746

          k = 0.4773 0.3279 0.0000 (  5290 PWs)   bands (ev):

   -15.9604 -15.9604 -14.9183 -14.9183  -8.3004  -8.3004  -4.0220  -4.0220
    -0.0388  -0.0387   5.8823   5.8823   9.4255   9.4255   9.5733   9.5733

          k = 0.4777 0.3274 0.0000 (  5292 PWs)   bands (ev):

   -15.9613 -15.9613 -14.9192 -14.9192  -8.2957  -8.2957  -4.0233  -4.0233
    -0.0384  -0.0384   5.8760   5.8760   9.4243   9.4243   9.5720   9.5720

          k = 0.4780 0.3268 0.0000 (  5292 PWs)   bands (ev):

   -15.9622 -15.9622 -14.9201 -14.9201  -8.2911  -8.2911  -4.0246  -4.0246
    -0.0381  -0.0381   5.8698   5.8698   9.4230   9.4230   9.5707   9.5707

          k = 0.4783 0.3262 0.0000 (  5292 PWs)   bands (ev):

   -15.9631 -15.9631 -14.9209 -14.9209  -8.2866  -8.2866  -4.0258  -4.0258
    -0.0378  -0.0378   5.8636   5.8636   9.4218   9.4218   9.5694   9.5694

          k = 0.4787 0.3256 0.0000 (  5292 PWs)   bands (ev):

   -15.9640 -15.9640 -14.9218 -14.9218  -8.2822  -8.2822  -4.0271  -4.0271
    -0.0375  -0.0375   5.8576   5.8576   9.4206   9.4206   9.5681   9.5681

          k = 0.4790 0.3250 0.0000 (  5292 PWs)   bands (ev):

   -15.9648 -15.9648 -14.9226 -14.9226  -8.2778  -8.2778  -4.0283  -4.0283
    -0.0372  -0.0372   5.8516   5.8516   9.4194   9.4194   9.5669   9.5669

          k = 0.4793 0.3245 0.0000 (  5288 PWs)   bands (ev):

   -15.9657 -15.9657 -14.9235 -14.9235  -8.2734  -8.2734  -4.0295  -4.0295
    -0.0369  -0.0369   5.8457   5.8457   9.4183   9.4183   9.5656   9.5656

          k = 0.4797 0.3239 0.0000 (  5288 PWs)   bands (ev):

   -15.9665 -15.9665 -14.9243 -14.9243  -8.2692  -8.2692  -4.0307  -4.0307
    -0.0366  -0.0366   5.8400   5.8400   9.4171   9.4171   9.5644   9.5644

          k = 0.4800 0.3233 0.0000 (  5284 PWs)   bands (ev):

   -15.9673 -15.9673 -14.9251 -14.9251  -8.2650  -8.2650  -4.0318  -4.0318
    -0.0363  -0.0363   5.8343   5.8343   9.4160   9.4160   9.5632   9.5632

          k = 0.4803 0.3227 0.0000 (  5288 PWs)   bands (ev):

   -15.9681 -15.9681 -14.9259 -14.9259  -8.2609  -8.2609  -4.0330  -4.0330
    -0.0360  -0.0360   5.8287   5.8287   9.4149   9.4149   9.5621   9.5621

          k = 0.4807 0.3222 0.0000 (  5292 PWs)   bands (ev):

   -15.9689 -15.9689 -14.9267 -14.9267  -8.2568  -8.2568  -4.0341  -4.0341
    -0.0357  -0.0357   5.8232   5.8232   9.4138   9.4138   9.5609   9.5609

          k = 0.4810 0.3216 0.0000 (  5290 PWs)   bands (ev):

   -15.9697 -15.9697 -14.9274 -14.9274  -8.2528  -8.2528  -4.0352  -4.0352
    -0.0354  -0.0354   5.8177   5.8177   9.4127   9.4128   9.5598   9.5598

          k = 0.4813 0.3210 0.0000 (  5290 PWs)   bands (ev):

   -15.9705 -15.9705 -14.9282 -14.9282  -8.2489  -8.2489  -4.0363  -4.0363
    -0.0352  -0.0352   5.8124   5.8124   9.4117   9.4117   9.5587   9.5587

          k = 0.4817 0.3204 0.0000 (  5290 PWs)   bands (ev):

   -15.9712 -15.9712 -14.9289 -14.9289  -8.2450  -8.2450  -4.0373  -4.0373
    -0.0349  -0.0349   5.8072   5.8072   9.4107   9.4107   9.5576   9.5576

          k = 0.4820 0.3199 0.0000 (  5290 PWs)   bands (ev):

   -15.9719 -15.9719 -14.9296 -14.9296  -8.2412  -8.2412  -4.0384  -4.0384
    -0.0347  -0.0347   5.8020   5.8020   9.4097   9.4097   9.5565   9.5565

          k = 0.4823 0.3193 0.0000 (  5290 PWs)   bands (ev):

   -15.9727 -15.9727 -14.9304 -14.9304  -8.2375  -8.2375  -4.0394  -4.0394
    -0.0344  -0.0344   5.7969   5.7969   9.4087   9.4087   9.5555   9.5555

          k = 0.4827 0.3187 0.0000 (  5290 PWs)   bands (ev):

   -15.9734 -15.9734 -14.9310 -14.9310  -8.2338  -8.2338  -4.0404  -4.0404
    -0.0342  -0.0342   5.7920   5.7920   9.4077   9.4077   9.5545   9.5545

          k = 0.4830 0.3181 0.0000 (  5290 PWs)   bands (ev):

   -15.9741 -15.9741 -14.9317 -14.9317  -8.2302  -8.2302  -4.0414  -4.0414
    -0.0339  -0.0339   5.7871   5.7871   9.4067   9.4067   9.5534   9.5535

          k = 0.4833 0.3175 0.0000 (  5290 PWs)   bands (ev):

   -15.9747 -15.9747 -14.9324 -14.9324  -8.2267  -8.2267  -4.0424  -4.0424
    -0.0337  -0.0337   5.7823   5.7823   9.4058   9.4058   9.5525   9.5525

          k = 0.4837 0.3170 0.0000 (  5290 PWs)   bands (ev):

   -15.9754 -15.9754 -14.9331 -14.9331  -8.2232  -8.2232  -4.0433  -4.0433
    -0.0334  -0.0334   5.7776   5.7776   9.4049   9.4049   9.5515   9.5515

          k = 0.4840 0.3164 0.0000 (  5290 PWs)   bands (ev):

   -15.9761 -15.9761 -14.9337 -14.9337  -8.2198  -8.2198  -4.0442  -4.0442
    -0.0332  -0.0332   5.7730   5.7730   9.4040   9.4040   9.5505   9.5505

          k = 0.4843 0.3158 0.0000 (  5290 PWs)   bands (ev):

   -15.9767 -15.9767 -14.9343 -14.9343  -8.2165  -8.2165  -4.0452  -4.0452
    -0.0330  -0.0330   5.7685   5.7685   9.4031   9.4031   9.5496   9.5496

          k = 0.4847 0.3152 0.0000 (  5290 PWs)   bands (ev):

   -15.9773 -15.9773 -14.9350 -14.9350  -8.2132  -8.2132  -4.0460  -4.0460
    -0.0328  -0.0328   5.7641   5.7641   9.4022   9.4022   9.5487   9.5487

          k = 0.4850 0.3147 0.0000 (  5290 PWs)   bands (ev):

   -15.9780 -15.9780 -14.9356 -14.9356  -8.2100  -8.2100  -4.0469  -4.0469
    -0.0326  -0.0326   5.7598   5.7598   9.4014   9.4014   9.5478   9.5478

          k = 0.4853 0.3141 0.0000 (  5290 PWs)   bands (ev):

   -15.9786 -15.9786 -14.9362 -14.9362  -8.2069  -8.2069  -4.0478  -4.0478
    -0.0324  -0.0324   5.7555   5.7555   9.4005   9.4006   9.5469   9.5469

          k = 0.4857 0.3135 0.0000 (  5290 PWs)   bands (ev):

   -15.9791 -15.9791 -14.9367 -14.9367  -8.2039  -8.2039  -4.0486  -4.0486
    -0.0322  -0.0322   5.7514   5.7514   9.3997   9.3997   9.5461   9.5461

          k = 0.4860 0.3129 0.0000 (  5290 PWs)   bands (ev):

   -15.9797 -15.9797 -14.9373 -14.9373  -8.2009  -8.2009  -4.0494  -4.0494
    -0.0320  -0.0320   5.7473   5.7473   9.3989   9.3990   9.5452   9.5452

          k = 0.4863 0.3123 0.0000 (  5294 PWs)   bands (ev):

   -15.9803 -15.9803 -14.9379 -14.9379  -8.1980  -8.1980  -4.0502  -4.0502
    -0.0318  -0.0318   5.7434   5.7434   9.3982   9.3982   9.5444   9.5444

          k = 0.4867 0.3118 0.0000 (  5294 PWs)   bands (ev):

   -15.9808 -15.9808 -14.9384 -14.9384  -8.1951  -8.1951  -4.0510  -4.0510
    -0.0316  -0.0316   5.7395   5.7395   9.3974   9.3974   9.5436   9.5436

          k = 0.4870 0.3112 0.0000 (  5294 PWs)   bands (ev):

   -15.9814 -15.9814 -14.9389 -14.9389  -8.1923  -8.1923  -4.0518  -4.0517
    -0.0314  -0.0314   5.7358   5.7358   9.3967   9.3967   9.5429   9.5429

          k = 0.4873 0.3106 0.0000 (  5294 PWs)   bands (ev):

   -15.9819 -15.9819 -14.9395 -14.9395  -8.1896  -8.1896  -4.0525  -4.0525
    -0.0312  -0.0312   5.7321   5.7321   9.3960   9.3960   9.5421   9.5421

          k = 0.4877 0.3100 0.0000 (  5294 PWs)   bands (ev):

   -15.9824 -15.9824 -14.9400 -14.9400  -8.1870  -8.1870  -4.0532  -4.0532
    -0.0311  -0.0311   5.7285   5.7285   9.3953   9.3953   9.5414   9.5414

          k = 0.4880 0.3095 0.0000 (  5294 PWs)   bands (ev):

   -15.9829 -15.9829 -14.9404 -14.9404  -8.1844  -8.1844  -4.0539  -4.0539
    -0.0309  -0.0309   5.7250   5.7250   9.3946   9.3946   9.5406   9.5406

          k = 0.4883 0.3089 0.0000 (  5294 PWs)   bands (ev):

   -15.9833 -15.9833 -14.9409 -14.9409  -8.1819  -8.1819  -4.0546  -4.0546
    -0.0307  -0.0307   5.7216   5.7216   9.3939   9.3939   9.5399   9.5399

          k = 0.4887 0.3083 0.0000 (  5290 PWs)   bands (ev):

   -15.9838 -15.9838 -14.9414 -14.9414  -8.1794  -8.1794  -4.0552  -4.0552
    -0.0306  -0.0306   5.7183   5.7183   9.3933   9.3933   9.5393   9.5393

          k = 0.4890 0.3077 0.0000 (  5286 PWs)   bands (ev):

   -15.9843 -15.9843 -14.9418 -14.9418  -8.1771  -8.1771  -4.0559  -4.0559
    -0.0304  -0.0304   5.7151   5.7151   9.3927   9.3927   9.5386   9.5386

          k = 0.4893 0.3072 0.0000 (  5290 PWs)   bands (ev):

   -15.9847 -15.9847 -14.9423 -14.9423  -8.1748  -8.1748  -4.0565  -4.0565
    -0.0303  -0.0303   5.7120   5.7120   9.3921   9.3921   9.5380   9.5380

          k = 0.4897 0.3066 0.0000 (  5290 PWs)   bands (ev):

   -15.9851 -15.9851 -14.9427 -14.9427  -8.1725  -8.1725  -4.0571  -4.0571
    -0.0301  -0.0301   5.7090   5.7090   9.3915   9.3915   9.5374   9.5374

          k = 0.4900 0.3060 0.0000 (  5290 PWs)   bands (ev):

   -15.9855 -15.9855 -14.9431 -14.9431  -8.1704  -8.1704  -4.0577  -4.0577
    -0.0300  -0.0300   5.7061   5.7061   9.3909   9.3909   9.5368   9.5368

          k = 0.4903 0.3054 0.0000 (  5286 PWs)   bands (ev):

   -15.9859 -15.9859 -14.9435 -14.9435  -8.1683  -8.1683  -4.0583  -4.0583
    -0.0299  -0.0299   5.7033   5.7033   9.3904   9.3904   9.5362   9.5362

          k = 0.4907 0.3048 0.0000 (  5282 PWs)   bands (ev):

   -15.9863 -15.9863 -14.9439 -14.9439  -8.1663  -8.1663  -4.0588  -4.0588
    -0.0297  -0.0297   5.7005   5.7005   9.3898   9.3898   9.5356   9.5356

          k = 0.4910 0.3043 0.0000 (  5282 PWs)   bands (ev):

   -15.9867 -15.9867 -14.9442 -14.9442  -8.1643  -8.1643  -4.0593  -4.0593
    -0.0296  -0.0296   5.6979   5.6979   9.3893   9.3893   9.5351   9.5351

          k = 0.4913 0.3037 0.0000 (  5282 PWs)   bands (ev):

   -15.9870 -15.9870 -14.9446 -14.9446  -8.1624  -8.1624  -4.0598  -4.0598
    -0.0295  -0.0295   5.6954   5.6954   9.3888   9.3888   9.5346   9.5346

          k = 0.4917 0.3031 0.0000 (  5282 PWs)   bands (ev):

   -15.9874 -15.9874 -14.9449 -14.9449  -8.1606  -8.1606  -4.0603  -4.0603
    -0.0294  -0.0294   5.6929   5.6929   9.3884   9.3884   9.5341   9.5341

          k = 0.4920 0.3025 0.0000 (  5282 PWs)   bands (ev):

   -15.9877 -15.9877 -14.9452 -14.9452  -8.1589  -8.1589  -4.0608  -4.0608
    -0.0293  -0.0293   5.6906   5.6906   9.3879   9.3879   9.5336   9.5336

          k = 0.4923 0.3020 0.0000 (  5286 PWs)   bands (ev):

   -15.9880 -15.9880 -14.9456 -14.9456  -8.1572  -8.1572  -4.0613  -4.0613
    -0.0292  -0.0292   5.6883   5.6883   9.3875   9.3875   9.5331   9.5331

          k = 0.4927 0.3014 0.0000 (  5286 PWs)   bands (ev):

   -15.9883 -15.9883 -14.9459 -14.9459  -8.1556  -8.1556  -4.0617  -4.0617
    -0.0291  -0.0291   5.6861   5.6861   9.3870   9.3870   9.5327   9.5327

          k = 0.4930 0.3008 0.0000 (  5286 PWs)   bands (ev):

   -15.9886 -15.9886 -14.9461 -14.9461  -8.1541  -8.1541  -4.0621  -4.0621
    -0.0290  -0.0290   5.6841   5.6841   9.3866   9.3866   9.5322   9.5322

          k = 0.4933 0.3002 0.0000 (  5288 PWs)   bands (ev):

   -15.9889 -15.9889 -14.9464 -14.9464  -8.1526  -8.1526  -4.0625  -4.0625
    -0.0289  -0.0289   5.6821   5.6821   9.3863   9.3863   9.5318   9.5318

          k = 0.4937 0.2996 0.0000 (  5288 PWs)   bands (ev):

   -15.9892 -15.9892 -14.9467 -14.9467  -8.1513  -8.1513  -4.0629  -4.0629
    -0.0288  -0.0288   5.6802   5.6802   9.3859   9.3859   9.5315   9.5315

          k = 0.4940 0.2991 0.0000 (  5284 PWs)   bands (ev):

   -15.9894 -15.9894 -14.9469 -14.9469  -8.1499  -8.1499  -4.0632  -4.0632
    -0.0287  -0.0287   5.6785   5.6785   9.3856   9.3856   9.5311   9.5311

          k = 0.4943 0.2985 0.0000 (  5284 PWs)   bands (ev):

   -15.9897 -15.9897 -14.9472 -14.9472  -8.1487  -8.1487  -4.0636  -4.0636
    -0.0286  -0.0286   5.6768   5.6768   9.3852   9.3852   9.5307   9.5308

          k = 0.4947 0.2979 0.0000 (  5284 PWs)   bands (ev):

   -15.9899 -15.9899 -14.9474 -14.9474  -8.1475  -8.1475  -4.0639  -4.0639
    -0.0285  -0.0285   5.6752   5.6752   9.3849   9.3849   9.5304   9.5304

          k = 0.4950 0.2973 0.0000 (  5284 PWs)   bands (ev):

   -15.9901 -15.9901 -14.9476 -14.9476  -8.1464  -8.1464  -4.0642  -4.0642
    -0.0285  -0.0285   5.6737   5.6737   9.3846   9.3846   9.5301   9.5301

          k = 0.4953 0.2968 0.0000 (  5284 PWs)   bands (ev):

   -15.9903 -15.9903 -14.9478 -14.9478  -8.1454  -8.1454  -4.0644  -4.0644
    -0.0284  -0.0284   5.6723   5.6723   9.3844   9.3844   9.5298   9.5298

          k = 0.4957 0.2962 0.0000 (  5284 PWs)   bands (ev):

   -15.9905 -15.9905 -14.9480 -14.9480  -8.1444  -8.1444  -4.0647  -4.0647
    -0.0283  -0.0283   5.6710   5.6710   9.3841   9.3841   9.5296   9.5296

          k = 0.4960 0.2956 0.0000 (  5284 PWs)   bands (ev):

   -15.9906 -15.9906 -14.9481 -14.9481  -8.1435  -8.1435  -4.0649  -4.0649
    -0.0283  -0.0283   5.6698   5.6698   9.3839   9.3839   9.5293   9.5293

          k = 0.4963 0.2950 0.0000 (  5284 PWs)   bands (ev):

   -15.9908 -15.9908 -14.9483 -14.9483  -8.1427  -8.1427  -4.0652  -4.0652
    -0.0282  -0.0282   5.6687   5.6687   9.3837   9.3837   9.5291   9.5291

          k = 0.4967 0.2944 0.0000 (  5284 PWs)   bands (ev):

   -15.9909 -15.9909 -14.9484 -14.9484  -8.1420  -8.1420  -4.0654  -4.0654
    -0.0282  -0.0282   5.6677   5.6677   9.3835   9.3835   9.5289   9.5289

          k = 0.4970 0.2939 0.0000 (  5284 PWs)   bands (ev):

   -15.9911 -15.9911 -14.9486 -14.9486  -8.1413  -8.1413  -4.0656  -4.0656
    -0.0282  -0.0282   5.6668   5.6668   9.3833   9.3833   9.5287   9.5287

          k = 0.4973 0.2933 0.0000 (  5284 PWs)   bands (ev):

   -15.9912 -15.9912 -14.9487 -14.9487  -8.1407  -8.1407  -4.0657  -4.0657
    -0.0281  -0.0281   5.6660   5.6660   9.3831   9.3831   9.5285   9.5285

          k = 0.4977 0.2927 0.0000 (  5284 PWs)   bands (ev):

   -15.9913 -15.9913 -14.9488 -14.9488  -8.1401  -8.1401  -4.0659  -4.0659
    -0.0281  -0.0281   5.6652   5.6652   9.3830   9.3830   9.5284   9.5284

          k = 0.4980 0.2921 0.0000 (  5284 PWs)   bands (ev):

   -15.9914 -15.9914 -14.9489 -14.9489  -8.1397  -8.1397  -4.0660  -4.0660
    -0.0281  -0.0281   5.6646   5.6646   9.3829   9.3829   9.5283   9.5283

          k = 0.4983 0.2916 0.0000 (  5284 PWs)   bands (ev):

   -15.9914 -15.9914 -14.9489 -14.9489  -8.1393  -8.1393  -4.0661  -4.0661
    -0.0280  -0.0280   5.6641   5.6641   9.3828   9.3828   9.5282   9.5282

          k = 0.4987 0.2910 0.0000 (  5284 PWs)   bands (ev):

   -15.9915 -15.9915 -14.9490 -14.9490  -8.1390  -8.1390  -4.0662  -4.0662
    -0.0280  -0.0280   5.6636   5.6636   9.3827   9.3827   9.5281   9.5281

          k = 0.4990 0.2904 0.0000 (  5284 PWs)   bands (ev):

   -15.9915 -15.9915 -14.9490 -14.9490  -8.1387  -8.1387  -4.0662  -4.0662
    -0.0280  -0.0280   5.6633   5.6633   9.3826   9.3826   9.5280   9.5280

          k = 0.4993 0.2898 0.0000 (  5288 PWs)   bands (ev):

   -15.9916 -15.9916 -14.9491 -14.9491  -8.1385  -8.1385  -4.0663  -4.0663
    -0.0280  -0.0280   5.6631   5.6631   9.3826   9.3826   9.5279   9.5279

          k = 0.4997 0.2893 0.0000 (  5288 PWs)   bands (ev):

   -15.9916 -15.9916 -14.9491 -14.9491  -8.1384  -8.1384  -4.0663  -4.0663
    -0.0280  -0.0280   5.6629   5.6629   9.3825   9.3825   9.5279   9.5279

          k = 0.5000 0.2887 0.0000 (  5288 PWs)   bands (ev):

   -15.9916 -15.9916 -14.9491 -14.9491  -8.1384  -8.1384  -4.0663  -4.0663
    -0.0280  -0.0280   5.6629   5.6629   9.3825   9.3825   9.5279   9.5279

          k = 0.4990 0.2881 0.0000 (  5288 PWs)   bands (ev):

   -15.9921 -15.9921 -14.9486 -14.9486  -8.1384  -8.1384  -4.0665  -4.0665
    -0.0278  -0.0278   5.6629   5.6629   9.3763   9.3764   9.5341   9.5342

          k = 0.4980 0.2875 0.0000 (  5288 PWs)   bands (ev):

   -15.9934 -15.9934 -14.9472 -14.9472  -8.1383  -8.1383  -4.0670  -4.0670
    -0.0272  -0.0272   5.6629   5.6629   9.3602   9.3602   9.5504   9.5504

          k = 0.4970 0.2869 0.0000 (  5288 PWs)   bands (ev):

   -15.9956 -15.9956 -14.9448 -14.9448  -8.1382  -8.1382  -4.0677  -4.0677
    -0.0262  -0.0262   5.6630   5.6630   9.3381   9.3382   9.5726   9.5727

          k = 0.4960 0.2864 0.0000 (  5288 PWs)   bands (ev):

   -15.9987 -15.9987 -14.9414 -14.9414  -8.1380  -8.1380  -4.0688  -4.0688
    -0.0249  -0.0249   5.6631   5.6631   9.3130   9.3130   9.5980   9.5981

          k = 0.4950 0.2858 0.0000 (  5288 PWs)   bands (ev):

   -16.0027 -16.0027 -14.9371 -14.9371  -8.1378  -8.1378  -4.0702  -4.0702
    -0.0231  -0.0231   5.6632   5.6632   9.2860   9.2861   9.6253   9.6254

          k = 0.4940 0.2852 0.0000 (  5288 PWs)   bands (ev):

   -16.0075 -16.0075 -14.9320 -14.9320  -8.1376  -8.1376  -4.0720  -4.0720
    -0.0210  -0.0210   5.6633   5.6633   9.2581   9.2582   9.6536   9.6537

          k = 0.4930 0.2846 0.0000 (  5288 PWs)   bands (ev):

   -16.0131 -16.0131 -14.9259 -14.9259  -8.1372  -8.1372  -4.0740  -4.0740
    -0.0185  -0.0185   5.6635   5.6635   9.2296   9.2297   9.6826   9.6827

          k = 0.4920 0.2841 0.0000 (  5288 PWs)   bands (ev):

   -16.0195 -16.0195 -14.9190 -14.9190  -8.1369  -8.1369  -4.0763  -4.0763
    -0.0156  -0.0156   5.6636   5.6636   9.2007   9.2008   9.7121   9.7122

          k = 0.4910 0.2835 0.0000 (  5292 PWs)   bands (ev):

   -16.0266 -16.0266 -14.9112 -14.9112  -8.1365  -8.1365  -4.0790  -4.0790
    -0.0123  -0.0123   5.6638   5.6638   9.1716   9.1716   9.7418   9.7419

          k = 0.4900 0.2829 0.0000 (  5292 PWs)   bands (ev):

   -16.0345 -16.0345 -14.9027 -14.9027  -8.1361  -8.1361  -4.0819  -4.0819
    -0.0087  -0.0087   5.6641   5.6641   9.1422   9.1423   9.7718   9.7719

          k = 0.4890 0.2823 0.0000 (  5292 PWs)   bands (ev):

   -16.0430 -16.0430 -14.8934 -14.8934  -8.1356  -8.1356  -4.0852  -4.0852
    -0.0047  -0.0047   5.6643   5.6643   9.1128   9.1129   9.8018   9.8020

          k = 0.4880 0.2817 0.0000 (  5292 PWs)   bands (ev):

   -16.0523 -16.0523 -14.8834 -14.8834  -8.1350  -8.1350  -4.0887  -4.0887
    -0.0003  -0.0003   5.6646   5.6646   9.0833   9.0834   9.8319   9.8320

          k = 0.4870 0.2812 0.0000 (  5292 PWs)   bands (ev):

   -16.0621 -16.0621 -14.8726 -14.8726  -8.1344  -8.1344  -4.0926  -4.0926
     0.0045   0.0045   5.6649   5.6649   9.0537   9.0538   9.8616   9.8617

          k = 0.4860 0.2806 0.0000 (  5288 PWs)   bands (ev):

   -16.0726 -16.0726 -14.8613 -14.8613  -8.1338  -8.1338  -4.0968  -4.0968
     0.0097   0.0097   5.6652   5.6652   9.0241   9.0242   9.8897   9.8899

          k = 0.4850 0.2800 0.0000 (  5284 PWs)   bands (ev):

   -16.0835 -16.0835 -14.8492 -14.8492  -8.1331  -8.1331  -4.1012  -4.1012
     0.0152   0.0152   5.6656   5.6656   8.9945   8.9946   9.9052   9.9056

          k = 0.4840 0.2794 0.0000 (  5288 PWs)   bands (ev):

   -16.0951 -16.0951 -14.8366 -14.8366  -8.1324  -8.1324  -4.1059  -4.1059
     0.0211   0.0211   5.6659   5.6659   8.9649   8.9650   9.8870   9.8872

          k = 0.4830 0.2789 0.0000 (  5288 PWs)   bands (ev):

   -16.1071 -16.1071 -14.8235 -14.8235  -8.1316  -8.1316  -4.1110  -4.1110
     0.0273   0.0273   5.6663   5.6663   8.9353   8.9354   9.8601   9.8603

          k = 0.4820 0.2783 0.0000 (  5288 PWs)   bands (ev):

   -16.1196 -16.1195 -14.8098 -14.8098  -8.1308  -8.1308  -4.1163  -4.1163
     0.0339   0.0339   5.6667   5.6667   8.9057   8.9058   9.8319   9.8321

          k = 0.4810 0.2777 0.0000 (  5288 PWs)   bands (ev):

   -16.1325 -16.1325 -14.7955 -14.7955  -8.1299  -8.1299  -4.1219  -4.1219
     0.0409   0.0409   5.6672   5.6672   8.8761   8.8762   9.8033   9.8035

          k = 0.4800 0.2771 0.0000 (  5288 PWs)   bands (ev):

   -16.1458 -16.1458 -14.7809 -14.7809  -8.1290  -8.1290  -4.1278  -4.1278
     0.0482   0.0482   5.6677   5.6677   8.8466   8.8467   9.7745   9.7747

          k = 0.4790 0.2766 0.0000 (  5288 PWs)   bands (ev):

   -16.1595 -16.1595 -14.7657 -14.7657  -8.1280  -8.1280  -4.1340  -4.1340
     0.0559   0.0559   5.6681   5.6681   8.8171   8.8172   9.7456   9.7458

          k = 0.4780 0.2760 0.0000 (  5288 PWs)   bands (ev):

   -16.1735 -16.1735 -14.7502 -14.7502  -8.1270  -8.1270  -4.1404  -4.1404
     0.0639   0.0639   5.6687   5.6687   8.7876   8.7877   9.7167   9.7169

          k = 0.4770 0.2754 0.0000 (  5292 PWs)   bands (ev):

   -16.1879 -16.1879 -14.7342 -14.7342  -8.1260  -8.1260  -4.1471  -4.1471
     0.0723   0.0723   5.6692   5.6692   8.7582   8.7583   9.6878   9.6880

          k = 0.4760 0.2748 0.0000 (  5292 PWs)   bands (ev):

   -16.2026 -16.2026 -14.7179 -14.7179  -8.1249  -8.1249  -4.1541  -4.1541
     0.0810   0.0810   5.6698   5.6698   8.7288   8.7289   9.6588   9.6590

          k = 0.4750 0.2742 0.0000 (  5292 PWs)   bands (ev):

   -16.2175 -16.2175 -14.7012 -14.7012  -8.1237  -8.1237  -4.1614  -4.1614
     0.0901   0.0901   5.6703   5.6703   8.6994   8.6995   9.6299   9.6301

          k = 0.4740 0.2737 0.0000 (  5292 PWs)   bands (ev):

   -16.2328 -16.2328 -14.6842 -14.6842  -8.1225  -8.1225  -4.1689  -4.1689
     0.0995   0.0995   5.6709   5.6709   8.6701   8.6702   9.6009   9.6011

          k = 0.4730 0.2731 0.0000 (  5296 PWs)   bands (ev):

   -16.2482 -16.2482 -14.6668 -14.6668  -8.1213  -8.1213  -4.1766  -4.1766
     0.1092   0.1092   5.6716   5.6716   8.6408   8.6409   9.5720   9.5722

          k = 0.4720 0.2725 0.0000 (  5296 PWs)   bands (ev):

   -16.2639 -16.2639 -14.6492 -14.6492  -8.1200  -8.1200  -4.1847  -4.1847
     0.1192   0.1192   5.6722   5.6722   8.6115   8.6116   9.5431   9.5433

          k = 0.4710 0.2719 0.0000 (  5296 PWs)   bands (ev):

   -16.2799 -16.2799 -14.6313 -14.6313  -8.1186  -8.1186  -4.1929  -4.1929
     0.1296   0.1296   5.6729   5.6729   8.5824   8.5824   9.5142   9.5144

          k = 0.4700 0.2714 0.0000 (  5296 PWs)   bands (ev):

   -16.2960 -16.2960 -14.6131 -14.6131  -8.1173  -8.1173  -4.2015  -4.2015
     0.1403   0.1403   5.6736   5.6736   8.5532   8.5533   9.4853   9.4855

          k = 0.4690 0.2708 0.0000 (  5296 PWs)   bands (ev):

   -16.3123 -16.3123 -14.5946 -14.5946  -8.1158  -8.1158  -4.2102  -4.2102
     0.1513   0.1513   5.6743   5.6743   8.5241   8.5242   9.4565   9.4567

          k = 0.4680 0.2702 0.0000 (  5292 PWs)   bands (ev):

   -16.3288 -16.3288 -14.5759 -14.5759  -8.1143  -8.1143  -4.2192  -4.2192
     0.1626   0.1626   5.6751   5.6751   8.4950   8.4951   9.4277   9.4279

          k = 0.4670 0.2696 0.0000 (  5294 PWs)   bands (ev):

   -16.3454 -16.3454 -14.5570 -14.5570  -8.1128  -8.1128  -4.2285  -4.2284
     0.1742   0.1742   5.6758   5.6758   8.4660   8.4661   9.3989   9.3991

          k = 0.4660 0.2690 0.0000 (  5294 PWs)   bands (ev):

   -16.3622 -16.3622 -14.5379 -14.5379  -8.1112  -8.1112  -4.2379  -4.2379
     0.1861   0.1861   5.6766   5.6766   8.4371   8.4371   9.3702   9.3703

          k = 0.4650 0.2685 0.0000 (  5294 PWs)   bands (ev):

   -16.3791 -16.3791 -14.5185 -14.5185  -8.1096  -8.1096  -4.2476  -4.2476
     0.1984   0.1984   5.6775   5.6775   8.4081   8.4082   9.3414   9.3416

          k = 0.4640 0.2679 0.0000 (  5294 PWs)   bands (ev):

   -16.3961 -16.3961 -14.4990 -14.4990  -8.1080  -8.1080  -4.2575  -4.2575
     0.2109   0.2109   5.6783   5.6783   8.3793   8.3794   9.3128   9.3129

          k = 0.4630 0.2673 0.0000 (  5290 PWs)   bands (ev):

   -16.4133 -16.4133 -14.4793 -14.4793  -8.1062  -8.1062  -4.2676  -4.2676
     0.2237   0.2237   5.6792   5.6792   8.3505   8.3505   9.2841   9.2843

          k = 0.4620 0.2667 0.0000 (  5290 PWs)   bands (ev):

   -16.4305 -16.4305 -14.4594 -14.4594  -8.1045  -8.1045  -4.2780  -4.2780
     0.2368   0.2368   5.6800   5.6800   8.3217   8.3218   9.2555   9.2557

          k = 0.4610 0.2662 0.0000 (  5290 PWs)   bands (ev):

   -16.4479 -16.4479 -14.4393 -14.4393  -8.1027  -8.1027  -4.2886  -4.2885
     0.2502   0.2502   5.6809   5.6809   8.2930   8.2931   9.2270   9.2271

          k = 0.4600 0.2656 0.0000 (  5290 PWs)   bands (ev):

   -16.4654 -16.4654 -14.4191 -14.4191  -8.1008  -8.1008  -4.2993  -4.2993
     0.2638   0.2638   5.6819   5.6819   8.2643   8.2644   9.1985   9.1986

          k = 0.4590 0.2650 0.0000 (  5290 PWs)   bands (ev):

   -16.4829 -16.4829 -14.3987 -14.3987  -8.0989  -8.0989  -4.3103  -4.3103
     0.2778   0.2778   5.6828   5.6828   8.2357   8.2358   9.1700   9.1701

          k = 0.4580 0.2644 0.0000 (  5290 PWs)   bands (ev):

   -16.5005 -16.5005 -14.3782 -14.3782  -8.0970  -8.0970  -4.3214  -4.3214
     0.2920   0.2920   5.6838   5.6838   8.2072   8.2073   9.1415   9.1417

          k = 0.4570 0.2638 0.0000 (  5290 PWs)   bands (ev):

   -16.5182 -16.5182 -14.3575 -14.3575  -8.0950  -8.0950  -4.3328  -4.3328
     0.3064   0.3064   5.6848   5.6848   8.1787   8.1788   9.1132   9.1133

          k = 0.4560 0.2633 0.0000 (  5290 PWs)   bands (ev):

   -16.5360 -16.5360 -14.3367 -14.3367  -8.0930  -8.0930  -4.3443  -4.3443
     0.3212   0.3212   5.6858   5.6858   8.1502   8.1503   9.0848   9.0850

          k = 0.4550 0.2627 0.0000 (  5290 PWs)   bands (ev):

   -16.5538 -16.5538 -14.3158 -14.3158  -8.0909  -8.0909  -4.3561  -4.3561
     0.3361   0.3361   5.6869   5.6869   8.1218   8.1219   9.0565   9.0567

          k = 0.4540 0.2621 0.0000 (  5294 PWs)   bands (ev):

   -16.5717 -16.5717 -14.2947 -14.2947  -8.0887  -8.0887  -4.3680  -4.3680
     0.3514   0.3514   5.6879   5.6879   8.0935   8.0936   9.0282   9.0284

          k = 0.4530 0.2615 0.0000 (  5294 PWs)   bands (ev):

   -16.5896 -16.5896 -14.2735 -14.2735  -8.0866  -8.0866  -4.3801  -4.3801
     0.3669   0.3669   5.6890   5.6890   8.0652   8.0653   9.0000   9.0002

          k = 0.4520 0.2610 0.0000 (  5294 PWs)   bands (ev):

   -16.6076 -16.6076 -14.2522 -14.2522  -8.0843  -8.0843  -4.3923  -4.3923
     0.3826   0.3826   5.6901   5.6901   8.0370   8.0370   8.9719   8.9720

          k = 0.4510 0.2604 0.0000 (  5294 PWs)   bands (ev):

   -16.6256 -16.6256 -14.2308 -14.2308  -8.0821  -8.0821  -4.4048  -4.4048
     0.3986   0.3986   5.6913   5.6913   8.0088   8.0089   8.9437   8.9439

          k = 0.4500 0.2598 0.0000 (  5294 PWs)   bands (ev):

   -16.6436 -16.6436 -14.2093 -14.2093  -8.0797  -8.0797  -4.4174  -4.4174
     0.4148   0.4148   5.6924   5.6924   7.9807   7.9807   8.9157   8.9158

          k = 0.4490 0.2592 0.0000 (  5294 PWs)   bands (ev):

   -16.6617 -16.6617 -14.1877 -14.1877  -8.0774  -8.0774  -4.4301  -4.4301
     0.4312   0.4312   5.6936   5.6936   7.9526   7.9527   8.8877   8.8878

          k = 0.4480 0.2587 0.0000 (  5290 PWs)   bands (ev):

   -16.6798 -16.6798 -14.1659 -14.1659  -8.0750  -8.0750  -4.4430  -4.4430
     0.4479   0.4479   5.6948   5.6948   7.9246   7.9247   8.8597   8.8598

          k = 0.4470 0.2581 0.0000 (  5294 PWs)   bands (ev):

   -16.6980 -16.6980 -14.1441 -14.1441  -8.0725  -8.0725  -4.4561  -4.4561
     0.4648   0.4648   5.6960   5.6960   7.8966   7.8967   8.8318   8.8319

          k = 0.4460 0.2575 0.0000 (  5294 PWs)   bands (ev):

   -16.7162 -16.7162 -14.1222 -14.1222  -8.0700  -8.0700  -4.4693  -4.4693
     0.4819   0.4819   5.6973   5.6973   7.8687   7.8688   8.8039   8.8040

          k = 0.4450 0.2569 0.0000 (  5294 PWs)   bands (ev):

   -16.7344 -16.7344 -14.1002 -14.1002  -8.0675  -8.0675  -4.4827  -4.4827
     0.4993   0.4993   5.6985   5.6985   7.8409   7.8410   8.7760   8.7762

          k = 0.4440 0.2563 0.0000 (  5294 PWs)   bands (ev):

   -16.7526 -16.7526 -14.0781 -14.0781  -8.0649  -8.0649  -4.4962  -4.4962
     0.5168   0.5168   5.6998   5.6998   7.8131   7.8132   8.7483   8.7484

          k = 0.4430 0.2558 0.0000 (  5294 PWs)   bands (ev):

   -16.7708 -16.7708 -14.0559 -14.0559  -8.0622  -8.0622  -4.5099  -4.5099
     0.5346   0.5346   5.7011   5.7011   7.7854   7.7854   8.7205   8.7207

          k = 0.4420 0.2552 0.0000 (  5298 PWs)   bands (ev):

   -16.7890 -16.7890 -14.0337 -14.0337  -8.0595  -8.0595  -4.5237  -4.5236
     0.5526   0.5526   5.7024   5.7024   7.7577   7.7578   8.6929   8.6930

          k = 0.4410 0.2546 0.0000 (  5296 PWs)   bands (ev):

   -16.8073 -16.8073 -14.0113 -14.0113  -8.0568  -8.0568  -4.5376  -4.5376
     0.5707   0.5707   5.7038   5.7038   7.7301   7.7302   8.6652   8.6654

          k = 0.4400 0.2540 0.0000 (  5294 PWs)   bands (ev):

   -16.8255 -16.8255 -13.9889 -13.9889  -8.0540  -8.0540  -4.5516  -4.5516
     0.5891   0.5891   5.7051   5.7052   7.7025   7.7026   8.6377   8.6378

          k = 0.4390 0.2535 0.0000 (  5294 PWs)   bands (ev):

   -16.8438 -16.8438 -13.9664 -13.9664  -8.0512  -8.0512  -4.5658  -4.5658
     0.6077   0.6077   5.7065   5.7065   7.6750   7.6751   8.6101   8.6103

          k = 0.4380 0.2529 0.0000 (  5294 PWs)   bands (ev):

   -16.8621 -16.8621 -13.9439 -13.9439  -8.0483  -8.0483  -4.5801  -4.5801
     0.6264   0.6264   5.7079   5.7079   7.6476   7.6477   8.5827   8.5828

          k = 0.4370 0.2523 0.0000 (  5294 PWs)   bands (ev):

   -16.8804 -16.8804 -13.9212 -13.9212  -8.0454  -8.0454  -4.5945  -4.5945
     0.6454   0.6454   5.7094   5.7094   7.6202   7.6203   8.5552   8.5554

          k = 0.4360 0.2517 0.0000 (  5294 PWs)   bands (ev):

   -16.8986 -16.8986 -13.8985 -13.8985  -8.0424  -8.0424  -4.6090  -4.6090
     0.6645   0.6645   5.7108   5.7108   7.5929   7.5930   8.5279   8.5280

          k = 0.4350 0.2511 0.0000 (  5294 PWs)   bands (ev):

   -16.9169 -16.9169 -13.8757 -13.8757  -8.0394  -8.0394  -4.6237  -4.6237
     0.6838   0.6839   5.7123   5.7123   7.5656   7.5657   8.5006   8.5007

          k = 0.4340 0.2506 0.0000 (  5290 PWs)   bands (ev):

   -16.9352 -16.9352 -13.8529 -13.8529  -8.0364  -8.0364  -4.6384  -4.6384
     0.7034   0.7034   5.7138   5.7138   7.5384   7.5385   8.4733   8.4734

          k = 0.4330 0.2500 0.0000 (  5294 PWs)   bands (ev):

   -16.9535 -16.9535 -13.8300 -13.8300  -8.0333  -8.0333  -4.6533  -4.6533
     0.7230   0.7230   5.7153   5.7153   7.5113   7.5114   8.4461   8.4462

          k = 0.4320 0.2494 0.0000 (  5294 PWs)   bands (ev):

   -16.9717 -16.9717 -13.8070 -13.8070  -8.0301  -8.0301  -4.6683  -4.6683
     0.7429   0.7429   5.7168   5.7168   7.4842   7.4843   8.4189   8.4191

          k = 0.4310 0.2488 0.0000 (  5294 PWs)   bands (ev):

   -16.9900 -16.9900 -13.7840 -13.7840  -8.0269  -8.0269  -4.6833  -4.6833
     0.7629   0.7629   5.7184   5.7184   7.4572   7.4572   8.3918   8.3920

          k = 0.4300 0.2483 0.0000 (  5290 PWs)   bands (ev):

   -17.0082 -17.0082 -13.7609 -13.7609  -8.0237  -8.0237  -4.6985  -4.6985
     0.7831   0.7831   5.7199   5.7199   7.4302   7.4303   8.3648   8.3649

          k = 0.4290 0.2477 0.0000 (  5286 PWs)   bands (ev):

   -17.0265 -17.0265 -13.7377 -13.7377  -8.0204  -8.0204  -4.7137  -4.7137
     0.8034   0.8034   5.7215   5.7215   7.4033   7.4034   8.3378   8.3379

          k = 0.4280 0.2471 0.0000 (  5286 PWs)   bands (ev):

   -17.0447 -17.0447 -13.7145 -13.7145  -8.0171  -8.0171  -4.7291  -4.7291
     0.8239   0.8239   5.7231   5.7231   7.3765   7.3765   8.3108   8.3110

          k = 0.4270 0.2465 0.0000 (  5282 PWs)   bands (ev):

   -17.0629 -17.0629 -13.6912 -13.6912  -8.0137  -8.0137  -4.7445  -4.7445
     0.8446   0.8446   5.7247   5.7247   7.3497   7.3498   8.2840   8.2841

          k = 0.4260 0.2460 0.0000 (  5282 PWs)   bands (ev):

   -17.0811 -17.0811 -13.6679 -13.6679  -8.0103  -8.0103  -4.7601  -4.7601
     0.8654   0.8654   5.7264   5.7264   7.3230   7.3230   8.2571   8.2573

          k = 0.4250 0.2454 0.0000 (  5282 PWs)   bands (ev):

   -17.0993 -17.0993 -13.6445 -13.6445  -8.0068  -8.0068  -4.7757  -4.7757
     0.8864   0.8864   5.7280   5.7280   7.2963   7.2964   8.2304   8.2305

          k = 0.4240 0.2448 0.0000 (  5282 PWs)   bands (ev):

   -17.1175 -17.1175 -13.6211 -13.6211  -8.0033  -8.0033  -4.7913  -4.7913
     0.9075   0.9075   5.7297   5.7297   7.2697   7.2698   8.2036   8.2038

          k = 0.4230 0.2442 0.0000 (  5282 PWs)   bands (ev):

   -17.1357 -17.1357 -13.5976 -13.5976  -7.9997  -7.9997  -4.8071  -4.8071
     0.9288   0.9288   5.7314   5.7314   7.2432   7.2433   8.1770   8.1771

          k = 0.4220 0.2436 0.0000 (  5286 PWs)   bands (ev):

   -17.1538 -17.1538 -13.5741 -13.5741  -7.9961  -7.9961  -4.8230  -4.8230
     0.9502   0.9502   5.7331   5.7331   7.2167   7.2168   8.1504   8.1505

          k = 0.4210 0.2431 0.0000 (  5282 PWs)   bands (ev):

   -17.1720 -17.1720 -13.5505 -13.5505  -7.9925  -7.9925  -4.8389  -4.8389
     0.9718   0.9718   5.7348   5.7348   7.1903   7.1904   8.1238   8.1239

          k = 0.4200 0.2425 0.0000 (  5282 PWs)   bands (ev):

   -17.1901 -17.1901 -13.5269 -13.5269  -7.9888  -7.9888  -4.8549  -4.8549
     0.9935   0.9935   5.7365   5.7365   7.1640   7.1641   8.0973   8.0974

          k = 0.4190 0.2419 0.0000 (  5282 PWs)   bands (ev):

   -17.2082 -17.2082 -13.5032 -13.5032  -7.9851  -7.9851  -4.8709  -4.8709
     1.0153   1.0153   5.7383   5.7383   7.1377   7.1378   8.0709   8.0710

          k = 0.4180 0.2413 0.0000 (  5282 PWs)   bands (ev):

   -17.2262 -17.2262 -13.4795 -13.4795  -7.9813  -7.9813  -4.8870  -4.8870
     1.0373   1.0373   5.7401   5.7401   7.1115   7.1116   8.0445   8.0446

          k = 0.4170 0.2408 0.0000 (  5290 PWs)   bands (ev):

   -17.2443 -17.2443 -13.4557 -13.4557  -7.9775  -7.9775  -4.9032  -4.9032
     1.0594   1.0594   5.7418   5.7418   7.0854   7.0854   8.0181   8.0183

          k = 0.4160 0.2402 0.0000 (  5290 PWs)   bands (ev):

   -17.2623 -17.2623 -13.4319 -13.4319  -7.9736  -7.9736  -4.9195  -4.9195
     1.0816   1.0816   5.7436   5.7436   7.0593   7.0594   7.9919   7.9920

          k = 0.4150 0.2396 0.0000 (  5290 PWs)   bands (ev):

   -17.2804 -17.2804 -13.4080 -13.4080  -7.9697  -7.9697  -4.9358  -4.9358
     1.1040   1.1040   5.7454   5.7454   7.0333   7.0334   7.9656   7.9658

          k = 0.4140 0.2390 0.0000 (  5290 PWs)   bands (ev):

   -17.2983 -17.2983 -13.3841 -13.3841  -7.9657  -7.9657  -4.9521  -4.9521
     1.1264   1.1264   5.7473   5.7473   7.0074   7.0074   7.9395   7.9396

          k = 0.4130 0.2384 0.0000 (  5290 PWs)   bands (ev):

   -17.3163 -17.3163 -13.3601 -13.3601  -7.9617  -7.9617  -4.9686  -4.9685
     1.1490   1.1490   5.7491   5.7491   6.9815   6.9816   7.9134   7.9135

          k = 0.4120 0.2379 0.0000 (  5290 PWs)   bands (ev):

   -17.3343 -17.3343 -13.3361 -13.3361  -7.9576  -7.9576  -4.9850  -4.9850
     1.1717   1.1718   5.7509   5.7509   6.9557   6.9558   7.8873   7.8874

          k = 0.4110 0.2373 0.0000 (  5290 PWs)   bands (ev):

   -17.3522 -17.3522 -13.3121 -13.3121  -7.9535  -7.9535  -5.0015  -5.0015
     1.1946   1.1946   5.7528   5.7528   6.9300   6.9300   7.8613   7.8614

          k = 0.4100 0.2367 0.0000 (  5290 PWs)   bands (ev):

   -17.3701 -17.3701 -13.2880 -13.2880  -7.9494  -7.9494  -5.0181  -5.0181
     1.2175   1.2175   5.7546   5.7546   6.9043   6.9044   7.8354   7.8355

          k = 0.4090 0.2361 0.0000 (  5290 PWs)   bands (ev):

   -17.3879 -17.3879 -13.2639 -13.2639  -7.9452  -7.9452  -5.0347  -5.0347
     1.2406   1.2406   5.7565   5.7565   6.8787   6.8788   7.8095   7.8096

          k = 0.4080 0.2356 0.0000 (  5290 PWs)   bands (ev):

   -17.4058 -17.4058 -13.2397 -13.2397  -7.9410  -7.9410  -5.0514  -5.0514
     1.2638   1.2638   5.7584   5.7584   6.8532   6.8533   7.7837   7.7838

          k = 0.4070 0.2350 0.0000 (  5290 PWs)   bands (ev):

   -17.4236 -17.4236 -13.2155 -13.2155  -7.9367  -7.9367  -5.0681  -5.0681
     1.2871   1.2871   5.7602   5.7602   6.8278   6.8278   7.7579   7.7581

          k = 0.4060 0.2344 0.0000 (  5290 PWs)   bands (ev):

   -17.4414 -17.4414 -13.1912 -13.1912  -7.9324  -7.9324  -5.0849  -5.0849
     1.3105   1.3105   5.7621   5.7621   6.8024   6.8024   7.7322   7.7323

          k = 0.4050 0.2338 0.0000 (  5294 PWs)   bands (ev):

   -17.4592 -17.4592 -13.1670 -13.1670  -7.9280  -7.9280  -5.1016  -5.1016
     1.3340   1.3340   5.7640   5.7640   6.7771   6.7772   7.7066   7.7067

          k = 0.4040 0.2332 0.0000 (  5290 PWs)   bands (ev):

   -17.4769 -17.4769 -13.1426 -13.1426  -7.9236  -7.9236  -5.1185  -5.1185
     1.3576   1.3576   5.7659   5.7659   6.7519   6.7519   7.6810   7.6811

          k = 0.4030 0.2327 0.0000 (  5290 PWs)   bands (ev):

   -17.4946 -17.4946 -13.1183 -13.1183  -7.9191  -7.9191  -5.1353  -5.1353
     1.3813   1.3813   5.7678   5.7678   6.7268   6.7268   7.6555   7.6556

          k = 0.4020 0.2321 0.0000 (  5290 PWs)   bands (ev):

   -17.5123 -17.5123 -13.0939 -13.0939  -7.9146  -7.9146  -5.1522  -5.1522
     1.4051   1.4051   5.7697   5.7697   6.7017   6.7018   7.6300   7.6301

          k = 0.4010 0.2315 0.0000 (  5290 PWs)   bands (ev):

   -17.5299 -17.5299 -13.0694 -13.0694  -7.9101  -7.9101  -5.1692  -5.1692
     1.4290   1.4290   5.7716   5.7716   6.6768   6.6768   7.6046   7.6047

          k = 0.4000 0.2309 0.0000 (  5286 PWs)   bands (ev):

   -17.5476 -17.5476 -13.0450 -13.0449  -7.9055  -7.9055  -5.1861  -5.1861
     1.4530   1.4530   5.7734   5.7734   6.6519   6.6519   7.5792   7.5793

          k = 0.3990 0.2304 0.0000 (  5286 PWs)   bands (ev):

   -17.5652 -17.5652 -13.0204 -13.0204  -7.9009  -7.9009  -5.2031  -5.2031
     1.4771   1.4771   5.7753   5.7753   6.6271   6.6271   7.5539   7.5540

          k = 0.3980 0.2298 0.0000 (  5286 PWs)   bands (ev):

   -17.5827 -17.5827 -12.9959 -12.9959  -7.8962  -7.8962  -5.2201  -5.2201
     1.5012   1.5012   5.7771   5.7772   6.6024   6.6024   7.5287   7.5288

          k = 0.3970 0.2292 0.0000 (  5290 PWs)   bands (ev):

   -17.6003 -17.6003 -12.9713 -12.9713  -7.8915  -7.8915  -5.2372  -5.2372
     1.5255   1.5255   5.7790   5.7790   6.5778   6.5778   7.5035   7.5036

          k = 0.3960 0.2286 0.0000 (  5290 PWs)   bands (ev):

   -17.6178 -17.6178 -12.9467 -12.9467  -7.8867  -7.8867  -5.2543  -5.2543
     1.5499   1.5499   5.7808   5.7808   6.5533   6.5533   7.4784   7.4785

          k = 0.3950 0.2281 0.0000 (  5290 PWs)   bands (ev):

   -17.6352 -17.6352 -12.9220 -12.9220  -7.8819  -7.8819  -5.2714  -5.2714
     1.5743   1.5743   5.7826   5.7826   6.5289   6.5289   7.4533   7.4534

          k = 0.3940 0.2275 0.0000 (  5288 PWs)   bands (ev):

   -17.6527 -17.6527 -12.8974 -12.8974  -7.8770  -7.8770  -5.2885  -5.2885
     1.5989   1.5989   5.7844   5.7844   6.5046   6.5046   7.4283   7.4284

          k = 0.3930 0.2269 0.0000 (  5288 PWs)   bands (ev):

   -17.6701 -17.6701 -12.8726 -12.8726  -7.8721  -7.8721  -5.3056  -5.3056
     1.6235   1.6235   5.7861   5.7861   6.4804   6.4804   7.4034   7.4035

          k = 0.3920 0.2263 0.0000 (  5288 PWs)   bands (ev):

   -17.6875 -17.6875 -12.8479 -12.8479  -7.8672  -7.8672  -5.3228  -5.3228
     1.6482   1.6482   5.7878   5.7878   6.4563   6.4564   7.3785   7.3786

          k = 0.3910 0.2257 0.0000 (  5288 PWs)   bands (ev):

   -17.7048 -17.7048 -12.8231 -12.8231  -7.8622  -7.8622  -5.3400  -5.3400
     1.6730   1.6730   5.7895   5.7895   6.4324   6.4324   7.3537   7.3538

          k = 0.3900 0.2252 0.0000 (  5286 PWs)   bands (ev):

   -17.7221 -17.7221 -12.7983 -12.7983  -7.8572  -7.8572  -5.3571  -5.3571
     1.6978   1.6978   5.7911   5.7911   6.4086   6.4086   7.3289   7.3290

          k = 0.3890 0.2246 0.0000 (  5286 PWs)   bands (ev):

   -17.7394 -17.7394 -12.7734 -12.7734  -7.8521  -7.8521  -5.3744  -5.3744
     1.7228   1.7228   5.7926   5.7926   6.3849   6.3850   7.3042   7.3043

          k = 0.3880 0.2240 0.0000 (  5282 PWs)   bands (ev):

   -17.7566 -17.7566 -12.7486 -12.7486  -7.8470  -7.8470  -5.3916  -5.3916
     1.7478   1.7478   5.7941   5.7941   6.3614   6.3614   7.2796   7.2797

          k = 0.3870 0.2234 0.0000 (  5282 PWs)   bands (ev):

   -17.7738 -17.7738 -12.7236 -12.7236  -7.8419  -7.8419  -5.4088  -5.4088
     1.7729   1.7729   5.7954   5.7954   6.3381   6.3381   7.2550   7.2551

          k = 0.3860 0.2229 0.0000 (  5282 PWs)   bands (ev):

   -17.7910 -17.7910 -12.6987 -12.6987  -7.8366  -7.8366  -5.4261  -5.4261
     1.7981   1.7981   5.7967   5.7967   6.3149   6.3149   7.2305   7.2306

          k = 0.3850 0.2223 0.0000 (  5282 PWs)   bands (ev):

   -17.8082 -17.8082 -12.6737 -12.6737  -7.8314  -7.8314  -5.4433  -5.4433
     1.8233   1.8233   5.7978   5.7979   6.2919   6.2920   7.2060   7.2061

          k = 0.3840 0.2217 0.0000 (  5280 PWs)   bands (ev):

   -17.8253 -17.8253 -12.6487 -12.6487  -7.8261  -7.8261  -5.4606  -5.4606
     1.8486   1.8486   5.7989   5.7989   6.2692   6.2692   7.1816   7.1817

          k = 0.3830 0.2211 0.0000 (  5280 PWs)   bands (ev):

   -17.8424 -17.8424 -12.6237 -12.6237  -7.8208  -7.8208  -5.4779  -5.4779
     1.8740   1.8740   5.7997   5.7997   6.2467   6.2467   7.1573   7.1574

          k = 0.3820 0.2205 0.0000 (  5280 PWs)   bands (ev):

   -17.8594 -17.8594 -12.5986 -12.5986  -7.8154  -7.8154  -5.4952  -5.4952
     1.8994   1.8994   5.8003   5.8004   6.2245   6.2245   7.1330   7.1331

          k = 0.3810 0.2200 0.0000 (  5278 PWs)   bands (ev):

   -17.8764 -17.8764 -12.5736 -12.5736  -7.8100  -7.8100  -5.5125  -5.5125
     1.9249   1.9250   5.8008   5.8008   6.2025   6.2025   7.1088   7.1088

          k = 0.3800 0.2194 0.0000 (  5274 PWs)   bands (ev):

   -17.8934 -17.8934 -12.5484 -12.5484  -7.8045  -7.8045  -5.5298  -5.5298
     1.9505   1.9505   5.8009   5.8009   6.1810   6.1810   7.0846   7.0847

          k = 0.3790 0.2188 0.0000 (  5274 PWs)   bands (ev):

   -17.9103 -17.9103 -12.5233 -12.5233  -7.7990  -7.7990  -5.5471  -5.5471
     1.9762   1.9762   5.8007   5.8008   6.1598   6.1598   7.0605   7.0606

          k = 0.3780 0.2182 0.0000 (  5274 PWs)   bands (ev):

   -17.9272 -17.9272 -12.4981 -12.4981  -7.7935  -7.7935  -5.5644  -5.5644
     2.0019   2.0019   5.8001   5.8002   6.1391   6.1391   7.0365   7.0366

          k = 0.3770 0.2177 0.0000 (  5274 PWs)   bands (ev):

   -17.9441 -17.9441 -12.4729 -12.4729  -7.7879  -7.7879  -5.5817  -5.5817
     2.0276   2.0277   5.7991   5.7991   6.1190   6.1190   7.0125   7.0126

          k = 0.3760 0.2171 0.0000 (  5275 PWs)   bands (ev):

   -17.9609 -17.9609 -12.4477 -12.4477  -7.7823  -7.7823  -5.5990  -5.5990
     2.0535   2.0535   5.7975   5.7975   6.0994   6.0995   6.9886   6.9887

          k = 0.3750 0.2165 0.0000 (  5275 PWs)   bands (ev):

   -17.9777 -17.9777 -12.4224 -12.4224  -7.7766  -7.7766  -5.6163  -5.6163
     2.0794   2.0794   5.7952   5.7953   6.0807   6.0807   6.9647   6.9648

          k = 0.3740 0.2159 0.0000 (  5277 PWs)   bands (ev):

   -17.9945 -17.9945 -12.3972 -12.3971  -7.7709  -7.7709  -5.6336  -5.6336
     2.1053   2.1053   5.7922   5.7922   6.0627   6.0628   6.9409   6.9410

          k = 0.3730 0.2154 0.0000 (  5281 PWs)   bands (ev):

   -18.0112 -18.0112 -12.3718 -12.3718  -7.7651  -7.7651  -5.6510  -5.6510
     2.1313   2.1313   5.7882   5.7883   6.0458   6.0459   6.9172   6.9173

          k = 0.3720 0.2148 0.0000 (  5281 PWs)   bands (ev):

   -18.0279 -18.0279 -12.3465 -12.3465  -7.7593  -7.7593  -5.6683  -5.6683
     2.1574   2.1574   5.7832   5.7832   6.0300   6.0301   6.8935   6.8936

          k = 0.3710 0.2142 0.0000 (  5281 PWs)   bands (ev):

   -18.0446 -18.0446 -12.3211 -12.3211  -7.7535  -7.7535  -5.6856  -5.6856
     2.1835   2.1835   5.7769   5.7770   6.0156   6.0156   6.8699   6.8700

          k = 0.3700 0.2136 0.0000 (  5281 PWs)   bands (ev):

   -18.0612 -18.0612 -12.2958 -12.2958  -7.7476  -7.7476  -5.7029  -5.7029
     2.2097   2.2097   5.7694   5.7694   6.0025   6.0025   6.8464   6.8465

          k = 0.3690 0.2130 0.0000 (  5283 PWs)   bands (ev):

   -18.0778 -18.0778 -12.2703 -12.2703  -7.7417  -7.7417  -5.7202  -5.7202
     2.2359   2.2359   5.7604   5.7604   5.9909   5.9909   6.8229   6.8230

          k = 0.3680 0.2125 0.0000 (  5285 PWs)   bands (ev):

   -18.0943 -18.0943 -12.2449 -12.2449  -7.7357  -7.7357  -5.7375  -5.7375
     2.2621   2.2621   5.7499   5.7500   5.9808   5.9809   6.7995   6.7996

          k = 0.3670 0.2119 0.0000 (  5285 PWs)   bands (ev):

   -18.1108 -18.1108 -12.2194 -12.2194  -7.7297  -7.7297  -5.7547  -5.7547
     2.2885   2.2885   5.7380   5.7381   5.9723   5.9724   6.7762   6.7762

          k = 0.3660 0.2113 0.0000 (  5285 PWs)   bands (ev):

   -18.1273 -18.1273 -12.1940 -12.1940  -7.7237  -7.7237  -5.7720  -5.7720
     2.3148   2.3148   5.7247   5.7248   5.9652   5.9653   6.7529   6.7529

          k = 0.3650 0.2107 0.0000 (  5285 PWs)   bands (ev):

   -18.1437 -18.1437 -12.1685 -12.1684  -7.7176  -7.7176  -5.7893  -5.7893
     2.3412   2.3413   5.7102   5.7103   5.9595   5.9596   6.7296   6.7297

          k = 0.3640 0.2102 0.0000 (  5281 PWs)   bands (ev):

   -18.1601 -18.1601 -12.1429 -12.1429  -7.7114  -7.7114  -5.8066  -5.8065
     2.3677   2.3677   5.6945   5.6946   5.9549   5.9550   6.7065   6.7065

          k = 0.3630 0.2096 0.0000 (  5277 PWs)   bands (ev):

   -18.1765 -18.1765 -12.1174 -12.1174  -7.7052  -7.7052  -5.8238  -5.8238
     2.3942   2.3942   5.6778   5.6779   5.9515   5.9515   6.6834   6.6834

          k = 0.3620 0.2090 0.0000 (  5277 PWs)   bands (ev):

   -18.1928 -18.1928 -12.0918 -12.0918  -7.6990  -7.6990  -5.8410  -5.8410
     2.4208   2.4208   5.6604   5.6605   5.9489   5.9490   6.6603   6.6604

          k = 0.3610 0.2084 0.0000 (  5277 PWs)   bands (ev):

   -18.2091 -18.2091 -12.0662 -12.0662  -7.6928  -7.6928  -5.8583  -5.8583
     2.4474   2.4474   5.6422   5.6423   5.9471   5.9471   6.6374   6.6374

          k = 0.3600 0.2078 0.0000 (  5277 PWs)   bands (ev):

   -18.2253 -18.2253 -12.0405 -12.0405  -7.6865  -7.6865  -5.8755  -5.8755
     2.4740   2.4740   5.6234   5.6235   5.9459   5.9460   6.6145   6.6145

          k = 0.3590 0.2073 0.0000 (  5279 PWs)   bands (ev):

   -18.2415 -18.2415 -12.0149 -12.0149  -7.6801  -7.6801  -5.8927  -5.8927
     2.5007   2.5007   5.6042   5.6043   5.9453   5.9454   6.5916   6.5917

          k = 0.3580 0.2067 0.0000 (  5279 PWs)   bands (ev):

   -18.2577 -18.2577 -11.9892 -11.9892  -7.6737  -7.6737  -5.9099  -5.9099
     2.5274   2.5274   5.5846   5.5847   5.9451   5.9452   6.5689   6.5689

          k = 0.3570 0.2061 0.0000 (  5283 PWs)   bands (ev):

   -18.2738 -18.2738 -11.9635 -11.9635  -7.6673  -7.6673  -5.9271  -5.9271
     2.5542   2.5542   5.5646   5.5647   5.9454   5.9455   6.5462   6.5462

          k = 0.3560 0.2055 0.0000 (  5283 PWs)   bands (ev):

   -18.2899 -18.2899 -11.9378 -11.9378  -7.6609  -7.6609  -5.9442  -5.9442
     2.5810   2.5810   5.5444   5.5445   5.9460   5.9461   6.5235   6.5235

          k = 0.3550 0.2050 0.0000 (  5283 PWs)   bands (ev):

   -18.3059 -18.3059 -11.9121 -11.9121  -7.6543  -7.6543  -5.9614  -5.9614
     2.6078   2.6078   5.5240   5.5241   5.9468   5.9469   6.5009   6.5010

          k = 0.3540 0.2044 0.0000 (  5277 PWs)   bands (ev):

   -18.3220 -18.3220 -11.8863 -11.8863  -7.6478  -7.6478  -5.9785  -5.9785
     2.6347   2.6347   5.5034   5.5034   5.9479   5.9480   6.4784   6.4785

          k = 0.3530 0.2038 0.0000 (  5277 PWs)   bands (ev):

   -18.3379 -18.3379 -11.8605 -11.8605  -7.6412  -7.6412  -5.9956  -5.9956
     2.6616   2.6616   5.4826   5.4827   5.9492   5.9493   6.4560   6.4560

          k = 0.3520 0.2032 0.0000 (  5277 PWs)   bands (ev):

   -18.3539 -18.3539 -11.8347 -11.8347  -7.6346  -7.6346  -6.0127  -6.0127
     2.6885   2.6885   5.4618   5.4618   5.9507   5.9508   6.4336   6.4336

          k = 0.3510 0.2026 0.0000 (  5289 PWs)   bands (ev):

   -18.3698 -18.3698 -11.8089 -11.8089  -7.6279  -7.6279  -6.0298  -6.0298
     2.7155   2.7155   5.4408   5.4409   5.9524   5.9525   6.4113   6.4113

          k = 0.3500 0.2021 0.0000 (  5285 PWs)   bands (ev):

   -18.3856 -18.3856 -11.7831 -11.7831  -7.6212  -7.6212  -6.0469  -6.0469
     2.7425   2.7425   5.4198   5.4199   5.9541   5.9542   6.3891   6.3891

          k = 0.3490 0.2015 0.0000 (  5285 PWs)   bands (ev):

   -18.4014 -18.4014 -11.7572 -11.7572  -7.6145  -7.6145  -6.0639  -6.0639
     2.7695   2.7695   5.3987   5.3988   5.9560   5.9561   6.3670   6.3670

          k = 0.3480 0.2009 0.0000 (  5285 PWs)   bands (ev):

   -18.4172 -18.4172 -11.7313 -11.7313  -7.6077  -7.6077  -6.0809  -6.0809
     2.7966   2.7966   5.3776   5.3777   5.9580   5.9581   6.3449   6.3449

          k = 0.3470 0.2003 0.0000 (  5285 PWs)   bands (ev):

   -18.4329 -18.4329 -11.7055 -11.7054  -7.6009  -7.6009  -6.0980  -6.0979
     2.8237   2.8237   5.3565   5.3565   5.9600   5.9601   6.3229   6.3229

          k = 0.3460 0.1998 0.0000 (  5287 PWs)   bands (ev):

   -18.4486 -18.4486 -11.6795 -11.6795  -7.5940  -7.5940  -6.1149  -6.1149
     2.8508   2.8508   5.3353   5.3354   5.9621   5.9622   6.3010   6.3010

          k = 0.3450 0.1992 0.0000 (  5287 PWs)   bands (ev):

   -18.4643 -18.4643 -11.6536 -11.6536  -7.5871  -7.5871  -6.1319  -6.1319
     2.8780   2.8780   5.3141   5.3142   5.9643   5.9644   6.2791   6.2792

          k = 0.3440 0.1986 0.0000 (  5287 PWs)   bands (ev):

   -18.4799 -18.4799 -11.6277 -11.6277  -7.5802  -7.5802  -6.1488  -6.1488
     2.9052   2.9052   5.2930   5.2931   5.9665   5.9666   6.2574   6.2575

          k = 0.3430 0.1980 0.0000 (  5287 PWs)   bands (ev):

   -18.4955 -18.4955 -11.6017 -11.6017  -7.5732  -7.5732  -6.1658  -6.1658
     2.9324   2.9324   5.2718   5.2719   5.9687   5.9688   6.2357   6.2358

          k = 0.3420 0.1975 0.0000 (  5287 PWs)   bands (ev):

   -18.5110 -18.5110 -11.5757 -11.5757  -7.5661  -7.5661  -6.1827  -6.1827
     2.9596   2.9596   5.2507   5.2507   5.9709   5.9711   6.2142   6.2143

          k = 0.3410 0.1969 0.0000 (  5283 PWs)   bands (ev):

   -18.5265 -18.5265 -11.5497 -11.5497  -7.5591  -7.5591  -6.1995  -6.1995
     2.9869   2.9869   5.2295   5.2296   5.9731   5.9733   6.1928   6.1929

          k = 0.3400 0.1963 0.0000 (  5283 PWs)   bands (ev):

   -18.5420 -18.5420 -11.5237 -11.5237  -7.5520  -7.5520  -6.2164  -6.2164
     3.0141   3.0141   5.2084   5.2085   5.9752   5.9754   6.1715   6.1717

          k = 0.3390 0.1957 0.0000 (  5283 PWs)   bands (ev):

   -18.5574 -18.5574 -11.4976 -11.4976  -7.5448  -7.5448  -6.2332  -6.2332
     3.0414   3.0414   5.1873   5.1874   5.9773   5.9775   6.1504   6.1506

          k = 0.3380 0.1951 0.0000 (  5283 PWs)   bands (ev):

   -18.5728 -18.5728 -11.4716 -11.4716  -7.5376  -7.5376  -6.2500  -6.2500
     3.0688   3.0688   5.1663   5.1664   5.9792   5.9795   6.1295   6.1297

          k = 0.3370 0.1946 0.0000 (  5279 PWs)   bands (ev):

   -18.5881 -18.5881 -11.4455 -11.4455  -7.5304  -7.5304  -6.2668  -6.2668
     3.0961   3.0961   5.1453   5.1453   5.9809   5.9812   6.1089   6.1092

          k = 0.3360 0.1940 0.0000 (  5279 PWs)   bands (ev):

   -18.6034 -18.6034 -11.4194 -11.4194  -7.5232  -7.5232  -6.2836  -6.2836
     3.1235   3.1235   5.1243   5.1243   5.9821   5.9826   6.0887   6.0891

          k = 0.3350 0.1934 0.0000 (  5279 PWs)   bands (ev):

   -18.6187 -18.6187 -11.3933 -11.3933  -7.5159  -7.5159  -6.3003  -6.3003
     3.1508   3.1508   5.1033   5.1034   5.9827   5.9833   6.0693   6.0698

          k = 0.3340 0.1928 0.0000 (  5285 PWs)   bands (ev):

   -18.6339 -18.6339 -11.3672 -11.3672  -7.5085  -7.5085  -6.3170  -6.3170
     3.1782   3.1782   5.0824   5.0825   5.9820   5.9827   6.0512   6.0518

          k = 0.3330 0.1923 0.0000 (  5285 PWs)   bands (ev):

   -18.6491 -18.6491 -11.3410 -11.3410  -7.5012  -7.5012  -6.3337  -6.3337
     3.2056   3.2056   5.0615   5.0616   5.9789   5.9798   6.0355   6.0363

          k = 0.3320 0.1917 0.0000 (  5285 PWs)   bands (ev):

   -18.6642 -18.6642 -11.3149 -11.3149  -7.4938  -7.4938  -6.3503  -6.3503
     3.2330   3.2330   5.0407   5.0407   5.9716   5.9726   6.0240   6.0250

          k = 0.3310 0.1911 0.0000 (  5281 PWs)   bands (ev):

   -18.6793 -18.6793 -11.2887 -11.2887  -7.4863  -7.4863  -6.3669  -6.3669
     3.2605   3.2605   5.0199   5.0200   5.9594   5.9603   6.0177   6.0186

          k = 0.3300 0.1905 0.0000 (  5281 PWs)   bands (ev):

   -18.6944 -18.6944 -11.2625 -11.2625  -7.4788  -7.4788  -6.3835  -6.3835
     3.2879   3.2879   4.9991   4.9992   5.9434   5.9442   6.0152   6.0160

          k = 0.3290 0.1899 0.0000 (  5283 PWs)   bands (ev):

   -18.7094 -18.7094 -11.2364 -11.2364  -7.4713  -7.4713  -6.4001  -6.4001
     3.3154   3.3154   4.9784   4.9785   5.9254   5.9261   6.0147   6.0153

          k = 0.3280 0.1894 0.0000 (  5279 PWs)   bands (ev):

   -18.7243 -18.7243 -11.2101 -11.2101  -7.4637  -7.4637  -6.4166  -6.4166
     3.3428   3.3428   4.9578   4.9579   5.9064   5.9069   6.0151   6.0157

          k = 0.3270 0.1888 0.0000 (  5279 PWs)   bands (ev):

   -18.7393 -18.7393 -11.1839 -11.1839  -7.4561  -7.4561  -6.4331  -6.4331
     3.3703   3.3703   4.9372   4.9372   5.8868   5.8873   6.0160   6.0165

          k = 0.3260 0.1882 0.0000 (  5279 PWs)   bands (ev):

   -18.7542 -18.7542 -11.1577 -11.1577  -7.4485  -7.4485  -6.4496  -6.4496
     3.3978   3.3978   4.9166   4.9167   5.8670   5.8674   6.0170   6.0174

          k = 0.3250 0.1876 0.0000 (  5267 PWs)   bands (ev):

   -18.7690 -18.7690 -11.1314 -11.1314  -7.4408  -7.4408  -6.4660  -6.4660
     3.4253   3.4253   4.8961   4.8962   5.8470   5.8474   6.0180   6.0184

          k = 0.3240 0.1871 0.0000 (  5267 PWs)   bands (ev):

   -18.7838 -18.7838 -11.1052 -11.1052  -7.4331  -7.4331  -6.4825  -6.4825
     3.4528   3.4528   4.8757   4.8757   5.8269   5.8273   6.0187   6.0191

          k = 0.3230 0.1865 0.0000 (  5271 PWs)   bands (ev):

   -18.7986 -18.7986 -11.0789 -11.0789  -7.4253  -7.4253  -6.4988  -6.4988
     3.4803   3.4803   4.8553   4.8553   5.8068   5.8071   6.0191   6.0195

          k = 0.3220 0.1859 0.0000 (  5271 PWs)   bands (ev):

   -18.8133 -18.8133 -11.0526 -11.0526  -7.4176  -7.4176  -6.5152  -6.5152
     3.5078   3.5078   4.8349   4.8350   5.7867   5.7870   6.0191   6.0194

          k = 0.3210 0.1853 0.0000 (  5271 PWs)   bands (ev):

   -18.8280 -18.8280 -11.0263 -11.0263  -7.4097  -7.4097  -6.5315  -6.5315
     3.5353   3.5353   4.8146   4.8147   5.7666   5.7669   6.0183   6.0187

          k = 0.3200 0.1848 0.0000 (  5271 PWs)   bands (ev):

   -18.8426 -18.8426 -11.0000 -11.0000  -7.4019  -7.4019  -6.5478  -6.5478
     3.5628   3.5628   4.7944   4.7944   5.7465   5.7468   6.0167   6.0171

          k = 0.3190 0.1842 0.0000 (  5271 PWs)   bands (ev):

   -18.8572 -18.8572 -10.9737 -10.9737  -7.3940  -7.3940  -6.5641  -6.5641
     3.5903   3.5903   4.7742   4.7743   5.7265   5.7268   6.0139   6.0142

          k = 0.3180 0.1836 0.0000 (  5271 PWs)   bands (ev):

   -18.8718 -18.8718 -10.9473 -10.9473  -7.3860  -7.3860  -6.5803  -6.5803
     3.6178   3.6178   4.7541   4.7541   5.7066   5.7068   6.0096   6.0100

          k = 0.3170 0.1830 0.0000 (  5271 PWs)   bands (ev):

   -18.8863 -18.8863 -10.9210 -10.9210  -7.3781  -7.3781  -6.5965  -6.5965
     3.6452   3.6452   4.7340   4.7341   5.6867   5.6869   6.0036   6.0039

          k = 0.3160 0.1824 0.0000 (  5267 PWs)   bands (ev):

   -18.9008 -18.9008 -10.8946 -10.8946  -7.3701  -7.3701  -6.6127  -6.6127
     3.6727   3.6727   4.7140   4.7140   5.6668   5.6671   5.9956   5.9959

          k = 0.3150 0.1819 0.0000 (  5263 PWs)   bands (ev):

   -18.9152 -18.9152 -10.8683 -10.8683  -7.3620  -7.3620  -6.6288  -6.6288
     3.7002   3.7002   4.6940   4.6941   5.6470   5.6473   5.9856   5.9859

          k = 0.3140 0.1813 0.0000 (  5263 PWs)   bands (ev):

   -18.9296 -18.9296 -10.8419 -10.8419  -7.3540  -7.3540  -6.6449  -6.6449
     3.7276   3.7276   4.6741   4.6742   5.6273   5.6276   5.9738   5.9741

          k = 0.3130 0.1807 0.0000 (  5267 PWs)   bands (ev):

   -18.9440 -18.9440 -10.8155 -10.8155  -7.3459  -7.3459  -6.6610  -6.6610
     3.7551   3.7551   4.6543   4.6543   5.6077   5.6079   5.9603   5.9606

          k = 0.3120 0.1801 0.0000 (  5265 PWs)   bands (ev):

   -18.9583 -18.9583 -10.7891 -10.7891  -7.3377  -7.3377  -6.6770  -6.6770
     3.7825   3.7825   4.6345   4.6345   5.5881   5.5883   5.9455   5.9458

          k = 0.3110 0.1796 0.0000 (  5265 PWs)   bands (ev):

   -18.9725 -18.9725 -10.7627 -10.7627  -7.3295  -7.3295  -6.6930  -6.6930
     3.8099   3.8099   4.6148   4.6148   5.5686   5.5688   5.9297   5.9299

          k = 0.3100 0.1790 0.0000 (  5269 PWs)   bands (ev):

   -18.9867 -18.9867 -10.7363 -10.7363  -7.3213  -7.3213  -6.7089  -6.7089
     3.8373   3.8373   4.5951   4.5952   5.5492   5.5494   5.9131   5.9133

          k = 0.3090 0.1784 0.0000 (  5269 PWs)   bands (ev):

   -19.0009 -19.0009 -10.7099 -10.7099  -7.3131  -7.3131  -6.7249  -6.7249
     3.8646   3.8646   4.5755   4.5756   5.5299   5.5301   5.8959   5.8961

          k = 0.3080 0.1778 0.0000 (  5271 PWs)   bands (ev):

   -19.0151 -19.0151 -10.6835 -10.6835  -7.3048  -7.3048  -6.7407  -6.7407
     3.8920   3.8920   4.5560   4.5560   5.5107   5.5109   5.8782   5.8784

          k = 0.3070 0.1772 0.0000 (  5271 PWs)   bands (ev):

   -19.0292 -19.0292 -10.6570 -10.6570  -7.2964  -7.2964  -6.7566  -6.7566
     3.9192   3.9192   4.5365   4.5365   5.4915   5.4917   5.8602   5.8604

          k = 0.3060 0.1767 0.0000 (  5271 PWs)   bands (ev):

   -19.0432 -19.0432 -10.6306 -10.6306  -7.2881  -7.2881  -6.7724  -6.7724
     3.9465   3.9465   4.5171   4.5171   5.4725   5.4727   5.8420   5.8421

          k = 0.3050 0.1761 0.0000 (  5267 PWs)   bands (ev):

   -19.0572 -19.0572 -10.6041 -10.6041  -7.2797  -7.2797  -6.7882  -6.7882
     3.9737   3.9737   4.4977   4.4978   5.4535   5.4537   5.8235   5.8237

          k = 0.3040 0.1755 0.0000 (  5267 PWs)   bands (ev):

   -19.0712 -19.0712 -10.5777 -10.5777  -7.2713  -7.2713  -6.8039  -6.8039
     4.0009   4.0009   4.4784   4.4785   5.4347   5.4348   5.8049   5.8051

          k = 0.3030 0.1749 0.0000 (  5267 PWs)   bands (ev):

   -19.0851 -19.0851 -10.5512 -10.5512  -7.2628  -7.2628  -6.8196  -6.8196
     4.0280   4.0280   4.4592   4.4593   5.4159   5.4161   5.7863   5.7864

          k = 0.3020 0.1744 0.0000 (  5267 PWs)   bands (ev):

   -19.0990 -19.0990 -10.5247 -10.5247  -7.2543  -7.2543  -6.8353  -6.8353
     4.0550   4.0550   4.4401   4.4402   5.3973   5.3974   5.7675   5.7677

          k = 0.3010 0.1738 0.0000 (  5267 PWs)   bands (ev):

   -19.1128 -19.1128 -10.4983 -10.4983  -7.2458  -7.2458  -6.8509  -6.8509
     4.0819   4.0819   4.4211   4.4211   5.3787   5.3789   5.7487   5.7489

          k = 0.3000 0.1732 0.0000 (  5271 PWs)   bands (ev):

   -19.1266 -19.1266 -10.4718 -10.4718  -7.2372  -7.2372  -6.8665  -6.8665
     4.1088   4.1088   4.4021   4.4022   5.3603   5.3605   5.7299   5.7301

          k = 0.2990 0.1726 0.0000 (  5271 PWs)   bands (ev):

   -19.1404 -19.1404 -10.4453 -10.4453  -7.2286  -7.2286  -6.8821  -6.8821
     4.1355   4.1355   4.3833   4.3834   5.3420   5.3422   5.7111   5.7112

          k = 0.2980 0.1721 0.0000 (  5271 PWs)   bands (ev):

   -19.1541 -19.1541 -10.4188 -10.4188  -7.2200  -7.2200  -6.8976  -6.8976
     4.1620   4.1620   4.3647   4.3647   5.3239   5.3240   5.6922   5.6924

          k = 0.2970 0.1715 0.0000 (  5271 PWs)   bands (ev):

   -19.1678 -19.1678 -10.3923 -10.3923  -7.2114  -7.2114  -6.9131  -6.9131
     4.1883   4.1883   4.3462   4.3463   5.3059   5.3060   5.6734   5.6736

          k = 0.2960 0.1709 0.0000 (  5271 PWs)   bands (ev):

   -19.1814 -19.1814 -10.3658 -10.3658  -7.2027  -7.2027  -6.9285  -6.9285
     4.2140   4.2141   4.3283   4.3284   5.2880   5.2882   5.6546   5.6547

          k = 0.2950 0.1703 0.0000 (  5271 PWs)   bands (ev):

   -19.1950 -19.1950 -10.3393 -10.3393  -7.1939  -7.1939  -6.9439  -6.9439
     4.2386   4.2386   4.3115   4.3116   5.2703   5.2705   5.6358   5.6359

          k = 0.2940 0.1697 0.0000 (  5271 PWs)   bands (ev):

   -19.2085 -19.2085 -10.3128 -10.3128  -7.1852  -7.1852  -6.9593  -6.9593
     4.2582   4.2582   4.2996   4.2997   5.2528   5.2530   5.6171   5.6172

          k = 0.2930 0.1692 0.0000 (  5271 PWs)   bands (ev):

   -19.2220 -19.2220 -10.2863 -10.2863  -7.1764  -7.1764  -6.9746  -6.9746
     4.2594   4.2594   4.3060   4.3061   5.2355   5.2357   5.5983   5.5985

          k = 0.2920 0.1686 0.0000 (  5275 PWs)   bands (ev):

   -19.2355 -19.2355 -10.2598 -10.2598  -7.1676  -7.1676  -6.9899  -6.9899
     4.2457   4.2457   4.3272   4.3273   5.2184   5.2186   5.5796   5.5798

          k = 0.2910 0.1680 0.0000 (  5275 PWs)   bands (ev):

   -19.2489 -19.2489 -10.2333 -10.2333  -7.1587  -7.1587  -7.0052  -7.0051
     4.2288   4.2288   4.3515   4.3516   5.2015   5.2017   5.5610   5.5611

          k = 0.2900 0.1674 0.0000 (  5275 PWs)   bands (ev):

   -19.2623 -19.2623 -10.2067 -10.2067  -7.1498  -7.1498  -7.0204  -7.0204
     4.2110   4.2111   4.3765   4.3765   5.1849   5.1851   5.5424   5.5425

          k = 0.2890 0.1669 0.0000 (  5275 PWs)   bands (ev):

   -19.2756 -19.2756 -10.1802 -10.1802  -7.1409  -7.1409  -7.0355  -7.0355
     4.1931   4.1931   4.4015   4.4015   5.1686   5.1688   5.5239   5.5240

          k = 0.2880 0.1663 0.0000 (  5271 PWs)   bands (ev):

   -19.2889 -19.2889 -10.1537 -10.1537  -7.1320  -7.1320  -7.0506  -7.0506
     4.1750   4.1750   4.4264   4.4264   5.1527   5.1528   5.5054   5.5055

          k = 0.2870 0.1657 0.0000 (  5271 PWs)   bands (ev):

   -19.3021 -19.3021 -10.1271 -10.1271  -7.1230  -7.1230  -7.0657  -7.0657
     4.1569   4.1569   4.4511   4.4511   5.1371   5.1372   5.4869   5.4870

          k = 0.2860 0.1651 0.0000 (  5271 PWs)   bands (ev):

   -19.3153 -19.3153 -10.1006 -10.1006  -7.1140  -7.1140  -7.0807  -7.0807
     4.1388   4.1388   4.4754   4.4754   5.1219   5.1221   5.4685   5.4687

          k = 0.2850 0.1645 0.0000 (  5271 PWs)   bands (ev):

   -19.3285 -19.3285 -10.0741 -10.0741  -7.1051  -7.1051  -7.0956  -7.0956
     4.1207   4.1207   4.4992   4.4992   5.1073   5.1075   5.4502   5.4503

          k = 0.2840 0.1640 0.0000 (  5275 PWs)   bands (ev):

   -19.3416 -19.3416 -10.0476 -10.0476  -7.1108  -7.1108  -7.0958  -7.0958
     4.1026   4.1027   4.5225   4.5225   5.0933   5.0935   5.4320   5.4321

          k = 0.2830 0.1634 0.0000 (  5277 PWs)   bands (ev):

   -19.3546 -19.3546 -10.0210 -10.0210  -7.1257  -7.1257  -7.0867  -7.0867
     4.0846   4.0847   4.5452   4.5452   5.0800   5.0802   5.4138   5.4139

          k = 0.2820 0.1628 0.0000 (  5277 PWs)   bands (ev):

   -19.3677 -19.3677  -9.9945  -9.9945  -7.1406  -7.1406  -7.0776  -7.0776
     4.0667   4.0667   4.5670   4.5670   5.0676   5.0677   5.3956   5.3957

          k = 0.2810 0.1622 0.0000 (  5277 PWs)   bands (ev):

   -19.3807 -19.3807  -9.9680  -9.9680  -7.1554  -7.1554  -7.0685  -7.0685
     4.0488   4.0488   4.5878   4.5879   5.0562   5.0563   5.3776   5.3777

          k = 0.2800 0.1617 0.0000 (  5277 PWs)   bands (ev):

   -19.3936 -19.3936  -9.9415  -9.9415  -7.1702  -7.1702  -7.0593  -7.0593
     4.0310   4.0310   4.6075   4.6075   5.0460   5.0461   5.3596   5.3597

          k = 0.2790 0.1611 0.0000 (  5277 PWs)   bands (ev):

   -19.4065 -19.4065  -9.9149  -9.9149  -7.1850  -7.1850  -7.0501  -7.0501
     4.0132   4.0132   4.6257   4.6257   5.0373   5.0375   5.3417   5.3418

          k = 0.2780 0.1605 0.0000 (  5277 PWs)   bands (ev):

   -19.4193 -19.4193  -9.8884  -9.8884  -7.1997  -7.1997  -7.0408  -7.0408
     3.9954   3.9955   4.6421   4.6421   5.0304   5.0305   5.3239   5.3240

          k = 0.2770 0.1599 0.0000 (  5277 PWs)   bands (ev):

   -19.4321 -19.4321  -9.8619  -9.8619  -7.2143  -7.2143  -7.0315  -7.0315
     3.9778   3.9778   4.6565   4.6565   5.0255   5.0257   5.3062   5.3064

          k = 0.2760 0.1593 0.0000 (  5277 PWs)   bands (ev):

   -19.4449 -19.4449  -9.8354  -9.8354  -7.2290  -7.2290  -7.0222  -7.0222
     3.9601   3.9602   4.6685   4.6685   5.0231   5.0232   5.2887   5.2888

          k = 0.2750 0.1588 0.0000 (  5281 PWs)   bands (ev):

   -19.4576 -19.4576  -9.8088  -9.8088  -7.2435  -7.2435  -7.0129  -7.0129
     3.9426   3.9426   4.6778   4.6778   5.0232   5.0233   5.2713   5.2714

          k = 0.2740 0.1582 0.0000 (  5279 PWs)   bands (ev):

   -19.4703 -19.4703  -9.7823  -9.7823  -7.2581  -7.2581  -7.0035  -7.0035
     3.9251   3.9251   4.6842   4.6842   5.0262   5.0263   5.2540   5.2541

          k = 0.2730 0.1576 0.0000 (  5279 PWs)   bands (ev):

   -19.4829 -19.4829  -9.7558  -9.7558  -7.2726  -7.2726  -6.9941  -6.9941
     3.9077   3.9077   4.6877   4.6877   5.0319   5.0320   5.2370   5.2371

          k = 0.2720 0.1570 0.0000 (  5275 PWs)   bands (ev):

   -19.4955 -19.4955  -9.7293  -9.7293  -7.2870  -7.2870  -6.9847  -6.9847
     3.8903   3.8903   4.6884   4.6884   5.0402   5.0404   5.2203   5.2204

          k = 0.2710 0.1565 0.0000 (  5275 PWs)   bands (ev):

   -19.5081 -19.5081  -9.7028  -9.7028  -7.3015  -7.3014  -6.9753  -6.9753
     3.8730   3.8730   4.6864   4.6865   5.0508   5.0509   5.2041   5.2043

          k = 0.2700 0.1559 0.0000 (  5275 PWs)   bands (ev):

   -19.5206 -19.5206  -9.6763  -9.6763  -7.3158  -7.3158  -6.9658  -6.9658
     3.8557   3.8557   4.6822   4.6822   5.0630   5.0631   5.1888   5.1889

          k = 0.2690 0.1553 0.0000 (  5275 PWs)   bands (ev):

   -19.5330 -19.5330  -9.6498  -9.6498  -7.3301  -7.3301  -6.9563  -6.9563
     3.8385   3.8386   4.6759   4.6759   5.0756   5.0757   5.1751   5.1752

          k = 0.2680 0.1547 0.0000 (  5275 PWs)   bands (ev):

   -19.5454 -19.5454  -9.6233  -9.6233  -7.3444  -7.3444  -6.9468  -6.9468
     3.8214   3.8214   4.6679   4.6680   5.0866   5.0867   5.1648   5.1650

          k = 0.2670 0.1542 0.0000 (  5275 PWs)   bands (ev):

   -19.5578 -19.5578  -9.5968  -9.5968  -7.3587  -7.3587  -6.9372  -6.9372
     3.8043   3.8043   4.6586   4.6587   5.0919   5.0920   5.1616   5.1618

          k = 0.2660 0.1536 0.0000 (  5275 PWs)   bands (ev):

   -19.5701 -19.5701  -9.5704  -9.5704  -7.3729  -7.3728  -6.9276  -6.9276
     3.7873   3.7873   4.6482   4.6483   5.0885   5.0885   5.1685   5.1686

          k = 0.2650 0.1530 0.0000 (  5279 PWs)   bands (ev):

   -19.5824 -19.5824  -9.5439  -9.5439  -7.3870  -7.3870  -6.9180  -6.9180
     3.7703   3.7704   4.6368   4.6369   5.0783   5.0784   5.1830   5.1831

          k = 0.2640 0.1524 0.0000 (  5275 PWs)   bands (ev):

   -19.5946 -19.5946  -9.5174  -9.5174  -7.4011  -7.4011  -6.9084  -6.9084
     3.7535   3.7535   4.6248   4.6248   5.0649   5.0650   5.2017   5.2017

          k = 0.2630 0.1518 0.0000 (  5277 PWs)   bands (ev):

   -19.6068 -19.6068  -9.4910  -9.4910  -7.4152  -7.4152  -6.8987  -6.8987
     3.7366   3.7367   4.6121   4.6121   5.0500   5.0500   5.2225   5.2225

          k = 0.2620 0.1513 0.0000 (  5275 PWs)   bands (ev):

   -19.6190 -19.6190  -9.4645  -9.4645  -7.4292  -7.4292  -6.8890  -6.8890
     3.7199   3.7199   4.5989   4.5990   5.0344   5.0344   5.2446   5.2446

          k = 0.2610 0.1507 0.0000 (  5275 PWs)   bands (ev):

   -19.6311 -19.6311  -9.4381  -9.4381  -7.4431  -7.4431  -6.8793  -6.8793
     3.7032   3.7032   4.5854   4.5854   5.0184   5.0184   5.2676   5.2676

          k = 0.2600 0.1501 0.0000 (  5271 PWs)   bands (ev):

   -19.6431 -19.6431  -9.4116  -9.4116  -7.4571  -7.4571  -6.8695  -6.8695
     3.6865   3.6866   4.5715   4.5716   5.0022   5.0022   5.2912   5.2912

          k = 0.2590 0.1495 0.0000 (  5271 PWs)   bands (ev):

   -19.6551 -19.6551  -9.3852  -9.3852  -7.4709  -7.4709  -6.8598  -6.8598
     3.6700   3.6700   4.5573   4.5574   4.9859   4.9859   5.3153   5.3153

          k = 0.2580 0.1490 0.0000 (  5271 PWs)   bands (ev):

   -19.6671 -19.6671  -9.3588  -9.3588  -7.4848  -7.4848  -6.8500  -6.8500
     3.6534   3.6535   4.5430   4.5431   4.9695   4.9695   5.3397   5.3397

          k = 0.2570 0.1484 0.0000 (  5271 PWs)   bands (ev):

   -19.6790 -19.6790  -9.3324  -9.3324  -7.4986  -7.4986  -6.8402  -6.8402
     3.6370   3.6370   4.5285   4.5285   4.9531   4.9531   5.3644   5.3644

          k = 0.2560 0.1478 0.0000 (  5271 PWs)   bands (ev):

   -19.6909 -19.6909  -9.3060  -9.3060  -7.5123  -7.5123  -6.8303  -6.8303
     3.6206   3.6206   4.5138   4.5139   4.9367   4.9367   5.3893   5.3893

          k = 0.2550 0.1472 0.0000 (  5271 PWs)   bands (ev):

   -19.7028 -19.7028  -9.2796  -9.2796  -7.5260  -7.5260  -6.8205  -6.8205
     3.6043   3.6043   4.4990   4.4991   4.9203   4.9203   5.4144   5.4144

          k = 0.2540 0.1466 0.0000 (  5273 PWs)   bands (ev):

   -19.7146 -19.7146  -9.2533  -9.2533  -7.5397  -7.5397  -6.8106  -6.8106
     3.5880   3.5880   4.4842   4.4842   4.9039   4.9040   5.4397   5.4397

          k = 0.2530 0.1461 0.0000 (  5273 PWs)   bands (ev):

   -19.7263 -19.7263  -9.2269  -9.2269  -7.5533  -7.5533  -6.8007  -6.8007
     3.5718   3.5718   4.4692   4.4693   4.8876   4.8877   5.4650   5.4651

          k = 0.2520 0.1455 0.0000 (  5269 PWs)   bands (ev):

   -19.7380 -19.7380  -9.2006  -9.2006  -7.5668  -7.5668  -6.7907  -6.7907
     3.5557   3.5557   4.4542   4.4543   4.8713   4.8714   5.4905   5.4905

          k = 0.2510 0.1449 0.0000 (  5269 PWs)   bands (ev):

   -19.7497 -19.7497  -9.1742  -9.1742  -7.5803  -7.5803  -6.7808  -6.7808
     3.5396   3.5396   4.4392   4.4393   4.8551   4.8552   5.5160   5.5161

          k = 0.2500 0.1443 0.0000 (  5269 PWs)   bands (ev):

   -19.7613 -19.7613  -9.1479  -9.1479  -7.5938  -7.5938  -6.7708  -6.7708
     3.5236   3.5236   4.4242   4.4242   4.8389   4.8390   5.5416   5.5416

          k = 0.2490 0.1438 0.0000 (  5269 PWs)   bands (ev):

   -19.7729 -19.7729  -9.1216  -9.1216  -7.6072  -7.6072  -6.7608  -6.7608
     3.5076   3.5077   4.4091   4.4092   4.8228   4.8228   5.5673   5.5673

          k = 0.2480 0.1432 0.0000 (  5269 PWs)   bands (ev):

   -19.7844 -19.7844  -9.0953  -9.0953  -7.6206  -7.6206  -6.7508  -6.7508
     3.4917   3.4918   4.3940   4.3941   4.8067   4.8068   5.5929   5.5929

          k = 0.2470 0.1426 0.0000 (  5273 PWs)   bands (ev):

   -19.7959 -19.7959  -9.0690  -9.0690  -7.6339  -7.6339  -6.7407  -6.7407
     3.4759   3.4759   4.3789   4.3790   4.7907   4.7907   5.6186   5.6186

          k = 0.2460 0.1420 0.0000 (  5273 PWs)   bands (ev):

   -19.8073 -19.8073  -9.0428  -9.0428  -7.6472  -7.6472  -6.7307  -6.7307
     3.4601   3.4602   4.3638   4.3639   4.7747   4.7748   5.6442   5.6442

          k = 0.2450 0.1415 0.0000 (  5273 PWs)   bands (ev):

   -19.8187 -19.8187  -9.0165  -9.0165  -7.6604  -7.6604  -6.7206  -6.7206
     3.4444   3.4445   4.3488   4.3489   4.7588   4.7588   5.6699   5.6699

          k = 0.2440 0.1409 0.0000 (  5273 PWs)   bands (ev):

   -19.8301 -19.8301  -8.9903  -8.9903  -7.6736  -7.6736  -6.7105  -6.7105
     3.4288   3.4288   4.3337   4.3338   4.7429   4.7430   5.6955   5.6955

          k = 0.2430 0.1403 0.0000 (  5269 PWs)   bands (ev):

   -19.8414 -19.8414  -8.9640  -8.9640  -7.6867  -7.6867  -6.7003  -6.7003
     3.4132   3.4133   4.3187   4.3188   4.7271   4.7272   5.7211   5.7211

          k = 0.2420 0.1397 0.0000 (  5267 PWs)   bands (ev):

   -19.8526 -19.8526  -8.9378  -8.9378  -7.6998  -7.6998  -6.6902  -6.6902
     3.3977   3.3977   4.3037   4.3037   4.7114   4.7114   5.7467   5.7467

          k = 0.2410 0.1391 0.0000 (  5263 PWs)   bands (ev):

   -19.8638 -19.8638  -8.9116  -8.9116  -7.7129  -7.7129  -6.6800  -6.6800
     3.3823   3.3823   4.2887   4.2888   4.6957   4.6958   5.7721   5.7722

          k = 0.2400 0.1386 0.0000 (  5263 PWs)   bands (ev):

   -19.8750 -19.8750  -8.8855  -8.8855  -7.7259  -7.7259  -6.6698  -6.6698
     3.3669   3.3669   4.2737   4.2738   4.6801   4.6801   5.7976   5.7976

          k = 0.2390 0.1380 0.0000 (  5263 PWs)   bands (ev):

   -19.8861 -19.8861  -8.8593  -8.8593  -7.7388  -7.7388  -6.6596  -6.6596
     3.3516   3.3516   4.2588   4.2589   4.6645   4.6646   5.8229   5.8229

          k = 0.2380 0.1374 0.0000 (  5263 PWs)   bands (ev):

   -19.8972 -19.8972  -8.8332  -8.8332  -7.7517  -7.7517  -6.6494  -6.6494
     3.3363   3.3363   4.2439   4.2440   4.6490   4.6491   5.8482   5.8482

          k = 0.2370 0.1368 0.0000 (  5263 PWs)   bands (ev):

   -19.9082 -19.9082  -8.8071  -8.8071  -7.7645  -7.7645  -6.6391  -6.6391
     3.3211   3.3211   4.2291   4.2291   4.6336   4.6337   5.8733   5.8733

          k = 0.2360 0.1363 0.0000 (  5259 PWs)   bands (ev):

   -19.9192 -19.9192  -8.7810  -8.7810  -7.7773  -7.7773  -6.6288  -6.6288
     3.3060   3.3060   4.2142   4.2143   4.6182   4.6183   5.8983   5.8983

          k = 0.2350 0.1357 0.0000 (  5259 PWs)   bands (ev):

   -19.9302 -19.9302  -8.7549  -8.7549  -7.7901  -7.7901  -6.6186  -6.6186
     3.2909   3.2909   4.1995   4.1996   4.6029   4.6030   5.9231   5.9231

          k = 0.2340 0.1351 0.0000 (  5255 PWs)   bands (ev):

   -19.9411 -19.9411  -8.7288  -8.7288  -7.8028  -7.8028  -6.6082  -6.6082
     3.2759   3.2759   4.1847   4.1848   4.5877   4.5877   5.9477   5.9477

          k = 0.2330 0.1345 0.0000 (  5255 PWs)   bands (ev):

   -19.9519 -19.9519  -8.7028  -8.7028  -7.8155  -7.8155  -6.5979  -6.5979
     3.2609   3.2610   4.1701   4.1701   4.5725   4.5725   5.9721   5.9721

          k = 0.2320 0.1339 0.0000 (  5255 PWs)   bands (ev):

   -19.9628 -19.9627  -8.6768  -8.6768  -7.8281  -7.8281  -6.5876  -6.5876
     3.2461   3.2461   4.1554   4.1555   4.5574   4.5574   5.9962   5.9962

          k = 0.2310 0.1334 0.0000 (  5255 PWs)   bands (ev):

   -19.9735 -19.9735  -8.6508  -8.6508  -7.8406  -7.8406  -6.5772  -6.5772
     3.2312   3.2313   4.1408   4.1409   4.5423   4.5423   6.0200   6.0200

          k = 0.2300 0.1328 0.0000 (  5255 PWs)   bands (ev):

   -19.9842 -19.9842  -8.6248  -8.6248  -7.8531  -7.8531  -6.5668  -6.5668
     3.2165   3.2165   4.1263   4.1264   4.5273   4.5274   6.0434   6.0434

          k = 0.2290 0.1322 0.0000 (  5255 PWs)   bands (ev):

   -19.9949 -19.9949  -8.5989  -8.5989  -7.8656  -7.8656  -6.5565  -6.5565
     3.2018   3.2018   4.1118   4.1119   4.5124   4.5124   6.0662   6.0662

          k = 0.2280 0.1316 0.0000 (  5251 PWs)   bands (ev):

   -20.0055 -20.0055  -8.5729  -8.5729  -7.8780  -7.8780  -6.5460  -6.5460
     3.1872   3.1872   4.0974   4.0974   4.4975   4.4975   6.0884   6.0884

          k = 0.2270 0.1311 0.0000 (  5251 PWs)   bands (ev):

   -20.0161 -20.0161  -8.5470  -8.5470  -7.8904  -7.8904  -6.5356  -6.5356
     3.1726   3.1726   4.0830   4.0830   4.4827   4.4827   6.1098   6.1098

          k = 0.2260 0.1305 0.0000 (  5251 PWs)   bands (ev):

   -20.0267 -20.0267  -8.5212  -8.5212  -7.9027  -7.9027  -6.5252  -6.5252
     3.1581   3.1581   4.0686   4.0687   4.4679   4.4680   6.1302   6.1302

          k = 0.2250 0.1299 0.0000 (  5251 PWs)   bands (ev):

   -20.0372 -20.0372  -8.4953  -8.4953  -7.9150  -7.9150  -6.5147  -6.5147
     3.1436   3.1437   4.0543   4.0544   4.4533   4.4533   6.1492   6.1492

          k = 0.2240 0.1293 0.0000 (  5247 PWs)   bands (ev):

   -20.0476 -20.0476  -8.4695  -8.4695  -7.9272  -7.9272  -6.5043  -6.5043
     3.1293   3.1293   4.0401   4.0402   4.4387   4.4387   6.1665   6.1665

          k = 0.2230 0.1287 0.0000 (  5247 PWs)   bands (ev):

   -20.0580 -20.0580  -8.4437  -8.4437  -7.9393  -7.9393  -6.4938  -6.4938
     3.1150   3.1150   4.0259   4.0260   4.4241   4.4242   6.1817   6.1818

          k = 0.2220 0.1282 0.0000 (  5247 PWs)   bands (ev):

   -20.0684 -20.0684  -8.4179  -8.4179  -7.9515  -7.9515  -6.4833  -6.4833
     3.1007   3.1007   4.0118   4.0119   4.4096   4.4097   6.1943   6.1943

          k = 0.2210 0.1276 0.0000 (  5253 PWs)   bands (ev):

   -20.0787 -20.0787  -8.3922  -8.3922  -7.9635  -7.9635  -6.4728  -6.4728
     3.0865   3.0866   3.9977   3.9978   4.3952   4.3952   6.2039   6.2039

          k = 0.2200 0.1270 0.0000 (  5253 PWs)   bands (ev):

   -20.0890 -20.0890  -8.3664  -8.3664  -7.9756  -7.9756  -6.4622  -6.4622
     3.0724   3.0724   3.9837   3.9838   4.3808   4.3809   6.2101   6.2101

          k = 0.2190 0.1264 0.0000 (  5249 PWs)   bands (ev):

   -20.0992 -20.0992  -8.3407  -8.3407  -7.9875  -7.9875  -6.4517  -6.4517
     3.0583   3.0584   3.9698   3.9698   4.3665   4.3666   6.2130   6.2130

          k = 0.2180 0.1259 0.0000 (  5253 PWs)   bands (ev):

   -20.1094 -20.1094  -8.3151  -8.3151  -7.9994  -7.9994  -6.4411  -6.4411
     3.0443   3.0444   3.9558   3.9559   4.3523   4.3524   6.2128   6.2128

          k = 0.2170 0.1253 0.0000 (  5249 PWs)   bands (ev):

   -20.1195 -20.1195  -8.2894  -8.2894  -8.0113  -8.0113  -6.4306  -6.4306
     3.0304   3.0304   3.9420   3.9421   4.3381   4.3382   6.2100   6.2100

          k = 0.2160 0.1247 0.0000 (  5253 PWs)   bands (ev):

   -20.1296 -20.1296  -8.2638  -8.2638  -8.0231  -8.0231  -6.4200  -6.4200
     3.0165   3.0166   3.9282   3.9283   4.3240   4.3241   6.2050   6.2051

          k = 0.2150 0.1241 0.0000 (  5253 PWs)   bands (ev):

   -20.1397 -20.1397  -8.2383  -8.2383  -8.0349  -8.0349  -6.4094  -6.4094
     3.0027   3.0028   3.9145   3.9146   4.3100   4.3100   6.1984   6.1984

          k = 0.2140 0.1236 0.0000 (  5261 PWs)   bands (ev):

   -20.1497 -20.1497  -8.2127  -8.2127  -8.0466  -8.0466  -6.3988  -6.3988
     2.9890   2.9890   3.9008   3.9009   4.2960   4.2961   6.1905   6.1905

          k = 0.2130 0.1230 0.0000 (  5257 PWs)   bands (ev):

   -20.1596 -20.1596  -8.1872  -8.1872  -8.0583  -8.0583  -6.3882  -6.3882
     2.9753   2.9753   3.8872   3.8873   4.2821   4.2822   6.1815   6.1816

          k = 0.2120 0.1224 0.0000 (  5257 PWs)   bands (ev):

   -20.1695 -20.1695  -8.1617  -8.1617  -8.0699  -8.0699  -6.3776  -6.3776
     2.9617   2.9617   3.8736   3.8737   4.2683   4.2683   6.1719   6.1719

          k = 0.2110 0.1218 0.0000 (  5257 PWs)   bands (ev):

   -20.1794 -20.1794  -8.1363  -8.1363  -8.0815  -8.0815  -6.3670  -6.3670
     2.9481   2.9482   3.8601   3.8602   4.2545   4.2545   6.1616   6.1616

          k = 0.2100 0.1212 0.0000 (  5253 PWs)   bands (ev):

   -20.1892 -20.1892  -8.1109  -8.1109  -8.0930  -8.0929  -6.3563  -6.3563
     2.9347   2.9347   3.8467   3.8468   4.2408   4.2408   6.1509   6.1509

          k = 0.2090 0.1207 0.0000 (  5253 PWs)   bands (ev):

   -20.1990 -20.1990  -8.1046  -8.1045  -8.0854  -8.0854  -6.3457  -6.3457
     2.9212   2.9213   3.8333   3.8334   4.2271   4.2272   6.1399   6.1399

          k = 0.2080 0.1201 0.0000 (  5253 PWs)   bands (ev):

   -20.2087 -20.2087  -8.1159  -8.1159  -8.0601  -8.0601  -6.3350  -6.3350
     2.9079   2.9079   3.8200   3.8201   4.2135   4.2136   6.1286   6.1286

          k = 0.2070 0.1195 0.0000 (  5255 PWs)   bands (ev):

   -20.2184 -20.2184  -8.1273  -8.1273  -8.0348  -8.0348  -6.3243  -6.3243
     2.8946   2.8946   3.8067   3.8068   4.2000   4.2001   6.1171   6.1171

          k = 0.2060 0.1189 0.0000 (  5255 PWs)   bands (ev):

   -20.2280 -20.2280  -8.1386  -8.1386  -8.0095  -8.0095  -6.3137  -6.3137
     2.8813   2.8814   3.7935   3.7936   4.1866   4.1866   6.1054   6.1054

          k = 0.2050 0.1184 0.0000 (  5255 PWs)   bands (ev):

   -20.2376 -20.2376  -8.1499  -8.1498  -7.9843  -7.9843  -6.3030  -6.3030
     2.8682   2.8682   3.7804   3.7805   4.1732   4.1732   6.0936   6.0937

          k = 0.2040 0.1178 0.0000 (  5255 PWs)   bands (ev):

   -20.2472 -20.2472  -8.1611  -8.1611  -7.9591  -7.9591  -6.2923  -6.2923
     2.8551   2.8551   3.7673   3.7674   4.1598   4.1599   6.0818   6.0818

          k = 0.2030 0.1172 0.0000 (  5255 PWs)   bands (ev):

   -20.2567 -20.2567  -8.1722  -8.1722  -7.9339  -7.9339  -6.2816  -6.2816
     2.8420   2.8421   3.7543   3.7543   4.1466   4.1466   6.0698   6.0699

          k = 0.2020 0.1166 0.0000 (  5255 PWs)   bands (ev):

   -20.2661 -20.2661  -8.1833  -8.1833  -7.9088  -7.9088  -6.2709  -6.2709
     2.8290   2.8291   3.7413   3.7414   4.1334   4.1334   6.0578   6.0579

          k = 0.2010 0.1160 0.0000 (  5251 PWs)   bands (ev):

   -20.2755 -20.2755  -8.1944  -8.1944  -7.8837  -7.8837  -6.2602  -6.2602
     2.8161   2.8162   3.7284   3.7285   4.1202   4.1203   6.0458   6.0458

          k = 0.2000 0.1155 0.0000 (  5251 PWs)   bands (ev):

   -20.2849 -20.2849  -8.2054  -8.2054  -7.8586  -7.8586  -6.2494  -6.2494
     2.8033   2.8033   3.7156   3.7156   4.1072   4.1072   6.0338   6.0338

          k = 0.1990 0.1149 0.0000 (  5249 PWs)   bands (ev):

   -20.2942 -20.2942  -8.2164  -8.2164  -7.8336  -7.8336  -6.2387  -6.2387
     2.7905   2.7905   3.7028   3.7029   4.0942   4.0942   6.0217   6.0218

          k = 0.1980 0.1143 0.0000 (  5249 PWs)   bands (ev):

   -20.3035 -20.3035  -8.2273  -8.2273  -7.8086  -7.8086  -6.2280  -6.2280
     2.7778   2.7778   3.6901   3.6901   4.0812   4.0813   6.0097   6.0097

          k = 0.1970 0.1137 0.0000 (  5249 PWs)   bands (ev):

   -20.3127 -20.3127  -8.2381  -8.2381  -7.7837  -7.7837  -6.2173  -6.2173
     2.7651   2.7651   3.6774   3.6775   4.0683   4.0684   5.9977   5.9977

          k = 0.1960 0.1132 0.0000 (  5249 PWs)   bands (ev):

   -20.3219 -20.3219  -8.2489  -8.2489  -7.7588  -7.7588  -6.2065  -6.2065
     2.7525   2.7525   3.6648   3.6649   4.0555   4.0556   5.9856   5.9857

          k = 0.1950 0.1126 0.0000 (  5245 PWs)   bands (ev):

   -20.3310 -20.3310  -8.2597  -8.2597  -7.7339  -7.7339  -6.1958  -6.1958
     2.7400   2.7400   3.6523   3.6524   4.0428   4.0428   5.9736   5.9737

          k = 0.1940 0.1120 0.0000 (  5245 PWs)   bands (ev):

   -20.3401 -20.3401  -8.2704  -8.2704  -7.7091  -7.7091  -6.1850  -6.1850
     2.7275   2.7275   3.6398   3.6399   4.0301   4.0301   5.9617   5.9617

          k = 0.1930 0.1114 0.0000 (  5243 PWs)   bands (ev):

   -20.3491 -20.3491  -8.2810  -8.2810  -7.6844  -7.6844  -6.1743  -6.1743
     2.7151   2.7151   3.6274   3.6275   4.0175   4.0175   5.9497   5.9497

          k = 0.1920 0.1109 0.0000 (  5243 PWs)   bands (ev):

   -20.3581 -20.3581  -8.2916  -8.2916  -7.6596  -7.6596  -6.1635  -6.1635
     2.7027   2.7028   3.6151   3.6151   4.0049   4.0050   5.9378   5.9378

          k = 0.1910 0.1103 0.0000 (  5243 PWs)   bands (ev):

   -20.3671 -20.3671  -8.3022  -8.3022  -7.6350  -7.6350  -6.1528  -6.1528
     2.6905   2.6905   3.6028   3.6028   3.9924   3.9925   5.9259   5.9259

          k = 0.1900 0.1097 0.0000 (  5247 PWs)   bands (ev):

   -20.3760 -20.3760  -8.3127  -8.3127  -7.6103  -7.6103  -6.1420  -6.1420
     2.6783   2.6783   3.5906   3.5906   3.9800   3.9801   5.9141   5.9141

          k = 0.1890 0.1091 0.0000 (  5247 PWs)   bands (ev):

   -20.3849 -20.3849  -8.3231  -8.3231  -7.5858  -7.5858  -6.1313  -6.1313
     2.6661   2.6661   3.5784   3.5785   3.9677   3.9677   5.9023   5.9023

          k = 0.1880 0.1085 0.0000 (  5247 PWs)   bands (ev):

   -20.3937 -20.3937  -8.3335  -8.3335  -7.5612  -7.5612  -6.1205  -6.1205
     2.6540   2.6540   3.5663   3.5664   3.9554   3.9554   5.8905   5.8905

          k = 0.1870 0.1080 0.0000 (  5251 PWs)   bands (ev):

   -20.4024 -20.4024  -8.3439  -8.3439  -7.5367  -7.5367  -6.1098  -6.1098
     2.6420   2.6420   3.5542   3.5543   3.9431   3.9432   5.8788   5.8788

          k = 0.1860 0.1074 0.0000 (  5251 PWs)   bands (ev):

   -20.4112 -20.4112  -8.3541  -8.3541  -7.5123  -7.5123  -6.0990  -6.0990
     2.6300   2.6301   3.5423   3.5423   3.9310   3.9310   5.8671   5.8671

          k = 0.1850 0.1068 0.0000 (  5251 PWs)   bands (ev):

   -20.4198 -20.4198  -8.3644  -8.3644  -7.4879  -7.4879  -6.0883  -6.0883
     2.6181   2.6182   3.5304   3.5304   3.9189   3.9189   5.8555   5.8555

          k = 0.1840 0.1062 0.0000 (  5253 PWs)   bands (ev):

   -20.4285 -20.4285  -8.3746  -8.3746  -7.4636  -7.4636  -6.0775  -6.0775
     2.6063   2.6063   3.5185   3.5186   3.9069   3.9069   5.8439   5.8439

          k = 0.1830 0.1057 0.0000 (  5261 PWs)   bands (ev):

   -20.4371 -20.4371  -8.3847  -8.3847  -7.4393  -7.4393  -6.0668  -6.0668
     2.5945   2.5946   3.5067   3.5068   3.8949   3.8949   5.8324   5.8324

          k = 0.1820 0.1051 0.0000 (  5261 PWs)   bands (ev):

   -20.4456 -20.4456  -8.3948  -8.3948  -7.4150  -7.4150  -6.0560  -6.0560
     2.5828   2.5828   3.4950   3.4951   3.8830   3.8830   5.8209   5.8209

          k = 0.1810 0.1045 0.0000 (  5261 PWs)   bands (ev):

   -20.4541 -20.4541  -8.4048  -8.4048  -7.3909  -7.3909  -6.0453  -6.0453
     2.5712   2.5712   3.4833   3.4834   3.8712   3.8712   5.8095   5.8095

          k = 0.1800 0.1039 0.0000 (  5261 PWs)   bands (ev):

   -20.4625 -20.4625  -8.4148  -8.4148  -7.3667  -7.3667  -6.0345  -6.0345
     2.5596   2.5596   3.4717   3.4718   3.8594   3.8594   5.7981   5.7981

          k = 0.1790 0.1033 0.0000 (  5261 PWs)   bands (ev):

   -20.4709 -20.4709  -8.4247  -8.4247  -7.3426  -7.3426  -6.0238  -6.0238
     2.5481   2.5481   3.4602   3.4603   3.8477   3.8477   5.7868   5.7868

          k = 0.1780 0.1028 0.0000 (  5257 PWs)   bands (ev):

   -20.4793 -20.4793  -8.4346  -8.4346  -7.3186  -7.3186  -6.0130  -6.0130
     2.5366   2.5367   3.4487   3.4488   3.8360   3.8361   5.7755   5.7756

          k = 0.1770 0.1022 0.0000 (  5257 PWs)   bands (ev):

   -20.4876 -20.4876  -8.4444  -8.4444  -7.2947  -7.2947  -6.0023  -6.0023
     2.5253   2.5253   3.4373   3.4374   3.8245   3.8245   5.7643   5.7644

          k = 0.1760 0.1016 0.0000 (  5257 PWs)   bands (ev):

   -20.4959 -20.4959  -8.4541  -8.4541  -7.2707  -7.2707  -5.9916  -5.9916
     2.5139   2.5140   3.4260   3.4260   3.8129   3.8130   5.7532   5.7532

          k = 0.1750 0.1010 0.0000 (  5257 PWs)   bands (ev):

   -20.5041 -20.5041  -8.4638  -8.4638  -7.2469  -7.2469  -5.9809  -5.9809
     2.5027   2.5027   3.4147   3.4147   3.8015   3.8015   5.7421   5.7421

          k = 0.1740 0.1005 0.0000 (  5257 PWs)   bands (ev):

   -20.5123 -20.5123  -8.4735  -8.4735  -7.2231  -7.2231  -5.9702  -5.9702
     2.4915   2.4915   3.4034   3.4035   3.7901   3.7902   5.7311   5.7311

          k = 0.1730 0.0999 0.0000 (  5257 PWs)   bands (ev):

   -20.5204 -20.5204  -8.4831  -8.4831  -7.1993  -7.1993  -5.9594  -5.9594
     2.4803   2.4804   3.3923   3.3923   3.7788   3.7788   5.7201   5.7201

          k = 0.1720 0.0993 0.0000 (  5257 PWs)   bands (ev):

   -20.5285 -20.5285  -8.4927  -8.4927  -7.1756  -7.1756  -5.9487  -5.9487
     2.4693   2.4693   3.3812   3.3812   3.7675   3.7676   5.7091   5.7092

          k = 0.1710 0.0987 0.0000 (  5257 PWs)   bands (ev):

   -20.5365 -20.5365  -8.5022  -8.5022  -7.1520  -7.1520  -5.9380  -5.9380
     2.4583   2.4583   3.3701   3.3702   3.7564   3.7564   5.6983   5.6983

          k = 0.1700 0.0981 0.0000 (  5257 PWs)   bands (ev):

   -20.5445 -20.5445  -8.5116  -8.5116  -7.1285  -7.1285  -5.9274  -5.9274
     2.4473   2.4474   3.3592   3.3592   3.7452   3.7453   5.6875   5.6875

          k = 0.1690 0.0976 0.0000 (  5253 PWs)   bands (ev):

   -20.5524 -20.5524  -8.5210  -8.5210  -7.1049  -7.1049  -5.9167  -5.9167
     2.4365   2.4365   3.3483   3.3483   3.7342   3.7342   5.6767   5.6767

          k = 0.1680 0.0970 0.0000 (  5253 PWs)   bands (ev):

   -20.5603 -20.5603  -8.5303  -8.5303  -7.0815  -7.0815  -5.9060  -5.9060
     2.4257   2.4257   3.3374   3.3375   3.7232   3.7232   5.6660   5.6660

          k = 0.1670 0.0964 0.0000 (  5253 PWs)   bands (ev):

   -20.5682 -20.5682  -8.5396  -8.5396  -7.0581  -7.0581  -5.8954  -5.8954
     2.4149   2.4149   3.3266   3.3267   3.7123   3.7123   5.6554   5.6554

          k = 0.1660 0.0958 0.0000 (  5253 PWs)   bands (ev):

   -20.5760 -20.5760  -8.5489  -8.5489  -7.0348  -7.0348  -5.8847  -5.8847
     2.4042   2.4042   3.3159   3.3160   3.7014   3.7014   5.6448   5.6448

          k = 0.1650 0.0953 0.0000 (  5253 PWs)   bands (ev):

   -20.5837 -20.5837  -8.5580  -8.5580  -7.0115  -7.0115  -5.8741  -5.8741
     2.3936   2.3936   3.3053   3.3053   3.6906   3.6906   5.6343   5.6343

          k = 0.1640 0.0947 0.0000 (  5253 PWs)   bands (ev):

   -20.5914 -20.5914  -8.5672  -8.5672  -6.9884  -6.9884  -5.8634  -5.8634
     2.3830   2.3831   3.2947   3.2947   3.6799   3.6799   5.6238   5.6239

          k = 0.1630 0.0941 0.0000 (  5253 PWs)   bands (ev):

   -20.5991 -20.5991  -8.5762  -8.5762  -6.9652  -6.9652  -5.8528  -5.8528
     2.3726   2.3726   3.2841   3.2842   3.6692   3.6692   5.6135   5.6135

          k = 0.1620 0.0935 0.0000 (  5257 PWs)   bands (ev):

   -20.6067 -20.6067  -8.5853  -8.5853  -6.9422  -6.9422  -5.8422  -5.8422
     2.3621   2.3622   3.2737   3.2737   3.6586   3.6586   5.6031   5.6031

          k = 0.1610 0.0930 0.0000 (  5257 PWs)   bands (ev):

   -20.6143 -20.6143  -8.5942  -8.5942  -6.9192  -6.9192  -5.8316  -5.8316
     2.3518   2.3518   3.2633   3.2633   3.6481   3.6481   5.5928   5.5929

          k = 0.1600 0.0924 0.0000 (  5257 PWs)   bands (ev):

   -20.6218 -20.6218  -8.6032  -8.6032  -6.8963  -6.8963  -5.8211  -5.8211
     2.3415   2.3415   3.2529   3.2530   3.6376   3.6376   5.5826   5.5826

          k = 0.1590 0.0918 0.0000 (  5257 PWs)   bands (ev):

   -20.6293 -20.6293  -8.6120  -8.6120  -6.8734  -6.8734  -5.8105  -5.8105
     2.3312   2.3313   3.2427   3.2427   3.6272   3.6272   5.5725   5.5725

          k = 0.1580 0.0912 0.0000 (  5257 PWs)   bands (ev):

   -20.6367 -20.6367  -8.6208  -8.6208  -6.8506  -6.8506  -5.8000  -5.8000
     2.3211   2.3211   3.2325   3.2325   3.6169   3.6169   5.5624   5.5624

          k = 0.1570 0.0906 0.0000 (  5253 PWs)   bands (ev):

   -20.6441 -20.6441  -8.6296  -8.6296  -6.8279  -6.8279  -5.7894  -5.7894
     2.3110   2.3110   3.2223   3.2224   3.6066   3.6066   5.5524   5.5524

          k = 0.1560 0.0901 0.0000 (  5253 PWs)   bands (ev):

   -20.6514 -20.6514  -8.6383  -8.6383  -6.8053  -6.8053  -5.7789  -5.7789
     2.3009   2.3009   3.2122   3.2123   3.5964   3.5964   5.5424   5.5424

          k = 0.1550 0.0895 0.0000 (  5257 PWs)   bands (ev):

   -20.6587 -20.6587  -8.6469  -8.6469  -6.7827  -6.7827  -5.7684  -5.7684
     2.2909   2.2910   3.2022   3.2023   3.5862   3.5863   5.5325   5.5325

          k = 0.1540 0.0889 0.0000 (  5257 PWs)   bands (ev):

   -20.6660 -20.6660  -8.6555  -8.6555  -6.7602  -6.7602  -5.7579  -5.7579
     2.2810   2.2810   3.1923   3.1923   3.5761   3.5762   5.5226   5.5226

          k = 0.1530 0.0883 0.0000 (  5261 PWs)   bands (ev):

   -20.6732 -20.6732  -8.6641  -8.6641  -6.7378  -6.7378  -5.7475  -5.7475
     2.2712   2.2712   3.1824   3.1824   3.5661   3.5662   5.5128   5.5129

          k = 0.1520 0.0878 0.0000 (  5261 PWs)   bands (ev):

   -20.6804 -20.6803  -8.6725  -8.6725  -6.7154  -6.7154  -5.7370  -5.7370
     2.2614   2.2614   3.1725   3.1726   3.5562   3.5562   5.5031   5.5031

          k = 0.1510 0.0872 0.0000 (  5261 PWs)   bands (ev):

   -20.6875 -20.6875  -8.6810  -8.6810  -6.6932  -6.6932  -5.7266  -5.7266
     2.2517   2.2517   3.1628   3.1628   3.5463   3.5463   5.4935   5.4935

          k = 0.1500 0.0866 0.0000 (  5261 PWs)   bands (ev):

   -20.6945 -20.6945  -8.6894  -8.6893  -6.6710  -6.6710  -5.7162  -5.7162
     2.2420   2.2420   3.1531   3.1531   3.5365   3.5365   5.4839   5.4839

          k = 0.1490 0.0860 0.0000 (  5263 PWs)   bands (ev):

   -20.7015 -20.7015  -8.6977  -8.6977  -6.6489  -6.6488  -5.7058  -5.7058
     2.2324   2.2324   3.1434   3.1435   3.5267   3.5268   5.4743   5.4743

          k = 0.1480 0.0854 0.0000 (  5261 PWs)   bands (ev):

   -20.7085 -20.7085  -8.7059  -8.7059  -6.6268  -6.6268  -5.6954  -5.6954
     2.2229   2.2229   3.1339   3.1339   3.5170   3.5171   5.4648   5.4649

          k = 0.1470 0.0849 0.0000 (  5261 PWs)   bands (ev):

   -20.7154 -20.7154  -8.7142  -8.7142  -6.6049  -6.6048  -5.6851  -5.6851
     2.2134   2.2134   3.1243   3.1244   3.5074   3.5074   5.4554   5.4554

          k = 0.1460 0.0843 0.0000 (  5261 PWs)   bands (ev):

   -20.7223 -20.7223  -8.7223  -8.7223  -6.5830  -6.5830  -5.6748  -5.6748
     2.2040   2.2040   3.1149   3.1150   3.4978   3.4979   5.4461   5.4461

          k = 0.1450 0.0837 0.0000 (  5265 PWs)   bands (ev):

   -20.7291 -20.7291  -8.7304  -8.7304  -6.5612  -6.5612  -5.6645  -5.6645
     2.1947   2.1947   3.1055   3.1056   3.4884   3.4884   5.4368   5.4368

          k = 0.1440 0.0831 0.0000 (  5265 PWs)   bands (ev):

   -20.7359 -20.7359  -8.7385  -8.7385  -6.5395  -6.5395  -5.6542  -5.6542
     2.1854   2.1854   3.0962   3.0963   3.4789   3.4790   5.4276   5.4276

          k = 0.1430 0.0826 0.0000 (  5267 PWs)   bands (ev):

   -20.7427 -20.7427  -8.7465  -8.7465  -6.5178  -6.5178  -5.6439  -5.6439
     2.1762   2.1762   3.0869   3.0870   3.4696   3.4696   5.4184   5.4184

          k = 0.1420 0.0820 0.0000 (  5263 PWs)   bands (ev):

   -20.7494 -20.7494  -8.7544  -8.7544  -6.4963  -6.4963  -5.6337  -5.6337
     2.1670   2.1670   3.0778   3.0778   3.4603   3.4603   5.4093   5.4093

          k = 0.1410 0.0814 0.0000 (  5263 PWs)   bands (ev):

   -20.7560 -20.7560  -8.7623  -8.7623  -6.4748  -6.4748  -5.6235  -5.6235
     2.1579   2.1580   3.0686   3.0687   3.4510   3.4511   5.4002   5.4003

          k = 0.1400 0.0808 0.0000 (  5263 PWs)   bands (ev):

   -20.7626 -20.7626  -8.7702  -8.7702  -6.4534  -6.4534  -5.6133  -5.6133
     2.1489   2.1489   3.0596   3.0596   3.4419   3.4419   5.3913   5.3913

          k = 0.1390 0.0803 0.0000 (  5263 PWs)   bands (ev):

   -20.7691 -20.7691  -8.7779  -8.7779  -6.4321  -6.4321  -5.6032  -5.6032
     2.1400   2.1400   3.0506   3.0506   3.4328   3.4328   5.3824   5.3824

          k = 0.1380 0.0797 0.0000 (  5263 PWs)   bands (ev):

   -20.7757 -20.7757  -8.7857  -8.7857  -6.4109  -6.4109  -5.5931  -5.5931
     2.1311   2.1311   3.0416   3.0417   3.4237   3.4238   5.3735   5.3735

          k = 0.1370 0.0791 0.0000 (  5263 PWs)   bands (ev):

   -20.7821 -20.7821  -8.7933  -8.7933  -6.3898  -6.3898  -5.5830  -5.5830
     2.1222   2.1223   3.0328   3.0328   3.4148   3.4148   5.3647   5.3647

          k = 0.1360 0.0785 0.0000 (  5263 PWs)   bands (ev):

   -20.7885 -20.7885  -8.8010  -8.8010  -6.3688  -6.3688  -5.5729  -5.5729
     2.1135   2.1135   3.0240   3.0240   3.4058   3.4059   5.3560   5.3560

          k = 0.1350 0.0779 0.0000 (  5255 PWs)   bands (ev):

   -20.7949 -20.7949  -8.8085  -8.8085  -6.3478  -6.3478  -5.5628  -5.5628
     2.1048   2.1048   3.0152   3.0153   3.3970   3.3970   5.3473   5.3473

          k = 0.1340 0.0774 0.0000 (  5259 PWs)   bands (ev):

   -20.8012 -20.8012  -8.8160  -8.8160  -6.3270  -6.3270  -5.5528  -5.5528
     2.0962   2.0962   3.0065   3.0066   3.3882   3.3883   5.3387   5.3387

          k = 0.1330 0.0768 0.0000 (  5259 PWs)   bands (ev):

   -20.8075 -20.8075  -8.8235  -8.8235  -6.3062  -6.3062  -5.5429  -5.5429
     2.0876   2.0876   2.9979   2.9980   3.3795   3.3795   5.3302   5.3302

          k = 0.1320 0.0762 0.0000 (  5259 PWs)   bands (ev):

   -20.8137 -20.8137  -8.8309  -8.8309  -6.2856  -6.2856  -5.5329  -5.5329
     2.0791   2.0791   2.9894   2.9894   3.3709   3.3709   5.3217   5.3217

          k = 0.1310 0.0756 0.0000 (  5259 PWs)   bands (ev):

   -20.8199 -20.8199  -8.8382  -8.8382  -6.2650  -6.2650  -5.5230  -5.5230
     2.0706   2.0707   2.9809   2.9809   3.3623   3.3623   5.3133   5.3133

          k = 0.1300 0.0751 0.0000 (  5261 PWs)   bands (ev):

   -20.8260 -20.8260  -8.8455  -8.8455  -6.2445  -6.2445  -5.5131  -5.5131
     2.0623   2.0623   2.9725   2.9725   3.3538   3.3538   5.3049   5.3050

          k = 0.1290 0.0745 0.0000 (  5265 PWs)   bands (ev):

   -20.8321 -20.8321  -8.8528  -8.8528  -6.2242  -6.2242  -5.5032  -5.5032
     2.0539   2.0540   2.9641   2.9642   3.3453   3.3454   5.2967   5.2967

          k = 0.1280 0.0739 0.0000 (  5265 PWs)   bands (ev):

   -20.8382 -20.8382  -8.8600  -8.8600  -6.2039  -6.2039  -5.4934  -5.4934
     2.0457   2.0457   2.9558   2.9559   3.3369   3.3370   5.2884   5.2884

          k = 0.1270 0.0733 0.0000 (  5265 PWs)   bands (ev):

   -20.8441 -20.8441  -8.8671  -8.8671  -6.1837  -6.1837  -5.4836  -5.4836
     2.0375   2.0375   2.9476   2.9476   3.3286   3.3286   5.2803   5.2803

          k = 0.1260 0.0727 0.0000 (  5265 PWs)   bands (ev):

   -20.8501 -20.8501  -8.8742  -8.8742  -6.1636  -6.1636  -5.4739  -5.4739
     2.0294   2.0294   2.9394   2.9395   3.3204   3.3204   5.2722   5.2722

          k = 0.1250 0.0722 0.0000 (  5265 PWs)   bands (ev):

   -20.8560 -20.8560  -8.8812  -8.8812  -6.1436  -6.1436  -5.4642  -5.4642
     2.0213   2.0213   2.9313   2.9314   3.3122   3.3122   5.2641   5.2642

          k = 0.1240 0.0716 0.0000 (  5265 PWs)   bands (ev):

   -20.8618 -20.8618  -8.8881  -8.8881  -6.1237  -6.1237  -5.4545  -5.4545
     2.0133   2.0134   2.9233   2.9233   3.3041   3.3041   5.2562   5.2562

          k = 0.1230 0.0710 0.0000 (  5265 PWs)   bands (ev):

   -20.8677 -20.8677  -8.8951  -8.8951  -6.1040  -6.1040  -5.4448  -5.4448
     2.0054   2.0054   2.9153   2.9154   3.2960   3.2960   5.2483   5.2483

          k = 0.1220 0.0704 0.0000 (  5265 PWs)   bands (ev):

   -20.8734 -20.8734  -8.9019  -8.9019  -6.0843  -6.0843  -5.4352  -5.4352
     1.9975   1.9976   2.9074   2.9075   3.2880   3.2880   5.2404   5.2404

          k = 0.1210 0.0699 0.0000 (  5265 PWs)   bands (ev):

   -20.8791 -20.8791  -8.9087  -8.9087  -6.0647  -6.0647  -5.4257  -5.4257
     1.9897   1.9898   2.8996   2.8996   3.2801   3.2801   5.2326   5.2327

          k = 0.1200 0.0693 0.0000 (  5261 PWs)   bands (ev):

   -20.8848 -20.8848  -8.9155  -8.9155  -6.0452  -6.0452  -5.4161  -5.4161
     1.9820   1.9820   2.8918   2.8918   3.2722   3.2722   5.2249   5.2249

          k = 0.1190 0.0687 0.0000 (  5261 PWs)   bands (ev):

   -20.8904 -20.8904  -8.9221  -8.9221  -6.0259  -6.0259  -5.4067  -5.4067
     1.9743   1.9743   2.8841   2.8841   3.2644   3.2644   5.2173   5.2173

          k = 0.1180 0.0681 0.0000 (  5265 PWs)   bands (ev):

   -20.8960 -20.8960  -8.9288  -8.9288  -6.0066  -6.0066  -5.3972  -5.3972
     1.9667   1.9667   2.8764   2.8765   3.2567   3.2567   5.2097   5.2097

          k = 0.1170 0.0675 0.0000 (  5261 PWs)   bands (ev):

   -20.9015 -20.9015  -8.9354  -8.9354  -5.9875  -5.9875  -5.3878  -5.3878
     1.9592   1.9592   2.8688   2.8689   3.2490   3.2490   5.2022   5.2022

          k = 0.1160 0.0670 0.0000 (  5265 PWs)   bands (ev):

   -20.9070 -20.9070  -8.9419  -8.9419  -5.9684  -5.9684  -5.3784  -5.3784
     1.9517   1.9517   2.8613   2.8613   3.2414   3.2414   5.1947   5.1947

          k = 0.1150 0.0664 0.0000 (  5265 PWs)   bands (ev):

   -20.9124 -20.9124  -8.9484  -8.9484  -5.9495  -5.9495  -5.3691  -5.3691
     1.9443   1.9443   2.8538   2.8539   3.2339   3.2339   5.1873   5.1873

          k = 0.1140 0.0658 0.0000 (  5261 PWs)   bands (ev):

   -20.9178 -20.9178  -8.9548  -8.9548  -5.9307  -5.9307  -5.3598  -5.3598
     1.9369   1.9369   2.8465   2.8465   3.2264   3.2264   5.1800   5.1800

          k = 0.1130 0.0652 0.0000 (  5257 PWs)   bands (ev):

   -20.9232 -20.9232  -8.9611  -8.9611  -5.9120  -5.9120  -5.3506  -5.3506
     1.9296   1.9297   2.8391   2.8392   3.2190   3.2190   5.1727   5.1727

          k = 0.1120 0.0647 0.0000 (  5257 PWs)   bands (ev):

   -20.9284 -20.9284  -8.9674  -8.9674  -5.8934  -5.8934  -5.3414  -5.3414
     1.9224   1.9224   2.8319   2.8319   3.2116   3.2117   5.1655   5.1655

          k = 0.1110 0.0641 0.0000 (  5259 PWs)   bands (ev):

   -20.9337 -20.9337  -8.9737  -8.9737  -5.8749  -5.8749  -5.3323  -5.3323
     1.9153   1.9153   2.8247   2.8247   3.2044   3.2044   5.1583   5.1583

          k = 0.1100 0.0635 0.0000 (  5259 PWs)   bands (ev):

   -20.9389 -20.9389  -8.9799  -8.9799  -5.8565  -5.8565  -5.3232  -5.3232
     1.9082   1.9082   2.8175   2.8176   3.1972   3.1972   5.1512   5.1513

          k = 0.1090 0.0629 0.0000 (  5263 PWs)   bands (ev):

   -20.9440 -20.9440  -8.9860  -8.9860  -5.8383  -5.8383  -5.3141  -5.3141
     1.9011   1.9011   2.8104   2.8105   3.1900   3.1900   5.1442   5.1442

          k = 0.1080 0.0624 0.0000 (  5263 PWs)   bands (ev):

   -20.9492 -20.9492  -8.9921  -8.9921  -5.8202  -5.8202  -5.3051  -5.3051
     1.8942   1.8942   2.8034   2.8035   3.1829   3.1830   5.1373   5.1373

          k = 0.1070 0.0618 0.0000 (  5263 PWs)   bands (ev):

   -20.9542 -20.9542  -8.9981  -8.9981  -5.8021  -5.8021  -5.2962  -5.2962
     1.8873   1.8873   2.7965   2.7965   3.1759   3.1759   5.1304   5.1304

          k = 0.1060 0.0612 0.0000 (  5263 PWs)   bands (ev):

   -20.9592 -20.9592  -9.0041  -9.0041  -5.7843  -5.7843  -5.2873  -5.2873
     1.8804   1.8804   2.7896   2.7897   3.1690   3.1690   5.1236   5.1236

          k = 0.1050 0.0606 0.0000 (  5263 PWs)   bands (ev):

   -20.9642 -20.9642  -9.0100  -9.0100  -5.7665  -5.7665  -5.2784  -5.2784
     1.8737   1.8737   2.7828   2.7828   3.1621   3.1621   5.1168   5.1168

          k = 0.1040 0.0600 0.0000 (  5259 PWs)   bands (ev):

   -20.9691 -20.9691  -9.0159  -9.0159  -5.7488  -5.7488  -5.2696  -5.2696
     1.8669   1.8670   2.7761   2.7761   3.1553   3.1553   5.1101   5.1101

          k = 0.1030 0.0595 0.0000 (  5259 PWs)   bands (ev):

   -20.9740 -20.9740  -9.0217  -9.0217  -5.7313  -5.7313  -5.2609  -5.2609
     1.8603   1.8603   2.7694   2.7694   3.1485   3.1485   5.1035   5.1035

          k = 0.1020 0.0589 0.0000 (  5261 PWs)   bands (ev):

   -20.9788 -20.9788  -9.0274  -9.0274  -5.7139  -5.7139  -5.2522  -5.2522
     1.8537   1.8537   2.7627   2.7628   3.1418   3.1418   5.0969   5.0969

          k = 0.1010 0.0583 0.0000 (  5261 PWs)   bands (ev):

   -20.9836 -20.9836  -9.0331  -9.0331  -5.6966  -5.6966  -5.2435  -5.2435
     1.8472   1.8472   2.7562   2.7562   3.1352   3.1352   5.0904   5.0904

          k = 0.1000 0.0577 0.0000 (  5265 PWs)   bands (ev):

   -20.9883 -20.9883  -9.0388  -9.0388  -5.6795  -5.6795  -5.2349  -5.2349
     1.8407   1.8408   2.7497   2.7497   3.1286   3.1287   5.0839   5.0839

          k = 0.0990 0.0572 0.0000 (  5265 PWs)   bands (ev):

   -20.9930 -20.9930  -9.0444  -9.0444  -5.6624  -5.6624  -5.2264  -5.2264
     1.8344   1.8344   2.7433   2.7433   3.1222   3.1222   5.0775   5.0776

          k = 0.0980 0.0566 0.0000 (  5265 PWs)   bands (ev):

   -20.9976 -20.9976  -9.0499  -9.0499  -5.6455  -5.6455  -5.2179  -5.2179
     1.8280   1.8280   2.7369   2.7369   3.1157   3.1157   5.0712   5.0712

          k = 0.0970 0.0560 0.0000 (  5267 PWs)   bands (ev):

   -21.0022 -21.0022  -9.0554  -9.0554  -5.6288  -5.6287  -5.2094  -5.2094
     1.8218   1.8218   2.7306   2.7306   3.1094   3.1094   5.0650   5.0650

          k = 0.0960 0.0554 0.0000 (  5267 PWs)   bands (ev):

   -21.0068 -21.0068  -9.0608  -9.0608  -5.6121  -5.6121  -5.2011  -5.2011
     1.8156   1.8156   2.7244   2.7244   3.1031   3.1031   5.0588   5.0588

          k = 0.0950 0.0548 0.0000 (  5271 PWs)   bands (ev):

   -21.0113 -21.0113  -9.0662  -9.0662  -5.5956  -5.5956  -5.1928  -5.1928
     1.8094   1.8095   2.7182   2.7182   3.0968   3.0969   5.0527   5.0527

          k = 0.0940 0.0543 0.0000 (  5275 PWs)   bands (ev):

   -21.0157 -21.0157  -9.0715  -9.0715  -5.5792  -5.5792  -5.1845  -5.1845
     1.8034   1.8034   2.7121   2.7121   3.0907   3.0907   5.0466   5.0466

          k = 0.0930 0.0537 0.0000 (  5271 PWs)   bands (ev):

   -21.0201 -21.0201  -9.0767  -9.0767  -5.5630  -5.5630  -5.1763  -5.1763
     1.7974   1.7974   2.7060   2.7061   3.0846   3.0846   5.0406   5.0406

          k = 0.0920 0.0531 0.0000 (  5271 PWs)   bands (ev):

   -21.0245 -21.0245  -9.0819  -9.0819  -5.5468  -5.5468  -5.1682  -5.1682
     1.7914   1.7914   2.7001   2.7001   3.0785   3.0785   5.0347   5.0347

          k = 0.0910 0.0525 0.0000 (  5271 PWs)   bands (ev):

   -21.0288 -21.0288  -9.0871  -9.0871  -5.5309  -5.5309  -5.1601  -5.1601
     1.7856   1.7856   2.6942   2.6942   3.0726   3.0726   5.0288   5.0288

          k = 0.0900 0.0520 0.0000 (  5273 PWs)   bands (ev):

   -21.0331 -21.0331  -9.0922  -9.0922  -5.5150  -5.5150  -5.1521  -5.1521
     1.7797   1.7798   2.6883   2.6883   3.0667   3.0667   5.0230   5.0230

          k = 0.0890 0.0514 0.0000 (  5277 PWs)   bands (ev):

   -21.0373 -21.0373  -9.0972  -9.0972  -5.4993  -5.4993  -5.1441  -5.1441
     1.7740   1.7740   2.6825   2.6826   3.0608   3.0608   5.0172   5.0173

          k = 0.0880 0.0508 0.0000 (  5281 PWs)   bands (ev):

   -21.0414 -21.0414  -9.1022  -9.1022  -5.4838  -5.4838  -5.1362  -5.1362
     1.7683   1.7683   2.6768   2.6768   3.0550   3.0551   5.0116   5.0116

          k = 0.0870 0.0502 0.0000 (  5281 PWs)   bands (ev):

   -21.0456 -21.0456  -9.1071  -9.1071  -5.4683  -5.4683  -5.1284  -5.1284
     1.7627   1.7627   2.6711   2.6712   3.0493   3.0493   5.0060   5.0060

          k = 0.0860 0.0497 0.0000 (  5281 PWs)   bands (ev):

   -21.0496 -21.0496  -9.1119  -9.1119  -5.4530  -5.4530  -5.1206  -5.1206
     1.7571   1.7572   2.6656   2.6656   3.0437   3.0437   5.0004   5.0004

          k = 0.0850 0.0491 0.0000 (  5285 PWs)   bands (ev):

   -21.0537 -21.0537  -9.1168  -9.1168  -5.4379  -5.4379  -5.1129  -5.1129
     1.7517   1.7517   2.6600   2.6601   3.0381   3.0381   4.9949   4.9949

          k = 0.0840 0.0485 0.0000 (  5285 PWs)   bands (ev):

   -21.0577 -21.0577  -9.1215  -9.1215  -5.4229  -5.4229  -5.1053  -5.1053
     1.7462   1.7462   2.6546   2.6546   3.0326   3.0326   4.9895   4.9895

          k = 0.0830 0.0479 0.0000 (  5285 PWs)   bands (ev):

   -21.0616 -21.0616  -9.1262  -9.1262  -5.4080  -5.4080  -5.0977  -5.0977
     1.7409   1.7409   2.6492   2.6492   3.0271   3.0272   4.9841   4.9841

          k = 0.0820 0.0473 0.0000 (  5289 PWs)   bands (ev):

   -21.0655 -21.0655  -9.1308  -9.1308  -5.3933  -5.3933  -5.0902  -5.0902
     1.7356   1.7356   2.6438   2.6439   3.0218   3.0218   4.9788   4.9788

          k = 0.0810 0.0468 0.0000 (  5289 PWs)   bands (ev):

   -21.0693 -21.0693  -9.1354  -9.1354  -5.3787  -5.3787  -5.0827  -5.0827
     1.7303   1.7303   2.6386   2.6386   3.0164   3.0165   4.9736   4.9736

          k = 0.0800 0.0462 0.0000 (  5293 PWs)   bands (ev):

   -21.0731 -21.0731  -9.1400  -9.1400  -5.3643  -5.3643  -5.0754  -5.0754
     1.7252   1.7252   2.6334   2.6334   3.0112   3.0112   4.9684   4.9684

          k = 0.0790 0.0456 0.0000 (  5293 PWs)   bands (ev):

   -21.0769 -21.0769  -9.1444  -9.1444  -5.3500  -5.3500  -5.0681  -5.0681
     1.7201   1.7201   2.6282   2.6283   3.0060   3.0060   4.9633   4.9633

          k = 0.0780 0.0450 0.0000 (  5293 PWs)   bands (ev):

   -21.0806 -21.0806  -9.1489  -9.1489  -5.3359  -5.3359  -5.0608  -5.0608
     1.7150   1.7150   2.6232   2.6232   3.0009   3.0009   4.9583   4.9583

          k = 0.0770 0.0445 0.0000 (  5293 PWs)   bands (ev):

   -21.0842 -21.0842  -9.1532  -9.1532  -5.3219  -5.3219  -5.0537  -5.0537
     1.7100   1.7101   2.6181   2.6182   2.9958   2.9958   4.9533   4.9533

          k = 0.0760 0.0439 0.0000 (  5293 PWs)   bands (ev):

   -21.0878 -21.0878  -9.1575  -9.1575  -5.3081  -5.3081  -5.0466  -5.0466
     1.7051   1.7051   2.6132   2.6132   2.9908   2.9908   4.9484   4.9484

          k = 0.0750 0.0433 0.0000 (  5293 PWs)   bands (ev):

   -21.0914 -21.0914  -9.1618  -9.1618  -5.2944  -5.2944  -5.0396  -5.0396
     1.7003   1.7003   2.6083   2.6083   2.9859   2.9859   4.9436   4.9436

          k = 0.0740 0.0427 0.0000 (  5289 PWs)   bands (ev):

   -21.0949 -21.0949  -9.1660  -9.1660  -5.2809  -5.2809  -5.0326  -5.0326
     1.6955   1.6955   2.6035   2.6035   2.9810   2.9811   4.9388   4.9388

          k = 0.0730 0.0421 0.0000 (  5289 PWs)   bands (ev):

   -21.0984 -21.0984  -9.1701  -9.1701  -5.2675  -5.2675  -5.0257  -5.0257
     1.6908   1.6908   2.5988   2.5988   2.9762   2.9763   4.9341   4.9341

          k = 0.0720 0.0416 0.0000 (  5297 PWs)   bands (ev):

   -21.1018 -21.1018  -9.1742  -9.1742  -5.2543  -5.2543  -5.0189  -5.0189
     1.6861   1.6861   2.5941   2.5941   2.9715   2.9715   4.9294   4.9294

          k = 0.0710 0.0410 0.0000 (  5293 PWs)   bands (ev):

   -21.1051 -21.1051  -9.1782  -9.1782  -5.2412  -5.2412  -5.0122  -5.0122
     1.6815   1.6815   2.5894   2.5895   2.9668   2.9669   4.9248   4.9248

          k = 0.0700 0.0404 0.0000 (  5293 PWs)   bands (ev):

   -21.1085 -21.1085  -9.1822  -9.1822  -5.2283  -5.2283  -5.0056  -5.0056
     1.6770   1.6770   2.5849   2.5849   2.9622   2.9623   4.9203   4.9203

          k = 0.0690 0.0398 0.0000 (  5293 PWs)   bands (ev):

   -21.1117 -21.1117  -9.1861  -9.1861  -5.2156  -5.2156  -4.9990  -4.9990
     1.6725   1.6726   2.5804   2.5804   2.9577   2.9577   4.9158   4.9158

          k = 0.0680 0.0393 0.0000 (  5293 PWs)   bands (ev):

   -21.1150 -21.1150  -9.1900  -9.1900  -5.2030  -5.2030  -4.9925  -4.9925
     1.6681   1.6682   2.5760   2.5760   2.9532   2.9533   4.9114   4.9114

          k = 0.0670 0.0387 0.0000 (  5299 PWs)   bands (ev):

   -21.1182 -21.1182  -9.1938  -9.1938  -5.1906  -5.1906  -4.9861  -4.9861
     1.6638   1.6638   2.5716   2.5716   2.9488   2.9488   4.9071   4.9071

          k = 0.0660 0.0381 0.0000 (  5297 PWs)   bands (ev):

   -21.1213 -21.1213  -9.1975  -9.1975  -5.1783  -5.1783  -4.9797  -4.9797
     1.6595   1.6596   2.5673   2.5673   2.9445   2.9445   4.9028   4.9028

          k = 0.0650 0.0375 0.0000 (  5297 PWs)   bands (ev):

   -21.1244 -21.1244  -9.2012  -9.2012  -5.1662  -5.1662  -4.9735  -4.9735
     1.6553   1.6553   2.5631   2.5631   2.9402   2.9402   4.8986   4.8986

          k = 0.0640 0.0370 0.0000 (  5301 PWs)   bands (ev):

   -21.1274 -21.1274  -9.2048  -9.2048  -5.1542  -5.1542  -4.9673  -4.9673
     1.6512   1.6512   2.5589   2.5589   2.9360   2.9360   4.8945   4.8945

          k = 0.0630 0.0364 0.0000 (  5301 PWs)   bands (ev):

   -21.1304 -21.1304  -9.2084  -9.2084  -5.1424  -5.1424  -4.9612  -4.9612
     1.6471   1.6471   2.5548   2.5548   2.9319   2.9319   4.8904   4.8904

          k = 0.0620 0.0358 0.0000 (  5303 PWs)   bands (ev):

   -21.1334 -21.1334  -9.2119  -9.2119  -5.1308  -5.1308  -4.9551  -4.9551
     1.6431   1.6431   2.5507   2.5508   2.9278   2.9278   4.8864   4.8864

          k = 0.0610 0.0352 0.0000 (  5299 PWs)   bands (ev):

   -21.1363 -21.1363  -9.2154  -9.2154  -5.1194  -5.1194  -4.9492  -4.9492
     1.6392   1.6392   2.5468   2.5468   2.9238   2.9238   4.8824   4.8824

          k = 0.0600 0.0346 0.0000 (  5299 PWs)   bands (ev):

   -21.1391 -21.1391  -9.2188  -9.2188  -5.1081  -5.1081  -4.9433  -4.9433
     1.6353   1.6353   2.5429   2.5429   2.9198   2.9198   4.8785   4.8785

          k = 0.0590 0.0341 0.0000 (  5299 PWs)   bands (ev):

   -21.1419 -21.1419  -9.2222  -9.2222  -5.0970  -5.0970  -4.9376  -4.9376
     1.6315   1.6315   2.5390   2.5390   2.9159   2.9160   4.8747   4.8747

          k = 0.0580 0.0335 0.0000 (  5303 PWs)   bands (ev):

   -21.1447 -21.1447  -9.2255  -9.2255  -5.0860  -5.0860  -4.9319  -4.9319
     1.6277   1.6277   2.5352   2.5352   2.9121   2.9121   4.8710   4.8710

          k = 0.0570 0.0329 0.0000 (  5303 PWs)   bands (ev):

   -21.1474 -21.1474  -9.2287  -9.2287  -5.0752  -5.0752  -4.9263  -4.9263
     1.6240   1.6240   2.5315   2.5315   2.9084   2.9084   4.8673   4.8673

          k = 0.0560 0.0323 0.0000 (  5303 PWs)   bands (ev):

   -21.1501 -21.1501  -9.2319  -9.2319  -5.0646  -5.0646  -4.9207  -4.9207
     1.6204   1.6204   2.5279   2.5279   2.9047   2.9047   4.8636   4.8636

          k = 0.0550 0.0318 0.0000 (  5307 PWs)   bands (ev):

   -21.1527 -21.1527  -9.2350  -9.2350  -5.0542  -5.0542  -4.9153  -4.9153
     1.6168   1.6168   2.5243   2.5243   2.9011   2.9011   4.8601   4.8601

          k = 0.0540 0.0312 0.0000 (  5307 PWs)   bands (ev):

   -21.1552 -21.1552  -9.2381  -9.2381  -5.0439  -5.0439  -4.9099  -4.9099
     1.6133   1.6133   2.5207   2.5208   2.8975   2.8975   4.8566   4.8566

          k = 0.0530 0.0306 0.0000 (  5307 PWs)   bands (ev):

   -21.1578 -21.1578  -9.2411  -9.2411  -5.0338  -5.0338  -4.9047  -4.9047
     1.6099   1.6099   2.5173   2.5173   2.8940   2.8940   4.8531   4.8531

          k = 0.0520 0.0300 0.0000 (  5307 PWs)   bands (ev):

   -21.1602 -21.1602  -9.2441  -9.2441  -5.0239  -5.0239  -4.8995  -4.8995
     1.6065   1.6065   2.5139   2.5139   2.8906   2.8906   4.8498   4.8498

          k = 0.0510 0.0294 0.0000 (  5307 PWs)   bands (ev):

   -21.1627 -21.1627  -9.2470  -9.2470  -5.0141  -5.0141  -4.8944  -4.8944
     1.6032   1.6032   2.5106   2.5106   2.8872   2.8872   4.8465   4.8465

          k = 0.0500 0.0289 0.0000 (  5307 PWs)   bands (ev):

   -21.1651 -21.1651  -9.2498  -9.2498  -5.0045  -5.0045  -4.8894  -4.8894
     1.6000   1.6000   2.5073   2.5073   2.8839   2.8840   4.8432   4.8432

          k = 0.0490 0.0283 0.0000 (  5307 PWs)   bands (ev):

   -21.1674 -21.1674  -9.2526  -9.2526  -4.9951  -4.9951  -4.8845  -4.8845
     1.5968   1.5968   2.5041   2.5041   2.8807   2.8807   4.8400   4.8400

          k = 0.0480 0.0277 0.0000 (  5307 PWs)   bands (ev):

   -21.1697 -21.1697  -9.2554  -9.2554  -4.9859  -4.9859  -4.8796  -4.8796
     1.5937   1.5937   2.5010   2.5010   2.8775   2.8776   4.8369   4.8369

          k = 0.0470 0.0271 0.0000 (  5305 PWs)   bands (ev):

   -21.1719 -21.1719  -9.2580  -9.2580  -4.9769  -4.9769  -4.8749  -4.8749
     1.5906   1.5906   2.4979   2.4979   2.8744   2.8745   4.8339   4.8339

          k = 0.0460 0.0266 0.0000 (  5305 PWs)   bands (ev):

   -21.1741 -21.1741  -9.2607  -9.2607  -4.9680  -4.9680  -4.8702  -4.8702
     1.5876   1.5876   2.4949   2.4949   2.8714   2.8714   4.8309   4.8309

          k = 0.0450 0.0260 0.0000 (  5305 PWs)   bands (ev):

   -21.1763 -21.1763  -9.2632  -9.2632  -4.9593  -4.9593  -4.8657  -4.8657
     1.5847   1.5847   2.4919   2.4919   2.8684   2.8685   4.8279   4.8280

          k = 0.0440 0.0254 0.0000 (  5301 PWs)   bands (ev):

   -21.1784 -21.1784  -9.2657  -9.2657  -4.9508  -4.9508  -4.8612  -4.8612
     1.5819   1.5819   2.4891   2.4891   2.8655   2.8656   4.8251   4.8251

          k = 0.0430 0.0248 0.0000 (  5301 PWs)   bands (ev):

   -21.1804 -21.1804  -9.2682  -9.2682  -4.9425  -4.9425  -4.8568  -4.8568
     1.5791   1.5791   2.4862   2.4863   2.8627   2.8627   4.8223   4.8223

          k = 0.0420 0.0242 0.0000 (  5301 PWs)   bands (ev):

   -21.1824 -21.1824  -9.2706  -9.2706  -4.9343  -4.9343  -4.8525  -4.8525
     1.5763   1.5763   2.4835   2.4835   2.8599   2.8599   4.8196   4.8196

          k = 0.0410 0.0237 0.0000 (  5301 PWs)   bands (ev):

   -21.1844 -21.1844  -9.2729  -9.2729  -4.9264  -4.9264  -4.8483  -4.8483
     1.5737   1.5737   2.4808   2.4808   2.8572   2.8572   4.8169   4.8169

          k = 0.0400 0.0231 0.0000 (  5301 PWs)   bands (ev):

   -21.1863 -21.1863  -9.2752  -9.2752  -4.9186  -4.9186  -4.8442  -4.8442
     1.5711   1.5711   2.4782   2.4782   2.8546   2.8546   4.8143   4.8143

          k = 0.0390 0.0225 0.0000 (  5301 PWs)   bands (ev):

   -21.1882 -21.1882  -9.2774  -9.2774  -4.9110  -4.9110  -4.8402  -4.8402
     1.5685   1.5685   2.4756   2.4756   2.8520   2.8520   4.8118   4.8118

          k = 0.0380 0.0219 0.0000 (  5297 PWs)   bands (ev):

   -21.1900 -21.1900  -9.2796  -9.2796  -4.9036  -4.9036  -4.8363  -4.8363
     1.5661   1.5661   2.4731   2.4732   2.8495   2.8495   4.8093   4.8093

          k = 0.0370 0.0214 0.0000 (  5297 PWs)   bands (ev):

   -21.1917 -21.1917  -9.2817  -9.2817  -4.8963  -4.8963  -4.8325  -4.8325
     1.5637   1.5637   2.4707   2.4707   2.8470   2.8471   4.8069   4.8069

          k = 0.0360 0.0208 0.0000 (  5297 PWs)   bands (ev):

   -21.1935 -21.1935  -9.2838  -9.2838  -4.8893  -4.8893  -4.8287  -4.8287
     1.5613   1.5613   2.4684   2.4684   2.8447   2.8447   4.8045   4.8045

          k = 0.0350 0.0202 0.0000 (  5297 PWs)   bands (ev):

   -21.1951 -21.1951  -9.2858  -9.2858  -4.8824  -4.8824  -4.8251  -4.8251
     1.5590   1.5590   2.4661   2.4661   2.8423   2.8424   4.8022   4.8022

          k = 0.0340 0.0196 0.0000 (  5293 PWs)   bands (ev):

   -21.1968 -21.1968  -9.2877  -9.2877  -4.8758  -4.8758  -4.8216  -4.8216
     1.5568   1.5568   2.4638   2.4638   2.8401   2.8401   4.8000   4.8000

          k = 0.0330 0.0191 0.0000 (  5293 PWs)   bands (ev):

   -21.1983 -21.1983  -9.2896  -9.2896  -4.8693  -4.8693  -4.8181  -4.8181
     1.5547   1.5547   2.4617   2.4617   2.8379   2.8379   4.7979   4.7979

          k = 0.0320 0.0185 0.0000 (  5293 PWs)   bands (ev):

   -21.1999 -21.1999  -9.2915  -9.2915  -4.8630  -4.8630  -4.8148  -4.8148
     1.5526   1.5526   2.4596   2.4596   2.8358   2.8358   4.7958   4.7958

          k = 0.0310 0.0179 0.0000 (  5293 PWs)   bands (ev):

   -21.2014 -21.2014  -9.2932  -9.2932  -4.8569  -4.8569  -4.8115  -4.8115
     1.5506   1.5506   2.4575   2.4575   2.8337   2.8337   4.7938   4.7938

          k = 0.0300 0.0173 0.0000 (  5293 PWs)   bands (ev):

   -21.2028 -21.2028  -9.2950  -9.2950  -4.8510  -4.8510  -4.8084  -4.8084
     1.5486   1.5486   2.4555   2.4556   2.8317   2.8317   4.7918   4.7918

          k = 0.0290 0.0167 0.0000 (  5297 PWs)   bands (ev):

   -21.2042 -21.2042  -9.2966  -9.2966  -4.8453  -4.8453  -4.8053  -4.8053
     1.5467   1.5467   2.4536   2.4537   2.8298   2.8298   4.7899   4.7899

          k = 0.0280 0.0162 0.0000 (  5299 PWs)   bands (ev):

   -21.2055 -21.2055  -9.2982  -9.2982  -4.8398  -4.8398  -4.8024  -4.8024
     1.5449   1.5449   2.4518   2.4518   2.8280   2.8280   4.7881   4.7881

          k = 0.0270 0.0156 0.0000 (  5299 PWs)   bands (ev):

   -21.2068 -21.2068  -9.2998  -9.2998  -4.8345  -4.8345  -4.7995  -4.7995
     1.5431   1.5431   2.4500   2.4500   2.8262   2.8262   4.7863   4.7863

          k = 0.0260 0.0150 0.0000 (  5295 PWs)   bands (ev):

   -21.2081 -21.2081  -9.3013  -9.3013  -4.8293  -4.8293  -4.7967  -4.7967
     1.5414   1.5414   2.4483   2.4483   2.8244   2.8244   4.7846   4.7846

          k = 0.0250 0.0144 0.0000 (  5299 PWs)   bands (ev):

   -21.2093 -21.2093  -9.3027  -9.3027  -4.8244  -4.8244  -4.7940  -4.7940
     1.5398   1.5398   2.4467   2.4467   2.8228   2.8228   4.7830   4.7830

          k = 0.0240 0.0139 0.0000 (  5299 PWs)   bands (ev):

   -21.2104 -21.2104  -9.3041  -9.3041  -4.8197  -4.8197  -4.7914  -4.7914
     1.5382   1.5382   2.4451   2.4451   2.8212   2.8212   4.7814   4.7814

          k = 0.0230 0.0133 0.0000 (  5295 PWs)   bands (ev):

   -21.2116 -21.2116  -9.3054  -9.3054  -4.8151  -4.8151  -4.7889  -4.7889
     1.5367   1.5367   2.4436   2.4436   2.8196   2.8196   4.7799   4.7799

          k = 0.0220 0.0127 0.0000 (  5299 PWs)   bands (ev):

   -21.2126 -21.2126  -9.3067  -9.3067  -4.8108  -4.8108  -4.7866  -4.7866
     1.5352   1.5352   2.4421   2.4421   2.8182   2.8182   4.7784   4.7784

          k = 0.0210 0.0121 0.0000 (  5299 PWs)   bands (ev):

   -21.2136 -21.2136  -9.3079  -9.3079  -4.8067  -4.8067  -4.7842  -4.7842
     1.5339   1.5339   2.4407   2.4407   2.8168   2.8168   4.7771   4.7771

          k = 0.0200 0.0115 0.0000 (  5299 PWs)   bands (ev):

   -21.2146 -21.2146  -9.3091  -9.3091  -4.8027  -4.8027  -4.7820  -4.7820
     1.5325   1.5326   2.4394   2.4394   2.8154   2.8154   4.7757   4.7757

          k = 0.0190 0.0110 0.0000 (  5299 PWs)   bands (ev):

   -21.2155 -21.2155  -9.3102  -9.3102  -4.7990  -4.7990  -4.7799  -4.7799
     1.5313   1.5313   2.4381   2.4381   2.8142   2.8142   4.7745   4.7745

          k = 0.0180 0.0104 0.0000 (  5299 PWs)   bands (ev):

   -21.2164 -21.2164  -9.3112  -9.3112  -4.7955  -4.7955  -4.7779  -4.7779
     1.5301   1.5301   2.4369   2.4369   2.8130   2.8130   4.7733   4.7733

          k = 0.0170 0.0098 0.0000 (  5303 PWs)   bands (ev):

   -21.2172 -21.2172  -9.3122  -9.3122  -4.7922  -4.7922  -4.7759  -4.7759
     1.5290   1.5290   2.4358   2.4358   2.8118   2.8118   4.7722   4.7722

          k = 0.0160 0.0092 0.0000 (  5303 PWs)   bands (ev):

   -21.2180 -21.2180  -9.3131  -9.3131  -4.7891  -4.7891  -4.7741  -4.7741
     1.5279   1.5279   2.4347   2.4347   2.8107   2.8107   4.7711   4.7711

          k = 0.0150 0.0087 0.0000 (  5303 PWs)   bands (ev):

   -21.2187 -21.2187  -9.3140  -9.3140  -4.7862  -4.7862  -4.7723  -4.7723
     1.5269   1.5269   2.4337   2.4337   2.8097   2.8097   4.7701   4.7701

          k = 0.0140 0.0081 0.0000 (  5303 PWs)   bands (ev):

   -21.2194 -21.2194  -9.3148  -9.3148  -4.7835  -4.7835  -4.7706  -4.7706
     1.5260   1.5260   2.4328   2.4328   2.8088   2.8088   4.7692   4.7692

          k = 0.0130 0.0075 0.0000 (  5295 PWs)   bands (ev):

   -21.2201 -21.2201  -9.3156  -9.3156  -4.7811  -4.7811  -4.7690  -4.7690
     1.5251   1.5251   2.4319   2.4319   2.8079   2.8079   4.7683   4.7683

          k = 0.0120 0.0069 0.0000 (  5301 PWs)   bands (ev):

   -21.2206 -21.2206  -9.3163  -9.3163  -4.7788  -4.7788  -4.7675  -4.7675
     1.5243   1.5243   2.4311   2.4311   2.8071   2.8071   4.7675   4.7675

          k = 0.0110 0.0064 0.0000 (  5301 PWs)   bands (ev):

   -21.2212 -21.2212  -9.3170  -9.3170  -4.7768  -4.7768  -4.7660  -4.7660
     1.5236   1.5236   2.4304   2.4304   2.8063   2.8063   4.7668   4.7668

          k = 0.0100 0.0058 0.0000 (  5301 PWs)   bands (ev):

   -21.2217 -21.2217  -9.3175  -9.3175  -4.7750  -4.7750  -4.7647  -4.7647
     1.5229   1.5229   2.4297   2.4297   2.8056   2.8056   4.7661   4.7661

          k = 0.0090 0.0052 0.0000 (  5301 PWs)   bands (ev):

   -21.2221 -21.2221  -9.3181  -9.3181  -4.7734  -4.7734  -4.7634  -4.7634
     1.5223   1.5223   2.4291   2.4291   2.8050   2.8050   4.7655   4.7655

          k = 0.0080 0.0046 0.0000 (  5297 PWs)   bands (ev):

   -21.2225 -21.2225  -9.3186  -9.3186  -4.7719  -4.7719  -4.7623  -4.7623
     1.5218   1.5218   2.4285   2.4285   2.8045   2.8045   4.7649   4.7649

          k = 0.0070 0.0040 0.0000 (  5297 PWs)   bands (ev):

   -21.2229 -21.2229  -9.3190  -9.3190  -4.7707  -4.7707  -4.7612  -4.7612
     1.5213   1.5213   2.4280   2.4280   2.8040   2.8040   4.7645   4.7645

          k = 0.0060 0.0035 0.0000 (  5295 PWs)   bands (ev):

   -21.2232 -21.2232  -9.3194  -9.3194  -4.7697  -4.7697  -4.7603  -4.7603
     1.5209   1.5209   2.4276   2.4276   2.8036   2.8036   4.7640   4.7640

          k = 0.0050 0.0029 0.0000 (  5295 PWs)   bands (ev):

   -21.2235 -21.2235  -9.3197  -9.3197  -4.7688  -4.7688  -4.7595  -4.7595
     1.5205   1.5205   2.4273   2.4273   2.8032   2.8032   4.7637   4.7637

          k = 0.0040 0.0023 0.0000 (  5295 PWs)   bands (ev):

   -21.2237 -21.2237  -9.3199  -9.3199  -4.7681  -4.7681  -4.7589  -4.7589
     1.5202   1.5202   2.4270   2.4270   2.8029   2.8029   4.7634   4.7634

          k = 0.0030 0.0017 0.0000 (  5295 PWs)   bands (ev):

   -21.2238 -21.2238  -9.3201  -9.3201  -4.7676  -4.7676  -4.7583  -4.7583
     1.5200   1.5200   2.4267   2.4267   2.8027   2.8027   4.7632   4.7632

          k = 0.0020 0.0012 0.0000 (  5295 PWs)   bands (ev):

   -21.2239 -21.2239  -9.3203  -9.3203  -4.7672  -4.7672  -4.7580  -4.7580
     1.5198   1.5198   2.4266   2.4266   2.8025   2.8025   4.7630   4.7630

          k = 0.0010 0.0006 0.0000 (  5295 PWs)   bands (ev):

   -21.2240 -21.2240  -9.3203  -9.3203  -4.7669  -4.7669  -4.7577  -4.7577
     1.5197   1.5197   2.4265   2.4265   2.8024   2.8024   4.7629   4.7629

          k = 0.0000 0.0000 0.0000 (  5307 PWs)   bands (ev):

   -21.2240 -21.2240  -9.3204  -9.3204  -4.7669  -4.7669  -4.7577  -4.7577
     1.5197   1.5197   2.4264   2.4264   2.8024   2.8024   4.7629   4.7629

     Writing all to output data dir ../tmp/graphene.save/ :
     XML data file, pseudopotentials, collected wavefunctions
 
     init_run     :      3.01s CPU      3.54s WALL (       1 calls)
     electrons    :    331.30s CPU    409.71s WALL (       1 calls)

     Called by init_run:
     wfcinit      :      0.00s CPU      0.14s WALL (       1 calls)
     wfcinit:wfcr :      7.31s CPU      7.82s WALL (    1501 calls)
     potinit      :      0.02s CPU      0.37s WALL (       1 calls)
     hinit0       :      2.93s CPU      2.96s WALL (       1 calls)

     Called by electrons:
     c_bands      :    331.29s CPU    409.67s WALL (       1 calls)
     v_of_rho     :      0.01s CPU      0.01s WALL (       1 calls)
     v_h          :      0.00s CPU      0.00s WALL (       1 calls)
     v_xc         :      0.01s CPU      0.01s WALL (       1 calls)
     newd         :      0.01s CPU      0.01s WALL (       1 calls)
     PAW_pot      :      0.01s CPU      0.01s WALL (       1 calls)

     Called by c_bands:
     init_us_2    :      0.07s CPU      0.07s WALL (    1501 calls)
     cegterg      :    197.31s CPU    205.63s WALL (    2256 calls)

     Called by sum_band:

     Called by *egterg:
     cdiaghg      :     55.96s CPU     56.91s WALL (   36324 calls)
     cegterg:over :     10.87s CPU     11.41s WALL (   34823 calls)
     cegterg:upda :      5.53s CPU      5.62s WALL (   34823 calls)
     cegterg:last :      1.92s CPU      1.94s WALL (    5207 calls)
     h_psi        :    122.60s CPU    129.54s WALL (   38580 calls)
     s_psi        :      2.26s CPU      2.41s WALL (   38580 calls)
     g_psi        :      0.53s CPU      0.54s WALL (   34823 calls)

     Called by h_psi:
     h_psi:calbec :      3.06s CPU      3.26s WALL (   38580 calls)
     vloc_psi     :    116.10s CPU    122.67s WALL (   38580 calls)
     add_vuspsi   :      2.42s CPU      2.57s WALL (   38580 calls)

     General routines
     calbec       :      2.91s CPU      3.10s WALL (   38580 calls)
     fft          :      0.01s CPU      0.01s WALL (      19 calls)
     ffts         :      0.00s CPU      0.00s WALL (       4 calls)
     fftw         :     88.85s CPU     93.93s WALL ( 1755116 calls)
     interpolate  :      0.00s CPU      0.00s WALL (       4 calls)
     davcio       :      0.22s CPU     65.68s WALL (    3002 calls)
 
     Parallel routines

     PAW routines
     PAW_pot      :      0.01s CPU      0.01s WALL (       1 calls)
 
     PWSCF        :   5m42.71s CPU  10m 9.42s WALL

 
   This run was terminated on:   6:37:27  29Jan2026            

=------------------------------------------------------------------------------=
   JOB DONE.
=------------------------------------------------------------------------------=
