
     Program PWSCF v.7.4.1 starts on  5Jan2026 at 17: 9:32 

     This program is part of the open-source Quantum ESPRESSO suite
     for quantum simulation of materials; please cite
         "P. Giannozzi et al., J. Phys.:Condens. Matter 21 395502 (2009);
         "P. Giannozzi et al., J. Phys.:Condens. Matter 29 465901 (2017);
         "P. Giannozzi et al., J. Chem. Phys. 152 154105 (2020);
          URL http://www.quantum-espresso.org", 
     in publications or presentations arising from this work. More details at
     http://www.quantum-espresso.org/quote

     Parallel version (MPI), running on    20 processors

     MPI processes distributed on     1 nodes
     54644 MiB available memory on the printing compute node when the environment starts
 
     Reading input from 2-zgnr_nscf.in

     Current dimensions of program PWSCF are:
     Max number of different atomic species (ntypx) = 10
     Max number of k-points (npk) =  40000
     Max angular momentum in pseudopotentials (lmaxx) =  4
     Message from routine input:
     WARNING: "startingwfc" set to random may spoil restart
     file C.pbe-n-kjpaw_psl.1.0.0.UPF: wavefunction(s)  2S 2P renormalized
     file H.pbe-kjpaw_psl.1.0.0.UPF: wavefunction(s)  1S renormalized
 
     R & G space division:  proc/nbgrp/npool/nimage =      20
     Subspace diagonalization in iterative solution of the eigenvalue problem:
     a serial algorithm will be used

 
     Parallelization info
     --------------------
     sticks:   dense  smooth     PW     G-vecs:    dense   smooth      PW
     Min         864     346    100               276076    69876   11008
     Max         865     347    101               276087    69889   11021
     Sum       17289    6937   2011              5521603  1397719  220277
 
     Using Slab Decomposition
 


     bravais-lattice index     =            0
     lattice parameter (alat)  =       4.6761  a.u.
     unit-cell volume          =   17651.6635 (a.u.)^3
     number of atoms/cell      =            6
     number of atomic types    =            2
     number of electrons       =        18.00
     number of Kohn-Sham states=           13
     kinetic-energy cutoff     =      70.0000  Ry
     charge density cutoff     =     700.0000  Ry
     Exchange-correlation= SLA  PW   PBX  PBC
                           (   1   4   3   4   0   0   0)

     celldm(1)=   4.676134  celldm(2)=   0.000000  celldm(3)=   0.000000
     celldm(4)=   0.000000  celldm(5)=   0.000000  celldm(6)=   0.000000

     crystal axes: (cart. coord. in units of alat)
               a(1) = (   0.000000   0.000000   1.000000 )  
               a(2) = (  14.197609   0.000000   0.000000 )  
               a(3) = (   0.000000  12.159330   0.000000 )  

     reciprocal axes: (cart. coord. in units 2 pi/alat)
               b(1) = (  0.000000  0.000000  1.000000 )  
               b(2) = (  0.070434  0.000000  0.000000 )  
               b(3) = (  0.000000  0.082241  0.000000 )  


     PseudoPot. # 1 for C  read from file:
     ../../../PP_C/C.pbe-n-kjpaw_psl.1.0.0.UPF
     MD5 check sum: 5f16ad9a65e90284d1d834d4ab3b0f7d
     Pseudo is Projector augmented-wave + core cor, Zval =  4.0
     Generated using &quot;atomic&quot; code by A. Dal Corso  v.6.3
     Shape of augmentation charge: PSQ
     Using radial grid of 1073 points,  4 beta functions with: 
                l(1) =   0
                l(2) =   0
                l(3) =   1
                l(4) =   1
     Q(r) pseudized with 0 coefficients 


     PseudoPot. # 2 for H  read from file:
     ../../../PP_C/H.pbe-kjpaw_psl.1.0.0.UPF
     MD5 check sum: d81a744832360e4a8af0b0b5b123bc2a
     Pseudo is Projector augmented-wave, Zval =  1.0
     Generated using &quot;atomic&quot; code by A. Dal Corso  v.6.3MaX
     Shape of augmentation charge: PSQ
     Using radial grid of  929 points,  2 beta functions with: 
                l(1) =   0
                l(2) =   0
     Q(r) pseudized with 0 coefficients 


     atomic species   valence    mass     pseudopotential
     C                 4.00    12.01100     C ( 1.00)
     H                 1.00     1.00790     H ( 1.00)

     No symmetry found


                                    s                        frac. trans.

      isym =  1     identity                                     

 cryst.   s( 1) = (     1          0          0      )
                  (     0          1          0      )
                  (     0          0          1      )

 cart.    s( 1) = (  1.0000000  0.0000000  0.0000000 )
                  (  0.0000000  1.0000000  0.0000000 )
                  (  0.0000000  0.0000000  1.0000000 )


   Cartesian axes

     site n.     atom                  positions (alat units)
         1        C      tau(   1) = (   6.5023148   6.0618223   0.0000000  )
         2        C      tau(   2) = (   6.7901427   6.0618223   0.4985326  )
         3        C      tau(   3) = (   7.3657985   6.0618223   0.4985326  )
         4        C      tau(   4) = (   7.6536264   6.0618223   0.0000000  )
         5        H      tau(   5) = (   6.0618223   6.0618223   0.0000000  )
         6        H      tau(   6) = (   8.0941189   6.0618223   0.0000000  )

   Crystallographic axes

     site n.     atom                  positions (cryst. coord.)
         1        C      tau(   1) = (  0.0000000  0.4579866  0.4985326  )
         2        C      tau(   2) = (  0.4985326  0.4782596  0.4985326  )
         3        C      tau(   3) = (  0.4985326  0.5188056  0.4985326  )
         4        C      tau(   4) = (  0.0000000  0.5390785  0.4985326  )
         5        H      tau(   5) = (  0.0000000  0.4269608  0.4985326  )
         6        H      tau(   6) = (  0.0000000  0.5701044  0.4985326  )

     number of k points=    76  Gaussian smearing, width (Ry)=  0.0020
                       cart. coord. in units 2pi/alat
        k(    1) = (   0.0000000   0.0000000   0.0000000), wk =   0.0133333
        k(    2) = (   0.0000000   0.0000000   0.0066667), wk =   0.0266667
        k(    3) = (   0.0000000   0.0000000   0.0133333), wk =   0.0266667
        k(    4) = (   0.0000000   0.0000000   0.0200000), wk =   0.0266667
        k(    5) = (   0.0000000   0.0000000   0.0266667), wk =   0.0266667
        k(    6) = (   0.0000000   0.0000000   0.0333333), wk =   0.0266667
        k(    7) = (   0.0000000   0.0000000   0.0400000), wk =   0.0266667
        k(    8) = (   0.0000000   0.0000000   0.0466667), wk =   0.0266667
        k(    9) = (   0.0000000   0.0000000   0.0533333), wk =   0.0266667
        k(   10) = (   0.0000000   0.0000000   0.0600000), wk =   0.0266667
        k(   11) = (   0.0000000   0.0000000   0.0666667), wk =   0.0266667
        k(   12) = (   0.0000000   0.0000000   0.0733333), wk =   0.0266667
        k(   13) = (   0.0000000   0.0000000   0.0800000), wk =   0.0266667
        k(   14) = (   0.0000000   0.0000000   0.0866667), wk =   0.0266667
        k(   15) = (   0.0000000   0.0000000   0.0933333), wk =   0.0266667
        k(   16) = (   0.0000000   0.0000000   0.1000000), wk =   0.0266667
        k(   17) = (   0.0000000   0.0000000   0.1066667), wk =   0.0266667
        k(   18) = (   0.0000000   0.0000000   0.1133333), wk =   0.0266667
        k(   19) = (   0.0000000   0.0000000   0.1200000), wk =   0.0266667
        k(   20) = (   0.0000000   0.0000000   0.1266667), wk =   0.0266667
        k(   21) = (   0.0000000   0.0000000   0.1333333), wk =   0.0266667
        k(   22) = (   0.0000000   0.0000000   0.1400000), wk =   0.0266667
        k(   23) = (   0.0000000   0.0000000   0.1466667), wk =   0.0266667
        k(   24) = (   0.0000000   0.0000000   0.1533333), wk =   0.0266667
        k(   25) = (   0.0000000   0.0000000   0.1600000), wk =   0.0266667
        k(   26) = (   0.0000000   0.0000000   0.1666667), wk =   0.0266667
        k(   27) = (   0.0000000   0.0000000   0.1733333), wk =   0.0266667
        k(   28) = (   0.0000000   0.0000000   0.1800000), wk =   0.0266667
        k(   29) = (   0.0000000   0.0000000   0.1866667), wk =   0.0266667
        k(   30) = (   0.0000000   0.0000000   0.1933333), wk =   0.0266667
        k(   31) = (   0.0000000   0.0000000   0.2000000), wk =   0.0266667
        k(   32) = (   0.0000000   0.0000000   0.2066667), wk =   0.0266667
        k(   33) = (   0.0000000   0.0000000   0.2133333), wk =   0.0266667
        k(   34) = (   0.0000000   0.0000000   0.2200000), wk =   0.0266667
        k(   35) = (   0.0000000   0.0000000   0.2266667), wk =   0.0266667
        k(   36) = (   0.0000000   0.0000000   0.2333333), wk =   0.0266667
        k(   37) = (   0.0000000   0.0000000   0.2400000), wk =   0.0266667
        k(   38) = (   0.0000000   0.0000000   0.2466667), wk =   0.0266667
        k(   39) = (   0.0000000   0.0000000   0.2533333), wk =   0.0266667
        k(   40) = (   0.0000000   0.0000000   0.2600000), wk =   0.0266667
        k(   41) = (   0.0000000   0.0000000   0.2666667), wk =   0.0266667
        k(   42) = (   0.0000000   0.0000000   0.2733333), wk =   0.0266667
        k(   43) = (   0.0000000   0.0000000   0.2800000), wk =   0.0266667
        k(   44) = (   0.0000000   0.0000000   0.2866667), wk =   0.0266667
        k(   45) = (   0.0000000   0.0000000   0.2933333), wk =   0.0266667
        k(   46) = (   0.0000000   0.0000000   0.3000000), wk =   0.0266667
        k(   47) = (   0.0000000   0.0000000   0.3066667), wk =   0.0266667
        k(   48) = (   0.0000000   0.0000000   0.3133333), wk =   0.0266667
        k(   49) = (   0.0000000   0.0000000   0.3200000), wk =   0.0266667
        k(   50) = (   0.0000000   0.0000000   0.3266667), wk =   0.0266667
        k(   51) = (   0.0000000   0.0000000   0.3333333), wk =   0.0266667
        k(   52) = (   0.0000000   0.0000000   0.3400000), wk =   0.0266667
        k(   53) = (   0.0000000   0.0000000   0.3466667), wk =   0.0266667
        k(   54) = (   0.0000000   0.0000000   0.3533333), wk =   0.0266667
        k(   55) = (   0.0000000   0.0000000   0.3600000), wk =   0.0266667
        k(   56) = (   0.0000000   0.0000000   0.3666667), wk =   0.0266667
        k(   57) = (   0.0000000   0.0000000   0.3733333), wk =   0.0266667
        k(   58) = (   0.0000000   0.0000000   0.3800000), wk =   0.0266667
        k(   59) = (   0.0000000   0.0000000   0.3866667), wk =   0.0266667
        k(   60) = (   0.0000000   0.0000000   0.3933333), wk =   0.0266667
        k(   61) = (   0.0000000   0.0000000   0.4000000), wk =   0.0266667
        k(   62) = (   0.0000000   0.0000000   0.4066667), wk =   0.0266667
        k(   63) = (   0.0000000   0.0000000   0.4133333), wk =   0.0266667
        k(   64) = (   0.0000000   0.0000000   0.4200000), wk =   0.0266667
        k(   65) = (   0.0000000   0.0000000   0.4266667), wk =   0.0266667
        k(   66) = (   0.0000000   0.0000000   0.4333333), wk =   0.0266667
        k(   67) = (   0.0000000   0.0000000   0.4400000), wk =   0.0266667
        k(   68) = (   0.0000000   0.0000000   0.4466667), wk =   0.0266667
        k(   69) = (   0.0000000   0.0000000   0.4533333), wk =   0.0266667
        k(   70) = (   0.0000000   0.0000000   0.4600000), wk =   0.0266667
        k(   71) = (   0.0000000   0.0000000   0.4666667), wk =   0.0266667
        k(   72) = (   0.0000000   0.0000000   0.4733333), wk =   0.0266667
        k(   73) = (   0.0000000   0.0000000   0.4800000), wk =   0.0266667
        k(   74) = (   0.0000000   0.0000000   0.4866667), wk =   0.0266667
        k(   75) = (   0.0000000   0.0000000   0.4933333), wk =   0.0266667
        k(   76) = (   0.0000000   0.0000000  -0.5000000), wk =   0.0133333

                       cryst. coord.
        k(    1) = (   0.0000000   0.0000000   0.0000000), wk =   0.0133333
        k(    2) = (   0.0066667   0.0000000   0.0000000), wk =   0.0266667
        k(    3) = (   0.0133333   0.0000000   0.0000000), wk =   0.0266667
        k(    4) = (   0.0200000   0.0000000   0.0000000), wk =   0.0266667
        k(    5) = (   0.0266667   0.0000000   0.0000000), wk =   0.0266667
        k(    6) = (   0.0333333   0.0000000   0.0000000), wk =   0.0266667
        k(    7) = (   0.0400000   0.0000000   0.0000000), wk =   0.0266667
        k(    8) = (   0.0466667   0.0000000   0.0000000), wk =   0.0266667
        k(    9) = (   0.0533333   0.0000000   0.0000000), wk =   0.0266667
        k(   10) = (   0.0600000   0.0000000   0.0000000), wk =   0.0266667
        k(   11) = (   0.0666667   0.0000000   0.0000000), wk =   0.0266667
        k(   12) = (   0.0733333   0.0000000   0.0000000), wk =   0.0266667
        k(   13) = (   0.0800000   0.0000000   0.0000000), wk =   0.0266667
        k(   14) = (   0.0866667   0.0000000   0.0000000), wk =   0.0266667
        k(   15) = (   0.0933333   0.0000000   0.0000000), wk =   0.0266667
        k(   16) = (   0.1000000   0.0000000   0.0000000), wk =   0.0266667
        k(   17) = (   0.1066667   0.0000000   0.0000000), wk =   0.0266667
        k(   18) = (   0.1133333   0.0000000   0.0000000), wk =   0.0266667
        k(   19) = (   0.1200000   0.0000000   0.0000000), wk =   0.0266667
        k(   20) = (   0.1266667   0.0000000   0.0000000), wk =   0.0266667
        k(   21) = (   0.1333333   0.0000000   0.0000000), wk =   0.0266667
        k(   22) = (   0.1400000   0.0000000   0.0000000), wk =   0.0266667
        k(   23) = (   0.1466667   0.0000000   0.0000000), wk =   0.0266667
        k(   24) = (   0.1533333   0.0000000   0.0000000), wk =   0.0266667
        k(   25) = (   0.1600000   0.0000000   0.0000000), wk =   0.0266667
        k(   26) = (   0.1666667   0.0000000   0.0000000), wk =   0.0266667
        k(   27) = (   0.1733333   0.0000000   0.0000000), wk =   0.0266667
        k(   28) = (   0.1800000   0.0000000   0.0000000), wk =   0.0266667
        k(   29) = (   0.1866667   0.0000000   0.0000000), wk =   0.0266667
        k(   30) = (   0.1933333   0.0000000   0.0000000), wk =   0.0266667
        k(   31) = (   0.2000000   0.0000000   0.0000000), wk =   0.0266667
        k(   32) = (   0.2066667   0.0000000   0.0000000), wk =   0.0266667
        k(   33) = (   0.2133333   0.0000000   0.0000000), wk =   0.0266667
        k(   34) = (   0.2200000   0.0000000   0.0000000), wk =   0.0266667
        k(   35) = (   0.2266667   0.0000000   0.0000000), wk =   0.0266667
        k(   36) = (   0.2333333   0.0000000   0.0000000), wk =   0.0266667
        k(   37) = (   0.2400000   0.0000000   0.0000000), wk =   0.0266667
        k(   38) = (   0.2466667   0.0000000   0.0000000), wk =   0.0266667
        k(   39) = (   0.2533333   0.0000000   0.0000000), wk =   0.0266667
        k(   40) = (   0.2600000   0.0000000   0.0000000), wk =   0.0266667
        k(   41) = (   0.2666667   0.0000000   0.0000000), wk =   0.0266667
        k(   42) = (   0.2733333   0.0000000   0.0000000), wk =   0.0266667
        k(   43) = (   0.2800000   0.0000000   0.0000000), wk =   0.0266667
        k(   44) = (   0.2866667   0.0000000   0.0000000), wk =   0.0266667
        k(   45) = (   0.2933333   0.0000000   0.0000000), wk =   0.0266667
        k(   46) = (   0.3000000   0.0000000   0.0000000), wk =   0.0266667
        k(   47) = (   0.3066667   0.0000000   0.0000000), wk =   0.0266667
        k(   48) = (   0.3133333   0.0000000   0.0000000), wk =   0.0266667
        k(   49) = (   0.3200000   0.0000000   0.0000000), wk =   0.0266667
        k(   50) = (   0.3266667   0.0000000   0.0000000), wk =   0.0266667
        k(   51) = (   0.3333333   0.0000000   0.0000000), wk =   0.0266667
        k(   52) = (   0.3400000   0.0000000   0.0000000), wk =   0.0266667
        k(   53) = (   0.3466667   0.0000000   0.0000000), wk =   0.0266667
        k(   54) = (   0.3533333   0.0000000   0.0000000), wk =   0.0266667
        k(   55) = (   0.3600000   0.0000000   0.0000000), wk =   0.0266667
        k(   56) = (   0.3666667   0.0000000   0.0000000), wk =   0.0266667
        k(   57) = (   0.3733333   0.0000000   0.0000000), wk =   0.0266667
        k(   58) = (   0.3800000   0.0000000   0.0000000), wk =   0.0266667
        k(   59) = (   0.3866667   0.0000000   0.0000000), wk =   0.0266667
        k(   60) = (   0.3933333   0.0000000   0.0000000), wk =   0.0266667
        k(   61) = (   0.4000000   0.0000000   0.0000000), wk =   0.0266667
        k(   62) = (   0.4066667   0.0000000   0.0000000), wk =   0.0266667
        k(   63) = (   0.4133333   0.0000000   0.0000000), wk =   0.0266667
        k(   64) = (   0.4200000   0.0000000   0.0000000), wk =   0.0266667
        k(   65) = (   0.4266667   0.0000000   0.0000000), wk =   0.0266667
        k(   66) = (   0.4333333   0.0000000   0.0000000), wk =   0.0266667
        k(   67) = (   0.4400000   0.0000000   0.0000000), wk =   0.0266667
        k(   68) = (   0.4466667   0.0000000   0.0000000), wk =   0.0266667
        k(   69) = (   0.4533333   0.0000000   0.0000000), wk =   0.0266667
        k(   70) = (   0.4600000   0.0000000   0.0000000), wk =   0.0266667
        k(   71) = (   0.4666667   0.0000000   0.0000000), wk =   0.0266667
        k(   72) = (   0.4733333   0.0000000   0.0000000), wk =   0.0266667
        k(   73) = (   0.4800000   0.0000000   0.0000000), wk =   0.0266667
        k(   74) = (   0.4866667   0.0000000   0.0000000), wk =   0.0266667
        k(   75) = (   0.4933333   0.0000000   0.0000000), wk =   0.0266667
        k(   76) = (  -0.5000000   0.0000000   0.0000000), wk =   0.0133333

     Dense  grid:  5521603 G-vectors     FFT dimensions: (  40, 576, 480)

     Smooth grid:  1397719 G-vectors     FFT dimensions: (  25, 360, 320)

     Dynamical RAM for                 wfc:       1.73 MB

     Dynamical RAM for     wfc (w. buffer):       1.73 MB

     Dynamical RAM for           str. fact:       8.43 MB

     Dynamical RAM for           local pot:       0.00 MB

     Dynamical RAM for          nlocal pot:       4.79 MB

     Dynamical RAM for                qrad:       1.21 MB

     Dynamical RAM for          rho,v,vnew:      25.29 MB

     Dynamical RAM for           G-vectors:      16.33 MB

     Dynamical RAM for          h,s,v(r/c):       0.50 MB

     Dynamical RAM for          <psi|beta>:       0.01 MB

     Dynamical RAM for                 psi:      13.85 MB

     Dynamical RAM for                hpsi:      13.85 MB

     Dynamical RAM for                spsi:      13.85 MB

     Dynamical RAM for      wfcinit/wfcrot:       3.47 MB

     Dynamical RAM for           addusdens:     197.99 MB

     Estimated static dynamical RAM per process >      91.52 MB

     Estimated max dynamical RAM per process >     289.51 MB

     Estimated total dynamical RAM >       5.65 GB

     Atomic positions and unit cell read from directory:
     ../tmp/ZGNR.save/
 

     The potential is recalculated from file :
     ../tmp/ZGNR.save/charge-density


     negative rho (up, down):  5.331E-04 0.000E+00
     Starting wfcs are random
     Checking if some PAW data can be deallocated... 
       PAW data deallocated on    6 nodes for type:  1
       PAW data deallocated on   14 nodes for type:  2

     Band Structure Calculation
     Davidson diagonalization with overlap

     Computing kpt #:     1  of    76
     total cpu time spent up to now is       11.5 secs

     Computing kpt #:     2  of    76
     total cpu time spent up to now is       17.3 secs

     Computing kpt #:     3  of    76
     total cpu time spent up to now is       23.0 secs

     Computing kpt #:     4  of    76
     total cpu time spent up to now is       28.7 secs

     Computing kpt #:     5  of    76
     total cpu time spent up to now is       35.0 secs

     Computing kpt #:     6  of    76
     total cpu time spent up to now is       40.8 secs

     Computing kpt #:     7  of    76
     total cpu time spent up to now is       46.6 secs

     Computing kpt #:     8  of    76
     total cpu time spent up to now is       52.2 secs

     Computing kpt #:     9  of    76
     total cpu time spent up to now is       57.9 secs

     Computing kpt #:    10  of    76
     total cpu time spent up to now is       64.3 secs

     Computing kpt #:    11  of    76
     total cpu time spent up to now is       69.9 secs

     Computing kpt #:    12  of    76
     total cpu time spent up to now is       75.5 secs

     Computing kpt #:    13  of    76
     total cpu time spent up to now is       81.6 secs

     Computing kpt #:    14  of    76
     total cpu time spent up to now is       87.7 secs

     Computing kpt #:    15  of    76
     total cpu time spent up to now is       93.4 secs

     Computing kpt #:    16  of    76
     total cpu time spent up to now is       99.5 secs

     Computing kpt #:    17  of    76
     total cpu time spent up to now is      105.1 secs

     Computing kpt #:    18  of    76
     total cpu time spent up to now is      111.3 secs

     Computing kpt #:    19  of    76
     total cpu time spent up to now is      116.9 secs

     Computing kpt #:    20  of    76
     total cpu time spent up to now is      122.5 secs

     Computing kpt #:    21  of    76
     total cpu time spent up to now is      128.6 secs

     Computing kpt #:    22  of    76
     total cpu time spent up to now is      134.7 secs

     Computing kpt #:    23  of    76
     total cpu time spent up to now is      140.7 secs

     Computing kpt #:    24  of    76
     total cpu time spent up to now is      146.4 secs

     Computing kpt #:    25  of    76
     total cpu time spent up to now is      151.9 secs

     Computing kpt #:    26  of    76
     total cpu time spent up to now is      158.2 secs

     Computing kpt #:    27  of    76
     total cpu time spent up to now is      164.4 secs

     Computing kpt #:    28  of    76
     total cpu time spent up to now is      170.4 secs

     Computing kpt #:    29  of    76
     total cpu time spent up to now is      176.0 secs

     Computing kpt #:    30  of    76
     total cpu time spent up to now is      181.6 secs

     Computing kpt #:    31  of    76
     total cpu time spent up to now is      187.7 secs

     Computing kpt #:    32  of    76
     total cpu time spent up to now is      194.5 secs

     Computing kpt #:    33  of    76
     total cpu time spent up to now is      200.6 secs

     Computing kpt #:    34  of    76
     total cpu time spent up to now is      206.8 secs

     Computing kpt #:    35  of    76
     total cpu time spent up to now is      212.7 secs

     Computing kpt #:    36  of    76
     total cpu time spent up to now is      218.6 secs

     Computing kpt #:    37  of    76
     total cpu time spent up to now is      224.8 secs

     Computing kpt #:    38  of    76
     total cpu time spent up to now is      230.9 secs

     Computing kpt #:    39  of    76
     total cpu time spent up to now is      236.5 secs

     Computing kpt #:    40  of    76
     total cpu time spent up to now is      242.0 secs

     Computing kpt #:    41  of    76
     total cpu time spent up to now is      248.3 secs

     Computing kpt #:    42  of    76
     total cpu time spent up to now is      254.4 secs

     Computing kpt #:    43  of    76
     total cpu time spent up to now is      261.6 secs

     Computing kpt #:    44  of    76
     total cpu time spent up to now is      267.9 secs

     Computing kpt #:    45  of    76
     total cpu time spent up to now is      272.4 secs

     Computing kpt #:    46  of    76
     total cpu time spent up to now is      277.2 secs

     Computing kpt #:    47  of    76
     total cpu time spent up to now is      281.6 secs

     Computing kpt #:    48  of    76
     total cpu time spent up to now is      285.9 secs

     Computing kpt #:    49  of    76
     total cpu time spent up to now is      290.0 secs

     Computing kpt #:    50  of    76
     total cpu time spent up to now is      294.2 secs

     Computing kpt #:    51  of    76
     total cpu time spent up to now is      298.3 secs

     Computing kpt #:    52  of    76
     total cpu time spent up to now is      303.5 secs

     Computing kpt #:    53  of    76
     total cpu time spent up to now is      307.6 secs

     Computing kpt #:    54  of    76
     total cpu time spent up to now is      311.7 secs

     Computing kpt #:    55  of    76
     total cpu time spent up to now is      315.8 secs

     Computing kpt #:    56  of    76
     total cpu time spent up to now is      319.8 secs

     Computing kpt #:    57  of    76
     total cpu time spent up to now is      323.8 secs

     Computing kpt #:    58  of    76
     total cpu time spent up to now is      329.1 secs

     Computing kpt #:    59  of    76
     total cpu time spent up to now is      333.1 secs

     Computing kpt #:    60  of    76
     total cpu time spent up to now is      337.0 secs

     Computing kpt #:    61  of    76
     total cpu time spent up to now is      340.9 secs

     Computing kpt #:    62  of    76
     total cpu time spent up to now is      344.8 secs

     Computing kpt #:    63  of    76
     total cpu time spent up to now is      348.7 secs

     Computing kpt #:    64  of    76
     total cpu time spent up to now is      352.5 secs

     Computing kpt #:    65  of    76
     total cpu time spent up to now is      356.3 secs

     Computing kpt #:    66  of    76
     total cpu time spent up to now is      360.0 secs

     Computing kpt #:    67  of    76
     total cpu time spent up to now is      363.8 secs

     Computing kpt #:    68  of    76
     total cpu time spent up to now is      367.5 secs

     Computing kpt #:    69  of    76
     total cpu time spent up to now is      371.3 secs

     Computing kpt #:    70  of    76
     total cpu time spent up to now is      374.9 secs

     Computing kpt #:    71  of    76
     total cpu time spent up to now is      380.6 secs

     Computing kpt #:    72  of    76
     total cpu time spent up to now is      384.4 secs

     Computing kpt #:    73  of    76
     total cpu time spent up to now is      388.1 secs

     Computing kpt #:    74  of    76
     total cpu time spent up to now is      391.9 secs

     Computing kpt #:    75  of    76
     total cpu time spent up to now is      395.6 secs

     Computing kpt #:    76  of    76
     total cpu time spent up to now is      399.4 secs

     ethr =  5.56E-09,  avg # of iterations = 47.7

     total cpu time spent up to now is      399.4 secs

     End of band structure calculation

          k = 0.0000 0.0000 0.0000 (174695 PWs)   bands (ev):

   -22.0906 -19.5292 -15.0945 -11.1329 -10.1406  -9.1361  -7.9943  -7.6102
    -7.3942  -0.6665  -0.3942  -0.3739   0.0474

     occupation numbers 
     1.0000   1.0000   1.0000   1.0000   1.0000   1.0000   1.0000   1.0000
     1.0000   0.0000   0.0000   0.0000   0.0000

          k = 0.0000 0.0000 0.0067 (174675 PWs)   bands (ev):

   -22.0898 -19.5285 -15.0939 -11.1325 -10.1397  -9.1398  -7.9946  -7.6093
    -7.3975  -0.6663  -0.3932  -0.3729   0.0485

     occupation numbers 
     1.0000   1.0000   1.0000   1.0000   1.0000   1.0000   1.0000   1.0000
     1.0000   0.0000   0.0000   0.0000   0.0000

          k = 0.0000 0.0000 0.0133 (174581 PWs)   bands (ev):

   -22.0875 -19.5263 -15.0920 -11.1314 -10.1369  -9.1509  -7.9953  -7.6065
    -7.4076  -0.6656  -0.3904  -0.3698   0.0517

     occupation numbers 
     1.0000   1.0000   1.0000   1.0000   1.0000   1.0000   1.0000   1.0000
     1.0000   0.0000   0.0000   0.0000   0.0000

          k = 0.0000 0.0000 0.0200 (174629 PWs)   bands (ev):

   -22.0836 -19.5226 -15.0889 -11.1295 -10.1323  -9.1693  -7.9967  -7.6018
    -7.4243  -0.6644  -0.3858  -0.3647   0.0572

     occupation numbers 
     1.0000   1.0000   1.0000   1.0000   1.0000   1.0000   1.0000   1.0000
     1.0000   0.0000   0.0000   0.0000   0.0000

          k = 0.0000 0.0000 0.0267 (174635 PWs)   bands (ev):

   -22.0782 -19.5174 -15.0845 -11.1270 -10.1258  -9.1949  -7.9985  -7.5952
    -7.4476  -0.6628  -0.3792  -0.3576   0.0648

     occupation numbers 
     1.0000   1.0000   1.0000   1.0000   1.0000   1.0000   1.0000   1.0000
     1.0000   0.0000   0.0000   0.0000   0.0000

          k = 0.0000 0.0000 0.0333 (174689 PWs)   bands (ev):

   -22.0712 -19.5108 -15.0789 -11.1237 -10.1174  -9.2276  -8.0011  -7.5867
    -7.4774  -0.6609  -0.3709  -0.3484   0.0746

     occupation numbers 
     1.0000   1.0000   1.0000   1.0000   1.0000   1.0000   1.0000   1.0000
     1.0000   0.0000   0.0000   0.0000   0.0000

          k = 0.0000 0.0000 0.0400 (174667 PWs)   bands (ev):

   -22.0627 -19.5027 -15.0720 -11.1197 -10.1072  -9.2671  -8.0043  -7.5764
    -7.5134  -0.6585  -0.3607  -0.3372   0.0866

     occupation numbers 
     1.0000   1.0000   1.0000   1.0000   1.0000   1.0000   1.0000   1.0000
     1.0000   0.0000   0.0000   0.0000   0.0000

          k = 0.0000 0.0000 0.0467 (174641 PWs)   bands (ev):

   -22.0527 -19.4931 -15.0639 -11.1150 -10.0952  -9.3132  -8.0082  -7.5642
    -7.5557  -0.6559  -0.3486  -0.3239   0.1007

     occupation numbers 
     1.0000   1.0000   1.0000   1.0000   1.0000   1.0000   1.0000   1.0000
     1.0000   0.0000   0.0000   0.0000   0.0000

          k = 0.0000 0.0000 0.0533 (174637 PWs)   bands (ev):

   -22.0411 -19.4820 -15.0546 -11.1097 -10.0813  -9.3658  -8.0130  -7.6038
    -7.5501  -0.6531  -0.3347  -0.3086   0.1170

     occupation numbers 
     1.0000   1.0000   1.0000   1.0000   1.0000   1.0000   1.0000   1.0000
     1.0000   0.0000   0.0000   0.0000   0.0000

          k = 0.0000 0.0000 0.0600 (174611 PWs)   bands (ev):

   -22.0279 -19.4695 -15.0440 -11.1036 -10.0655  -9.4244  -8.0187  -7.6578
    -7.5341  -0.6501  -0.3190  -0.2913   0.1355

     occupation numbers 
     1.0000   1.0000   1.0000   1.0000   1.0000   1.0000   1.0000   1.0000
     1.0000   0.0000   0.0000   0.0000   0.0000

          k = 0.0000 0.0000 0.0667 (174575 PWs)   bands (ev):

   -22.0132 -19.4555 -15.0323 -11.0970 -10.0480  -9.4888  -8.0253  -7.7172
    -7.5163  -0.6470  -0.3015  -0.2720   0.1562

     occupation numbers 
     1.0000   1.0000   1.0000   1.0000   1.0000   1.0000   1.0000   1.0000
     1.0000   0.0000   0.0000   0.0000   0.0000

          k = 0.0000 0.0000 0.0733 (174619 PWs)   bands (ev):

   -21.9970 -19.4400 -15.0193 -11.0897 -10.0285  -9.5588  -8.0330  -7.7819
    -7.4966  -0.6439  -0.2823  -0.2507   0.1791

     occupation numbers 
     1.0000   1.0000   1.0000   1.0000   1.0000   1.0000   1.0000   1.0000
     1.0000   0.0000   0.0000   0.0000   0.0000

          k = 0.0000 0.0000 0.0800 (174669 PWs)   bands (ev):

   -21.9792 -19.4230 -15.0053 -11.0818 -10.0073  -9.6341  -8.0417  -7.8516
    -7.4750  -0.6410  -0.2612  -0.2274   0.2041

     occupation numbers 
     1.0000   1.0000   1.0000   1.0000   1.0000   1.0000   1.0000   1.0000
     1.0000   0.0000   0.0000   0.0000   0.0000

          k = 0.0000 0.0000 0.0867 (174599 PWs)   bands (ev):

   -21.9599 -19.4046 -14.9900 -11.0734  -9.9842  -9.7143  -8.0515  -7.9260
    -7.4516  -0.6383  -0.2384  -0.2021   0.2313

     occupation numbers 
     1.0000   1.0000   1.0000   1.0000   1.0000   1.0000   1.0000   1.0000
     1.0000   0.0000   0.0000   0.0000   0.0000

          k = 0.0000 0.0000 0.0933 (174527 PWs)   bands (ev):

   -21.9390 -19.3847 -14.9736 -11.0645  -9.9592  -9.7991  -8.0624  -8.0049
    -7.4263  -0.6360  -0.2139  -0.1748   0.2607

     occupation numbers 
     1.0000   1.0000   1.0000   1.0000   1.0000   1.0000   1.0000   1.0000
     1.0000   0.0000   0.0000   0.0000   0.0000

          k = 0.0000 0.0000 0.1000 (174569 PWs)   bands (ev):

   -21.9166 -19.3634 -14.9561 -11.0551  -9.9325  -9.8883  -8.0880  -8.0746
    -7.3991  -0.6342  -0.1876  -0.1456   0.2923

     occupation numbers 
     1.0000   1.0000   1.0000   1.0000   1.0000   1.0000   1.0000   1.0000
     1.0000   0.0000   0.0000   0.0000   0.0000

          k = 0.0000 0.0000 0.1067 (174579 PWs)   bands (ev):

   -21.8927 -19.3405 -14.9376 -11.0453  -9.9816  -9.9039  -8.1748  -8.0880
    -7.3701  -0.6330  -0.1597  -0.1143   0.3260

     occupation numbers 
     1.0000   1.0000   1.0000   1.0000   1.0000   1.0000   1.0000   1.0000
     1.0000   0.0000   0.0000   0.0000   0.0000

          k = 0.0000 0.0000 0.1133 (174579 PWs)   bands (ev):

   -21.8672 -19.3162 -14.9180 -11.0352 -10.0785  -9.8735  -8.2653  -8.1026
    -7.3393  -0.6326  -0.1301  -0.0811   0.3619

     occupation numbers 
     1.0000   1.0000   1.0000   1.0000   1.0000   1.0000   1.0000   1.0000
     1.0000   0.0000   0.0000   0.0000   0.0000

          k = 0.0000 0.0000 0.1200 (174589 PWs)   bands (ev):

   -21.8402 -19.2905 -14.8974 -11.0248 -10.1790  -9.8413  -8.3590  -8.1186
    -7.3066  -0.6332  -0.0989  -0.0460   0.4000

     occupation numbers 
     1.0000   1.0000   1.0000   1.0000   1.0000   1.0000   1.0000   1.0000
     1.0000   0.0000   0.0000   0.0000   0.0000

          k = 0.0000 0.0000 0.1267 (174629 PWs)   bands (ev):

   -21.8116 -19.2633 -14.8758 -11.0142 -10.2826  -9.8073  -8.4556  -8.1359
    -7.2721  -0.6349  -0.0660  -0.0089   0.4402

     occupation numbers 
     1.0000   1.0000   1.0000   1.0000   1.0000   1.0000   1.0000   1.0000
     1.0000   0.0000   0.0000   0.0000   0.0000

          k = 0.0000 0.0000 0.1333 (174613 PWs)   bands (ev):

   -21.7816 -19.2346 -14.8533 -11.0035 -10.3891  -9.7714  -8.5548  -8.1546
    -7.2357  -0.6379  -0.0316   0.0302   0.4827

     occupation numbers 
     1.0000   1.0000   1.0000   1.0000   1.0000   1.0000   1.0000   1.0000
     1.0000   0.0000   0.0000   0.0000   0.0000

          k = 0.0000 0.0000 0.1400 (174603 PWs)   bands (ev):

   -21.7500 -19.2044 -14.8300 -10.9929 -10.4981  -9.7338  -8.6563  -8.1746
    -7.1975  -0.6423   0.0043   0.0711   0.5273

     occupation numbers 
     1.0000   1.0000   1.0000   1.0000   1.0000   1.0000   1.0000   1.0000
     1.0000   0.0000   0.0000   0.0000   0.0000

          k = 0.0000 0.0000 0.1467 (174557 PWs)   bands (ev):

   -21.7168 -19.1728 -14.8058 -10.9824 -10.6094  -9.6944  -8.7597  -8.1961
    -7.1575  -0.6485   0.0418   0.1140   0.5740

     occupation numbers 
     1.0000   1.0000   1.0000   1.0000   1.0000   1.0000   1.0000   1.0000
     1.0000   0.0000   0.0000   0.0000   0.0000

          k = 0.0000 0.0000 0.1533 (174529 PWs)   bands (ev):

   -21.6822 -19.1398 -14.7809 -10.9723 -10.7228  -9.6532  -8.8647  -8.2191
    -7.1156  -0.6564   0.0807   0.1588   0.6230

     occupation numbers 
     1.0000   1.0000   1.0000   1.0000   1.0000   1.0000   1.0000   1.0000
     1.0000   0.0000   0.0000   0.0000   0.0000

          k = 0.0000 0.0000 0.1600 (174527 PWs)   bands (ev):

   -21.6460 -19.1052 -14.7554 -10.9628 -10.8378  -9.6103  -8.9708  -8.2435
    -7.0720  -0.6664   0.1211   0.2054   0.6741

     occupation numbers 
     1.0000   1.0000   1.0000   1.0000   1.0000   1.0000   1.0000   1.0000
     1.0000   0.0000   0.0000   0.0000   0.0000

          k = 0.0000 0.0000 0.1667 (174487 PWs)   bands (ev):

   -21.6083 -19.0693 -14.7293 -10.9543 -10.9541  -9.5656  -9.0776  -8.2694
    -7.0265  -0.6786   0.1628   0.2540   0.7274

     occupation numbers 
     1.0000   1.0000   1.0000   1.0000   1.0000   1.0000   1.0000   1.0000
     1.0000   0.0000   0.0000   0.0000   0.0000

          k = 0.0000 0.0000 0.1733 (174453 PWs)   bands (ev):

   -21.5691 -19.0319 -14.7028 -11.0718 -10.9466  -9.5191  -9.1846  -8.2969
    -6.9793  -0.6932   0.2059   0.3044   0.7828

     occupation numbers 
     1.0000   1.0000   1.0000   1.0000   1.0000   1.0000   1.0000   1.0000
     1.0000   0.0000   0.0000   0.0000   0.0000

          k = 0.0000 0.0000 0.1800 (174463 PWs)   bands (ev):

   -21.5283 -18.9930 -14.6759 -11.1901 -10.9408  -9.4709  -9.2911  -8.3259
    -6.9303  -0.7104   0.2503   0.3566   0.8405

     occupation numbers 
     1.0000   1.0000   1.0000   1.0000   1.0000   1.0000   1.0000   1.0000
     1.0000   0.0000   0.0000   0.0000   0.0000

          k = 0.0000 0.0000 0.1867 (174365 PWs)   bands (ev):

   -21.4861 -18.9527 -14.6490 -11.3090 -10.9371  -9.4209  -9.3966  -8.3565
    -6.8794  -0.7304   0.2960   0.4107   0.9002

     occupation numbers 
     1.0000   1.0000   1.0000   1.0000   1.0000   1.0000   1.0000   1.0000
     1.0000   0.0000   0.0000   0.0000   0.0000

          k = 0.0000 0.0000 0.1933 (174341 PWs)   bands (ev):

   -21.4423 -18.9109 -14.6220 -11.4279 -10.9363  -9.5002  -9.3692  -8.3887
    -6.8269  -0.7532   0.3429   0.4666   0.9622

     occupation numbers 
     1.0000   1.0000   1.0000   1.0000   1.0000   1.0000   1.0000   1.0000
     1.0000   0.0000   0.0000   0.0000   0.0000

          k = 0.0000 0.0000 0.2000 (174303 PWs)   bands (ev):

   -21.3970 -18.8677 -14.5954 -11.5466 -10.9392  -9.6008  -9.3158  -8.4225
    -6.7725  -0.7792   0.3910   0.5243   1.0263

     occupation numbers 
     1.0000   1.0000   1.0000   1.0000   1.0000   1.0000   1.0000   1.0000
     1.0000   0.0000   0.0000   0.0000   0.0000

          k = 0.0000 0.0000 0.2067 (174367 PWs)   bands (ev):

   -21.3503 -18.8231 -14.5693 -11.6646 -10.9469  -9.6974  -9.2607  -8.4579
    -6.7165  -0.8083   0.4403   0.5838   1.0926

     occupation numbers 
     1.0000   1.0000   1.0000   1.0000   1.0000   1.0000   1.0000   1.0000
     1.0000   0.0000   0.0000   0.0000   0.0000

          k = 0.0000 0.0000 0.2133 (174319 PWs)   bands (ev):

   -21.3020 -18.7770 -14.5440 -11.7815 -10.9608  -9.7884  -9.2040  -8.4950
    -6.6586  -0.8408   0.4907   0.6450   1.1610

     occupation numbers 
     1.0000   1.0000   1.0000   1.0000   1.0000   1.0000   1.0000   1.0000
     1.0000   0.0000   0.0000   0.0000   0.0000

          k = 0.0000 0.0000 0.2200 (174341 PWs)   bands (ev):

   -21.2523 -18.7295 -14.5200 -11.8967 -10.9822  -9.8723  -9.1455  -8.5337
    -6.5991  -0.8768   0.5421   0.7079   1.2315

     occupation numbers 
     1.0000   1.0000   1.0000   1.0000   1.0000   1.0000   1.0000   1.0000
     1.0000   0.0000   0.0000   0.0000   0.0000

          k = 0.0000 0.0000 0.2267 (174347 PWs)   bands (ev):

   -21.2010 -18.6805 -14.4977 -12.0098 -11.0128  -9.9475  -9.0854  -8.5741
    -6.5379  -0.9163   0.5946   0.7726   1.3042

     occupation numbers 
     1.0000   1.0000   1.0000   1.0000   1.0000   1.0000   1.0000   1.0000
     1.0000   0.0000   0.0000   0.0000   0.0000

          k = 0.0000 0.0000 0.2333 (174316 PWs)   bands (ev):

   -21.1483 -18.6301 -14.4776 -12.1199 -11.0538 -10.0126  -9.0237  -8.6161
    -6.4749  -0.9595   0.6482   0.8389   1.3791

     occupation numbers 
     1.0000   1.0000   1.0000   1.0000   1.0000   1.0000   1.0000   1.0000
     1.0000   0.0000   0.0000   0.0000   0.0000

          k = 0.0000 0.0000 0.2400 (174346 PWs)   bands (ev):

   -21.0940 -18.5784 -14.4605 -12.2264 -11.1062 -10.0665  -8.9603  -8.6597
    -6.4103  -1.0063   0.7027   0.9068   1.4560

     occupation numbers 
     1.0000   1.0000   1.0000   1.0000   1.0000   1.0000   1.0000   1.0000
     1.0000   0.0000   0.0000   0.0000   0.0000

          k = 0.0000 0.0000 0.2467 (174408 PWs)   bands (ev):

   -21.0384 -18.5251 -14.4472 -12.3283 -11.1701 -10.1091  -8.8954  -8.7050
    -6.3441  -1.0568   0.7582   0.9763   1.5351

     occupation numbers 
     1.0000   1.0000   1.0000   1.0000   1.0000   1.0000   1.0000   1.0000
     1.0000   0.0000   0.0000   0.0000   0.0000

          k = 0.0000 0.0000 0.2533 (174430 PWs)   bands (ev):

   -20.9812 -18.4705 -14.4385 -12.4247 -11.2449 -10.1409  -8.8288  -8.7519
    -6.2761  -1.1110   0.8148   1.0474   1.6163

     occupation numbers 
     1.0000   1.0000   1.0000   1.0000   1.0000   1.0000   1.0000   1.0000
     1.0000   0.0000   0.0000   0.0000   0.0000

          k = 0.0000 0.0000 0.2600 (174446 PWs)   bands (ev):

   -20.9226 -18.4145 -14.4355 -12.5143 -11.3295 -10.1629  -8.8005  -8.7607
    -6.2066  -1.1690   0.8723   1.1199   1.6995

     occupation numbers 
     1.0000   1.0000   1.0000   1.0000   1.0000   1.0000   1.0000   1.0000
     1.0000   0.0000   0.0000   0.0000   0.0000

          k = 0.0000 0.0000 0.2667 (174464 PWs)   bands (ev):

   -20.8625 -18.3570 -14.4394 -12.5960 -11.4224 -10.1767  -8.8506  -8.6911
    -6.1355  -1.2306   0.9308   1.1939   1.7848

     occupation numbers 
     1.0000   1.0000   1.0000   1.0000   1.0000   1.0000   1.0000   1.0000
     1.0000   0.0000   0.0000   0.0000   0.0000

          k = 0.0000 0.0000 0.2733 (174460 PWs)   bands (ev):

   -20.8009 -18.2982 -14.4512 -12.6686 -11.5221 -10.1836  -8.9024  -8.6199
    -6.0628  -1.2958   0.9903   1.2693   1.8720

     occupation numbers 
     1.0000   1.0000   1.0000   1.0000   1.0000   1.0000   1.0000   1.0000
     1.0000   0.0000   0.0000   0.0000   0.0000

          k = 0.0000 0.0000 0.2800 (174444 PWs)   bands (ev):

   -20.7379 -18.2379 -14.4721 -12.7309 -11.6273 -10.1850  -8.9557  -8.5473
    -5.9885  -1.3646   1.0509   1.3460   1.9612

     occupation numbers 
     1.0000   1.0000   1.0000   1.0000   1.0000   1.0000   1.0000   1.0000
     1.0000   0.0000   0.0000   0.0000   0.0000

          k = 0.0000 0.0000 0.2867 (174488 PWs)   bands (ev):

   -20.6735 -18.1763 -14.5030 -12.7820 -11.7368 -10.1819  -9.0106  -8.4732
    -5.9127  -1.4367   1.1125   1.4240   1.9661

     occupation numbers 
     1.0000   1.0000   1.0000   1.0000   1.0000   1.0000   1.0000   1.0000
     1.0000   0.0000   0.0000   0.0000   0.0000

          k = 0.0000 0.0000 0.2933 (174498 PWs)   bands (ev):

   -20.6076 -18.1133 -14.5442 -12.8214 -11.8496 -10.1755  -9.0669  -8.3977
    -5.8354  -1.5122   1.1753   1.5031   1.8761

     occupation numbers 
     1.0000   1.0000   1.0000   1.0000   1.0000   1.0000   1.0000   1.0000
     1.0000   0.0000   0.0000   0.0000   0.0000

          k = 0.0000 0.0000 0.3000 (174490 PWs)   bands (ev):

   -20.5404 -18.0489 -14.5959 -12.8489 -11.9650 -10.1662  -9.1247  -8.3208
    -5.7567  -1.5909   1.2391   1.5833   1.7747

     occupation numbers 
     1.0000   1.0000   1.0000   1.0000   1.0000   1.0000   1.0000   1.0000
     1.0000   0.0000   0.0000   0.0000   0.0000

          k = 0.0000 0.0000 0.3067 (174548 PWs)   bands (ev):

   -20.4717 -17.9831 -14.6577 -12.8648 -12.0824 -10.1549  -9.1840  -8.2426
    -5.6765  -1.6726   1.3042   1.6644   1.6660

     occupation numbers 
     1.0000   1.0000   1.0000   1.0000   1.0000   1.0000   1.0000   1.0000
     1.0000   0.0000   0.0000   0.0000   0.0000

          k = 0.0000 0.0000 0.3133 (174588 PWs)   bands (ev):

   -20.4016 -17.9159 -14.7290 -12.8698 -12.2012 -10.1419  -9.2447  -8.1631
    -5.5950  -1.7572   1.3705   1.5524   1.7463

     occupation numbers 
     1.0000   1.0000   1.0000   1.0000   1.0000   1.0000   1.0000   1.0000
     1.0000   0.0000   0.0000   0.0000   0.0000

          k = 0.0000 0.0000 0.3200 (174570 PWs)   bands (ev):

   -20.3301 -17.8474 -14.8086 -12.8649 -12.3211 -10.1277  -9.3067  -8.0823
    -5.5121  -1.8445   1.4352   1.4380   1.8289

     occupation numbers 
     1.0000   1.0000   1.0000   1.0000   1.0000   1.0000   1.0000   1.0000
     1.0000   0.0000   0.0000   0.0000   0.0000

          k = 0.0000 0.0000 0.3267 (174596 PWs)   bands (ev):

   -20.2573 -17.7776 -14.8956 -12.8511 -12.4418 -10.1125  -9.3700  -8.0003
    -5.4280  -1.9343   1.3152   1.5069   1.9121

     occupation numbers 
     1.0000   1.0000   1.0000   1.0000   1.0000   1.0000   1.0000   1.0000
     1.0000   0.0000   0.0000   0.0000   0.0000

          k = 0.0000 0.0000 0.3333 (174608 PWs)   bands (ev):

   -20.1830 -17.7064 -14.9887 -12.8295 -12.5629 -10.0966  -9.4346  -7.9172
    -5.3426  -2.0263   1.1932   1.5772   1.9955

     occupation numbers 
     1.0000   1.0000   1.0000   1.0000   1.0000   1.0000   1.0000   1.0000
     1.0000   0.0000   0.0000   0.0000   0.0000

          k = 0.0000 0.0000 0.3400 (174598 PWs)   bands (ev):

   -20.1075 -17.6338 -15.0870 -12.8010 -12.6843 -10.0802  -9.5004  -7.8330
    -5.2560  -2.1205   1.0696   1.6489   2.0790

     occupation numbers 
     1.0000   1.0000   1.0000   1.0000   1.0000   1.0000   1.0000   1.0000
     1.0000   0.0000   0.0000   0.0000   0.0000

          k = 0.0000 0.0000 0.3467 (174636 PWs)   bands (ev):

   -20.0306 -17.5600 -15.1895 -12.8058 -12.7667 -10.0635  -9.5674  -7.7479
    -5.1684  -2.2166   0.9449   1.7221   2.1624

     occupation numbers 
     1.0000   1.0000   1.0000   1.0000   1.0000   1.0000   1.0000   1.0000
     1.0000   0.0000   0.0000   0.0000   0.0000

          k = 0.0000 0.0000 0.3533 (174680 PWs)   bands (ev):

   -19.9524 -17.4848 -15.2954 -12.9272 -12.7273 -10.0467  -9.6354  -7.6618
    -5.0798  -2.3143   0.8195   1.7968   2.2454

     occupation numbers 
     1.0000   1.0000   1.0000   1.0000   1.0000   1.0000   1.0000   1.0000
     1.0000   0.0000   0.0000   0.0000   0.0000

          k = 0.0000 0.0000 0.3600 (174644 PWs)   bands (ev):

   -19.8729 -17.4084 -15.4039 -13.0484 -12.6835 -10.0299  -9.7045  -7.5749
    -4.9902  -2.4134   0.6938   1.8731   2.3275

     occupation numbers 
     1.0000   1.0000   1.0000   1.0000   1.0000   1.0000   1.0000   1.0000
     1.0000   0.0000   0.0000   0.0000   0.0000

          k = 0.0000 0.0000 0.3667 (174620 PWs)   bands (ev):

   -19.7921 -17.3306 -15.5145 -13.1693 -12.6358 -10.0132  -9.7746  -7.4873
    -4.8998  -2.5137   0.5679   1.9510   2.4085

     occupation numbers 
     1.0000   1.0000   1.0000   1.0000   1.0000   1.0000   1.0000   1.0000
     1.0000   0.0000   0.0000   0.0000   0.0000

          k = 0.0000 0.0000 0.3733 (174644 PWs)   bands (ev):

   -19.7102 -17.2516 -15.6266 -13.2897 -12.5847  -9.9968  -9.8456  -7.3991
    -4.8088  -2.6149   0.4422   2.0306   2.4878

     occupation numbers 
     1.0000   1.0000   1.0000   1.0000   1.0000   1.0000   1.0000   1.0000
     1.0000   0.0000   0.0000   0.0000   0.0000

          k = 0.0000 0.0000 0.3800 (174670 PWs)   bands (ev):

   -19.6270 -17.1714 -15.7399 -13.4096 -12.5307  -9.9807  -9.9174  -7.3104
    -4.7172  -2.7167   0.3171   2.1118   2.5651

     occupation numbers 
     1.0000   1.0000   1.0000   1.0000   1.0000   1.0000   1.0000   1.0000
     1.0000   0.0000   0.0000   0.0000   0.0000

          k = 0.0000 0.0000 0.3867 (174696 PWs)   bands (ev):

   -19.5426 -17.0899 -15.8538 -13.5288 -12.4741  -9.9904  -9.9647  -7.2215
    -4.6252  -2.8188   0.1927   2.1947   2.6397

     occupation numbers 
     1.0000   1.0000   1.0000   1.0000   1.0000   1.0000   1.0000   1.0000
     1.0000   0.0000   0.0000   0.0000   0.0000

          k = 0.0000 0.0000 0.3933 (174702 PWs)   bands (ev):

   -19.4572 -17.0072 -15.9682 -13.6473 -12.4152 -10.0637  -9.9496  -7.1325
    -4.5331  -2.9209   0.0695   2.2794   2.7110

     occupation numbers 
     1.0000   1.0000   1.0000   1.0000   1.0000   1.0000   1.0000   1.0000
     1.0000   0.0000   0.0000   0.0000   0.0000

          k = 0.0000 0.0000 0.4000 (174718 PWs)   bands (ev):

   -19.3707 -16.9234 -16.0826 -13.7651 -12.3542 -10.1378  -9.9350  -7.0436
    -4.4410  -3.0227  -0.0522   2.3657   2.7785

     occupation numbers 
     1.0000   1.0000   1.0000   1.0000   1.0000   1.0000   1.0000   1.0000
     1.0000   0.0000   0.0000   0.0000   0.0000

          k = 0.0000 0.0000 0.4067 (174712 PWs)   bands (ev):

   -19.2832 -16.8385 -16.1969 -13.8819 -12.2913 -10.2125  -9.9209  -6.9551
    -4.3492  -3.1238  -0.1721   2.4538   2.8416

     occupation numbers 
     1.0000   1.0000   1.0000   1.0000   1.0000   1.0000   1.0000   1.0000
     1.0000   0.0000   0.0000   0.0000   0.0000

          k = 0.0000 0.0000 0.4133 (174754 PWs)   bands (ev):

   -19.1948 -16.7525 -16.3108 -13.9977 -12.2267 -10.2878  -9.9076  -6.8674
    -4.2581  -3.2238  -0.2897   2.5435   2.8996

     occupation numbers 
     1.0000   1.0000   1.0000   1.0000   1.0000   1.0000   1.0000   1.0000
     1.0000   0.0000   0.0000   0.0000   0.0000

          k = 0.0000 0.0000 0.4200 (174742 PWs)   bands (ev):

   -19.1057 -16.6655 -16.4239 -14.1125 -12.1606 -10.3636  -9.8951  -6.7807
    -4.1680  -3.3222  -0.4046   2.6348   2.9521

     occupation numbers 
     1.0000   1.0000   1.0000   1.0000   1.0000   1.0000   1.0000   1.0000
     1.0000   0.0000   0.0000   0.0000   0.0000

          k = 0.0000 0.0000 0.4267 (174756 PWs)   bands (ev):

   -19.0159 -16.5777 -16.5361 -14.2260 -12.0930 -10.4398  -9.8833  -6.6955
    -4.0794  -3.4184  -0.5163   2.7278   2.9987

     occupation numbers 
     1.0000   1.0000   1.0000   1.0000   1.0000   1.0000   1.0000   1.0000
     1.0000   0.0000   0.0000   0.0000   0.0000

          k = 0.0000 0.0000 0.4333 (174760 PWs)   bands (ev):

   -18.9258 -16.6471 -16.4889 -14.3382 -12.0243 -10.5164  -9.8724  -6.6125
    -3.9929  -3.5119  -0.6241   2.8222   3.0394

     occupation numbers 
     1.0000   1.0000   1.0000   1.0000   1.0000   1.0000   1.0000   1.0000
     1.0000   0.0000   0.0000   0.0000   0.0000

          k = 0.0000 0.0000 0.4400 (174734 PWs)   bands (ev):

   -18.8354 -16.7565 -16.3996 -14.4489 -11.9544 -10.5933  -9.8624  -6.5321
    -3.9091  -3.6019  -0.7272   2.9179   3.0741

     occupation numbers 
     1.0000   1.0000   1.0000   1.0000   1.0000   1.0000   1.0000   1.0000
     1.0000   0.0000   0.0000   0.0000   0.0000

          k = 0.0000 0.0000 0.4467 (174748 PWs)   bands (ev):

   -18.7453 -16.8638 -16.3099 -14.5578 -11.8834 -10.6704  -9.8534  -6.4553
    -3.8290  -3.6876  -0.8249   3.0148   3.1031

     occupation numbers 
     1.0000   1.0000   1.0000   1.0000   1.0000   1.0000   1.0000   1.0000
     0.9998   0.0001   0.0000   0.0000   0.0000

          k = 0.0000 0.0000 0.4533 (174762 PWs)   bands (ev):

   -18.6559 -16.9684 -16.2201 -14.6645 -11.8115 -10.7477  -9.8453  -6.3828
    -3.7687  -3.7525  -0.9161   3.1123   3.1270

     occupation numbers 
     1.0000   1.0000   1.0000   1.0000   1.0000   1.0000   1.0000   1.0000
     0.6628   0.3373   0.0000   0.0000   0.0000

          k = 0.0000 0.0000 0.4600 (174732 PWs)   bands (ev):

   -18.5681 -17.0696 -16.1307 -14.7686 -11.7387 -10.8250  -9.8383  -6.3159
    -3.8420  -3.6832  -0.9996   3.1457   3.2106

     occupation numbers 
     1.0000   1.0000   1.0000   1.0000   1.0000   1.0000   1.0000   1.0000
     1.0000   0.0000   0.0000   0.0000   0.0000

          k = 0.0000 0.0000 0.4667 (174728 PWs)   bands (ev):

   -18.4832 -17.1659 -16.0427 -14.8691 -11.6652 -10.9025  -9.8322  -6.2556
    -3.9082  -3.6202  -1.0741   3.1606   3.3082

     occupation numbers 
     1.0000   1.0000   1.0000   1.0000   1.0000   1.0000   1.0000   1.0000
     1.0000   0.0000   0.0000   0.0000   0.0000

          k = 0.0000 0.0000 0.4733 (174728 PWs)   bands (ev):

   -18.4029 -17.2556 -15.9574 -14.9645 -11.5909 -10.9798  -9.8273  -6.2035
    -3.9653  -3.5657  -1.1381   3.1718   3.4039

     occupation numbers 
     1.0000   1.0000   1.0000   1.0000   1.0000   1.0000   1.0000   1.0000
     1.0000   0.0000   0.0000   0.0000   0.0000

          k = 0.0000 0.0000 0.4800 (174728 PWs)   bands (ev):

   -18.3304 -17.3353 -15.8775 -15.0524 -11.5161 -11.0571  -9.8234  -6.1609
    -4.0118  -3.5211  -1.1900   3.1799   3.4951

     occupation numbers 
     1.0000   1.0000   1.0000   1.0000   1.0000   1.0000   1.0000   1.0000
     1.0000   0.0000   0.0000   0.0000   0.0000

          k = 0.0000 0.0000 0.4867 (174758 PWs)   bands (ev):

   -18.2705 -17.4005 -15.8080 -15.1276 -11.4407 -11.1342  -9.8206  -6.1293
    -4.0462  -3.4879  -1.2285   3.1854   3.5767

     occupation numbers 
     1.0000   1.0000   1.0000   1.0000   1.0000   1.0000   1.0000   1.0000
     1.0000   0.0000   0.0000   0.0000   0.0000

          k = 0.0000 0.0000 0.4933 (174786 PWs)   bands (ev):

   -18.2297 -17.4444 -15.7577 -15.1813 -11.3651 -11.2109  -9.8190  -6.1097
    -4.0674  -3.4675  -1.2521   3.1885   3.6379

     occupation numbers 
     1.0000   1.0000   1.0000   1.0000   1.0000   1.0000   1.0000   1.0000
     1.0000   0.0000   0.0000   0.0000   0.0000

          k = 0.0000 0.0000-0.5000 (174780 PWs)   bands (ev):

   -18.2151 -17.4601 -15.7387 -15.2014 -11.2979 -11.2784  -9.8184  -6.1031
    -4.0746  -3.4605  -1.2601   3.1896   3.6618

     occupation numbers 
     1.0000   1.0000   1.0000   1.0000   1.0000   1.0000   1.0000   1.0000
     1.0000   0.0000   0.0000   0.0000   0.0000

     the Fermi energy is    -3.7606 ev
     (compare with:    -3.8718 eV, computed in scf)

     Writing all to output data dir ../tmp/ZGNR.save/ :
     XML data file, pseudopotentials, collected wavefunctions
 
     init_run     :      5.23s CPU      5.60s WALL (       1 calls)
     electrons    :    386.34s CPU    393.72s WALL (       1 calls)

     Called by init_run:
     wfcinit      :      0.00s CPU      0.00s WALL (       1 calls)
     wfcinit:wfcr :     13.23s CPU     13.40s WALL (      76 calls)
     potinit      :      0.89s CPU      1.04s WALL (       1 calls)
     hinit0       :      0.18s CPU      0.23s WALL (       1 calls)

     Called by electrons:
     c_bands      :    386.33s CPU    393.70s WALL (       1 calls)
     v_of_rho     :      0.68s CPU      0.77s WALL (       1 calls)
     v_h          :      0.08s CPU      0.09s WALL (       1 calls)
     v_xc         :      0.60s CPU      0.68s WALL (       1 calls)
     newd         :      0.39s CPU      0.48s WALL (       1 calls)
     PAW_pot      :      0.02s CPU      0.02s WALL (       1 calls)

     Called by c_bands:
     init_us_2    :      0.54s CPU      0.55s WALL (      76 calls)
     cegterg      :    369.28s CPU    373.64s WALL (     221 calls)

     Called by sum_band:

     Called by *egterg:
     cdiaghg      :      4.16s CPU      4.20s WALL (    3703 calls)
     cegterg:over :     23.21s CPU     23.37s WALL (    3627 calls)
     cegterg:upda :     21.21s CPU     21.38s WALL (    3627 calls)
     cegterg:last :      4.65s CPU      4.69s WALL (     373 calls)
     h_psi        :    314.00s CPU    317.99s WALL (    3924 calls)
     s_psi        :      9.38s CPU      9.45s WALL (    3924 calls)
     g_psi        :      0.88s CPU      0.89s WALL (    3627 calls)

     Called by h_psi:
     h_psi:calbec :      8.98s CPU      9.08s WALL (    3924 calls)
     vloc_psi     :    292.91s CPU    296.68s WALL (    3924 calls)
     add_vuspsi   :     10.15s CPU     10.23s WALL (    3924 calls)

     General routines
     calbec       :      8.95s CPU      9.05s WALL (    3924 calls)
     fft          :      0.63s CPU      0.71s WALL (      13 calls)
     ffts         :      0.01s CPU      0.01s WALL (       1 calls)
     fftw         :    139.79s CPU    141.40s WALL (   48312 calls)
     interpolate  :      0.06s CPU      0.06s WALL (       1 calls)
     davcio       :      0.04s CPU      2.22s WALL (     152 calls)
 
     Parallel routines

     PAW routines
     PAW_pot      :      0.02s CPU      0.02s WALL (       1 calls)
 
     PWSCF        :   6m33.75s CPU   7m13.17s WALL

 
   This run was terminated on:  17:16:45   5Jan2026            

=------------------------------------------------------------------------------=
   JOB DONE.
=------------------------------------------------------------------------------=
