
     Program PWSCF v.7.4.1 starts on  5Jan2026 at 19:27:14 

     This program is part of the open-source Quantum ESPRESSO suite
     for quantum simulation of materials; please cite
         "P. Giannozzi et al., J. Phys.:Condens. Matter 21 395502 (2009);
         "P. Giannozzi et al., J. Phys.:Condens. Matter 29 465901 (2017);
         "P. Giannozzi et al., J. Chem. Phys. 152 154105 (2020);
          URL http://www.quantum-espresso.org", 
     in publications or presentations arising from this work. More details at
     http://www.quantum-espresso.org/quote

     Parallel version (MPI), running on    20 processors

     MPI processes distributed on     1 nodes
     50863 MiB available memory on the printing compute node when the environment starts
 
     Reading input from 3-zgnr_nscf.in

     Current dimensions of program PWSCF are:
     Max number of different atomic species (ntypx) = 10
     Max number of k-points (npk) =  40000
     Max angular momentum in pseudopotentials (lmaxx) =  4
     Message from routine input:
     WARNING: "startingwfc" set to random may spoil restart
     file C.pbe-n-kjpaw_psl.1.0.0.UPF: wavefunction(s)  2S 2P renormalized
     file H.pbe-kjpaw_psl.1.0.0.UPF: wavefunction(s)  1S renormalized
 
     R & G space division:  proc/nbgrp/npool/nimage =      20
     Subspace diagonalization in iterative solution of the eigenvalue problem:
     a serial algorithm will be used

 
     Parallelization info
     --------------------
     sticks:   dense  smooth     PW     G-vecs:    dense   smooth      PW
     Min         917     367    106               292923    74137   11680
     Max         918     368    107               292930    74152   11693
     Sum       18347    7359   2131              5858505  1482933  233725
 
     Using Slab Decomposition
 


     bravais-lattice index     =            0
     lattice parameter (alat)  =       4.6761  a.u.
     unit-cell volume          =   18728.3793 (a.u.)^3
     number of atoms/cell      =            8
     number of atomic types    =            2
     number of electrons       =        26.00
     number of Kohn-Sham states=           17
     kinetic-energy cutoff     =      70.0000  Ry
     charge density cutoff     =     700.0000  Ry
     Exchange-correlation= SLA  PW   PBX  PBC
                           (   1   4   3   4   0   0   0)

     celldm(1)=   4.676134  celldm(2)=   0.000000  celldm(3)=   0.000000
     celldm(4)=   0.000000  celldm(5)=   0.000000  celldm(6)=   0.000000

     crystal axes: (cart. coord. in units of alat)
               a(1) = (   0.000000   0.000000   1.000000 )  
               a(2) = (  15.063634   0.000000   0.000000 )  
               a(3) = (   0.000000  12.159330   0.000000 )  

     reciprocal axes: (cart. coord. in units 2 pi/alat)
               b(1) = (  0.000000  0.000000  1.000000 )  
               b(2) = (  0.066385  0.000000  0.000000 )  
               b(3) = (  0.000000  0.082241  0.000000 )  


     PseudoPot. # 1 for C  read from file:
     ../../../PP_C/C.pbe-n-kjpaw_psl.1.0.0.UPF
     MD5 check sum: 5f16ad9a65e90284d1d834d4ab3b0f7d
     Pseudo is Projector augmented-wave + core cor, Zval =  4.0
     Generated using &quot;atomic&quot; code by A. Dal Corso  v.6.3
     Shape of augmentation charge: PSQ
     Using radial grid of 1073 points,  4 beta functions with: 
                l(1) =   0
                l(2) =   0
                l(3) =   1
                l(4) =   1
     Q(r) pseudized with 0 coefficients 


     PseudoPot. # 2 for H  read from file:
     ../../../PP_C/H.pbe-kjpaw_psl.1.0.0.UPF
     MD5 check sum: d81a744832360e4a8af0b0b5b123bc2a
     Pseudo is Projector augmented-wave, Zval =  1.0
     Generated using &quot;atomic&quot; code by A. Dal Corso  v.6.3MaX
     Shape of augmentation charge: PSQ
     Using radial grid of  929 points,  2 beta functions with: 
                l(1) =   0
                l(2) =   0
     Q(r) pseudized with 0 coefficients 


     atomic species   valence    mass     pseudopotential
     C                 4.00    12.01100     C ( 1.00)
     H                 1.00     1.00790     H ( 1.00)

     No symmetry found


                                    s                        frac. trans.

      isym =  1     identity                                     

 cryst.   s( 1) = (     1          0          0      )
                  (     0          1          0      )
                  (     0          0          1      )

 cart.    s( 1) = (  1.0000000  0.0000000  0.0000000 )
                  (  0.0000000  1.0000000  0.0000000 )
                  (  0.0000000  0.0000000  1.0000000 )


   Cartesian axes

     site n.     atom                  positions (alat units)
         1        C      tau(   1) = (   6.5023148   6.0618223   0.0000000  )
         2        C      tau(   2) = (   6.7901427   6.0618223   0.4985326  )
         3        C      tau(   3) = (   7.3657985   6.0618223   0.4985326  )
         4        C      tau(   4) = (   7.6536264   6.0618223   0.0000000  )
         5        C      tau(   5) = (   8.2292823   6.0618223   0.0000000  )
         6        C      tau(   6) = (   8.5171102   6.0618223   0.4985326  )
         7        H      tau(   7) = (   6.0618223   6.0618223   0.0000000  )
         8        H      tau(   8) = (   8.9576026   6.0618223   0.4985326  )

   Crystallographic axes

     site n.     atom                  positions (cryst. coord.)
         1        C      tau(   1) = (  0.0000000  0.4316564  0.4985326  )
         2        C      tau(   2) = (  0.4985326  0.4507639  0.4985326  )
         3        C      tau(   3) = (  0.4985326  0.4889788  0.4985326  )
         4        C      tau(   4) = (  0.0000000  0.5080863  0.4985326  )
         5        C      tau(   5) = (  0.0000000  0.5463012  0.4985326  )
         6        C      tau(   6) = (  0.4985326  0.5654087  0.4985326  )
         7        H      tau(   7) = (  0.0000000  0.4024143  0.4985326  )
         8        H      tau(   8) = (  0.4985326  0.5946508  0.4985326  )

     number of k points=    76  Gaussian smearing, width (Ry)=  0.0020
                       cart. coord. in units 2pi/alat
        k(    1) = (   0.0000000   0.0000000   0.0000000), wk =   0.0133333
        k(    2) = (   0.0000000   0.0000000   0.0066667), wk =   0.0266667
        k(    3) = (   0.0000000   0.0000000   0.0133333), wk =   0.0266667
        k(    4) = (   0.0000000   0.0000000   0.0200000), wk =   0.0266667
        k(    5) = (   0.0000000   0.0000000   0.0266667), wk =   0.0266667
        k(    6) = (   0.0000000   0.0000000   0.0333333), wk =   0.0266667
        k(    7) = (   0.0000000   0.0000000   0.0400000), wk =   0.0266667
        k(    8) = (   0.0000000   0.0000000   0.0466667), wk =   0.0266667
        k(    9) = (   0.0000000   0.0000000   0.0533333), wk =   0.0266667
        k(   10) = (   0.0000000   0.0000000   0.0600000), wk =   0.0266667
        k(   11) = (   0.0000000   0.0000000   0.0666667), wk =   0.0266667
        k(   12) = (   0.0000000   0.0000000   0.0733333), wk =   0.0266667
        k(   13) = (   0.0000000   0.0000000   0.0800000), wk =   0.0266667
        k(   14) = (   0.0000000   0.0000000   0.0866667), wk =   0.0266667
        k(   15) = (   0.0000000   0.0000000   0.0933333), wk =   0.0266667
        k(   16) = (   0.0000000   0.0000000   0.1000000), wk =   0.0266667
        k(   17) = (   0.0000000   0.0000000   0.1066667), wk =   0.0266667
        k(   18) = (   0.0000000   0.0000000   0.1133333), wk =   0.0266667
        k(   19) = (   0.0000000   0.0000000   0.1200000), wk =   0.0266667
        k(   20) = (   0.0000000   0.0000000   0.1266667), wk =   0.0266667
        k(   21) = (   0.0000000   0.0000000   0.1333333), wk =   0.0266667
        k(   22) = (   0.0000000   0.0000000   0.1400000), wk =   0.0266667
        k(   23) = (   0.0000000   0.0000000   0.1466667), wk =   0.0266667
        k(   24) = (   0.0000000   0.0000000   0.1533333), wk =   0.0266667
        k(   25) = (   0.0000000   0.0000000   0.1600000), wk =   0.0266667
        k(   26) = (   0.0000000   0.0000000   0.1666667), wk =   0.0266667
        k(   27) = (   0.0000000   0.0000000   0.1733333), wk =   0.0266667
        k(   28) = (   0.0000000   0.0000000   0.1800000), wk =   0.0266667
        k(   29) = (   0.0000000   0.0000000   0.1866667), wk =   0.0266667
        k(   30) = (   0.0000000   0.0000000   0.1933333), wk =   0.0266667
        k(   31) = (   0.0000000   0.0000000   0.2000000), wk =   0.0266667
        k(   32) = (   0.0000000   0.0000000   0.2066667), wk =   0.0266667
        k(   33) = (   0.0000000   0.0000000   0.2133333), wk =   0.0266667
        k(   34) = (   0.0000000   0.0000000   0.2200000), wk =   0.0266667
        k(   35) = (   0.0000000   0.0000000   0.2266667), wk =   0.0266667
        k(   36) = (   0.0000000   0.0000000   0.2333333), wk =   0.0266667
        k(   37) = (   0.0000000   0.0000000   0.2400000), wk =   0.0266667
        k(   38) = (   0.0000000   0.0000000   0.2466667), wk =   0.0266667
        k(   39) = (   0.0000000   0.0000000   0.2533333), wk =   0.0266667
        k(   40) = (   0.0000000   0.0000000   0.2600000), wk =   0.0266667
        k(   41) = (   0.0000000   0.0000000   0.2666667), wk =   0.0266667
        k(   42) = (   0.0000000   0.0000000   0.2733333), wk =   0.0266667
        k(   43) = (   0.0000000   0.0000000   0.2800000), wk =   0.0266667
        k(   44) = (   0.0000000   0.0000000   0.2866667), wk =   0.0266667
        k(   45) = (   0.0000000   0.0000000   0.2933333), wk =   0.0266667
        k(   46) = (   0.0000000   0.0000000   0.3000000), wk =   0.0266667
        k(   47) = (   0.0000000   0.0000000   0.3066667), wk =   0.0266667
        k(   48) = (   0.0000000   0.0000000   0.3133333), wk =   0.0266667
        k(   49) = (   0.0000000   0.0000000   0.3200000), wk =   0.0266667
        k(   50) = (   0.0000000   0.0000000   0.3266667), wk =   0.0266667
        k(   51) = (   0.0000000   0.0000000   0.3333333), wk =   0.0266667
        k(   52) = (   0.0000000   0.0000000   0.3400000), wk =   0.0266667
        k(   53) = (   0.0000000   0.0000000   0.3466667), wk =   0.0266667
        k(   54) = (   0.0000000   0.0000000   0.3533333), wk =   0.0266667
        k(   55) = (   0.0000000   0.0000000   0.3600000), wk =   0.0266667
        k(   56) = (   0.0000000   0.0000000   0.3666667), wk =   0.0266667
        k(   57) = (   0.0000000   0.0000000   0.3733333), wk =   0.0266667
        k(   58) = (   0.0000000   0.0000000   0.3800000), wk =   0.0266667
        k(   59) = (   0.0000000   0.0000000   0.3866667), wk =   0.0266667
        k(   60) = (   0.0000000   0.0000000   0.3933333), wk =   0.0266667
        k(   61) = (   0.0000000   0.0000000   0.4000000), wk =   0.0266667
        k(   62) = (   0.0000000   0.0000000   0.4066667), wk =   0.0266667
        k(   63) = (   0.0000000   0.0000000   0.4133333), wk =   0.0266667
        k(   64) = (   0.0000000   0.0000000   0.4200000), wk =   0.0266667
        k(   65) = (   0.0000000   0.0000000   0.4266667), wk =   0.0266667
        k(   66) = (   0.0000000   0.0000000   0.4333333), wk =   0.0266667
        k(   67) = (   0.0000000   0.0000000   0.4400000), wk =   0.0266667
        k(   68) = (   0.0000000   0.0000000   0.4466667), wk =   0.0266667
        k(   69) = (   0.0000000   0.0000000   0.4533333), wk =   0.0266667
        k(   70) = (   0.0000000   0.0000000   0.4600000), wk =   0.0266667
        k(   71) = (   0.0000000   0.0000000   0.4666667), wk =   0.0266667
        k(   72) = (   0.0000000   0.0000000   0.4733333), wk =   0.0266667
        k(   73) = (   0.0000000   0.0000000   0.4800000), wk =   0.0266667
        k(   74) = (   0.0000000   0.0000000   0.4866667), wk =   0.0266667
        k(   75) = (   0.0000000   0.0000000   0.4933333), wk =   0.0266667
        k(   76) = (   0.0000000   0.0000000  -0.5000000), wk =   0.0133333

                       cryst. coord.
        k(    1) = (   0.0000000   0.0000000   0.0000000), wk =   0.0133333
        k(    2) = (   0.0066667   0.0000000   0.0000000), wk =   0.0266667
        k(    3) = (   0.0133333   0.0000000   0.0000000), wk =   0.0266667
        k(    4) = (   0.0200000   0.0000000   0.0000000), wk =   0.0266667
        k(    5) = (   0.0266667   0.0000000   0.0000000), wk =   0.0266667
        k(    6) = (   0.0333333   0.0000000   0.0000000), wk =   0.0266667
        k(    7) = (   0.0400000   0.0000000   0.0000000), wk =   0.0266667
        k(    8) = (   0.0466667   0.0000000   0.0000000), wk =   0.0266667
        k(    9) = (   0.0533333   0.0000000   0.0000000), wk =   0.0266667
        k(   10) = (   0.0600000   0.0000000   0.0000000), wk =   0.0266667
        k(   11) = (   0.0666667   0.0000000   0.0000000), wk =   0.0266667
        k(   12) = (   0.0733333   0.0000000   0.0000000), wk =   0.0266667
        k(   13) = (   0.0800000   0.0000000   0.0000000), wk =   0.0266667
        k(   14) = (   0.0866667   0.0000000   0.0000000), wk =   0.0266667
        k(   15) = (   0.0933333   0.0000000   0.0000000), wk =   0.0266667
        k(   16) = (   0.1000000   0.0000000   0.0000000), wk =   0.0266667
        k(   17) = (   0.1066667   0.0000000   0.0000000), wk =   0.0266667
        k(   18) = (   0.1133333   0.0000000   0.0000000), wk =   0.0266667
        k(   19) = (   0.1200000   0.0000000   0.0000000), wk =   0.0266667
        k(   20) = (   0.1266667   0.0000000   0.0000000), wk =   0.0266667
        k(   21) = (   0.1333333   0.0000000   0.0000000), wk =   0.0266667
        k(   22) = (   0.1400000   0.0000000   0.0000000), wk =   0.0266667
        k(   23) = (   0.1466667   0.0000000   0.0000000), wk =   0.0266667
        k(   24) = (   0.1533333   0.0000000   0.0000000), wk =   0.0266667
        k(   25) = (   0.1600000   0.0000000   0.0000000), wk =   0.0266667
        k(   26) = (   0.1666667   0.0000000   0.0000000), wk =   0.0266667
        k(   27) = (   0.1733333   0.0000000   0.0000000), wk =   0.0266667
        k(   28) = (   0.1800000   0.0000000   0.0000000), wk =   0.0266667
        k(   29) = (   0.1866667   0.0000000   0.0000000), wk =   0.0266667
        k(   30) = (   0.1933333   0.0000000   0.0000000), wk =   0.0266667
        k(   31) = (   0.2000000   0.0000000   0.0000000), wk =   0.0266667
        k(   32) = (   0.2066667   0.0000000   0.0000000), wk =   0.0266667
        k(   33) = (   0.2133333   0.0000000   0.0000000), wk =   0.0266667
        k(   34) = (   0.2200000   0.0000000   0.0000000), wk =   0.0266667
        k(   35) = (   0.2266667   0.0000000   0.0000000), wk =   0.0266667
        k(   36) = (   0.2333333   0.0000000   0.0000000), wk =   0.0266667
        k(   37) = (   0.2400000   0.0000000   0.0000000), wk =   0.0266667
        k(   38) = (   0.2466667   0.0000000   0.0000000), wk =   0.0266667
        k(   39) = (   0.2533333   0.0000000   0.0000000), wk =   0.0266667
        k(   40) = (   0.2600000   0.0000000   0.0000000), wk =   0.0266667
        k(   41) = (   0.2666667   0.0000000   0.0000000), wk =   0.0266667
        k(   42) = (   0.2733333   0.0000000   0.0000000), wk =   0.0266667
        k(   43) = (   0.2800000   0.0000000   0.0000000), wk =   0.0266667
        k(   44) = (   0.2866667   0.0000000   0.0000000), wk =   0.0266667
        k(   45) = (   0.2933333   0.0000000   0.0000000), wk =   0.0266667
        k(   46) = (   0.3000000   0.0000000   0.0000000), wk =   0.0266667
        k(   47) = (   0.3066667   0.0000000   0.0000000), wk =   0.0266667
        k(   48) = (   0.3133333   0.0000000   0.0000000), wk =   0.0266667
        k(   49) = (   0.3200000   0.0000000   0.0000000), wk =   0.0266667
        k(   50) = (   0.3266667   0.0000000   0.0000000), wk =   0.0266667
        k(   51) = (   0.3333333   0.0000000   0.0000000), wk =   0.0266667
        k(   52) = (   0.3400000   0.0000000   0.0000000), wk =   0.0266667
        k(   53) = (   0.3466667   0.0000000   0.0000000), wk =   0.0266667
        k(   54) = (   0.3533333   0.0000000   0.0000000), wk =   0.0266667
        k(   55) = (   0.3600000   0.0000000   0.0000000), wk =   0.0266667
        k(   56) = (   0.3666667   0.0000000   0.0000000), wk =   0.0266667
        k(   57) = (   0.3733333   0.0000000   0.0000000), wk =   0.0266667
        k(   58) = (   0.3800000   0.0000000   0.0000000), wk =   0.0266667
        k(   59) = (   0.3866667   0.0000000   0.0000000), wk =   0.0266667
        k(   60) = (   0.3933333   0.0000000   0.0000000), wk =   0.0266667
        k(   61) = (   0.4000000   0.0000000   0.0000000), wk =   0.0266667
        k(   62) = (   0.4066667   0.0000000   0.0000000), wk =   0.0266667
        k(   63) = (   0.4133333   0.0000000   0.0000000), wk =   0.0266667
        k(   64) = (   0.4200000   0.0000000   0.0000000), wk =   0.0266667
        k(   65) = (   0.4266667   0.0000000   0.0000000), wk =   0.0266667
        k(   66) = (   0.4333333   0.0000000   0.0000000), wk =   0.0266667
        k(   67) = (   0.4400000   0.0000000   0.0000000), wk =   0.0266667
        k(   68) = (   0.4466667   0.0000000   0.0000000), wk =   0.0266667
        k(   69) = (   0.4533333   0.0000000   0.0000000), wk =   0.0266667
        k(   70) = (   0.4600000   0.0000000   0.0000000), wk =   0.0266667
        k(   71) = (   0.4666667   0.0000000   0.0000000), wk =   0.0266667
        k(   72) = (   0.4733333   0.0000000   0.0000000), wk =   0.0266667
        k(   73) = (   0.4800000   0.0000000   0.0000000), wk =   0.0266667
        k(   74) = (   0.4866667   0.0000000   0.0000000), wk =   0.0266667
        k(   75) = (   0.4933333   0.0000000   0.0000000), wk =   0.0266667
        k(   76) = (  -0.5000000   0.0000000   0.0000000), wk =   0.0133333

     Dense  grid:  5858505 G-vectors     FFT dimensions: (  40, 600, 480)

     Smooth grid:  1482933 G-vectors     FFT dimensions: (  25, 375, 320)

     Dynamical RAM for                 wfc:       2.40 MB

     Dynamical RAM for     wfc (w. buffer):       2.40 MB

     Dynamical RAM for           str. fact:       8.94 MB

     Dynamical RAM for           local pot:       0.00 MB

     Dynamical RAM for          nlocal pot:       7.35 MB

     Dynamical RAM for                qrad:       1.21 MB

     Dynamical RAM for          rho,v,vnew:      26.59 MB

     Dynamical RAM for           G-vectors:      17.33 MB

     Dynamical RAM for          h,s,v(r/c):       0.85 MB

     Dynamical RAM for          <psi|beta>:       0.01 MB

     Dynamical RAM for                 psi:      19.22 MB

     Dynamical RAM for                hpsi:      19.22 MB

     Dynamical RAM for                spsi:      19.22 MB

     Dynamical RAM for      wfcinit/wfcrot:       4.81 MB

     Dynamical RAM for           addusdens:     219.02 MB

     Estimated static dynamical RAM per process >      99.20 MB

     Estimated max dynamical RAM per process >     318.22 MB

     Estimated total dynamical RAM >       6.22 GB

     Atomic positions and unit cell read from directory:
     ../tmp/ZGNR.save/
 

     The potential is recalculated from file :
     ../tmp/ZGNR.save/charge-density


     negative rho (up, down):  6.551E-04 0.000E+00
     Starting wfcs are random
     Checking if some PAW data can be deallocated... 
       PAW data deallocated on    4 nodes for type:  1
       PAW data deallocated on   16 nodes for type:  2

     Band Structure Calculation
     Davidson diagonalization with overlap

     Computing kpt #:     1  of    76
     total cpu time spent up to now is       14.6 secs

     Computing kpt #:     2  of    76
     total cpu time spent up to now is       23.3 secs

     Computing kpt #:     3  of    76
     total cpu time spent up to now is       30.7 secs

     Computing kpt #:     4  of    76
     total cpu time spent up to now is       39.1 secs

     Computing kpt #:     5  of    76
     total cpu time spent up to now is       48.4 secs

     Computing kpt #:     6  of    76
     total cpu time spent up to now is       56.9 secs

     Computing kpt #:     7  of    76
     total cpu time spent up to now is       65.3 secs

     Computing kpt #:     8  of    76
     total cpu time spent up to now is       73.0 secs

     Computing kpt #:     9  of    76
     total cpu time spent up to now is       81.6 secs

     Computing kpt #:    10  of    76
     total cpu time spent up to now is       90.9 secs

     Computing kpt #:    11  of    76
     total cpu time spent up to now is       99.5 secs

     Computing kpt #:    12  of    76
     total cpu time spent up to now is      108.6 secs

     Computing kpt #:    13  of    76
     total cpu time spent up to now is      117.2 secs

     Computing kpt #:    14  of    76
     total cpu time spent up to now is      125.2 secs

     Computing kpt #:    15  of    76
     total cpu time spent up to now is      134.6 secs

     Computing kpt #:    16  of    76
     total cpu time spent up to now is      143.1 secs

     Computing kpt #:    17  of    76
     total cpu time spent up to now is      151.5 secs

     Computing kpt #:    18  of    76
     total cpu time spent up to now is      160.6 secs

     Computing kpt #:    19  of    76
     total cpu time spent up to now is      169.2 secs

     Computing kpt #:    20  of    76
     total cpu time spent up to now is      176.7 secs

     Computing kpt #:    21  of    76
     total cpu time spent up to now is      185.2 secs

     Computing kpt #:    22  of    76
     total cpu time spent up to now is      193.1 secs

     Computing kpt #:    23  of    76
     total cpu time spent up to now is      201.2 secs

     Computing kpt #:    24  of    76
     total cpu time spent up to now is      209.6 secs

     Computing kpt #:    25  of    76
     total cpu time spent up to now is      218.8 secs

     Computing kpt #:    26  of    76
     total cpu time spent up to now is      227.3 secs

     Computing kpt #:    27  of    76
     total cpu time spent up to now is      235.3 secs

     Computing kpt #:    28  of    76
     total cpu time spent up to now is      244.2 secs

     Computing kpt #:    29  of    76
     total cpu time spent up to now is      253.8 secs

     Computing kpt #:    30  of    76
     total cpu time spent up to now is      263.2 secs

     Computing kpt #:    31  of    76
     c_bands:  1 eigenvalues not converged
     total cpu time spent up to now is      273.8 secs

     Computing kpt #:    32  of    76
     total cpu time spent up to now is      283.2 secs

     Computing kpt #:    33  of    76
     total cpu time spent up to now is      290.5 secs

     Computing kpt #:    34  of    76
     total cpu time spent up to now is      297.6 secs

     Computing kpt #:    35  of    76
     total cpu time spent up to now is      304.4 secs

     Computing kpt #:    36  of    76
     total cpu time spent up to now is      310.7 secs

     Computing kpt #:    37  of    76
     total cpu time spent up to now is      317.5 secs

     Computing kpt #:    38  of    76
     total cpu time spent up to now is      323.6 secs

     Computing kpt #:    39  of    76
     total cpu time spent up to now is      329.6 secs

     Computing kpt #:    40  of    76
     total cpu time spent up to now is      335.6 secs

     Computing kpt #:    41  of    76
     total cpu time spent up to now is      341.5 secs

     Computing kpt #:    42  of    76
     total cpu time spent up to now is      348.4 secs

     Computing kpt #:    43  of    76
     total cpu time spent up to now is      354.3 secs

     Computing kpt #:    44  of    76
     total cpu time spent up to now is      360.1 secs

     Computing kpt #:    45  of    76
     total cpu time spent up to now is      365.8 secs

     Computing kpt #:    46  of    76
     total cpu time spent up to now is      371.6 secs

     Computing kpt #:    47  of    76
     total cpu time spent up to now is      377.3 secs

     Computing kpt #:    48  of    76
     total cpu time spent up to now is      384.0 secs

     Computing kpt #:    49  of    76
     total cpu time spent up to now is      389.9 secs

     Computing kpt #:    50  of    76
     total cpu time spent up to now is      395.8 secs

     Computing kpt #:    51  of    76
     total cpu time spent up to now is      402.5 secs

     Computing kpt #:    52  of    76
     total cpu time spent up to now is      408.5 secs

     Computing kpt #:    53  of    76
     total cpu time spent up to now is      414.8 secs

     Computing kpt #:    54  of    76
     total cpu time spent up to now is      420.7 secs

     Computing kpt #:    55  of    76
     total cpu time spent up to now is      426.9 secs

     Computing kpt #:    56  of    76
     total cpu time spent up to now is      433.3 secs

     Computing kpt #:    57  of    76
     total cpu time spent up to now is      438.9 secs

     Computing kpt #:    58  of    76
     total cpu time spent up to now is      444.6 secs

     Computing kpt #:    59  of    76
     total cpu time spent up to now is      450.6 secs

     Computing kpt #:    60  of    76
     total cpu time spent up to now is      455.8 secs

     Computing kpt #:    61  of    76
     total cpu time spent up to now is      461.0 secs

     Computing kpt #:    62  of    76
     total cpu time spent up to now is      466.3 secs

     Computing kpt #:    63  of    76
     total cpu time spent up to now is      471.7 secs

     Computing kpt #:    64  of    76
     total cpu time spent up to now is      476.9 secs

     Computing kpt #:    65  of    76
     total cpu time spent up to now is      482.1 secs

     Computing kpt #:    66  of    76
     total cpu time spent up to now is      487.2 secs

     Computing kpt #:    67  of    76
     total cpu time spent up to now is      492.4 secs

     Computing kpt #:    68  of    76
     total cpu time spent up to now is      497.5 secs

     Computing kpt #:    69  of    76
     total cpu time spent up to now is      502.6 secs

     Computing kpt #:    70  of    76
     total cpu time spent up to now is      507.7 secs

     Computing kpt #:    71  of    76
     total cpu time spent up to now is      512.8 secs

     Computing kpt #:    72  of    76
     total cpu time spent up to now is      517.9 secs

     Computing kpt #:    73  of    76
     total cpu time spent up to now is      522.9 secs

     Computing kpt #:    74  of    76
     total cpu time spent up to now is      527.9 secs

     Computing kpt #:    75  of    76
     total cpu time spent up to now is      533.0 secs

     Computing kpt #:    76  of    76
     total cpu time spent up to now is      539.1 secs

     ethr =  3.85E-09,  avg # of iterations = 51.4

     total cpu time spent up to now is      539.1 secs

     End of band structure calculation

          k = 0.0000 0.0000 0.0000 (185277 PWs)   bands (ev):

   -22.5964 -21.1425 -19.0682 -15.5927 -12.6274 -10.6523  -9.7022  -9.5794
    -9.1029  -8.3518  -7.5625  -7.1378  -7.0853  -0.9961  -0.3964  -0.3252
     0.0670

     occupation numbers 
     1.0000   1.0000   1.0000   1.0000   1.0000   1.0000   1.0000   1.0000
     1.0000   1.0000   1.0000   1.0000   1.0000   0.0000   0.0000   0.0000
     0.0000

          k = 0.0000 0.0000 0.0067 (185249 PWs)   bands (ev):

   -22.5957 -21.1417 -19.0675 -15.5921 -12.6270 -10.6514  -9.7034  -9.5817
    -9.1020  -8.3556  -7.5629  -7.1411  -7.0844  -0.9961  -0.3955  -0.3242
     0.0681

     occupation numbers 
     1.0000   1.0000   1.0000   1.0000   1.0000   1.0000   1.0000   1.0000
     1.0000   1.0000   1.0000   1.0000   1.0000   0.0000   0.0000   0.0000
     0.0000

          k = 0.0000 0.0000 0.0133 (185285 PWs)   bands (ev):

   -22.5933 -21.1394 -19.0653 -15.5902 -12.6256 -10.6486  -9.7070  -9.5884
    -9.0993  -8.3670  -7.5643  -7.1511  -7.0816  -0.9962  -0.3926  -0.3212
     0.0713

     occupation numbers 
     1.0000   1.0000   1.0000   1.0000   1.0000   1.0000   1.0000   1.0000
     1.0000   1.0000   1.0000   1.0000   1.0000   0.0000   0.0000   0.0000
     0.0000

          k = 0.0000 0.0000 0.0200 (185275 PWs)   bands (ev):

   -22.5894 -21.1356 -19.0617 -15.5870 -12.6234 -10.6440  -9.7142  -9.5985
    -9.0947  -8.3858  -7.5667  -7.1675  -7.0769  -0.9963  -0.3878  -0.3163
     0.0765

     occupation numbers 
     1.0000   1.0000   1.0000   1.0000   1.0000   1.0000   1.0000   1.0000
     1.0000   1.0000   1.0000   1.0000   1.0000   0.0000   0.0000   0.0000
     0.0000

          k = 0.0000 0.0000 0.0267 (185285 PWs)   bands (ev):

   -22.5840 -21.1303 -19.0566 -15.5826 -12.6202 -10.6375  -9.7264  -9.6102
    -9.0883  -8.4118  -7.5701  -7.1904  -7.0704  -0.9965  -0.3811  -0.3094
     0.0839

     occupation numbers 
     1.0000   1.0000   1.0000   1.0000   1.0000   1.0000   1.0000   1.0000
     1.0000   1.0000   1.0000   1.0000   1.0000   0.0000   0.0000   0.0000
     0.0000

          k = 0.0000 0.0000 0.0333 (185255 PWs)   bands (ev):

   -22.5770 -21.1234 -19.0501 -15.5770 -12.6162 -10.6291  -9.7458  -9.6214
    -9.0800  -8.4450  -7.5747  -7.2197  -7.0619  -0.9968  -0.3725  -0.3005
     0.0934

     occupation numbers 
     1.0000   1.0000   1.0000   1.0000   1.0000   1.0000   1.0000   1.0000
     1.0000   1.0000   1.0000   1.0000   1.0000   0.0000   0.0000   0.0000
     0.0000

          k = 0.0000 0.0000 0.0400 (185281 PWs)   bands (ev):

   -22.5684 -21.1150 -19.0421 -15.5701 -12.6113 -10.6189  -9.7740  -9.6305
    -9.0699  -8.4850  -7.5805  -7.2551  -7.0517  -0.9973  -0.3620  -0.2896
     0.1050

     occupation numbers 
     1.0000   1.0000   1.0000   1.0000   1.0000   1.0000   1.0000   1.0000
     1.0000   1.0000   1.0000   1.0000   1.0000   0.0000   0.0000   0.0000
     0.0000

          k = 0.0000 0.0000 0.0467 (185325 PWs)   bands (ev):

   -22.5583 -21.1051 -19.0327 -15.5620 -12.6056 -10.6069  -9.8112  -9.6369
    -9.0580  -8.5315  -7.5877  -7.2966  -7.0395  -0.9979  -0.3496  -0.2768
     0.1187

     occupation numbers 
     1.0000   1.0000   1.0000   1.0000   1.0000   1.0000   1.0000   1.0000
     1.0000   1.0000   1.0000   1.0000   1.0000   0.0000   0.0000   0.0000
     0.0000

          k = 0.0000 0.0000 0.0533 (185295 PWs)   bands (ev):

   -22.5467 -21.0937 -19.0219 -15.5526 -12.5990 -10.5930  -9.8568  -9.6410
    -9.0443  -8.5843  -7.5964  -7.3439  -7.0256  -0.9988  -0.3353  -0.2620
     0.1344

     occupation numbers 
     1.0000   1.0000   1.0000   1.0000   1.0000   1.0000   1.0000   1.0000
     1.0000   1.0000   1.0000   1.0000   1.0000   0.0000   0.0000   0.0000
     0.0000

          k = 0.0000 0.0000 0.0600 (185281 PWs)   bands (ev):

   -22.5334 -21.0807 -19.0096 -15.5420 -12.5916 -10.5772  -9.9100  -9.6437
    -9.0287  -8.6431  -7.6066  -7.3968  -7.0097  -0.9999  -0.3191  -0.2453
     0.1522

     occupation numbers 
     1.0000   1.0000   1.0000   1.0000   1.0000   1.0000   1.0000   1.0000
     1.0000   1.0000   1.0000   1.0000   1.0000   0.0000   0.0000   0.0000
     0.0000

          k = 0.0000 0.0000 0.0667 (185249 PWs)   bands (ev):

   -22.5187 -21.0662 -18.9958 -15.5303 -12.5833 -10.5596  -9.9700  -9.6453
    -9.0113  -8.7075  -7.6185  -7.4551  -6.9920  -1.0015  -0.3010  -0.2267
     0.1721

     occupation numbers 
     1.0000   1.0000   1.0000   1.0000   1.0000   1.0000   1.0000   1.0000
     1.0000   1.0000   1.0000   1.0000   1.0000   0.0000   0.0000   0.0000
     0.0000

          k = 0.0000 0.0000 0.0733 (185191 PWs)   bands (ev):

   -22.5023 -21.0502 -18.9806 -15.5173 -12.5744 -10.5401 -10.0363  -9.6464
    -8.9921  -8.7772  -7.6321  -7.5184  -6.9724  -1.0034  -0.2811  -0.2061
     0.1940

     occupation numbers 
     1.0000   1.0000   1.0000   1.0000   1.0000   1.0000   1.0000   1.0000
     1.0000   1.0000   1.0000   1.0000   1.0000   0.0000   0.0000   0.0000
     0.0000

          k = 0.0000 0.0000 0.0800 (185259 PWs)   bands (ev):

   -22.4845 -21.0327 -18.9640 -15.5032 -12.5646 -10.5189 -10.1083  -9.6471
    -8.9711  -8.8519  -7.6475  -7.5865  -6.9510  -1.0059  -0.2594  -0.1836
     0.2180

     occupation numbers 
     1.0000   1.0000   1.0000   1.0000   1.0000   1.0000   1.0000   1.0000
     1.0000   1.0000   1.0000   1.0000   1.0000   0.0000   0.0000   0.0000
     0.0000

          k = 0.0000 0.0000 0.0867 (185227 PWs)   bands (ev):

   -22.4650 -21.0136 -18.9459 -15.4879 -12.5542 -10.4957 -10.1857  -9.6476
    -8.9482  -8.9313  -7.6665  -7.6574  -6.9278  -1.0090  -0.2358  -0.1592
     0.2440

     occupation numbers 
     1.0000   1.0000   1.0000   1.0000   1.0000   1.0000   1.0000   1.0000
     1.0000   1.0000   1.0000   1.0000   1.0000   0.0000   0.0000   0.0000
     0.0000

          k = 0.0000 0.0000 0.0933 (185235 PWs)   bands (ev):

   -22.4441 -20.9931 -18.9264 -15.4714 -12.5431 -10.4708 -10.2680  -9.6482
    -9.0151  -8.9236  -7.7367  -7.6830  -6.9026  -1.0128  -0.2103  -0.1329
     0.2719

     occupation numbers 
     1.0000   1.0000   1.0000   1.0000   1.0000   1.0000   1.0000   1.0000
     1.0000   1.0000   1.0000   1.0000   1.0000   0.0000   0.0000   0.0000
     0.0000

          k = 0.0000 0.0000 0.1000 (185225 PWs)   bands (ev):

   -22.4215 -20.9710 -18.9054 -15.4539 -12.5314 -10.4440 -10.3550  -9.6490
    -9.1029  -8.8972  -7.8174  -7.7039  -6.8757  -1.0173  -0.1831  -0.1047
     0.3019

     occupation numbers 
     1.0000   1.0000   1.0000   1.0000   1.0000   1.0000   1.0000   1.0000
     1.0000   1.0000   1.0000   1.0000   1.0000   0.0000   0.0000   0.0000
     0.0000

          k = 0.0000 0.0000 0.1067 (185225 PWs)   bands (ev):

   -22.3975 -20.9474 -18.8830 -15.4353 -12.5192 -10.4462 -10.4154  -9.6502
    -9.1944  -8.8689  -7.9017  -7.7267  -6.8469  -1.0228  -0.1541  -0.0746
     0.3338

     occupation numbers 
     1.0000   1.0000   1.0000   1.0000   1.0000   1.0000   1.0000   1.0000
     1.0000   1.0000   1.0000   1.0000   1.0000   0.0000   0.0000   0.0000
     0.0000

          k = 0.0000 0.0000 0.1133 (185243 PWs)   bands (ev):

   -22.3719 -20.9223 -18.8591 -15.4156 -12.5065 -10.5414 -10.3849  -9.6519
    -9.2891  -8.8389  -7.9892  -7.7512  -6.8163  -1.0294  -0.1233  -0.0427
     0.3676

     occupation numbers 
     1.0000   1.0000   1.0000   1.0000   1.0000   1.0000   1.0000   1.0000
     1.0000   1.0000   1.0000   1.0000   1.0000   0.0000   0.0000   0.0000
     0.0000

          k = 0.0000 0.0000 0.1200 (185223 PWs)   bands (ev):

   -22.3447 -20.8957 -18.8338 -15.3949 -12.4934 -10.6403 -10.3527  -9.6545
    -9.3868  -8.8071  -8.0794  -7.7777  -6.7839  -1.0371  -0.0908  -0.0089
     0.4034

     occupation numbers 
     1.0000   1.0000   1.0000   1.0000   1.0000   1.0000   1.0000   1.0000
     1.0000   1.0000   1.0000   1.0000   1.0000   0.0000   0.0000   0.0000
     0.0000

          k = 0.0000 0.0000 0.1267 (185219 PWs)   bands (ev):

   -22.3160 -20.8675 -18.8071 -15.3732 -12.4799 -10.7424 -10.3186  -9.6585
    -9.4868  -8.7735  -8.1720  -7.8061  -6.7496  -1.0460  -0.0565   0.0267
     0.4411

     occupation numbers 
     1.0000   1.0000   1.0000   1.0000   1.0000   1.0000   1.0000   1.0000
     1.0000   1.0000   1.0000   1.0000   1.0000   0.0000   0.0000   0.0000
     0.0000

          k = 0.0000 0.0000 0.1333 (185223 PWs)   bands (ev):

   -22.2857 -20.8379 -18.7790 -15.3507 -12.4664 -10.8476 -10.2827  -9.6659
    -9.5870  -8.7382  -8.2665  -7.8364  -6.7135  -1.0564  -0.0205   0.0641
     0.4807

     occupation numbers 
     1.0000   1.0000   1.0000   1.0000   1.0000   1.0000   1.0000   1.0000
     1.0000   1.0000   1.0000   1.0000   1.0000   0.0000   0.0000   0.0000
     0.0000

          k = 0.0000 0.0000 0.1400 (185195 PWs)   bands (ev):

   -22.2540 -20.8067 -18.7494 -15.3272 -12.4527 -10.9555 -10.2451  -9.7070
    -9.6570  -8.7011  -8.3623  -7.8686  -6.6757  -1.0683   0.0172   0.1033
     0.5222

     occupation numbers 
     1.0000   1.0000   1.0000   1.0000   1.0000   1.0000   1.0000   1.0000
     1.0000   1.0000   1.0000   1.0000   1.0000   0.0000   0.0000   0.0000
     0.0000

          k = 0.0000 0.0000 0.1467 (185135 PWs)   bands (ev):

   -22.2206 -20.7741 -18.7184 -15.3029 -12.4392 -11.0658 -10.2056  -9.8072
    -9.6715  -8.6623  -8.4587  -7.9028  -6.6360  -1.0819   0.0565   0.1442
     0.5656

     occupation numbers 
     1.0000   1.0000   1.0000   1.0000   1.0000   1.0000   1.0000   1.0000
     1.0000   1.0000   1.0000   1.0000   1.0000   0.0000   0.0000   0.0000
     0.0000

          k = 0.0000 0.0000 0.1533 (185143 PWs)   bands (ev):

   -22.1858 -20.7399 -18.6859 -15.2779 -12.4260 -11.1782 -10.1643  -9.9140
    -9.6833  -8.6217  -8.5551  -7.9388  -6.5945  -1.0973   0.0975   0.1869
     0.6108

     occupation numbers 
     1.0000   1.0000   1.0000   1.0000   1.0000   1.0000   1.0000   1.0000
     1.0000   1.0000   1.0000   1.0000   1.0000   0.0000   0.0000   0.0000
     0.0000

          k = 0.0000 0.0000 0.1600 (185117 PWs)   bands (ev):

   -22.1494 -20.7043 -18.6520 -15.2523 -12.4133 -11.2924 -10.1213 -10.0224
    -9.6976  -8.6506  -8.5794  -7.9768  -6.5513  -1.1147   0.1401   0.2314
     0.6580

     occupation numbers 
     1.0000   1.0000   1.0000   1.0000   1.0000   1.0000   1.0000   1.0000
     1.0000   1.0000   1.0000   1.0000   1.0000   0.0000   0.0000   0.0000
     0.0000

          k = 0.0000 0.0000 0.1667 (185103 PWs)   bands (ev):

   -22.1115 -20.6672 -18.6167 -15.2260 -12.4015 -11.4081 -10.1313 -10.0765
    -9.7159  -8.7439  -8.5354  -8.0167  -6.5063  -1.1342   0.1843   0.2775
     0.7070

     occupation numbers 
     1.0000   1.0000   1.0000   1.0000   1.0000   1.0000   1.0000   1.0000
     1.0000   1.0000   1.0000   1.0000   1.0000   0.0000   0.0000   0.0000
     0.0000

          k = 0.0000 0.0000 0.1733 (185107 PWs)   bands (ev):

   -22.0721 -20.6285 -18.5800 -15.1994 -12.3908 -11.5250 -10.2402 -10.0299
    -9.7395  -8.8338  -8.4897  -8.0585  -6.4595  -1.1559   0.2301   0.3253
     0.7580

     occupation numbers 
     1.0000   1.0000   1.0000   1.0000   1.0000   1.0000   1.0000   1.0000
     1.0000   1.0000   1.0000   1.0000   1.0000   0.0000   0.0000   0.0000
     0.0000

          k = 0.0000 0.0000 0.1800 (185055 PWs)   bands (ev):

   -22.0311 -20.5884 -18.5419 -15.1724 -12.3818 -11.6428 -10.3482  -9.9816
    -9.7699  -8.9188  -8.4423  -8.1022  -6.4110  -1.1800   0.2775   0.3748
     0.8109

     occupation numbers 
     1.0000   1.0000   1.0000   1.0000   1.0000   1.0000   1.0000   1.0000
     1.0000   1.0000   1.0000   1.0000   1.0000   0.0000   0.0000   0.0000
     0.0000

          k = 0.0000 0.0000 0.1867 (185003 PWs)   bands (ev):

   -21.9886 -20.5468 -18.5023 -15.1452 -12.3750 -11.7611 -10.4548  -9.9315
    -9.8086  -8.9972  -8.3932  -8.1478  -6.3607  -1.2065   0.3263   0.4259
     0.8658

     occupation numbers 
     1.0000   1.0000   1.0000   1.0000   1.0000   1.0000   1.0000   1.0000
     1.0000   1.0000   1.0000   1.0000   1.0000   0.0000   0.0000   0.0000
     0.0000

          k = 0.0000 0.0000 0.1933 (185013 PWs)   bands (ev):

   -21.9446 -20.5037 -18.4613 -15.1181 -12.3710 -11.8796 -10.5592  -9.8797
    -9.8570  -9.0675  -8.3425  -8.1952  -6.3087  -1.2357   0.3767   0.4785
     0.9226

     occupation numbers 
     1.0000   1.0000   1.0000   1.0000   1.0000   1.0000   1.0000   1.0000
     1.0000   1.0000   1.0000   1.0000   1.0000   0.0000   0.0000   0.0000
     0.0000

          k = 0.0000 0.0000 0.2000 (185025 PWs)   bands (ev):

   -21.8991 -20.4591 -18.4189 -15.0913 -12.3706 -11.9979 -10.6603  -9.9161
    -9.8262  -9.1286  -8.2901  -8.2445  -6.2550  -1.2676   0.4285   0.5327
     0.9814

     occupation numbers 
     1.0000   1.0000   1.0000   1.0000   1.0000   1.0000   1.0000   1.0000
     1.0000   1.0000   1.0000   1.0000   1.0000   0.0000   0.0000   0.0000
     0.0000

          k = 0.0000 0.0000 0.2067 (184983 PWs)   bands (ev):

   -21.8520 -20.4131 -18.3751 -15.0649 -12.3748 -12.1155 -10.7571  -9.9861
    -9.7709  -9.1802  -8.2956  -8.2362  -6.1996  -1.3024   0.4818   0.5884
     1.0293

     occupation numbers 
     1.0000   1.0000   1.0000   1.0000   1.0000   1.0000   1.0000   1.0000
     1.0000   1.0000   1.0000   1.0000   1.0000   0.0000   0.0000   0.0000
     0.0000

          k = 0.0000 0.0000 0.2133 (184955 PWs)   bands (ev):

   -21.8035 -20.3655 -18.3299 -15.0394 -12.3846 -12.2321 -10.8483 -10.0665
    -9.7139  -9.2226  -8.3485  -8.1806  -6.1425  -1.3400   0.5366   0.6456
     1.0499

     occupation numbers 
     1.0000   1.0000   1.0000   1.0000   1.0000   1.0000   1.0000   1.0000
     1.0000   1.0000   1.0000   1.0000   1.0000   0.0000   0.0000   0.0000
     0.0000

          k = 0.0000 0.0000 0.2200 (184919 PWs)   bands (ev):

   -21.7534 -20.3166 -18.2833 -15.0151 -12.4016 -12.3468 -10.9328 -10.1561
    -9.6553  -9.2572  -8.4032  -8.1234  -6.0837  -1.3807   0.5928   0.7041
     1.0571

     occupation numbers 
     1.0000   1.0000   1.0000   1.0000   1.0000   1.0000   1.0000   1.0000
     1.0000   1.0000   1.0000   1.0000   1.0000   0.0000   0.0000   0.0000
     0.0000

          k = 0.0000 0.0000 0.2267 (184917 PWs)   bands (ev):

   -21.7018 -20.2661 -18.2353 -14.9925 -12.4610 -12.4250 -11.0091 -10.2533
    -9.5949  -9.2851  -8.4596  -8.0647  -6.0233  -1.4244   0.6503   0.7640
     1.0494

     occupation numbers 
     1.0000   1.0000   1.0000   1.0000   1.0000   1.0000   1.0000   1.0000
     1.0000   1.0000   1.0000   1.0000   1.0000   0.0000   0.0000   0.0000
     0.0000

          k = 0.0000 0.0000 0.2333 (184946 PWs)   bands (ev):

   -21.6488 -20.2142 -18.1859 -14.9721 -12.5705 -12.4595 -11.0759 -10.3568
    -9.5329  -9.3078  -8.5177  -8.0045  -5.9613  -1.4713   0.7093   0.8252
     1.0273

     occupation numbers 
     1.0000   1.0000   1.0000   1.0000   1.0000   1.0000   1.0000   1.0000
     1.0000   1.0000   1.0000   1.0000   1.0000   0.0000   0.0000   0.0000
     0.0000

          k = 0.0000 0.0000 0.2400 (184968 PWs)   bands (ev):

   -21.5942 -20.1609 -18.1351 -14.9546 -12.6768 -12.5037 -11.1323 -10.4653
    -9.4693  -9.3265  -8.5776  -7.9428  -5.8977  -1.5213   0.7696   0.8875
     0.9921

     occupation numbers 
     1.0000   1.0000   1.0000   1.0000   1.0000   1.0000   1.0000   1.0000
     1.0000   1.0000   1.0000   1.0000   1.0000   0.0000   0.0000   0.0000
     0.0000

          k = 0.0000 0.0000 0.2467 (184970 PWs)   bands (ev):

   -21.5382 -20.1061 -18.0829 -14.9407 -12.7788 -12.5584 -11.1779 -10.5776
    -9.4040  -9.3422  -8.6390  -7.8796  -5.8325  -1.5745   0.8313   0.9456
     0.9511

     occupation numbers 
     1.0000   1.0000   1.0000   1.0000   1.0000   1.0000   1.0000   1.0000
     1.0000   1.0000   1.0000   1.0000   1.0000   0.0000   0.0000   0.0000
     0.0000

          k = 0.0000 0.0000 0.2533 (185050 PWs)   bands (ev):

   -21.4806 -20.0499 -18.0294 -14.9314 -12.8753 -12.6235 -11.2124 -10.6930
    -9.3557  -9.3371  -8.7021  -7.8150  -5.7657  -1.6308   0.8896   0.8944
     1.0157

     occupation numbers 
     1.0000   1.0000   1.0000   1.0000   1.0000   1.0000   1.0000   1.0000
     1.0000   1.0000   1.0000   1.0000   1.0000   0.0000   0.0000   0.0000
     0.0000

          k = 0.0000 0.0000 0.2600 (185042 PWs)   bands (ev):

   -21.4216 -19.9923 -17.9744 -14.9276 -12.9652 -12.6986 -11.2366 -10.8107
    -9.3677  -9.2686  -8.7667  -7.7490  -5.6975  -1.6903   0.8254   0.9589
     1.0813

     occupation numbers 
     1.0000   1.0000   1.0000   1.0000   1.0000   1.0000   1.0000   1.0000
     1.0000   1.0000   1.0000   1.0000   1.0000   0.0000   0.0000   0.0000
     0.0000

          k = 0.0000 0.0000 0.2667 (185078 PWs)   bands (ev):

   -21.3611 -19.9332 -17.9181 -14.9305 -13.0474 -12.7827 -11.2512 -10.9302
    -9.3786  -9.1985  -8.8328  -7.6817  -5.6277  -1.7529   0.7543   1.0247
     1.1479

     occupation numbers 
     1.0000   1.0000   1.0000   1.0000   1.0000   1.0000   1.0000   1.0000
     1.0000   1.0000   1.0000   1.0000   1.0000   0.0000   0.0000   0.0000
     0.0000

          k = 0.0000 0.0000 0.2733 (185090 PWs)   bands (ev):

   -21.2992 -19.8728 -17.8605 -14.9412 -13.1207 -12.8746 -11.2574 -11.0509
    -9.3888  -9.1269  -8.9004  -7.6130  -5.5565  -1.8185   0.6771   1.0919
     1.2152

     occupation numbers 
     1.0000   1.0000   1.0000   1.0000   1.0000   1.0000   1.0000   1.0000
     1.0000   1.0000   1.0000   1.0000   1.0000   0.0000   0.0000   0.0000
     0.0000

          k = 0.0000 0.0000 0.2800 (185138 PWs)   bands (ev):

   -21.2358 -19.8109 -17.8015 -14.9608 -13.1839 -12.9732 -11.2569 -11.1719
    -9.3987  -9.0537  -8.9694  -7.5431  -5.4839  -1.8871   0.5948   1.1604
     1.2832

     occupation numbers 
     1.0000   1.0000   1.0000   1.0000   1.0000   1.0000   1.0000   1.0000
     1.0000   1.0000   1.0000   1.0000   1.0000   0.0000   0.0000   0.0000
     0.0000

          k = 0.0000 0.0000 0.2867 (185160 PWs)   bands (ev):

   -21.1709 -19.7477 -17.7411 -14.9900 -13.2362 -13.0772 -11.2987 -11.2450
    -9.4084  -9.0398  -8.9790  -7.4721  -5.4100  -1.9586   0.5080   1.2304
     1.3518

     occupation numbers 
     1.0000   1.0000   1.0000   1.0000   1.0000   1.0000   1.0000   1.0000
     1.0000   1.0000   1.0000   1.0000   1.0000   0.0000   0.0000   0.0000
     0.0000

          k = 0.0000 0.0000 0.2933 (185156 PWs)   bands (ev):

   -21.1046 -19.6831 -17.6794 -15.0295 -13.2769 -13.1857 -11.4200 -11.2339
    -9.4181  -9.1115  -8.9028  -7.3999  -5.3348  -2.0328   0.4172   1.3017
     1.4209

     occupation numbers 
     1.0000   1.0000   1.0000   1.0000   1.0000   1.0000   1.0000   1.0000
     1.0000   1.0000   1.0000   1.0000   1.0000   0.0000   0.0000   0.0000
     0.0000

          k = 0.0000 0.0000 0.3000 (185160 PWs)   bands (ev):

   -21.0368 -19.6171 -17.6163 -15.0793 -13.3079 -13.2960 -11.5431 -11.2168
    -9.4281  -9.1844  -8.8251  -7.3266  -5.2583  -2.1096   0.3231   1.3744
     1.4904

     occupation numbers 
     1.0000   1.0000   1.0000   1.0000   1.0000   1.0000   1.0000   1.0000
     1.0000   1.0000   1.0000   1.0000   1.0000   0.0000   0.0000   0.0000
     0.0000

          k = 0.0000 0.0000 0.3067 (185152 PWs)   bands (ev):

   -20.9676 -19.5498 -17.5520 -15.1392 -13.4135 -13.3230 -11.6664 -11.1957
    -9.4384  -9.2585  -8.7460  -7.2524  -5.1807  -2.1889   0.2260   1.4486
     1.5600

     occupation numbers 
     1.0000   1.0000   1.0000   1.0000   1.0000   1.0000   1.0000   1.0000
     1.0000   1.0000   1.0000   1.0000   1.0000   0.0000   0.0000   0.0000
     0.0000

          k = 0.0000 0.0000 0.3133 (185190 PWs)   bands (ev):

   -20.8969 -19.4812 -17.4863 -15.2084 -13.5306 -13.3298 -11.7897 -11.1714
    -9.4493  -9.3337  -8.6655  -7.1773  -5.1019  -2.2704   0.1265   1.5241
     1.6298

     occupation numbers 
     1.0000   1.0000   1.0000   1.0000   1.0000   1.0000   1.0000   1.0000
     1.0000   1.0000   1.0000   1.0000   1.0000   0.0000   0.0000   0.0000
     0.0000

          k = 0.0000 0.0000 0.3200 (185186 PWs)   bands (ev):

   -20.8249 -19.4113 -17.4194 -15.2861 -13.6496 -13.3268 -11.9126 -11.1444
    -9.4607  -9.4100  -8.5837  -7.1015  -5.0222  -2.3540   0.0250   1.6011
     1.6995

     occupation numbers 
     1.0000   1.0000   1.0000   1.0000   1.0000   1.0000   1.0000   1.0000
     1.0000   1.0000   1.0000   1.0000   1.0000   0.0000   0.0000   0.0000
     0.0000

          k = 0.0000 0.0000 0.3267 (185196 PWs)   bands (ev):

   -20.7514 -19.3401 -17.3512 -15.3711 -13.7698 -13.3150 -12.0350 -11.1151
    -9.4878  -9.4722  -8.5005  -7.0249  -4.9416  -2.4395  -0.0781   1.6796
     1.7690

     occupation numbers 
     1.0000   1.0000   1.0000   1.0000   1.0000   1.0000   1.0000   1.0000
     1.0000   1.0000   1.0000   1.0000   1.0000   0.0000   0.0000   0.0000
     0.0000

          k = 0.0000 0.0000 0.3333 (185178 PWs)   bands (ev):

   -20.6765 -19.2677 -17.2817 -15.4624 -13.8909 -13.2958 -12.1566 -11.0839
    -9.5658  -9.4853  -8.4159  -6.9479  -4.8602  -2.5266  -0.1823   1.7595
     1.7943

     occupation numbers 
     1.0000   1.0000   1.0000   1.0000   1.0000   1.0000   1.0000   1.0000
     1.0000   1.0000   1.0000   1.0000   1.0000   0.0000   0.0000   0.0000
     0.0000

          k = 0.0000 0.0000 0.3400 (185210 PWs)   bands (ev):

   -20.6003 -19.1941 -17.2111 -15.5588 -14.0126 -13.2703 -12.2771 -11.0510
    -9.6449  -9.4989  -8.3302  -6.8706  -4.7782  -2.6150  -0.2874   1.6590
     1.8409

     occupation numbers 
     1.0000   1.0000   1.0000   1.0000   1.0000   1.0000   1.0000   1.0000
     1.0000   1.0000   1.0000   1.0000   1.0000   0.0000   0.0000   0.0000
     0.0000

          k = 0.0000 0.0000 0.3467 (185234 PWs)   bands (ev):

   -20.5226 -19.1193 -17.1392 -15.6594 -14.1346 -13.2401 -12.3958 -11.0167
    -9.7249  -9.5133  -8.2432  -6.7930  -4.6957  -2.7045  -0.3929   1.5230
     1.9237

     occupation numbers 
     1.0000   1.0000   1.0000   1.0000   1.0000   1.0000   1.0000   1.0000
     1.0000   1.0000   1.0000   1.0000   1.0000   0.0000   0.0000   0.0000
     0.0000

          k = 0.0000 0.0000 0.3533 (185280 PWs)   bands (ev):

   -20.4436 -19.0434 -17.0662 -15.7634 -14.2567 -13.2068 -12.5117 -10.9811
    -9.8056  -9.5285  -8.1551  -6.7155  -4.6129  -2.7948  -0.4983   1.3866
     2.0081

     occupation numbers 
     1.0000   1.0000   1.0000   1.0000   1.0000   1.0000   1.0000   1.0000
     1.0000   1.0000   1.0000   1.0000   1.0000   0.0000   0.0000   0.0000
     0.0000

          k = 0.0000 0.0000 0.3600 (185314 PWs)   bands (ev):

   -20.3633 -18.9665 -16.9921 -15.8699 -14.3786 -13.1732 -12.6228 -10.9446
    -9.8871  -9.5447  -8.0658  -6.6383  -4.5301  -2.8855  -0.6032   1.2501
     2.0938

     occupation numbers 
     1.0000   1.0000   1.0000   1.0000   1.0000   1.0000   1.0000   1.0000
     1.0000   1.0000   1.0000   1.0000   1.0000   0.0000   0.0000   0.0000
     0.0000

          k = 0.0000 0.0000 0.3667 (185316 PWs)   bands (ev):

   -20.2816 -18.8887 -16.9169 -15.9783 -14.5000 -13.1446 -12.7243 -10.9072
    -9.9691  -9.5619  -7.9755  -6.5617  -4.4476  -2.9762  -0.7071   1.1137
     2.1746

     occupation numbers 
     1.0000   1.0000   1.0000   1.0000   1.0000   1.0000   1.0000   1.0000
     1.0000   1.0000   1.0000   1.0000   1.0000   0.0000   0.0000   0.0000
     0.0000

          k = 0.0000 0.0000 0.3733 (185338 PWs)   bands (ev):

   -20.1986 -18.8099 -16.8408 -16.0880 -14.6209 -13.1330 -12.8044 -10.8691
   -10.0517  -9.5800  -7.8843  -6.4860  -4.3656  -3.0665  -0.8095   0.9774
     2.2401

     occupation numbers 
     1.0000   1.0000   1.0000   1.0000   1.0000   1.0000   1.0000   1.0000
     1.0000   1.0000   1.0000   1.0000   1.0000   0.0000   0.0000   0.0000
     0.0000

          k = 0.0000 0.0000 0.3800 (185350 PWs)   bands (ev):

   -20.1143 -18.7305 -16.7639 -16.1985 -14.7409 -13.1591 -12.8431 -10.8303
   -10.1347  -9.5992  -7.7921  -6.4117  -4.2845  -3.1559  -0.9098   0.8416
     2.3042

     occupation numbers 
     1.0000   1.0000   1.0000   1.0000   1.0000   1.0000   1.0000   1.0000
     1.0000   1.0000   1.0000   1.0000   1.0000   0.0000   0.0000   0.0000
     0.0000

          k = 0.0000 0.0000 0.3867 (185368 PWs)   bands (ev):

   -20.0287 -18.6505 -16.6864 -16.3091 -14.8598 -13.2284 -12.8349 -10.7912
   -10.2181  -9.6193  -7.6991  -6.3392  -4.2048  -3.2438  -1.0073   0.7064
     2.3675

     occupation numbers 
     1.0000   1.0000   1.0000   1.0000   1.0000   1.0000   1.0000   1.0000
     1.0000   1.0000   1.0000   1.0000   1.0000   0.0000   0.0000   0.0000
     0.0000

          k = 0.0000 0.0000 0.3933 (185388 PWs)   bands (ev):

   -19.9418 -18.5702 -16.6084 -16.4195 -14.9772 -13.3227 -12.7985 -10.7518
   -10.3017  -9.6405  -7.6054  -6.2690  -4.1271  -3.3297  -1.1013   0.5719
     2.4300

     occupation numbers 
     1.0000   1.0000   1.0000   1.0000   1.0000   1.0000   1.0000   1.0000
     1.0000   1.0000   1.0000   1.0000   1.0000   0.0000   0.0000   0.0000
     0.0000

          k = 0.0000 0.0000 0.4000 (185390 PWs)   bands (ev):

   -19.8537 -18.4899 -16.5310 -16.5282 -15.0926 -13.4276 -12.7484 -10.7125
   -10.3853  -9.6628  -7.5110  -6.2020  -4.0520  -3.4127  -1.1910   0.4382
     2.4917

     occupation numbers 
     1.0000   1.0000   1.0000   1.0000   1.0000   1.0000   1.0000   1.0000
     1.0000   1.0000   1.0000   1.0000   1.0000   0.0000   0.0000   0.0000
     0.0000

          k = 0.0000 0.0000 0.4067 (185406 PWs)   bands (ev):

   -19.7644 -18.4100 -16.6369 -16.4529 -15.2055 -13.5368 -12.6910 -10.6739
   -10.4681  -9.6861  -7.4161  -6.1388  -3.9804  -3.4922  -1.2752   0.3056
     2.5527

     occupation numbers 
     1.0000   1.0000   1.0000   1.0000   1.0000   1.0000   1.0000   1.0000
     1.0000   1.0000   1.0000   1.0000   1.0000   0.0000   0.0000   0.0000
     0.0000

          k = 0.0000 0.0000 0.4133 (185430 PWs)   bands (ev):

   -19.6739 -18.3313 -16.7424 -16.3771 -15.3146 -13.6479 -12.6290 -10.6406
   -10.5456  -9.7104  -7.3209  -6.0803  -3.9131  -3.5671  -1.3530   0.1743
     2.6132

     occupation numbers 
     1.0000   1.0000   1.0000   1.0000   1.0000   1.0000   1.0000   1.0000
     1.0000   1.0000   1.0000   1.0000   1.0000   0.0000   0.0000   0.0000
     0.0000

          k = 0.0000 0.0000 0.4200 (185454 PWs)   bands (ev):

   -19.5823 -18.2548 -16.8445 -16.3047 -15.4181 -13.7595 -12.5637 -10.6577
   -10.5729  -9.7358  -7.2253  -6.0277  -3.8512  -3.6364  -1.4231   0.0443
     2.6734

     occupation numbers 
     1.0000   1.0000   1.0000   1.0000   1.0000   1.0000   1.0000   1.0000
     1.0000   1.0000   1.0000   1.0000   1.0000   0.0000   0.0000   0.0000
     0.0000

          k = 0.0000 0.0000 0.4267 (185408 PWs)   bands (ev):

   -19.4897 -18.1818 -16.9414 -16.2392 -15.5124 -13.8712 -12.4958 -10.7337
   -10.5412  -9.7622  -7.1298  -5.9820  -3.7958  -3.6990  -1.4840  -0.0841
     2.7332

     occupation numbers 
     1.0000   1.0000   1.0000   1.0000   1.0000   1.0000   1.0000   1.0000
     1.0000   1.0000   1.0000   1.0000   0.9617   0.0006   0.0000   0.0000
     0.0000

          k = 0.0000 0.0000 0.4333 (185356 PWs)   bands (ev):

   -19.3959 -18.1148 -17.0307 -16.1872 -15.5910 -13.9824 -12.4259 -10.8167
   -10.5027  -9.7896  -7.0343  -5.9445  -3.7546  -3.7475  -1.5343  -0.2106
     2.7931

     occupation numbers 
     1.0000   1.0000   1.0000   1.0000   1.0000   1.0000   1.0000   1.0000
     1.0000   1.0000   1.0000   1.0000   0.3544   0.2288   0.0000   0.0000
     0.0000

          k = 0.0000 0.0000 0.4400 (185436 PWs)   bands (ev):

   -19.3012 -18.0576 -17.1087 -16.1601 -15.6421 -14.0930 -12.3541 -10.9009
   -10.4631  -9.8180  -6.9392  -5.9164  -3.7997  -3.7095  -1.5726  -0.3351
     2.8530

     occupation numbers 
     1.0000   1.0000   1.0000   1.0000   1.0000   1.0000   1.0000   1.0000
     1.0000   1.0000   1.0000   1.0000   0.9757   0.0033   0.0000   0.0000
     0.0000

          k = 0.0000 0.0000 0.4467 (185448 PWs)   bands (ev):

   -19.2056 -18.0153 -17.1700 -16.1701 -15.6537 -14.2029 -12.2808 -10.9853
   -10.4232  -9.8475  -6.8447  -5.8989  -3.8355  -3.6809  -1.5976  -0.4572
     2.9131

     occupation numbers 
     1.0000   1.0000   1.0000   1.0000   1.0000   1.0000   1.0000   1.0000
     1.0000   1.0000   1.0000   1.0000   0.9999   0.0000   0.0000   0.0000
     0.0000

          k = 0.0000 0.0000 0.4533 (185470 PWs)   bands (ev):

   -19.1092 -17.9946 -17.2079 -16.2173 -15.6254 -14.3118 -12.2062 -11.0699
   -10.3834  -9.8778  -6.7512  -5.8927  -3.8607  -3.6628  -1.6084  -0.5767
     2.9737

     occupation numbers 
     1.0000   1.0000   1.0000   1.0000   1.0000   1.0000   1.0000   1.0000
     1.0000   1.0000   1.0000   1.0000   1.0000   0.0000   0.0000   0.0000
     0.0000

          k = 0.0000 0.0000 0.4600 (185478 PWs)   bands (ev):

   -19.0121 -18.0007 -17.2172 -16.2898 -15.5692 -14.4196 -12.1302 -11.1543
   -10.3438  -9.9091  -6.6589  -5.8984  -3.8750  -3.6555  -1.6044  -0.6931
     3.0348

     occupation numbers 
     1.0000   1.0000   1.0000   1.0000   1.0000   1.0000   1.0000   1.0000
     1.0000   1.0000   1.0000   1.0000   1.0000   0.0000   0.0000   0.0000
     0.0000

          k = 0.0000 0.0000 0.4667 (185442 PWs)   bands (ev):

   -18.9145 -18.0340 -17.1973 -16.3756 -15.4968 -14.5264 -12.0531 -11.2385
   -10.3045  -9.9413  -6.5684  -5.9161  -3.8786  -3.6585  -1.5856  -0.8061
     3.0966

     occupation numbers 
     1.0000   1.0000   1.0000   1.0000   1.0000   1.0000   1.0000   1.0000
     1.0000   1.0000   1.0000   1.0000   1.0000   0.0000   0.0000   0.0000
     0.0000

          k = 0.0000 0.0000 0.4733 (185458 PWs)   bands (ev):

   -18.8166 -18.0899 -17.1532 -16.4679 -15.4149 -14.6318 -11.9751 -11.3224
   -10.2655  -9.9743  -6.4800  -5.9455  -3.8722  -3.6708  -1.5527  -0.9152
     3.1591

     occupation numbers 
     1.0000   1.0000   1.0000   1.0000   1.0000   1.0000   1.0000   1.0000
     1.0000   1.0000   1.0000   1.0000   1.0000   0.0000   0.0000   0.0000
     0.0000

          k = 0.0000 0.0000 0.4800 (185468 PWs)   bands (ev):

   -18.7186 -18.1617 -17.0913 -16.5627 -15.3272 -14.7358 -11.8961 -11.4059
   -10.2271 -10.0082  -6.3946  -5.9856  -3.8573  -3.6907  -1.5066  -1.0196
     3.2225

     occupation numbers 
     1.0000   1.0000   1.0000   1.0000   1.0000   1.0000   1.0000   1.0000
     1.0000   1.0000   1.0000   1.0000   1.0000   0.0001   0.0000   0.0000
     0.0000

          k = 0.0000 0.0000 0.4867 (185446 PWs)   bands (ev):

   -18.6211 -18.2438 -17.0173 -16.6578 -15.2356 -14.8381 -11.8162 -11.4889
   -10.1892 -10.0428  -6.3127  -6.0355  -3.8353  -3.7164  -1.4487  -1.1186
     3.2865

     occupation numbers 
     1.0000   1.0000   1.0000   1.0000   1.0000   1.0000   1.0000   1.0000
     1.0000   1.0000   1.0000   1.0000   0.9999   0.0092   0.0000   0.0000
     0.0000

          k = 0.0000 0.0000 0.4933 (185486 PWs)   bands (ev):

   -18.5250 -18.3319 -16.9358 -16.7512 -15.1423 -14.9377 -11.7358 -11.5712
   -10.1520 -10.0780  -6.2358  -6.0934  -3.8086  -3.7455  -1.3810  -1.2108
     3.3512

     occupation numbers 
     1.0000   1.0000   1.0000   1.0000   1.0000   1.0000   1.0000   1.0000
     1.0000   1.0000   1.0000   1.0000   0.9925   0.1991   0.0000   0.0000
     0.0000

          k = 0.0000 0.0000-0.5000 (185496 PWs)   bands (ev):

   -18.4471 -18.4072 -16.8652 -16.8255 -15.0683 -15.0137 -11.6639 -11.6438
   -10.1205 -10.1088  -6.1772  -6.1458  -3.7851  -3.7698  -1.3211  -1.2787
     3.4098

     occupation numbers 
     1.0000   1.0000   1.0000   1.0000   1.0000   1.0000   1.0000   1.0000
     1.0000   1.0000   1.0000   1.0000   0.8871   0.6622   0.0000   0.0000
     0.0000

     the Fermi energy is    -3.7617 ev
     (compare with:    -3.7775 eV, computed in scf)

     Writing all to output data dir ../tmp/ZGNR.save/ :
     XML data file, pseudopotentials, collected wavefunctions
 
     init_run     :      5.55s CPU      5.93s WALL (       1 calls)
     electrons    :    525.79s CPU    533.13s WALL (       1 calls)

     Called by init_run:
     wfcinit      :      0.00s CPU      0.00s WALL (       1 calls)
     wfcinit:wfcr :     18.35s CPU     18.58s WALL (      76 calls)
     potinit      :      0.87s CPU      1.02s WALL (       1 calls)
     hinit0       :      0.18s CPU      0.23s WALL (       1 calls)

     Called by electrons:
     c_bands      :    525.79s CPU    533.12s WALL (       1 calls)
     v_of_rho     :      0.65s CPU      0.75s WALL (       1 calls)
     v_h          :      0.08s CPU      0.09s WALL (       1 calls)
     v_xc         :      0.58s CPU      0.66s WALL (       1 calls)
     newd         :      0.43s CPU      0.52s WALL (       1 calls)
     PAW_pot      :      0.02s CPU      0.02s WALL (       1 calls)

     Called by c_bands:
     init_us_2    :      0.81s CPU      0.83s WALL (      76 calls)
     cegterg      :    503.60s CPU    509.13s WALL (     232 calls)

     Called by sum_band:

     Called by *egterg:
     cdiaghg      :      6.74s CPU      6.80s WALL (    3985 calls)
     cegterg:over :     32.28s CPU     32.50s WALL (    3909 calls)
     cegterg:upda :     31.75s CPU     31.97s WALL (    3909 calls)
     cegterg:last :      6.68s CPU      6.73s WALL (     378 calls)
     h_psi        :    420.49s CPU    425.48s WALL (    4217 calls)
     s_psi        :     16.08s CPU     16.21s WALL (    4217 calls)
     g_psi        :      1.25s CPU      1.27s WALL (    3909 calls)

     Called by h_psi:
     h_psi:calbec :     14.40s CPU     14.52s WALL (    4217 calls)
     vloc_psi     :    385.99s CPU    390.69s WALL (    4217 calls)
     add_vuspsi   :     16.79s CPU     16.91s WALL (    4217 calls)

     General routines
     calbec       :     14.37s CPU     14.49s WALL (    4217 calls)
     fft          :      0.58s CPU      0.67s WALL (      13 calls)
     ffts         :      0.01s CPU      0.01s WALL (       1 calls)
     fftw         :    183.79s CPU    185.79s WALL (   61576 calls)
     interpolate  :      0.05s CPU      0.06s WALL (       1 calls)
     davcio       :      0.01s CPU      1.42s WALL (     152 calls)
 
     Parallel routines

     PAW routines
     PAW_pot      :      0.02s CPU      0.02s WALL (       1 calls)
 
     PWSCF        :   8m54.15s CPU   9m46.90s WALL

 
   This run was terminated on:  19:37: 1   5Jan2026            

=------------------------------------------------------------------------------=
   JOB DONE.
=------------------------------------------------------------------------------=
